<?xml version="1.0"?>
<VTKFile type="UnstructuredGrid" version="0.1" byte_order="LittleEndian">
<UnstructuredGrid>
<Piece NumberOfPoints="30794" NumberOfCells="10773">
<Points>
<DataArray type="Float64" NumberOfComponents="3" format="ascii">
-0.49100099684116849 -0.49999999999999628 0 -0.49304374346644331 -0.47553347608821778 0 -0.47309548174009652 -0.48263462867703782 0 -0.49100099684116849 -0.49999999999999628 0 -0.5 -0.5 0 -0.49304374346644331 -0.47553347608821778 0 -0.49100099684116849 -0.49999999999999628 0 -0.49304374346644331 -0.47553347608821778 0 -0.5 -0.5 0 -0.49304374346644331 -0.47553347608821778 0 -0.5 -0.4541745895704109 0 -0.49304374346644331 -0.47553347608821778 0 -0.47309548174009652 -0.48263462867703782 0 -0.46866577183635438 -0.46192865890594947 0 -0.49100099684116849 -0.49999999999999628 0 -0.47309548174009652 -0.48263462867703782 0 -0.46097923674388702 -0.5 0 -0.47309548174009652 -0.48263462867703782 0 -0.46097923674388702 -0.5 0 -0.44224505358098909 -0.47279036563545929 0 -0.47309548174009652 -0.48263462867703782 0 -0.44224505358098909 -0.47279036563545929 0 -0.46866577183635438 -0.46192865890594947 0 -0.46097923674388702 -0.5 0 -0.44224505358098909 -0.47279036563545929 0 -0.43095747664660539 -0.5 0 -0.44766829542017589 -0.45244946255784768 0 -0.45905064801857159 -0.43310858360570842 0 -0.43194032264130772 -0.43663587307625978 0 -0.44224505358098909 -0.47279036563545929 0 -0.44766829542017589 -0.45244946255784768 0 -0.42598668410023283 -0.46103599845786902 0 -0.44224505358098909 -0.47279036563545929 0 -0.44766829542017589 -0.45244946255784768 0 -0.46866577183635438 -0.46192865890594947 0 -0.44224505358098909 -0.47279036563545929 0 -0.46866577183635438 -0.46192865890594947 0 -0.44766829542017589 -0.45244946255784768 0 -0.46866577183635438 -0.46192865890594947 0 -0.45905064801857159 -0.43310858360570842 0 -0.46866577183635438 -0.46192865890594947 0 -0.49508649009171951 -0.45106695217643938 0 -0.48058047793797809 -0.43504065816177923 0 -0.46866577183635438 -0.46192865890594947 0 -0.48058047793797809 -0.43504065816177923 0 -0.45905064801857159 -0.43310858360570842 0 -0.46866577183635438 -0.46192865890594947 0 -0.49508649009171951 -0.45106695217643938 0 -0.49304374346644331 -0.47553347608821778 0 -0.49508649009171951 -0.45106695217643938 0 -0.49304374346644331 -0.47553347608821778 0 -0.46866577183635438 -0.46192865890594947 0 -0.49508649009171951 -0.45106695217643938 0 -0.49304374346644331 -0.47553347608821778 0 -0.5 -0.4541745895704109 0 -0.49508649009171951 -0.45106695217643938 0 -0.49508649009171951 -0.45106695217643938 0 -0.5 -0.44936997659457739 0 -0.49754324504585951 -0.42164173953031647 0 -0.49508649009171951 -0.45106695217643938 0 -0.5 -0.44936997659457739 0 -0.5 -0.4541745895704109 0 -0.49508649009171951 -0.45106695217643938 0 -0.5 -0.44936997659457739 0 -0.49508649009171951 -0.45106695217643938 0 -0.49754324504585951 -0.42164173953031647 0 -0.48058047793797809 -0.43504065816177923 0 -0.49508649009171951 -0.45106695217643938 0 -0.49754324504585951 -0.42164173953031647 0 -0.5 -0.44936997659457739 0 -0.49754324504585951 -0.42164173953031647 0 -0.50000000000000022 -0.39221652688419351 0 -0.49754324504585951 -0.42164173953031647 0 -0.50000000000000022 -0.39221652688419351 0 -0.49754324504585951 -0.42164173953031647 0 -0.48058047793797809 -0.43504065816177923 0 -0.47520206432054157 -0.40606081929938792 0 -0.49754324504585951 -0.42164173953031647 0 -0.50000000000000022 -0.39221652688419351 0 -0.47520206432054157 -0.40606081929938792 0 -0.48058047793797809 -0.43504065816177923 0 -0.47520206432054157 -0.40606081929938792 0 -0.45905064801857159 -0.43310858360570842 0 -0.50000000000000022 -0.39221652688419351 0 -0.4831840771892707 -0.37757640421031241 0 -0.5 -0.36293628153643198 0 -0.50000000000000022 -0.39221652688419351 0 -0.47520206432054157 -0.40606081929938792 0 -0.4831840771892707 -0.37757640421031241 0 -0.47520206432054157 -0.40606081929938792 0 -0.4831840771892707 -0.37757640421031241 0 -0.46105773080952828 -0.38032108046924451 0 -0.45317788301855128 -0.39938784713659847 0 -0.43962411748326907 -0.41494191516303042 0 -0.42019758694796672 -0.39677524672035241 0 -0.47520206432054157 -0.40606081929938792 0 -0.46105773080952828 -0.38032108046924451 0 -0.45317788301855128 -0.39938784713659847 0 -0.46105773080952828 -0.38032108046924451 0 -0.45317788301855128 -0.39938784713659847 0 -0.43716508925243031 -0.37994966696465332 0 -0.47520206432054157 -0.40606081929938792 0 -0.45317788301855128 -0.39938784713659847 0 -0.45905064801857159 -0.43310858360570842 0 -0.45317788301855128 -0.39938784713659847 0 -0.45905064801857159 -0.43310858360570842 0 -0.43962411748326907 -0.41494191516303042 0 -0.45905064801857159 -0.43310858360570842 0 -0.43962411748326907 -0.41494191516303042 0 -0.45905064801857159 -0.43310858360570842 0 -0.43962411748326907 -0.41494191516303042 0 -0.43194032264130772 -0.43663587307625978 0 -0.43962411748326907 -0.41494191516303042 0 -0.43194032264130772 -0.43663587307625978 0 -0.42161396098976189 -0.41780307098103592 0 -0.43962411748326907 -0.41494191516303042 0 -0.42161396098976189 -0.41780307098103592 0 -0.42019758694796672 -0.39677524672035241 0 -0.40629816863872131 -0.41050362986202749 0 -0.42161396098976189 -0.41780307098103592 0 -0.42019758694796672 -0.39677524672035241 0 -0.40629816863872131 -0.41050362986202749 0 -0.42161396098976189 -0.41780307098103592 0 -0.41000960923754448 -0.43015869008350938 0 -0.43194032264130772 -0.43663587307625978 0 -0.42161396098976189 -0.41780307098103592 0 -0.41000960923754448 -0.43015869008350938 0 -0.45317788301855128 -0.39938784713659847 0 -0.43716508925243031 -0.37994966696465332 0 -0.42019758694796672 -0.39677524672035241 0 -0.43716508925243031 -0.37994966696465332 0 -0.42019758694796672 -0.39677524672035241 0 -0.40077105641266442 -0.37860857827767441 0 -0.43962411748326907 -0.41494191516303042 0 -0.42019758694796672 -0.39677524672035241 0 -0.40629816863872131 -0.41050362986202749 0 -0.42019758694796672 -0.39677524672035241 0 -0.40061123365991569 -0.39472964507112368 0 -0.42019758694796672 -0.39677524672035241 0 -0.40077105641266442 -0.37860857827767441 0 -0.42019758694796672 -0.39677524672035241 0 -0.40077105641266442 -0.37860857827767441 0 -0.40061123365991569 -0.39472964507112368 0 -0.40077105641266442 -0.37860857827767441 0 -0.40061123365991569 -0.39472964507112368 0 -0.38762690267710592 -0.38452062284890071 0 -0.40061123365991569 -0.39472964507112368 0 -0.38816245362312018 -0.40324014764666383 0 -0.38762690267710592 -0.38452062284890071 0 -0.40629816863872131 -0.41050362986202749 0 -0.40061123365991569 -0.39472964507112368 0 -0.38816245362312018 -0.40324014764666383 0 -0.38816245362312018 -0.40324014764666383 0 -0.38762690267710592 -0.38452062284890071 0 -0.3746840518779867 -0.3908612585920983 0 -0.38816245362312018 -0.40324014764666383 0 -0.37499037753076658 -0.40948529014498602 0 -0.3746840518779867 -0.3908612585920983 0 -0.38816245362312018 -0.40324014764666383 0 -0.3746840518779867 -0.3908612585920983 0 -0.38762690267710592 -0.38452062284890071 0 -0.37636850370020941 -0.37698452578058428 0 -0.3746840518779867 -0.3908612585920983 0 -0.41000960923754448 -0.43015869008350938 0 -0.39243713641313921 -0.4188364691099149 0 -0.39453840959530551 -0.43795269674057441 0 -0.40629816863872131 -0.41050362986202749 0 -0.38816245362312018 -0.40324014764666383 0 -0.39243713641313921 -0.4188364691099149 0 -0.40629816863872131 -0.41050362986202749 0 -0.41000960923754448 -0.43015869008350938 0 -0.39243713641313921 -0.4188364691099149 0 -0.39243713641313921 -0.4188364691099149 0 -0.37874804885936281 -0.42634345499337878 0 -0.37499037753076658 -0.40948529014498602 0 -0.38816245362312018 -0.40324014764666383 0 -0.39243713641313921 -0.4188364691099149 0 -0.37499037753076658 -0.40948529014498602 0 -0.39243713641313921 -0.4188364691099149 0 -0.37874804885936281 -0.42634345499337878 0 -0.39453840959530551 -0.43795269674057441 0 -0.37874804885936281 -0.42634345499337878 0 -0.37813548716060158 -0.44490583937211348 0 -0.39453840959530551 -0.43795269674057441 0 -0.37813548716060158 -0.44490583937211348 0 -0.39453840959530551 -0.43795269674057441 0 -0.39597874228520591 -0.45882544372946998 0 -0.39453840959530551 -0.43795269674057441 0 -0.39597874228520591 -0.45882544372946998 0 -0.41159578240174072 -0.44945619544874887 0 -0.41000960923754448 -0.43015869008350938 0 -0.39453840959530551 -0.43795269674057441 0 -0.41159578240174072 -0.44945619544874887 0 -0.39597874228520591 -0.45882544372946998 0 -0.39606587022349138 -0.47725990370668142 0 -0.40839200639991641 -0.46752766529079948 0 -0.39597874228520591 -0.45882544372946998 0 -0.41159578240174072 -0.44945619544874887 0 -0.40839200639991641 -0.46752766529079948 0 -0.37813548716060158 -0.44490583937211348 0 -0.39597874228520591 -0.45882544372946998 0 -0.37499309371178491 -0.46456285094731042 0 -0.39597874228520591 -0.45882544372946998 0 -0.39606587022349138 -0.47725990370668142 0 -0.37499309371178491 -0.46456285094731042 0 -0.3790062045255656 -0.48398528019432357 0 -0.39606587022349138 -0.47725990370668142 0 -0.37499309371178491 -0.46456285094731042 0 -0.3790062045255656 -0.48398528019432357 0 -0.40093571654932397 -0.5 0 -0.37091395645204273 -0.5 0 -0.40093571654932397 -0.5 0 -0.39606587022349138 -0.47725990370668142 0 -0.41582433532562391 -0.48365207236496899 0 -0.3790062045255656 -0.48398528019432357 0 -0.40093571654932397 -0.5 0 -0.39606587022349138 -0.47725990370668142 0 -0.39606587022349138 -0.47725990370668142 0 -0.41582433532562391 -0.48365207236496899 0 -0.40839200639991641 -0.46752766529079948 0 -0.41582433532562391 -0.48365207236496899 0 -0.42598668410023283 -0.46103599845786902 0 -0.40839200639991641 -0.46752766529079948 0 -0.40093571654932397 -0.5 0 -0.41582433532562391 -0.48365207236496899 0 -0.43095747664660539 -0.5 0 -0.44224505358098909 -0.47279036563545929 0 -0.41582433532562391 -0.48365207236496899 0 -0.43095747664660539 -0.5 0 -0.44224505358098909 -0.47279036563545929 0 -0.41582433532562391 -0.48365207236496899 0 -0.44224505358098909 -0.47279036563545929 0 -0.41582433532562391 -0.48365207236496899 0 -0.42598668410023283 -0.46103599845786902 0 -0.44766829542017589 -0.45244946255784768 0 -0.43194032264130772 -0.43663587307625978 0 -0.42598668410023283 -0.46103599845786902 0 -0.43194032264130772 -0.43663587307625978 0 -0.42598668410023283 -0.46103599845786902 0 -0.41159578240174072 -0.44945619544874887 0 -0.43194032264130772 -0.43663587307625978 0 -0.41000960923754448 -0.43015869008350938 0 -0.41159578240174072 -0.44945619544874887 0 -0.42598668410023283 -0.46103599845786902 0 -0.41159578240174072 -0.44945619544874887 0 -0.40839200639991641 -0.46752766529079948 0 -0.45521544069553432 -0.25665465505564039 0 -0.43250864864119781 -0.26935625532081442 0 -0.438967534288141 -0.24366452024067961 0 -0.4538583104005709 -0.28190302613993717 0 -0.42959514657667952 -0.28030775462034507 0 -0.45407366267250832 -0.2778965618410506 0 -0.42959514657667952 -0.28030775462034507 0 -0.43250864864119781 -0.26935625532081442 0 -0.45407366267250832 -0.2778965618410506 0 -0.45521544069553432 -0.25665465505564039 0 -0.43250864864119781 -0.26935625532081442 0 -0.45407366267250832 -0.2778965618410506 0 -0.4538583104005709 -0.28190302613993717 0 -0.42959514657667952 -0.28030775462034507 0 -0.45407366267250832 -0.2778965618410506 0 -0.43250864864119781 -0.26935625532081442 0 -0.45407366267250832 -0.2778965618410506 0 -0.45521544069553432 -0.25665465505564039 0 -0.45407366267250832 -0.2778965618410506 0 -0.45521544069553432 -0.25665465505564039 0 -0.46974004294212213 -0.26587296437752173 0 -0.45407366267250832 -0.2778965618410506 0 -0.46835241522642013 -0.27598463497704379 0 -0.46974004294212213 -0.26587296437752173 0 -0.45407366267250832 -0.2778965618410506 0 -0.46624714022305941 -0.28271757561585781 0 -0.45407366267250832 -0.2778965618410506 0 -0.46624714022305941 -0.28271757561585781 0 -0.4538583104005709 -0.28190302613993717 0 -0.45407366267250832 -0.2778965618410506 0 -0.4538583104005709 -0.28190302613993717 0 -0.45407366267250832 -0.2778965618410506 0 -0.46835241522642013 -0.27598463497704379 0 -0.46624714022305941 -0.28271757561585781 0 -0.46835241522642013 -0.27598463497704379 0 -0.47099738821544279 -0.28302989825392111 0 -0.46624714022305941 -0.28271757561585781 0 -0.45521544069553432 -0.25665465505564039 0 -0.46974004294212213 -0.26587296437752173 0 -0.47116200359454641 -0.24628126177479731 0 -0.48433737659707737 -0.25778142917194902 0 -0.46974004294212213 -0.26587296437752173 0 -0.47116200359454641 -0.24628126177479731 0 -0.48433737659707737 -0.25778142917194902 0 -0.5 -0.27509554549314758 0 -0.5 -0.24581530014538619 0 -0.5 -0.27509554549314758 0 -0.4840433919210182 -0.27374312421727209 0 -0.48402211660756711 -0.28975692863891811 0 -0.48433737659707737 -0.25778142917194902 0 -0.5 -0.27509554549314758 0 -0.4840433919210182 -0.27374312421727209 0 -0.48433737659707737 -0.25778142917194902 0 -0.4840433919210182 -0.27374312421727209 0 -0.46974004294212213 -0.26587296437752173 0 -0.4840433919210182 -0.27374312421727209 0 -0.47642757439090122 -0.27743079251691638 0 -0.48402211660756711 -0.28975692863891811 0 -0.4840433919210182 -0.27374312421727209 0 -0.46974004294212213 -0.26587296437752173 0 -0.47642757439090122 -0.27743079251691638 0 -0.46835241522642013 -0.27598463497704379 0 -0.46974004294212213 -0.26587296437752173 0 -0.47642757439090122 -0.27743079251691638 0 -0.46835241522642013 -0.27598463497704379 0 -0.47642757439090122 -0.27743079251691638 0 -0.47099738821544279 -0.28302989825392111 0 -0.48402211660756711 -0.28975692863891811 0 -0.46624714022305941 -0.28271757561585781 0 -0.47447676889325879 -0.29398799465765219 0 -0.46728059942950712 -0.30016878811262582 0 -0.46624714022305941 -0.28271757561585781 0 -0.47099738821544279 -0.28302989825392111 0 -0.48402211660756711 -0.28975692863891811 0 -0.46624714022305941 -0.28271757561585781 0 -0.47447676889325879 -0.29398799465765219 0 -0.48402211660756711 -0.28975692863891811 0 -0.46624714022305941 -0.28271757561585781 0 -0.47642757439090122 -0.27743079251691638 0 -0.47099738821544279 -0.28302989825392111 0 -0.48402211660756711 -0.28975692863891811 0 -0.5 -0.27509554549314758 0 -0.48402211660756711 -0.28975692863891811 0 -0.5 -0.30437579084090921 0 -0.48402211660756711 -0.28975692863891811 0 -0.5 -0.30437579084090921 0 -0.4826269799629217 -0.30732068830131681 0 -0.47447676889325879 -0.29398799465765219 0 -0.48402211660756711 -0.28975692863891811 0 -0.4826269799629217 -0.30732068830131681 0 -0.4826269799629217 -0.30732068830131681 0 -0.46728059942950712 -0.30016878811262582 0 -0.47140099525345958 -0.32448609264294342 0 -0.47447676889325879 -0.29398799465765219 0 -0.4826269799629217 -0.30732068830131681 0 -0.46728059942950712 -0.30016878811262582 0 -0.46728059942950712 -0.30016878811262582 0 -0.45227149666158323 -0.31142448201805678 0 -0.47140099525345958 -0.32448609264294342 0 -0.46728059942950712 -0.30016878811262582 0 -0.4538583104005709 -0.28190302613993717 0 -0.45227149666158323 -0.31142448201805678 0 -0.46728059942950712 -0.30016878811262582 0 -0.46624714022305941 -0.28271757561585781 0 -0.4538583104005709 -0.28190302613993717 0 -0.47099738821544279 -0.28302989825392111 0 -0.46624714022305941 -0.28271757561585781 0 -0.46624714022305941 -0.28271757561585781 0 -0.4538583104005709 -0.28190302613993717 0 -0.4538583104005709 -0.28190302613993717 0 -0.44045653409696711 -0.28755561737671798 0 -0.42959514657667952 -0.28030775462034507 0 -0.4538583104005709 -0.28190302613993717 0 -0.45227149666158323 -0.31142448201805678 0 -0.4538583104005709 -0.28190302613993717 0 -0.44045653409696711 -0.28755561737671798 0 -0.44305358656729232 -0.29765873101482321 0 -0.44045653409696711 -0.28755561737671798 0 -0.44305358656729232 -0.29765873101482321 0 -0.43383125565435238 -0.2889959462450899 0 -0.4538583104005709 -0.28190302613993717 0 -0.44305358656729232 -0.29765873101482321 0 -0.45227149666158323 -0.31142448201805678 0 -0.44305358656729232 -0.29765873101482321 0 -0.45227149666158323 -0.31142448201805678 0 -0.43747202707068777 -0.30881323726387111 0 -0.45227149666158323 -0.31142448201805678 0 -0.45068468292259561 -0.34094593789617622 0 -0.43349902203706869 -0.32524975793603328 0 -0.45227149666158323 -0.31142448201805678 0 -0.43349902203706869 -0.32524975793603328 0 -0.43747202707068777 -0.30881323726387111 0 -0.45227149666158323 -0.31142448201805678 0 -0.45068468292259561 -0.34094593789617622 0 -0.45068468292259561 -0.34094593789617622 0 -0.47140099525345958 -0.32448609264294342 0 -0.47388461665181703 -0.35521018828857109 0 -0.45227149666158323 -0.31142448201805678 0 -0.45068468292259561 -0.34094593789617622 0 -0.47140099525345958 -0.32448609264294342 0 -0.4826269799629217 -0.30732068830131681 0 -0.47140099525345958 -0.32448609264294342 0 -0.5 -0.33365603618867062 0 -0.5 -0.30437579084090921 0 -0.4826269799629217 -0.30732068830131681 0 -0.5 -0.33365603618867062 0 -0.47140099525345958 -0.32448609264294342 0 -0.5 -0.33365603618867062 0 -0.47388461665181703 -0.35521018828857109 0 -0.5 -0.33365603618867062 0 -0.47388461665181703 -0.35521018828857109 0 -0.5 -0.36293628153643198 0 -0.4831840771892707 -0.37757640421031241 0 -0.47388461665181703 -0.35521018828857109 0 -0.5 -0.36293628153643198 0 -0.4831840771892707 -0.37757640421031241 0 -0.46105773080952828 -0.38032108046924451 0 -0.47388461665181703 -0.35521018828857109 0 -0.46105773080952828 -0.38032108046924451 0 -0.47388461665181703 -0.35521018828857109 0 -0.4470264532326097 -0.36121573819733488 0 -0.45068468292259561 -0.34094593789617622 0 -0.47388461665181703 -0.35521018828857109 0 -0.4470264532326097 -0.36121573819733488 0 -0.45068468292259561 -0.34094593789617622 0 -0.4470264532326097 -0.36121573819733488 0 -0.42677830287610552 -0.3444755328312068 0 -0.46105773080952828 -0.38032108046924451 0 -0.43716508925243031 -0.37994966696465332 0 -0.4470264532326097 -0.36121573819733488 0 -0.43716508925243031 -0.37994966696465332 0 -0.40077105641266442 -0.37860857827767441 0 -0.41832393413564228 -0.3619566049709585 0 -0.43716508925243031 -0.37994966696465332 0 -0.4470264532326097 -0.36121573819733488 0 -0.41832393413564228 -0.3619566049709585 0 -0.4470264532326097 -0.36121573819733488 0 -0.42677830287610552 -0.3444755328312068 0 -0.41832393413564228 -0.3619566049709585 0 -0.42677830287610552 -0.3444755328312068 0 -0.41832393413564228 -0.3619566049709585 0 -0.39749341693535961 -0.34597568927391192 0 -0.40077105641266442 -0.37860857827767441 0 -0.39860294271993751 -0.36208448768445811 0 -0.3813445258773619 -0.36044190983499652 0 -0.40077105641266442 -0.37860857827767441 0 -0.41832393413564228 -0.3619566049709585 0 -0.39860294271993751 -0.36208448768445811 0 -0.40077105641266442 -0.37860857827767441 0 -0.3813445258773619 -0.36044190983499652 0 -0.40077105641266442 -0.37860857827767441 0 -0.38762690267710592 -0.38452062284890071 0 -0.3813445258773619 -0.36044190983499652 0 -0.38762690267710592 -0.38452062284890071 0 -0.37636850370020941 -0.37698452578058428 0 -0.3813445258773619 -0.36044190983499652 0 -0.3813445258773619 -0.36044190983499652 0 -0.39749341693535961 -0.34597568927391192 0 -0.3813445258773619 -0.36044190983499652 0 -0.38236599579890251 -0.34409005599756642 0 -0.37629226159162732 -0.3523892140201873 0 -0.3813445258773619 -0.36044190983499652 0 -0.38236599579890251 -0.34409005599756642 0 -0.39749341693535961 -0.34597568927391192 0 -0.38236599579890251 -0.34409005599756642 0 -0.37629226159162732 -0.3523892140201873 0 -0.37010452733382032 -0.35028378990642811 0 -0.3813445258773619 -0.36044190983499652 0 -0.37629226159162732 -0.3523892140201873 0 -0.37171349540814652 -0.35840014450319341 0 -0.41832393413564228 -0.3619566049709585 0 -0.39860294271993751 -0.36208448768445811 0 -0.39749341693535961 -0.34597568927391192 0 -0.39860294271993751 -0.36208448768445811 0 -0.3813445258773619 -0.36044190983499652 0 -0.39749341693535961 -0.34597568927391192 0 -0.39749341693535961 -0.34597568927391192 0 -0.39216594583765962 -0.33245300376001308 0 -0.41364230799335672 -0.33150946871282672 0 -0.39749341693535961 -0.34597568927391192 0 -0.41364230799335672 -0.33150946871282672 0 -0.38236599579890251 -0.34409005599756642 0 -0.39749341693535961 -0.34597568927391192 0 -0.39216594583765962 -0.33245300376001308 0 -0.38236599579890251 -0.34409005599756642 0 -0.381336818944772 -0.32833544187083891 0 -0.36313278533058729 -0.33772708191834722 0 -0.38236599579890251 -0.34409005599756642 0 -0.39216594583765962 -0.33245300376001308 0 -0.381336818944772 -0.32833544187083891 0 -0.39489251657864888 -0.31710262265624761 0 -0.3747533522382186 -0.31063864122917839 0 -0.381336818944772 -0.32833544187083891 0 -0.39489251657864888 -0.31710262265624761 0 -0.3747533522382186 -0.31063864122917839 0 -0.39216594583765962 -0.33245300376001308 0 -0.381336818944772 -0.32833544187083891 0 -0.39489251657864888 -0.31710262265624761 0 -0.39216594583765962 -0.33245300376001308 0 -0.39489251657864888 -0.31710262265624761 0 -0.41364230799335672 -0.33150946871282672 0 -0.4153215679065676 -0.31747692375519287 0 -0.41364230799335672 -0.33150946871282672 0 -0.43349902203706869 -0.32524975793603328 0 -0.39489251657864888 -0.31710262265624761 0 -0.4153215679065676 -0.31747692375519287 0 -0.40938775333634908 -0.30459025648910393 0 -0.39489251657864888 -0.31710262265624761 0 -0.4153215679065676 -0.31747692375519287 0 -0.41364230799335672 -0.33150946871282672 0 -0.42677830287610552 -0.3444755328312068 0 -0.39749341693535961 -0.34597568927391192 0 -0.41364230799335672 -0.33150946871282672 0 -0.42677830287610552 -0.3444755328312068 0 -0.41364230799335672 -0.33150946871282672 0 -0.43349902203706869 -0.32524975793603328 0 -0.45068468292259561 -0.34094593789617622 0 -0.42677830287610552 -0.3444755328312068 0 -0.43349902203706869 -0.32524975793603328 0 -0.43349902203706869 -0.32524975793603328 0 -0.42518623958741458 -0.308932512981753 0 -0.43747202707068777 -0.30881323726387111 0 -0.4153215679065676 -0.31747692375519287 0 -0.43349902203706869 -0.32524975793603328 0 -0.42518623958741458 -0.308932512981753 0 -0.42518623958741458 -0.308932512981753 0 -0.43186195331110683 -0.29944369088201328 0 -0.42041298549830303 -0.29904921243907989 0 -0.43186195331110683 -0.29944369088201328 0 -0.42722593768628131 -0.29261034515223872 0 -0.42041298549830303 -0.29904921243907989 0 -0.42518623958741458 -0.308932512981753 0 -0.43747202707068777 -0.30881323726387111 0 -0.43186195331110683 -0.29944369088201328 0 -0.44305358656729232 -0.29765873101482321 0 -0.43747202707068777 -0.30881323726387111 0 -0.43186195331110683 -0.29944369088201328 0 -0.43186195331110683 -0.29944369088201328 0 -0.43383125565435238 -0.2889959462450899 0 -0.42722593768628131 -0.29261034515223872 0 -0.4285315835227041 -0.28305362027653669 0 -0.40888731854093918 -0.28276408326844898 0 -0.42959514657667952 -0.28030775462034507 0 -0.44305358656729232 -0.29765873101482321 0 -0.43186195331110683 -0.29944369088201328 0 -0.43383125565435238 -0.2889959462450899 0 -0.43383125565435238 -0.2889959462450899 0 -0.4285315835227041 -0.28305362027653669 0 -0.42722593768628131 -0.29261034515223872 0 -0.44045653409696711 -0.28755561737671798 0 -0.43383125565435238 -0.2889959462450899 0 -0.42959514657667952 -0.28030775462034507 0 -0.43383125565435238 -0.2889959462450899 0 -0.4285315835227041 -0.28305362027653669 0 -0.42959514657667952 -0.28030775462034507 0 -0.42722593768628131 -0.29261034515223872 0 -0.41813115063701639 -0.29275448036056118 0 -0.42041298549830303 -0.29904921243907989 0 -0.4285315835227041 -0.28305362027653669 0 -0.42722593768628131 -0.29261034515223872 0 -0.41813115063701639 -0.29275448036056118 0 -0.4285315835227041 -0.28305362027653669 0 -0.40397190449808779 -0.29141603373975072 0 -0.4285315835227041 -0.28305362027653669 0 -0.40888731854093918 -0.28276408326844898 0 -0.40397190449808779 -0.29141603373975072 0 -0.4285315835227041 -0.28305362027653669 0 -0.41813115063701639 -0.29275448036056118 0 -0.40397190449808779 -0.29141603373975072 0 -0.41813115063701639 -0.29275448036056118 0 -0.41068487843165008 -0.29596398876880958 0 -0.42041298549830303 -0.29904921243907989 0 -0.41813115063701639 -0.29275448036056118 0 -0.41068487843165008 -0.29596398876880958 0 -0.40397190449808779 -0.29141603373975072 0 -0.4153215679065676 -0.31747692375519287 0 -0.42518623958741458 -0.308932512981753 0 -0.40938775333634908 -0.30459025648910393 0 -0.41068487843165008 -0.29596398876880958 0 -0.40938775333634908 -0.30459025648910393 0 -0.40397190449808779 -0.29141603373975072 0 -0.41068487843165008 -0.29596398876880958 0 -0.40938775333634908 -0.30459025648910393 0 -0.42041298549830303 -0.29904921243907989 0 -0.42518623958741458 -0.308932512981753 0 -0.40938775333634908 -0.30459025648910393 0 -0.42041298549830303 -0.29904921243907989 0 -0.39489251657864888 -0.31710262265624761 0 -0.40938775333634908 -0.30459025648910393 0 -0.39248355042495597 -0.3047052002634496 0 -0.40938775333634908 -0.30459025648910393 0 -0.39248355042495597 -0.3047052002634496 0 -0.40397190449808779 -0.29141603373975072 0 -0.39248355042495597 -0.3047052002634496 0 -0.37941222547347192 -0.29977844720296581 0 -0.40397190449808779 -0.29141603373975072 0 -0.39248355042495597 -0.3047052002634496 0 -0.37941222547347192 -0.29977844720296581 0 -0.3747533522382186 -0.31063864122917839 0 -0.39489251657864888 -0.31710262265624761 0 -0.39248355042495597 -0.3047052002634496 0 -0.3747533522382186 -0.31063864122917839 0 -0.37941222547347192 -0.29977844720296581 0 -0.3747533522382186 -0.31063864122917839 0 -0.37941222547347192 -0.29977844720296581 0 -0.3847922928778757 -0.2872370937607221 0 -0.40397190449808779 -0.29141603373975072 0 -0.37856820710769368 -0.2846824568200178 0 -0.38222279222787031 -0.27719308382731772 0 -0.37006190023874103 -0.28565480927368642 0 -0.37856820710769368 -0.2846824568200178 0 -0.38398506241506658 -0.28277124391110708 0 -0.38222279222787031 -0.27719308382731772 0 -0.37856820710769368 -0.2846824568200178 0 -0.3847922928778757 -0.2872370937607221 0 -0.38398506241506658 -0.28277124391110708 0 -0.37941222547347192 -0.29977844720296581 0 -0.3847922928778757 -0.2872370937607221 0 -0.37941222547347192 -0.29977844720296581 0 -0.37856820710769368 -0.2846824568200178 0 -0.3847922928778757 -0.2872370937607221 0 -0.37941222547347192 -0.29977844720296581 0 -0.37856820710769368 -0.2846824568200178 0 -0.37006190023874103 -0.28565480927368642 0 -0.3847922928778757 -0.2872370937607221 0 -0.39035695744682691 -0.28197234123637088 0 -0.39571212719461318 -0.28455973906732818 0 -0.3847922928778757 -0.2872370937607221 0 -0.38398506241506658 -0.28277124391110708 0 -0.39035695744682691 -0.28197234123637088 0 -0.39035695744682691 -0.28197234123637088 0 -0.39571212719461318 -0.28455973906732818 0 -0.40533198275278798 -0.27871248310075292 0 -0.3847922928778757 -0.2872370937607221 0 -0.39571212719461318 -0.28455973906732818 0 -0.40397190449808779 -0.29141603373975072 0 -0.37941222547347192 -0.29977844720296581 0 -0.40397190449808779 -0.29141603373975072 0 -0.40888731854093918 -0.28276408326844898 0 -0.40397190449808779 -0.29141603373975072 0 -0.40533198275278798 -0.27871248310075292 0 -0.39571212719461318 -0.28455973906732818 0 -0.40397190449808779 -0.29141603373975072 0 -0.40533198275278798 -0.27871248310075292 0 -0.40533198275278798 -0.27871248310075292 0 -0.38917843100380939 -0.27213320610994007 0 -0.38734730375939541 -0.25821744894156679 0 -0.40533198275278798 -0.27871248310075292 0 -0.38734730375939541 -0.25821744894156679 0 -0.41094363460988681 -0.26081594880057929 0 -0.40533198275278798 -0.27871248310075292 0 -0.38917843100380939 -0.27213320610994007 0 -0.38222279222787031 -0.27719308382731772 0 -0.39035695744682691 -0.28197234123637088 0 -0.40533198275278798 -0.27871248310075292 0 -0.38222279222787031 -0.27719308382731772 0 -0.40533198275278798 -0.27871248310075292 0 -0.38734730375939541 -0.25821744894156679 0 -0.40533198275278798 -0.27871248310075292 0 -0.38222279222787031 -0.27719308382731772 0 -0.38917843100380939 -0.27213320610994007 0 -0.38181164527518102 -0.27440980857012642 0 -0.38734730375939541 -0.25821744894156679 0 -0.38398506241506658 -0.28277124391110708 0 -0.39035695744682691 -0.28197234123637088 0 -0.38222279222787031 -0.27719308382731772 0 -0.38181164527518102 -0.27440980857012642 0 -0.38734730375939541 -0.25821744894156679 0 -0.38917843100380939 -0.27213320610994007 0 -0.38222279222787031 -0.27719308382731772 0 -0.38181164527518102 -0.27440980857012642 0 -0.38734730375939541 -0.25821744894156679 0 -0.37084943710813389 -0.26030604832624937 0 -0.37827434604533111 -0.24787806071322571 0 -0.38181164527518102 -0.27440980857012642 0 -0.38734730375939541 -0.25821744894156679 0 -0.37084943710813389 -0.26030604832624937 0 -0.38734730375939541 -0.25821744894156679 0 -0.37827434604533111 -0.24787806071322571 0 -0.38937862057857592 -0.25227564228034433 0 -0.37827434604533111 -0.24787806071322571 0 -0.38734730375939541 -0.25821744894156679 0 -0.38937862057857592 -0.25227564228034433 0 -0.38734730375939541 -0.25821744894156679 0 -0.38937862057857592 -0.25227564228034433 0 -0.37827434604533111 -0.24787806071322571 0 -0.38937862057857592 -0.25227564228034433 0 -0.41094363460988681 -0.26081594880057929 0 -0.38937862057857592 -0.25227564228034433 0 -0.41094363460988681 -0.26081594880057929 0 -0.40433237812326739 -0.24601302649129031 0 -0.38734730375939541 -0.25821744894156679 0 -0.38937862057857592 -0.25227564228034433 0 -0.41094363460988681 -0.26081594880057929 0 -0.41094363460988681 -0.26081594880057929 0 -0.43250864864119781 -0.26935625532081442 0 -0.41094363460988681 -0.26081594880057929 0 -0.43250864864119781 -0.26935625532081442 0 -0.42038252665072862 -0.24568303451338261 0 -0.41094363460988681 -0.26081594880057929 0 -0.42038252665072862 -0.24568303451338261 0 -0.40433237812326739 -0.24601302649129031 0 -0.40533198275278798 -0.27871248310075292 0 -0.41912327991460818 -0.27165855343405998 0 -0.42959514657667952 -0.28030775462034507 0 -0.41094363460988681 -0.26081594880057929 0 -0.41912327991460818 -0.27165855343405998 0 -0.43250864864119781 -0.26935625532081442 0 -0.40533198275278798 -0.27871248310075292 0 -0.41094363460988681 -0.26081594880057929 0 -0.41912327991460818 -0.27165855343405998 0 -0.40888731854093918 -0.28276408326844898 0 -0.40533198275278798 -0.27871248310075292 0 -0.42959514657667952 -0.28030775462034507 0 -0.40533198275278798 -0.27871248310075292 0 -0.42959514657667952 -0.28030775462034507 0 -0.40888731854093918 -0.28276408326844898 0 -0.40533198275278798 -0.27871248310075292 0 -0.41912327991460818 -0.27165855343405998 0 -0.42959514657667952 -0.28030775462034507 0 -0.43250864864119781 -0.26935625532081442 0 -0.43250864864119781 -0.26935625532081442 0 -0.42038252665072862 -0.24568303451338261 0 -0.438967534288141 -0.24366452024067961 0 -0.32011618262254121 -0.25330445636545418 0 -0.32102905738265192 -0.27211728024858423 0 -0.30559827700350978 -0.26625259568649151 0 -0.32011618262254121 -0.25330445636545418 0 -0.32102905738265192 -0.27211728024858423 0 -0.33490415960127001 -0.25925771012582549 0 -0.32102905738265192 -0.27211728024858423 0 -0.33897635591676512 -0.2727814955167428 0 -0.32375730156607913 -0.29427065699574911 0 -0.32102905738265192 -0.27211728024858423 0 -0.33897635591676512 -0.2727814955167428 0 -0.33490415960127001 -0.25925771012582549 0 -0.32011618262254121 -0.25330445636545418 0 -0.33490415960127001 -0.25925771012582549 0 -0.33614877026343898 -0.2456562992586736 0 -0.33897635591676512 -0.2727814955167428 0 -0.33490415960127001 -0.25925771012582549 0 -0.35226999711174939 -0.26088475214283913 0 -0.33490415960127001 -0.25925771012582549 0 -0.34797848727279818 -0.25014277960611248 0 -0.33614877026343898 -0.2456562992586736 0 -0.33490415960127001 -0.25925771012582549 0 -0.34797848727279818 -0.25014277960611248 0 -0.35226999711174939 -0.26088475214283913 0 -0.34797848727279818 -0.25014277960611248 0 -0.35226999711174939 -0.26088475214283913 0 -0.36090205873991021 -0.2510767480375789 0 -0.35226999711174939 -0.26088475214283913 0 -0.36090205873991021 -0.2510767480375789 0 -0.37084943710813389 -0.26030604832624937 0 -0.36090205873991021 -0.2510767480375789 0 -0.37084943710813389 -0.26030604832624937 0 -0.37827434604533111 -0.24787806071322571 0 -0.35226999711174939 -0.26088475214283913 0 -0.37084943710813389 -0.26030604832624937 0 -0.35911360170295259 -0.27567368455388308 0 -0.38181164527518102 -0.27440980857012642 0 -0.37084943710813389 -0.26030604832624937 0 -0.35911360170295259 -0.27567368455388308 0 -0.38222279222787031 -0.27719308382731772 0 -0.35911360170295259 -0.27567368455388308 0 -0.37006190023874103 -0.28565480927368642 0 -0.38222279222787031 -0.27719308382731772 0 -0.38181164527518102 -0.27440980857012642 0 -0.35911360170295259 -0.27567368455388308 0 -0.38222279222787031 -0.27719308382731772 0 -0.35911360170295259 -0.27567368455388308 0 -0.33897635591676512 -0.2727814955167428 0 -0.35911360170295259 -0.27567368455388308 0 -0.35642508241076842 -0.29017729327824732 0 -0.33897635591676512 -0.2727814955167428 0 -0.35226999711174939 -0.26088475214283913 0 -0.35911360170295259 -0.27567368455388308 0 -0.33897635591676512 -0.2727814955167428 0 -0.35642508241076842 -0.29017729327824732 0 -0.34318982906000428 -0.30050783221704641 0 -0.35911360170295259 -0.27567368455388308 0 -0.35642508241076842 -0.29017729327824732 0 -0.37006190023874103 -0.28565480927368642 0 -0.35642508241076842 -0.29017729327824732 0 -0.36665805775083371 -0.29543728646155543 0 -0.37006190023874103 -0.28565480927368642 0 -0.37941222547347192 -0.29977844720296581 0 -0.36665805775083371 -0.29543728646155543 0 -0.37006190023874103 -0.28565480927368642 0 -0.37941222547347192 -0.29977844720296581 0 -0.36073302288035197 -0.30613859609132149 0 -0.37941222547347192 -0.29977844720296581 0 -0.36665805775083371 -0.29543728646155543 0 -0.36073302288035197 -0.30613859609132149 0 -0.37941222547347192 -0.29977844720296581 0 -0.3747533522382186 -0.31063864122917839 0 -0.36073302288035197 -0.30613859609132149 0 -0.35642508241076842 -0.29017729327824732 0 -0.36665805775083371 -0.29543728646155543 0 -0.36073302288035197 -0.30613859609132149 0 -0.3747533522382186 -0.31063864122917839 0 -0.36073302288035197 -0.30613859609132149 0 -0.3747533522382186 -0.31063864122917839 0 -0.36073302288035197 -0.30613859609132149 0 -0.35976390815395992 -0.31417934622781668 0 -0.35642508241076842 -0.29017729327824732 0 -0.36073302288035197 -0.30613859609132149 0 -0.34318982906000428 -0.30050783221704641 0 -0.35408938196858247 -0.30840071328550989 0 -0.34318982906000428 -0.30050783221704641 0 -0.3469435237142271 -0.32520864276337691 0 -0.36073302288035197 -0.30613859609132149 0 -0.35408938196858247 -0.30840071328550989 0 -0.34318982906000428 -0.30050783221704641 0 -0.36073302288035197 -0.30613859609132149 0 -0.35408938196858247 -0.30840071328550989 0 -0.35976390815395992 -0.31417934622781668 0 -0.36073302288035197 -0.30613859609132149 0 -0.34318982906000428 -0.30050783221704641 0 -0.36073302288035197 -0.30613859609132149 0 -0.35408938196858247 -0.30840071328550989 0 -0.33103582893503919 -0.30498424995861539 0 -0.34318982906000428 -0.30050783221704641 0 -0.33611527855453122 -0.31497503305918578 0 -0.34318982906000428 -0.30050783221704641 0 -0.32375730156607913 -0.29427065699574911 0 -0.33103582893503919 -0.30498424995861539 0 -0.34318982906000428 -0.30050783221704641 0 -0.32375730156607913 -0.29427065699574911 0 -0.33103582893503919 -0.30498424995861539 0 -0.32585568407561671 -0.31685539708389671 0 -0.33611527855453122 -0.31497503305918578 0 -0.33897635591676512 -0.2727814955167428 0 -0.34318982906000428 -0.30050783221704641 0 -0.33897635591676512 -0.2727814955167428 0 -0.34318982906000428 -0.30050783221704641 0 -0.32375730156607913 -0.29427065699574911 0 -0.32102905738265192 -0.27211728024858423 0 -0.32375730156607913 -0.29427065699574911 0 -0.30432477407215358 -0.28803348177445259 0 -0.32375730156607913 -0.29427065699574911 0 -0.30432477407215358 -0.28803348177445259 0 -0.33103582893503919 -0.30498424995861539 0 -0.32375730156607913 -0.29427065699574911 0 -0.30796044293958041 -0.30777062202160499 0 -0.33103582893503919 -0.30498424995861539 0 -0.32585568407561671 -0.31685539708389671 0 -0.30796044293958041 -0.30777062202160499 0 -0.32585568407561671 -0.31685539708389671 0 -0.3137967900226985 -0.31844161360410977 0 -0.30796044293958041 -0.30777062202160499 0 -0.32070639357491593 -0.32700184798725368 0 -0.32585568407561671 -0.31685539708389671 0 -0.33355152698776869 -0.32731904327299371 0 -0.32070639357491593 -0.32700184798725368 0 -0.3137967900226985 -0.31844161360410977 0 -0.30595565004652658 -0.32773943767765462 0 -0.32070639357491593 -0.32700184798725368 0 -0.32585568407561671 -0.31685539708389671 0 -0.3137967900226985 -0.31844161360410977 0 -0.32070639357491593 -0.32700184798725368 0 -0.33355152698776869 -0.32731904327299371 0 -0.32437231674196881 -0.34465374829761392 0 -0.32070639357491593 -0.32700184798725368 0 -0.32437231674196881 -0.34465374829761392 0 -0.30595565004652658 -0.32773943767765462 0 -0.32437231674196881 -0.34465374829761392 0 -0.3108728343039141 -0.34707688825412419 0 -0.30595565004652658 -0.32773943767765462 0 -0.32437231674196881 -0.34465374829761392 0 -0.30595565004652658 -0.32773943767765462 0 -0.33918347136265559 -0.33902353353345821 0 -0.33355152698776869 -0.32731904327299371 0 -0.32437231674196881 -0.34465374829761392 0 -0.33918347136265559 -0.33902353353345821 0 -0.33355152698776869 -0.32731904327299371 0 -0.3469435237142271 -0.32520864276337691 0 -0.33355152698776869 -0.32731904327299371 0 -0.33611527855453122 -0.31497503305918578 0 -0.3469435237142271 -0.32520864276337691 0 -0.34318982906000428 -0.30050783221704641 0 -0.33611527855453122 -0.31497503305918578 0 -0.3469435237142271 -0.32520864276337691 0 -0.32585568407561671 -0.31685539708389671 0 -0.33355152698776869 -0.32731904327299371 0 -0.33611527855453122 -0.31497503305918578 0 -0.34318982906000428 -0.30050783221704641 0 -0.3469435237142271 -0.32520864276337691 0 -0.35408938196858247 -0.30840071328550989 0 -0.3469435237142271 -0.32520864276337691 0 -0.35976390815395992 -0.31417934622781668 0 -0.3469435237142271 -0.32520864276337691 0 -0.35976390815395992 -0.31417934622781668 0 -0.36114839235924878 -0.32193842803467998 0 -0.3747533522382186 -0.31063864122917839 0 -0.36114839235924878 -0.32193842803467998 0 -0.36313278533058729 -0.33772708191834722 0 -0.381336818944772 -0.32833544187083891 0 -0.3747533522382186 -0.31063864122917839 0 -0.36313278533058729 -0.33772708191834722 0 -0.3747533522382186 -0.31063864122917839 0 -0.36313278533058729 -0.33772708191834722 0 -0.3747533522382186 -0.31063864122917839 0 -0.35976390815395992 -0.31417934622781668 0 -0.36114839235924878 -0.32193842803467998 0 -0.33918347136265559 -0.33902353353345821 0 -0.3469435237142271 -0.32520864276337691 0 -0.35069721836845158 -0.34990945330970719 0 -0.3469435237142271 -0.32520864276337691 0 -0.36313278533058729 -0.33772708191834722 0 -0.35069721836845158 -0.34990945330970719 0 -0.3469435237142271 -0.32520864276337691 0 -0.35069721836845158 -0.34990945330970719 0 -0.3469435237142271 -0.32520864276337691 0 -0.36114839235924878 -0.32193842803467998 0 -0.36313278533058729 -0.33772708191834722 0 -0.36313278533058729 -0.33772708191834722 0 -0.35151221842295383 -0.3648155226075151 0 -0.36313278533058729 -0.33772708191834722 0 -0.35069721836845158 -0.34990945330970719 0 -0.35151221842295383 -0.3648155226075151 0 -0.33918347136265559 -0.33902353353345821 0 -0.35069721836845158 -0.34990945330970719 0 -0.34278898343741099 -0.36156805891757338 0 -0.35069721836845158 -0.34990945330970719 0 -0.35151221842295383 -0.3648155226075151 0 -0.34278898343741099 -0.36156805891757338 0 -0.38236599579890251 -0.34409005599756642 0 -0.36313278533058729 -0.33772708191834722 0 -0.37010452733382032 -0.35028378990642811 0 -0.36313278533058729 -0.33772708191834722 0 -0.36360701728736838 -0.35643696008491799 0 -0.35151221842295383 -0.3648155226075151 0 -0.36313278533058729 -0.33772708191834722 0 -0.36360701728736838 -0.35643696008491799 0 -0.37010452733382032 -0.35028378990642811 0 -0.36360701728736838 -0.35643696008491799 0 -0.37171349540814652 -0.35840014450319341 0 -0.37010452733382032 -0.35028378990642811 0 -0.37629226159162732 -0.3523892140201873 0 -0.37171349540814652 -0.35840014450319341 0 -0.37010452733382032 -0.35028378990642811 0 -0.37636850370020941 -0.37698452578058428 0 -0.3813445258773619 -0.36044190983499652 0 -0.36120565013285338 -0.3784823695375325 0 -0.3813445258773619 -0.36044190983499652 0 -0.36631720562727949 -0.36461349888307032 0 -0.36120565013285338 -0.3784823695375325 0 -0.3813445258773619 -0.36044190983499652 0 -0.36120565013285338 -0.3784823695375325 0 -0.3813445258773619 -0.36044190983499652 0 -0.37171349540814652 -0.35840014450319341 0 -0.36631720562727949 -0.36461349888307032 0 -0.36360701728736838 -0.35643696008491799 0 -0.37171349540814652 -0.35840014450319341 0 -0.36631720562727949 -0.36461349888307032 0 -0.36360701728736838 -0.35643696008491799 0 -0.36631720562727949 -0.36461349888307032 0 -0.36057570705547248 -0.36409343350548168 0 -0.36631720562727949 -0.36461349888307032 0 -0.36057570705547248 -0.36409343350548168 0 -0.36017803575953938 -0.36871736222283519 0 -0.36631720562727949 -0.36461349888307032 0 -0.36017803575953938 -0.36871736222283519 0 -0.36120565013285338 -0.3784823695375325 0 -0.36017803575953938 -0.36871736222283519 0 -0.35151221842295383 -0.3648155226075151 0 -0.36120565013285338 -0.3784823695375325 0 -0.34278898343741099 -0.36156805891757338 0 -0.36120565013285338 -0.3784823695375325 0 -0.34278898343741099 -0.36156805891757338 0 -0.36120565013285338 -0.3784823695375325 0 -0.34785199637032083 -0.37578430694832871 0 -0.35151221842295383 -0.3648155226075151 0 -0.34278898343741099 -0.36156805891757338 0 -0.36120565013285338 -0.3784823695375325 0 -0.36057570705547248 -0.36409343350548168 0 -0.36017803575953938 -0.36871736222283519 0 -0.35151221842295383 -0.3648155226075151 0 -0.36360701728736838 -0.35643696008491799 0 -0.36057570705547248 -0.36409343350548168 0 -0.35151221842295383 -0.3648155226075151 0 -0.3385696257371098 -0.37153194030318881 0 -0.32395816944405281 -0.36358806834790092 0 -0.33369342445351741 -0.38332728859622578 0 -0.3385696257371098 -0.37153194030318881 0 -0.34278898343741099 -0.36156805891757338 0 -0.34785199637032083 -0.37578430694832871 0 -0.3385696257371098 -0.37153194030318881 0 -0.34278898343741099 -0.36156805891757338 0 -0.32395816944405281 -0.36358806834790092 0 -0.34278898343741099 -0.36156805891757338 0 -0.32437231674196881 -0.34465374829761392 0 -0.32395816944405281 -0.36358806834790092 0 -0.34278898343741099 -0.36156805891757338 0 -0.32437231674196881 -0.34465374829761392 0 -0.33918347136265559 -0.33902353353345821 0 -0.34278898343741099 -0.36156805891757338 0 -0.32437231674196881 -0.34465374829761392 0 -0.32395816944405281 -0.36358806834790092 0 -0.30420569574098588 -0.36266041561240331 0 -0.3108728343039141 -0.34707688825412419 0 -0.32437231674196881 -0.34465374829761392 0 -0.32395816944405281 -0.36358806834790092 0 -0.3108728343039141 -0.34707688825412419 0 -0.32395816944405281 -0.36358806834790092 0 -0.30420569574098588 -0.36266041561240331 0 -0.31253905193593517 -0.38857805988975819 0 -0.30420569574098588 -0.36266041561240331 0 -0.28595893496123531 -0.37281388491661371 0 -0.31253905193593517 -0.38857805988975819 0 -0.30420569574098588 -0.36266041561240331 0 -0.29587233954603659 -0.33674277133504849 0 -0.30420569574098588 -0.36266041561240331 0 -0.3108728343039141 -0.34707688825412419 0 -0.29587233954603659 -0.33674277133504849 0 -0.28685291961052761 -0.3553162285806637 0 -0.27850621835314171 -0.34469553890805732 0 -0.29587233954603659 -0.33674277133504849 0 -0.30420569574098588 -0.36266041561240331 0 -0.28685291961052761 -0.3553162285806637 0 -0.29587233954603659 -0.33674277133504849 0 -0.30420569574098588 -0.36266041561240331 0 -0.28685291961052761 -0.3553162285806637 0 -0.28595893496123531 -0.37281388491661371 0 -0.28685291961052761 -0.3553162285806637 0 -0.28595893496123531 -0.37281388491661371 0 -0.26972140945123879 -0.35966853213119548 0 -0.28595893496123531 -0.37281388491661371 0 -0.26972140945123879 -0.35966853213119548 0 -0.26560563766632223 -0.37479526911204453 0 -0.26972140945123879 -0.35966853213119548 0 -0.25508423921391521 -0.36471290819752672 0 -0.2418713049423058 -0.35575341085507128 0 -0.26972140945123879 -0.35966853213119548 0 -0.26560563766632223 -0.37479526911204453 0 -0.25508423921391521 -0.36471290819752672 0 -0.25508423921391521 -0.36471290819752672 0 -0.25213188902636108 -0.37290115198395468 0 -0.24568756064932509 -0.36614136898781208 0 -0.26560563766632223 -0.37479526911204453 0 -0.25508423921391521 -0.36471290819752672 0 -0.25213188902636108 -0.37290115198395468 0 -0.26199917305639281 -0.34520794382305509 0 -0.24099733700684139 -0.34391548443178088 0 -0.26972140945123879 -0.35966853213119548 0 -0.25121822142711608 -0.34911212390415342 0 -0.26199917305639281 -0.34520794382305509 0 -0.26972140945123879 -0.35966853213119548 0 -0.2418713049423058 -0.35575341085507128 0 -0.25121822142711608 -0.34911212390415342 0 -0.26199917305639281 -0.34520794382305509 0 -0.24099733700684139 -0.34391548443178088 0 -0.26972140945123879 -0.35966853213119548 0 -0.25121822142711608 -0.34911212390415342 0 -0.2418713049423058 -0.35575341085507128 0 -0.26972140945123879 -0.35966853213119548 0 -0.26199917305639281 -0.34520794382305509 0 -0.27850621835314171 -0.34469553890805732 0 -0.28685291961052761 -0.3553162285806637 0 -0.26972140945123879 -0.35966853213119548 0 -0.27850621835314171 -0.34469553890805732 0 -0.27850621835314171 -0.34469553890805732 0 -0.27183409365491612 -0.33576350028600832 0 -0.2813517148152313 -0.33038866448010568 0 -0.26199917305639281 -0.34520794382305509 0 -0.27850621835314171 -0.34469553890805732 0 -0.27183409365491612 -0.33576350028600832 0 -0.27183409365491612 -0.33576350028600832 0 -0.27146309147107761 -0.32339355697685801 0 -0.2813517148152313 -0.33038866448010568 0 -0.27183409365491612 -0.33576350028600832 0 -0.26276257517893797 -0.33408614156823968 0 -0.27146309147107761 -0.32339355697685801 0 -0.26199917305639281 -0.34520794382305509 0 -0.27183409365491612 -0.33576350028600832 0 -0.26276257517893797 -0.33408614156823968 0 -0.26199917305639281 -0.34520794382305509 0 -0.26276257517893797 -0.33408614156823968 0 -0.24963887710169039 -0.33797626832805222 0 -0.26199917305639281 -0.34520794382305509 0 -0.24099733700684139 -0.34391548443178088 0 -0.24963887710169039 -0.33797626832805222 0 -0.26276257517893797 -0.33408614156823968 0 -0.25302992996794599 -0.32876472312003091 0 -0.26046254512451961 -0.32460140288859213 0 -0.26276257517893797 -0.33408614156823968 0 -0.25302992996794599 -0.32876472312003091 0 -0.24963887710169039 -0.33797626832805222 0 -0.2518103001501879 -0.31510795478552772 0 -0.25438351556058397 -0.32155022528854083 0 -0.26110176326608248 -0.31567200544692348 0 -0.2518103001501879 -0.31510795478552772 0 -0.26110176326608248 -0.31567200544692348 0 -0.25572337548166107 -0.30763949736715152 0 -0.2518103001501879 -0.31510795478552772 0 -0.25438351556058397 -0.32155022528854083 0 -0.24628349347346559 -0.32245400734170759 0 -0.25302992996794599 -0.32876472312003091 0 -0.25438351556058397 -0.32155022528854083 0 -0.24628349347346559 -0.32245400734170759 0 -0.25302992996794599 -0.32876472312003091 0 -0.25438351556058397 -0.32155022528854083 0 -0.26046254512451961 -0.32460140288859213 0 -0.25438351556058397 -0.32155022528854083 0 -0.26046254512451961 -0.32460140288859213 0 -0.26110176326608248 -0.31567200544692348 0 -0.26276257517893797 -0.33408614156823968 0 -0.26046254512451961 -0.32460140288859213 0 -0.27146309147107761 -0.32339355697685801 0 -0.26046254512451961 -0.32460140288859213 0 -0.26110176326608248 -0.31567200544692348 0 -0.27146309147107761 -0.32339355697685801 0 -0.27146309147107761 -0.32339355697685801 0 -0.2813517148152313 -0.33038866448010568 0 -0.28753898335108552 -0.31082512705769411 0 -0.26110176326608248 -0.31567200544692348 0 -0.27146309147107761 -0.32339355697685801 0 -0.27132592102689612 -0.31154386296285302 0 -0.27146309147107761 -0.32339355697685801 0 -0.28753898335108552 -0.31082512705769411 0 -0.27132592102689612 -0.31154386296285302 0 -0.30595565004652658 -0.32773943767765462 0 -0.28753898335108552 -0.31082512705769411 0 -0.2813517148152313 -0.33038866448010568 0 -0.29587233954603659 -0.33674277133504849 0 -0.28753898335108552 -0.31082512705769411 0 -0.29587233954603659 -0.33674277133504849 0 -0.30595565004652658 -0.32773943767765462 0 -0.28753898335108552 -0.31082512705769411 0 -0.29587233954603659 -0.33674277133504849 0 -0.28753898335108552 -0.31082512705769411 0 -0.27850621835314171 -0.34469553890805732 0 -0.2813517148152313 -0.33038866448010568 0 -0.29587233954603659 -0.33674277133504849 0 -0.3108728343039141 -0.34707688825412419 0 -0.29587233954603659 -0.33674277133504849 0 -0.30595565004652658 -0.32773943767765462 0 -0.30595565004652658 -0.32773943767765462 0 -0.30796044293958041 -0.30777062202160499 0 -0.28753898335108552 -0.31082512705769411 0 -0.3137967900226985 -0.31844161360410977 0 -0.30595565004652658 -0.32773943767765462 0 -0.30796044293958041 -0.30777062202160499 0 -0.30796044293958041 -0.30777062202160499 0 -0.30432477407215358 -0.28803348177445259 0 -0.29403056822939261 -0.2980290106042921 0 -0.32375730156607913 -0.29427065699574911 0 -0.30796044293958041 -0.30777062202160499 0 -0.30432477407215358 -0.28803348177445259 0 -0.28129773415762238 -0.29141416313650781 0 -0.29403056822939261 -0.2980290106042921 0 -0.29102789779712268 -0.27757673945264782 0 -0.30432477407215358 -0.28803348177445259 0 -0.29403056822939261 -0.2980290106042921 0 -0.29102789779712268 -0.27757673945264782 0 -0.28129773415762238 -0.29141416313650781 0 -0.28753898335108552 -0.31082512705769411 0 -0.28129773415762238 -0.29141416313650781 0 -0.28753898335108552 -0.31082512705769411 0 -0.29403056822939261 -0.2980290106042921 0 -0.30796044293958041 -0.30777062202160499 0 -0.28753898335108552 -0.31082512705769411 0 -0.29403056822939261 -0.2980290106042921 0 -0.27132592102689612 -0.31154386296285302 0 -0.26270021362711088 -0.30625319801233231 0 -0.26939708650518429 -0.29416317169077982 0 -0.28753898335108552 -0.31082512705769411 0 -0.27132592102689612 -0.31154386296285302 0 -0.26939708650518429 -0.29416317169077982 0 -0.28753898335108552 -0.31082512705769411 0 -0.26939708650518429 -0.29416317169077982 0 -0.28129773415762238 -0.29141416313650781 0 -0.28753898335108552 -0.31082512705769411 0 -0.26939708650518429 -0.29416317169077982 0 -0.26110176326608248 -0.31567200544692348 0 -0.27132592102689612 -0.31154386296285302 0 -0.26270021362711088 -0.30625319801233231 0 -0.26110176326608248 -0.31567200544692348 0 -0.26270021362711088 -0.30625319801233231 0 -0.25572337548166107 -0.30763949736715152 0 -0.26270021362711088 -0.30625319801233231 0 -0.26008231093674761 -0.29838408271328282 0 -0.25572337548166107 -0.30763949736715152 0 -0.26270021362711088 -0.30625319801233231 0 -0.26008231093674761 -0.29838408271328282 0 -0.26939708650518429 -0.29416317169077982 0 -0.26008231093674761 -0.29838408271328282 0 -0.25157868268173622 -0.29984400792393551 0 -0.25572337548166107 -0.30763949736715152 0 -0.2518103001501879 -0.31510795478552772 0 -0.25572337548166107 -0.30763949736715152 0 -0.24744872754676259 -0.30796639199311338 0 -0.25157868268173622 -0.29984400792393551 0 -0.25572337548166107 -0.30763949736715152 0 -0.24744872754676259 -0.30796639199311338 0 -0.25626706615710659 -0.29030607121618068 0 -0.25684844187067402 -0.27739777699689649 0 -0.2429299742697994 -0.28557213090274858 0 -0.26008231093674761 -0.29838408271328282 0 -0.25157868268173622 -0.29984400792393551 0 -0.25626706615710659 -0.29030607121618068 0 -0.25157868268173622 -0.29984400792393551 0 -0.25626706615710659 -0.29030607121618068 0 -0.24525025812571211 -0.2946661378347849 0 -0.26008231093674761 -0.29838408271328282 0 -0.25626706615710659 -0.29030607121618068 0 -0.26939708650518429 -0.29416317169077982 0 -0.25626706615710659 -0.29030607121618068 0 -0.26797170184108809 -0.28397287878641608 0 -0.26939708650518429 -0.29416317169077982 0 -0.25626706615710659 -0.29030607121618068 0 -0.26797170184108809 -0.28397287878641608 0 -0.25684844187067402 -0.27739777699689649 0 -0.28129773415762238 -0.29141416313650781 0 -0.27505648496415752 -0.27200319921532212 0 -0.28129773415762238 -0.29141416313650781 0 -0.26797170184108809 -0.28397287878641608 0 -0.27505648496415752 -0.27200319921532212 0 -0.28129773415762238 -0.29141416313650781 0 -0.26797170184108809 -0.28397287878641608 0 -0.26939708650518429 -0.29416317169077982 0 -0.26797170184108809 -0.28397287878641608 0 -0.27505648496415752 -0.27200319921532212 0 -0.25684844187067402 -0.27739777699689649 0 -0.27505648496415752 -0.27200319921532212 0 -0.25684844187067402 -0.27739777699689649 0 -0.25976728970181823 -0.26148478341738829 0 -0.25684844187067402 -0.27739777699689649 0 -0.25976728970181823 -0.26148478341738829 0 -0.2468702488025496 -0.26566197831265709 0 -0.25028155227244681 -0.25133287360632572 0 -0.25976728970181823 -0.26148478341738829 0 -0.26977972059926331 -0.24102808895574029 0 -0.25028155227244681 -0.25133287360632572 0 -0.25976728970181823 -0.26148478341738829 0 -0.2468702488025496 -0.26566197831265709 0 -0.27505648496415752 -0.27200319921532212 0 -0.25976728970181823 -0.26148478341738829 0 -0.26977972059926331 -0.24102808895574029 0 -0.29233710086649212 -0.25985103435079698 0 -0.26977972059926331 -0.24102808895574029 0 -0.27505648496415752 -0.27200319921532212 0 -0.29233710086649212 -0.25985103435079698 0 -0.26977972059926331 -0.24102808895574029 0 -0.28129773415762238 -0.29141416313650781 0 -0.27505648496415752 -0.27200319921532212 0 -0.29102789779712268 -0.27757673945264782 0 -0.27505648496415752 -0.27200319921532212 0 -0.29233710086649212 -0.25985103435079698 0 -0.29102789779712268 -0.27757673945264782 0 -0.29233710086649212 -0.25985103435079698 0 -0.29102789779712268 -0.27757673945264782 0 -0.30559827700350978 -0.26625259568649151 0 -0.32102905738265192 -0.27211728024858423 0 -0.30432477407215358 -0.28803348177445259 0 -0.30559827700350978 -0.26625259568649151 0 -0.30432477407215358 -0.28803348177445259 0 -0.29102789779712268 -0.27757673945264782 0 -0.30559827700350978 -0.26625259568649151 0 -0.29233710086649212 -0.25985103435079698 0 -0.30559827700350978 -0.26625259568649151 0 -0.3047546492800971 -0.24663258192701329 0 -0.32011618262254121 -0.25330445636545418 0 -0.30559827700350978 -0.26625259568649151 0 -0.3047546492800971 -0.24663258192701329 0 -0.33753912052078339 -0.4663309927218236 0 -0.32920576432583409 -0.4404133484444685 0 -0.31790384293577562 -0.45834582281739827 0 -0.33753912052078339 -0.4663309927218236 0 -0.32920576432583409 -0.4404133484444685 0 -0.33753912052078339 -0.4663309927218236 0 -0.32920576432583409 -0.4404133484444685 0 -0.35632899708843152 -0.44853372966841321 0 -0.32920576432583409 -0.4404133484444685 0 -0.31790384293577562 -0.45834582281739827 0 -0.30972778871294332 -0.4319985571826479 0 -0.33753912052078339 -0.4663309927218236 0 -0.31790384293577562 -0.45834582281739827 0 -0.32588131630612038 -0.4848798460971413 0 -0.31790384293577562 -0.45834582281739827 0 -0.32588131630612038 -0.4848798460971413 0 -0.30312974926832081 -0.47354559980747662 0 -0.32588131630612038 -0.4848798460971413 0 -0.34089219635476131 -0.5 0 -0.3108704362574799 -0.50000000000000455 0 -0.32588131630612038 -0.4848798460971413 0 -0.3108704362574799 -0.50000000000000455 0 -0.30312974926832081 -0.47354559980747662 0 -0.32588131630612038 -0.4848798460971413 0 -0.34089219635476131 -0.5 0 -0.34587247671573279 -0.49224863699917859 0 -0.33753912052078339 -0.4663309927218236 0 -0.32588131630612038 -0.4848798460971413 0 -0.34587247671573279 -0.49224863699917859 0 -0.33753912052078339 -0.4663309927218236 0 -0.34587247671573279 -0.49224863699917859 0 -0.33753912052078339 -0.4663309927218236 0 -0.3527594220047065 -0.47697530156371432 0 -0.3560788493204351 -0.46470499420023298 0 -0.33753912052078339 -0.4663309927218236 0 -0.3527594220047065 -0.47697530156371432 0 -0.34587247671573279 -0.49224863699917859 0 -0.3527594220047065 -0.47697530156371432 0 -0.36456379277410422 -0.47546231040731568 0 -0.3560788493204351 -0.46470499420023298 0 -0.3527594220047065 -0.47697530156371432 0 -0.34587247671573279 -0.49224863699917859 0 -0.36239046718534729 -0.48583666659999603 0 -0.34089219635476131 -0.5 0 -0.34587247671573279 -0.49224863699917859 0 -0.37091395645204273 -0.5 0 -0.3790062045255656 -0.48398528019432357 0 -0.37091395645204273 -0.5 0 -0.36239046718534729 -0.48583666659999603 0 -0.34587247671573279 -0.49224863699917859 0 -0.37091395645204273 -0.5 0 -0.36239046718534729 -0.48583666659999603 0 -0.3790062045255656 -0.48398528019432357 0 -0.36456379277410422 -0.47546231040731568 0 -0.37499309371178491 -0.46456285094731042 0 -0.3790062045255656 -0.48398528019432357 0 -0.36239046718534729 -0.48583666659999603 0 -0.36456379277410422 -0.47546231040731568 0 -0.3527594220047065 -0.47697530156371432 0 -0.36239046718534729 -0.48583666659999603 0 -0.36456379277410422 -0.47546231040731568 0 -0.36456379277410422 -0.47546231040731568 0 -0.37499309371178491 -0.46456285094731042 0 -0.3560788493204351 -0.46470499420023298 0 -0.37499309371178491 -0.46456285094731042 0 -0.3560788493204351 -0.46470499420023298 0 -0.35632899708843152 -0.44853372966841321 0 -0.33753912052078339 -0.4663309927218236 0 -0.3560788493204351 -0.46470499420023298 0 -0.35632899708843152 -0.44853372966841321 0 -0.35632899708843152 -0.44853372966841321 0 -0.36387315973008189 -0.43434699867129989 0 -0.34896862463114708 -0.43284653717386518 0 -0.32920576432583409 -0.4404133484444685 0 -0.35632899708843152 -0.44853372966841321 0 -0.34896862463114708 -0.43284653717386518 0 -0.37813548716060158 -0.44490583937211348 0 -0.35632899708843152 -0.44853372966841321 0 -0.36387315973008189 -0.43434699867129989 0 -0.37813548716060158 -0.44490583937211348 0 -0.37499309371178491 -0.46456285094731042 0 -0.35632899708843152 -0.44853372966841321 0 -0.37874804885936281 -0.42634345499337878 0 -0.37813548716060158 -0.44490583937211348 0 -0.36387315973008189 -0.43434699867129989 0 -0.37874804885936281 -0.42634345499337878 0 -0.36387315973008189 -0.43434699867129989 0 -0.35683574839916032 -0.41882557615647897 0 -0.37874804885936281 -0.42634345499337878 0 -0.37499037753076658 -0.40948529014498602 0 -0.35683574839916032 -0.41882557615647897 0 -0.37499037753076658 -0.40948529014498602 0 -0.35683574839916032 -0.41882557615647897 0 -0.35874917479759172 -0.3996147466650708 0 -0.35683574839916032 -0.41882557615647897 0 -0.35874917479759172 -0.3996147466650708 0 -0.33825991866395849 -0.40278174787793442 0 -0.35683574839916032 -0.41882557615647897 0 -0.33825991866395849 -0.40278174787793442 0 -0.33859945361222787 -0.42211303292866548 0 -0.35683574839916032 -0.41882557615647897 0 -0.34896862463114708 -0.43284653717386518 0 -0.33859945361222787 -0.42211303292866548 0 -0.36387315973008189 -0.43434699867129989 0 -0.35683574839916032 -0.41882557615647897 0 -0.34896862463114708 -0.43284653717386518 0 -0.37636850370020941 -0.37698452578058428 0 -0.36120565013285338 -0.3784823695375325 0 -0.3746840518779867 -0.3908612585920983 0 -0.36120565013285338 -0.3784823695375325 0 -0.3746840518779867 -0.3908612585920983 0 -0.36120565013285338 -0.3784823695375325 0 -0.36381067907854853 -0.38917318974305343 0 -0.3746840518779867 -0.3908612585920983 0 -0.36120565013285338 -0.3784823695375325 0 -0.36381067907854853 -0.38917318974305343 0 -0.35346974791167007 -0.38541221180153917 0 -0.36381067907854853 -0.38917318974305343 0 -0.3746840518779867 -0.3908612585920983 0 -0.35874917479759172 -0.3996147466650708 0 -0.37499037753076658 -0.40948529014498602 0 -0.3746840518779867 -0.3908612585920983 0 -0.35874917479759172 -0.3996147466650708 0 -0.35874917479759172 -0.3996147466650708 0 -0.34538292854621272 -0.39166323546189957 0 -0.33825991866395849 -0.40278174787793442 0 -0.36381067907854853 -0.38917318974305343 0 -0.35874917479759172 -0.3996147466650708 0 -0.35346974791167007 -0.38541221180153917 0 -0.35874917479759172 -0.3996147466650708 0 -0.34538292854621272 -0.39166323546189957 0 -0.35346974791167007 -0.38541221180153917 0 -0.34538292854621272 -0.39166323546189957 0 -0.35346974791167007 -0.38541221180153917 0 -0.34336694359319347 -0.38188465138215988 0 -0.35346974791167007 -0.38541221180153917 0 -0.34785199637032083 -0.37578430694832871 0 -0.34336694359319347 -0.38188465138215988 0 -0.36120565013285338 -0.3784823695375325 0 -0.35346974791167007 -0.38541221180153917 0 -0.34785199637032083 -0.37578430694832871 0 -0.36120565013285338 -0.3784823695375325 0 -0.35346974791167007 -0.38541221180153917 0 -0.3385696257371098 -0.37153194030318881 0 -0.34336694359319347 -0.38188465138215988 0 -0.33369342445351741 -0.38332728859622578 0 -0.3385696257371098 -0.37153194030318881 0 -0.34785199637032083 -0.37578430694832871 0 -0.34336694359319347 -0.38188465138215988 0 -0.34538292854621272 -0.39166323546189957 0 -0.34336694359319347 -0.38188465138215988 0 -0.33369342445351741 -0.38332728859622578 0 -0.33369342445351741 -0.38332728859622578 0 -0.33825991866395849 -0.40278174787793442 0 -0.31253905193593517 -0.38857805988975819 0 -0.34538292854621272 -0.39166323546189957 0 -0.33369342445351741 -0.38332728859622578 0 -0.33825991866395849 -0.40278174787793442 0 -0.31253905193593517 -0.38857805988975819 0 -0.32087240813088469 -0.41449570416711329 0 -0.33825991866395849 -0.40278174787793442 0 -0.31253905193593517 -0.38857805988975819 0 -0.32087240813088469 -0.41449570416711329 0 -0.32395816944405281 -0.36358806834790092 0 -0.33369342445351741 -0.38332728859622578 0 -0.31253905193593517 -0.38857805988975819 0 -0.32920576432583409 -0.4404133484444685 0 -0.34896862463114708 -0.43284653717386518 0 -0.33859945361222787 -0.42211303292866548 0 -0.32920576432583409 -0.4404133484444685 0 -0.33859945361222787 -0.42211303292866548 0 -0.32087240813088469 -0.41449570416711329 0 -0.33825991866395849 -0.40278174787793442 0 -0.33859945361222787 -0.42211303292866548 0 -0.32087240813088469 -0.41449570416711329 0 -0.32920576432583409 -0.4404133484444685 0 -0.32087240813088469 -0.41449570416711329 0 -0.30972778871294332 -0.4319985571826479 0 -0.32920576432583409 -0.4404133484444685 0 -0.32087240813088469 -0.41449570416711329 0 -0.30972778871294332 -0.4319985571826479 0 -0.28764837529000481 -0.42063679942241983 0 -0.29538906227916278 -0.44709119961494842 0 -0.30972778871294332 -0.4319985571826479 0 -0.30215025001826129 -0.40813416649409018 0 -0.28764837529000481 -0.42063679942241983 0 -0.32087240813088469 -0.41449570416711329 0 -0.30972778871294332 -0.4319985571826479 0 -0.30215025001826129 -0.40813416649409018 0 -0.28764837529000481 -0.42063679942241983 0 -0.27990768830084678 -0.3941823992298914 0 -0.30215025001826129 -0.40813416649409018 0 -0.28764837529000481 -0.42063679942241983 0 -0.27990768830084678 -0.3941823992298914 0 -0.28764837529000481 -0.42063679942241983 0 -0.29538906227916278 -0.44709119961494842 0 -0.28764837529000481 -0.42063679942241983 0 -0.27100506486164272 -0.42954456366835819 0 -0.29538906227916278 -0.44709119961494842 0 -0.31253905193593517 -0.38857805988975819 0 -0.30215025001826129 -0.40813416649409018 0 -0.27990768830084678 -0.3941823992298914 0 -0.28595893496123531 -0.37281388491661371 0 -0.31253905193593517 -0.38857805988975819 0 -0.27990768830084678 -0.3941823992298914 0 -0.30420569574098588 -0.36266041561240331 0 -0.31253905193593517 -0.38857805988975819 0 -0.31253905193593517 -0.38857805988975819 0 -0.32087240813088469 -0.41449570416711329 0 -0.30215025001826129 -0.40813416649409018 0 -0.26560563766632223 -0.37479526911204453 0 -0.27990768830084678 -0.3941823992298914 0 -0.26134507047306121 -0.39346290730004008 0 -0.28595893496123531 -0.37281388491661371 0 -0.26560563766632223 -0.37479526911204453 0 -0.27990768830084678 -0.3941823992298914 0 -0.27990768830084678 -0.3941823992298914 0 -0.26134507047306121 -0.39346290730004008 0 -0.26199323360620158 -0.411547212997595 0 -0.26134507047306121 -0.39346290730004008 0 -0.26199323360620158 -0.411547212997595 0 -0.2458054735566427 -0.39803917742577688 0 -0.26134507047306121 -0.39346290730004008 0 -0.25224242704242777 -0.38299175316892781 0 -0.2458054735566427 -0.39803917742577688 0 -0.26560563766632223 -0.37479526911204453 0 -0.26134507047306121 -0.39346290730004008 0 -0.25224242704242777 -0.38299175316892781 0 -0.26560563766632223 -0.37479526911204453 0 -0.25213188902636108 -0.37290115198395468 0 -0.25224242704242777 -0.38299175316892781 0 -0.28764837529000481 -0.42063679942241983 0 -0.27100506486164272 -0.42954456366835819 0 -0.26199323360620158 -0.411547212997595 0 -0.28764837529000481 -0.42063679942241983 0 -0.27990768830084678 -0.3941823992298914 0 -0.26199323360620158 -0.411547212997595 0 -0.26199323360620158 -0.411547212997595 0 -0.25028785407227228 -0.43187991210279147 0 -0.24059857731757761 -0.41305967311517672 0 -0.27100506486164272 -0.42954456366835819 0 -0.26199323360620158 -0.411547212997595 0 -0.25028785407227228 -0.43187991210279147 0 -0.27100506486164272 -0.42954456366835819 0 -0.25028785407227228 -0.43187991210279147 0 -0.2694049291520102 -0.44798314118330229 0 -0.25028785407227228 -0.43187991210279147 0 -0.25192330507214061 -0.45722338234728171 0 -0.2694049291520102 -0.44798314118330229 0 -0.25192330507214061 -0.45722338234728171 0 -0.26665511931135683 -0.46488148934687462 0 -0.2694049291520102 -0.44798314118330229 0 -0.25192330507214061 -0.45722338234728171 0 -0.26665511931135683 -0.46488148934687462 0 -0.25292338725851038 -0.47421489646457993 0 -0.26665511931135683 -0.46488148934687462 0 -0.2694049291520102 -0.44798314118330229 0 -0.2830195865543359 -0.46192757389231631 0 -0.27100506486164272 -0.42954456366835819 0 -0.2694049291520102 -0.44798314118330229 0 -0.29538906227916278 -0.44709119961494842 0 -0.2694049291520102 -0.44798314118330229 0 -0.29538906227916278 -0.44709119961494842 0 -0.2830195865543359 -0.46192757389231631 0 -0.29538906227916278 -0.44709119961494842 0 -0.2830195865543359 -0.46192757389231631 0 -0.30312974926832081 -0.47354559980747662 0 -0.31790384293577562 -0.45834582281739827 0 -0.29538906227916278 -0.44709119961494842 0 -0.30312974926832081 -0.47354559980747662 0 -0.29538906227916278 -0.44709119961494842 0 -0.30312974926832081 -0.47354559980747662 0 -0.31790384293577562 -0.45834582281739827 0 -0.30972778871294332 -0.4319985571826479 0 -0.29538906227916278 -0.44709119961494842 0 -0.3108704362574799 -0.50000000000000455 0 -0.30312974926832081 -0.47354559980747662 0 -0.28927425184582189 -0.5 0 -0.3108704362574799 -0.50000000000000455 0 -0.30312974926832081 -0.47354559980747662 0 -0.30312974926832081 -0.47354559980747662 0 -0.28927425184582189 -0.5 0 -0.27926006549378268 -0.47953291503856171 0 -0.2830195865543359 -0.46192757389231631 0 -0.30312974926832081 -0.47354559980747662 0 -0.27926006549378268 -0.47953291503856171 0 -0.26767806743416389 -0.5 0 -0.27926006549378268 -0.47953291503856171 0 -0.26485015248143762 -0.47951327445418551 0 -0.28927425184582189 -0.5 0 -0.26767806743416389 -0.5 0 -0.27926006549378268 -0.47953291503856171 0 -0.26665511931135683 -0.46488148934687462 0 -0.2830195865543359 -0.46192757389231631 0 -0.27926006549378268 -0.47953291503856171 0 -0.26665511931135683 -0.46488148934687462 0 -0.27926006549378268 -0.47953291503856171 0 -0.26485015248143762 -0.47951327445418551 0 -0.26665511931135683 -0.46488148934687462 0 -0.26485015248143762 -0.47951327445418551 0 -0.25292338725851038 -0.47421489646457993 0 -0.25292338725851038 -0.47421489646457993 0 -0.25490917048719292 -0.48741473830182008 0 -0.24268839980561019 -0.48431773009502632 0 -0.26485015248143762 -0.47951327445418551 0 -0.25292338725851038 -0.47421489646457993 0 -0.25490917048719292 -0.48741473830182008 0 -0.26767806743416389 -0.5 0 -0.25490917048719292 -0.48741473830182008 0 -0.24608188302250589 -0.49999999999999828 0 -0.26767806743416389 -0.5 0 -0.26485015248143762 -0.47951327445418551 0 -0.25490917048719292 -0.48741473830182008 0 -0.24608188302250589 -0.49999999999999828 0 -0.24268839980561019 -0.48431773009502632 0 -0.2225564638642176 -0.5 0 -0.24608188302250589 -0.49999999999999828 0 -0.24268839980561019 -0.48431773009502632 0 -0.25490917048719292 -0.48741473830182008 0 -0.24608188302250589 -0.49999999999999828 0 -0.24268839980561019 -0.48431773009502632 0 -0.24268839980561019 -0.48431773009502632 0 -0.22466373404865611 -0.47896949592688631 0 -0.2392949165887169 -0.46863546019005381 0 -0.25292338725851038 -0.47421489646457993 0 -0.24268839980561019 -0.48431773009502632 0 -0.2392949165887169 -0.46863546019005381 0 -0.24268839980561019 -0.48431773009502632 0 -0.2392949165887169 -0.46863546019005381 0 -0.25292338725851038 -0.47421489646457993 0 -0.2392949165887169 -0.46863546019005381 0 -0.22466373404865611 -0.47896949592688631 0 -0.2392949165887169 -0.46863546019005381 0 -0.2193469922730652 -0.46046886723733232 0 -0.24268839980561019 -0.48431773009502632 0 -0.22466373404865611 -0.47896949592688631 0 -0.2225564638642176 -0.5 0 -0.25028785407227228 -0.43187991210279147 0 -0.25192330507214061 -0.45722338234728171 0 -0.23467150844382281 -0.44726935056911221 0 -0.25192330507214061 -0.45722338234728171 0 -0.23467150844382281 -0.44726935056911221 0 -0.2392949165887169 -0.46863546019005381 0 -0.25192330507214061 -0.45722338234728171 0 -0.25292338725851038 -0.47421489646457993 0 -0.2392949165887169 -0.46863546019005381 0 -0.23467150844382281 -0.44726935056911221 0 -0.2392949165887169 -0.46863546019005381 0 -0.23467150844382281 -0.44726935056911221 0 -0.2392949165887169 -0.46863546019005381 0 -0.2193469922730652 -0.46046886723733232 0 -0.2392949165887169 -0.46863546019005381 0 -0.2193469922730652 -0.46046886723733232 0 -0.23467150844382281 -0.44726935056911221 0 -0.2193469922730652 -0.46046886723733232 0 -0.21472358412817261 -0.43910275761639123 0 -0.2193469922730652 -0.46046886723733232 0 -0.21472358412817261 -0.43910275761639123 0 -0.1993990679574128 -0.45230227428461228 0 -0.2193469922730652 -0.46046886723733232 0 -0.1993990679574128 -0.45230227428461228 0 -0.20353980853874329 -0.47834352250025047 0 -0.2193469922730652 -0.46046886723733232 0 -0.1993990679574128 -0.45230227428461228 0 -0.1993990679574128 -0.45230227428461228 0 -0.20353980853874329 -0.47834352250025047 0 -0.1849172711896776 -0.46878318315415141 0 -0.1993990679574128 -0.45230227428461228 0 -0.1849172711896776 -0.46878318315415141 0 -0.18188001234697579 -0.45553775187336032 0 -0.1993990679574128 -0.45230227428461228 0 -0.1794511436417604 -0.44413568133189257 0 -0.1993990679574128 -0.45230227428461228 0 -0.1794511436417604 -0.44413568133189257 0 -0.19477565981252121 -0.43093616466367107 0 -0.21472358412817261 -0.43910275761639123 0 -0.1993990679574128 -0.45230227428461228 0 -0.19477565981252121 -0.43093616466367107 0 -0.2225564638642176 -0.5 0 -0.20353980853874329 -0.47834352250025047 0 -0.19903104470592931 -0.5 0 -0.22466373404865611 -0.47896949592688631 0 -0.2225564638642176 -0.5 0 -0.20353980853874329 -0.47834352250025047 0 -0.22466373404865611 -0.47896949592688631 0 -0.2193469922730652 -0.46046886723733232 0 -0.20353980853874329 -0.47834352250025047 0 -0.20353980853874329 -0.47834352250025047 0 -0.18632047491501141 -0.48502864762582021 0 -0.1849172711896776 -0.46878318315415141 0 -0.20353980853874329 -0.47834352250025047 0 -0.19903104470592931 -0.5 0 -0.18632047491501141 -0.48502864762582021 0 -0.18632047491501141 -0.48502864762582021 0 -0.17550562554764099 -0.49999999999999639 0 -0.16860862459306589 -0.47801653247469877 0 -0.17550562554764099 -0.49999999999999639 0 -0.16860862459306589 -0.47801653247469877 0 -0.19903104470592931 -0.5 0 -0.18632047491501141 -0.48502864762582021 0 -0.17550562554764099 -0.49999999999999639 0 -0.17550562554764099 -0.49999999999999639 0 -0.16860862459306589 -0.47801653247469877 0 -0.14964539936867671 -0.5 0 -0.16860862459306589 -0.47801653247469877 0 -0.1849172711896776 -0.46878318315415141 0 -0.17384575027618149 -0.46173040926519793 0 -0.18632047491501141 -0.48502864762582021 0 -0.16860862459306589 -0.47801653247469877 0 -0.1849172711896776 -0.46878318315415141 0 -0.1849172711896776 -0.46878318315415141 0 -0.18188001234697579 -0.45553775187336032 0 -0.17384575027618149 -0.46173040926519793 0 -0.18188001234697579 -0.45553775187336032 0 -0.17384575027618149 -0.46173040926519793 0 -0.17178682866984671 -0.45073721133094741 0 -0.1993990679574128 -0.45230227428461228 0 -0.18188001234697579 -0.45553775187336032 0 -0.1794511436417604 -0.44413568133189257 0 -0.1794511436417604 -0.44413568133189257 0 -0.19477565981252121 -0.43093616466367107 0 -0.18188001234697579 -0.45553775187336032 0 -0.1794511436417604 -0.44413568133189257 0 -0.17178682866984671 -0.45073721133094741 0 -0.1794511436417604 -0.44413568133189257 0 -0.17178682866984671 -0.45073721133094741 0 -0.16171162363848979 -0.45603306494940132 0 -0.15481462268391399 -0.43404959742410387 0 -0.1794511436417604 -0.44413568133189257 0 -0.17178682866984671 -0.45073721133094741 0 -0.15481462268391399 -0.43404959742410387 0 -0.17178682866984671 -0.45073721133094741 0 -0.16171162363848979 -0.45603306494940132 0 -0.15481462268391399 -0.43404959742410387 0 -0.1794511436417604 -0.44413568133189257 0 -0.15481462268391399 -0.43404959742410387 0 -0.16860862459306589 -0.47801653247469877 0 -0.16171162363848979 -0.45603306494940132 0 -0.16860862459306589 -0.47801653247469877 0 -0.17384575027618149 -0.46173040926519793 0 -0.16171162363848979 -0.45603306494940132 0 -0.16860862459306589 -0.47801653247469877 0 -0.16171162363848979 -0.45603306494940132 0 -0.14790111081020449 -0.47162418710128062 0 -0.17384575027618149 -0.46173040926519793 0 -0.17178682866984671 -0.45073721133094741 0 -0.16171162363848979 -0.45603306494940132 0 -0.16171162363848979 -0.45603306494940132 0 -0.14588017709014581 -0.45736431418236451 0 -0.14790111081020449 -0.47162418710128062 0 -0.14588017709014581 -0.45736431418236451 0 -0.13570866563527689 -0.46262132037486359 0 -0.14790111081020449 -0.47162418710128062 0 -0.16171162363848979 -0.45603306494940132 0 -0.14588017709014581 -0.45736431418236451 0 -0.1473305982499423 -0.44441569730063968 0 -0.16171162363848979 -0.45603306494940132 0 -0.1473305982499423 -0.44441569730063968 0 -0.15481462268391399 -0.43404959742410387 0 -0.14588017709014581 -0.45736431418236451 0 -0.1473305982499423 -0.44441569730063968 0 -0.13622458594969991 -0.45102085019871518 0 -0.1473305982499423 -0.44441569730063968 0 -0.1372229340212977 -0.44106821094579579 0 -0.14438186437353989 -0.43689236650077129 0 -0.1473305982499423 -0.44441569730063968 0 -0.14438186437353989 -0.43689236650077129 0 -0.1526660041905547 -0.43316996241204447 0 -0.1372229340212977 -0.44106821094579579 0 -0.12835719998641151 -0.45006772718178129 0 -0.12981075808947021 -0.43419304774826278 0 -0.12835719998641151 -0.45006772718178129 0 -0.12981075808947021 -0.43419304774826278 0 -0.1372229340212977 -0.44106821094579579 0 -0.13622458594969991 -0.45102085019871518 0 -0.12835719998641151 -0.45006772718178129 0 -0.1473305982499423 -0.44441569730063968 0 -0.1372229340212977 -0.44106821094579579 0 -0.13622458594969991 -0.45102085019871518 0 -0.13622458594969991 -0.45102085019871518 0 -0.12835719998641151 -0.45006772718178129 0 -0.12835719998641151 -0.45006772718178129 0 -0.12607118658806191 -0.47503386359089061 0 -0.12835719998641151 -0.45006772718178129 0 -0.13570866563527689 -0.46262132037486359 0 -0.12607118658806191 -0.47503386359089061 0 -0.14588017709014581 -0.45736431418236451 0 -0.13622458594969991 -0.45102085019871518 0 -0.13570866563527689 -0.46262132037486359 0 -0.13622458594969991 -0.45102085019871518 0 -0.12835719998641151 -0.45006772718178129 0 -0.13570866563527689 -0.46262132037486359 0 -0.13570866563527689 -0.46262132037486359 0 -0.12607118658806191 -0.47503386359089061 0 -0.14790111081020449 -0.47162418710128062 0 -0.12607118658806191 -0.47503386359089061 0 -0.14964539936867671 -0.5 0 -0.1237851731897123 -0.49999999999999978 0 -0.12607118658806191 -0.47503386359089061 0 -0.14964539936867671 -0.5 0 -0.14790111081020449 -0.47162418710128062 0 -0.16860862459306589 -0.47801653247469877 0 -0.14964539936867671 -0.5 0 -0.14790111081020449 -0.47162418710128062 0 -0.14274871127018121 -0.40172422291334081 0 -0.16170370657161401 -0.41107257022992683 0 -0.16070377972263961 -0.3932804746786448 0 -0.14274871127018121 -0.40172422291334081 0 -0.14471837491989131 -0.38030865844261169 0 -0.16070377972263961 -0.3932804746786448 0 -0.14471837491989131 -0.38030865844261169 0 -0.16070377972263961 -0.3932804746786448 0 -0.16330196678568379 -0.37347445955680769 0 -0.14471837491989131 -0.38030865844261169 0 -0.1307327624025432 -0.36466620540319777 0 -0.1212918100736281 -0.39233659862993148 0 -0.14274871127018121 -0.40172422291334081 0 -0.12818254669925219 -0.4058692702250673 0 -0.1212918100736281 -0.39233659862993148 0 -0.14274871127018121 -0.40172422291334081 0 -0.14471837491989131 -0.38030865844261169 0 -0.1212918100736281 -0.39233659862993148 0 -0.12818254669925219 -0.4058692702250673 0 -0.13126431619252879 -0.41831836831474428 0 -0.1174253492606708 -0.41109789104225303 0 -0.14274871127018121 -0.40172422291334081 0 -0.12818254669925219 -0.4058692702250673 0 -0.13126431619252879 -0.41831836831474428 0 -0.13126431619252879 -0.41831836831474428 0 -0.12981075808947021 -0.43419304774826278 0 -0.11953579869486899 -0.42421667690442399 0 -0.13126431619252879 -0.41831836831474428 0 -0.12981075808947021 -0.43419304774826278 0 -0.13126431619252879 -0.41831836831474428 0 -0.12981075808947021 -0.43419304774826278 0 -0.14100797730167169 -0.42853439149979577 0 -0.1372229340212977 -0.44106821094579579 0 -0.12981075808947021 -0.43419304774826278 0 -0.14100797730167169 -0.42853439149979577 0 -0.13126431619252879 -0.41831836831474428 0 -0.14100797730167169 -0.42853439149979577 0 -0.15051655214064741 -0.42034994813717158 0 -0.1471430995016034 -0.42973666713744579 0 -0.14438186437353989 -0.43689236650077129 0 -0.1526660041905547 -0.43316996241204447 0 -0.1471430995016034 -0.42973666713744579 0 -0.14438186437353989 -0.43689236650077129 0 -0.14100797730167169 -0.42853439149979577 0 -0.1372229340212977 -0.44106821094579579 0 -0.14438186437353989 -0.43689236650077129 0 -0.14100797730167169 -0.42853439149979577 0 -0.1471430995016034 -0.42973666713744579 0 -0.14100797730167169 -0.42853439149979577 0 -0.15051655214064741 -0.42034994813717158 0 -0.1471430995016034 -0.42973666713744579 0 -0.1526660041905547 -0.43316996241204447 0 -0.15051655214064741 -0.42034994813717158 0 -0.1526660041905547 -0.43316996241204447 0 -0.15481462268391399 -0.43404959742410387 0 -0.15051655214064741 -0.42034994813717158 0 -0.15481462268391399 -0.43404959742410387 0 -0.15051655214064741 -0.42034994813717158 0 -0.1473305982499423 -0.44441569730063968 0 -0.1526660041905547 -0.43316996241204447 0 -0.15481462268391399 -0.43404959742410387 0 -0.1526660041905547 -0.43316996241204447 0 -0.15481462268391399 -0.43404959742410387 0 -0.14274871127018121 -0.40172422291334081 0 -0.15051655214064741 -0.42034994813717158 0 -0.16170370657161401 -0.41107257022992683 0 -0.14274871127018121 -0.40172422291334081 0 -0.13126431619252879 -0.41831836831474428 0 -0.15051655214064741 -0.42034994813717158 0 -0.16170370657161401 -0.41107257022992683 0 -0.17735896166538229 -0.42208966181978191 0 -0.17638898889647761 -0.40526928375867582 0 -0.16170370657161401 -0.41107257022992683 0 -0.16476899734066369 -0.42633949178857528 0 -0.17735896166538229 -0.42208966181978191 0 -0.15051655214064741 -0.42034994813717158 0 -0.16170370657161401 -0.41107257022992683 0 -0.16476899734066369 -0.42633949178857528 0 -0.1794511436417604 -0.44413568133189257 0 -0.15481462268391399 -0.43404959742410387 0 -0.16476899734066369 -0.42633949178857528 0 -0.15481462268391399 -0.43404959742410387 0 -0.15051655214064741 -0.42034994813717158 0 -0.16476899734066369 -0.42633949178857528 0 -0.1794511436417604 -0.44413568133189257 0 -0.16476899734066369 -0.42633949178857528 0 -0.17735896166538229 -0.42208966181978191 0 -0.17735896166538229 -0.42208966181978191 0 -0.19477565981252121 -0.43093616466367107 0 -0.1887674987202429 -0.41678928990154779 0 -0.1794511436417604 -0.44413568133189257 0 -0.17735896166538229 -0.42208966181978191 0 -0.19477565981252121 -0.43093616466367107 0 -0.17638898889647761 -0.40526928375867582 0 -0.19251226459153051 -0.40188262046081719 0 -0.1887674987202429 -0.41678928990154779 0 -0.17735896166538229 -0.42208966181978191 0 -0.17638898889647761 -0.40526928375867582 0 -0.1887674987202429 -0.41678928990154779 0 -0.17638898889647761 -0.40526928375867582 0 -0.1773897988104518 -0.38620770669229082 0 -0.19251226459153051 -0.40188262046081719 0 -0.16170370657161401 -0.41107257022992683 0 -0.17638898889647761 -0.40526928375867582 0 -0.16070377972263961 -0.3932804746786448 0 -0.17638898889647761 -0.40526928375867582 0 -0.16070377972263961 -0.3932804746786448 0 -0.1773897988104518 -0.38620770669229082 0 -0.16070377972263961 -0.3932804746786448 0 -0.1773897988104518 -0.38620770669229082 0 -0.16330196678568379 -0.37347445955680769 0 -0.1773897988104518 -0.38620770669229082 0 -0.19167624550953449 -0.37523108367403307 0 -0.19251226459153051 -0.40188262046081719 0 -0.19167624550953449 -0.37523108367403307 0 -0.19251226459153051 -0.40188262046081719 0 -0.20922763169302189 -0.39450409540588882 0 -0.19167624550953449 -0.37523108367403307 0 -0.19251226459153051 -0.40188262046081719 0 -0.19251226459153051 -0.40188262046081719 0 -0.20922763169302189 -0.39450409540588882 0 -0.21010017598328179 -0.41773664799544957 0 -0.20922763169302189 -0.39450409540588882 0 -0.21010017598328179 -0.41773664799544957 0 -0.22542469215404201 -0.40453713132722752 0 -0.20922763169302189 -0.39450409540588882 0 -0.2197229462937059 -0.37818771045308902 0 -0.22542469215404201 -0.40453713132722752 0 -0.19167624550953449 -0.37523108367403307 0 -0.20922763169302189 -0.39450409540588882 0 -0.2197229462937059 -0.37818771045308902 0 -0.19477565981252121 -0.43093616466367107 0 -0.21010017598328179 -0.41773664799544957 0 -0.19251226459153051 -0.40188262046081719 0 -0.1887674987202429 -0.41678928990154779 0 -0.21010017598328179 -0.41773664799544957 0 -0.19477565981252121 -0.43093616466367107 0 -0.1887674987202429 -0.41678928990154779 0 -0.21010017598328179 -0.41773664799544957 0 -0.21010017598328179 -0.41773664799544957 0 -0.22542469215404201 -0.40453713132722752 0 -0.21472358412817261 -0.43910275761639123 0 -0.19477565981252121 -0.43093616466367107 0 -0.21010017598328179 -0.41773664799544957 0 -0.21472358412817261 -0.43910275761639123 0 -0.21010017598328179 -0.41773664799544957 0 -0.23004810029893161 -0.42590324094817 0 -0.23467150844382281 -0.44726935056911221 0 -0.23004810029893161 -0.42590324094817 0 -0.23467150844382281 -0.44726935056911221 0 -0.21472358412817261 -0.43910275761639123 0 -0.23004810029893161 -0.42590324094817 0 -0.23004810029893161 -0.42590324094817 0 -0.22542469215404201 -0.40453713132722752 0 -0.23004810029893161 -0.42590324094817 0 -0.24059857731757761 -0.41305967311517672 0 -0.22542469215404201 -0.40453713132722752 0 -0.21010017598328179 -0.41773664799544957 0 -0.23004810029893161 -0.42590324094817 0 -0.22542469215404201 -0.40453713132722752 0 -0.24059857731757761 -0.41305967311517672 0 -0.22542469215404201 -0.40453713132722752 0 -0.23554033513411979 -0.40227203365794972 0 -0.26199323360620158 -0.411547212997595 0 -0.24059857731757761 -0.41305967311517672 0 -0.2458054735566427 -0.39803917742577688 0 -0.25028785407227228 -0.43187991210279147 0 -0.23004810029893161 -0.42590324094817 0 -0.24059857731757761 -0.41305967311517672 0 -0.25028785407227228 -0.43187991210279147 0 -0.23467150844382281 -0.44726935056911221 0 -0.23004810029893161 -0.42590324094817 0 -0.2197229462937059 -0.37818771045308902 0 -0.22940872702698109 -0.4011055492709889 0 -0.23531590221624321 -0.38510332284822651 0 -0.2197229462937059 -0.37818771045308902 0 -0.23531590221624321 -0.38510332284822651 0 -0.2317626771701958 -0.37413522461946969 0 -0.2197229462937059 -0.37818771045308902 0 -0.22542469215404201 -0.40453713132722752 0 -0.22940872702698109 -0.4011055492709889 0 -0.2197229462937059 -0.37818771045308902 0 -0.22542469215404201 -0.40453713132722752 0 -0.22940872702698109 -0.4011055492709889 0 -0.236464205615357 -0.39461863715057821 0 -0.23531590221624321 -0.38510332284822651 0 -0.22542469215404201 -0.40453713132722752 0 -0.22940872702698109 -0.4011055492709889 0 -0.23554033513411979 -0.40227203365794972 0 -0.22542469215404201 -0.40453713132722752 0 -0.22940872702698109 -0.4011055492709889 0 -0.22940872702698109 -0.4011055492709889 0 -0.236464205615357 -0.39461863715057821 0 -0.23554033513411979 -0.40227203365794972 0 -0.236464205615357 -0.39461863715057821 0 -0.2458054735566427 -0.39803917742577688 0 -0.23531590221624321 -0.38510332284822651 0 -0.236464205615357 -0.39461863715057821 0 -0.23554033513411979 -0.40227203365794972 0 -0.2458054735566427 -0.39803917742577688 0 -0.24059857731757761 -0.41305967311517672 0 -0.23554033513411979 -0.40227203365794972 0 -0.2458054735566427 -0.39803917742577688 0 -0.25224242704242777 -0.38299175316892781 0 -0.23531590221624321 -0.38510332284822651 0 -0.24236754685893461 -0.37374732851379511 0 -0.25224242704242777 -0.38299175316892781 0 -0.2458054735566427 -0.39803917742577688 0 -0.23531590221624321 -0.38510332284822651 0 -0.23531590221624321 -0.38510332284822651 0 -0.24236754685893461 -0.37374732851379511 0 -0.2317626771701958 -0.37413522461946969 0 -0.25213188902636108 -0.37290115198395468 0 -0.25224242704242777 -0.38299175316892781 0 -0.24236754685893461 -0.37374732851379511 0 -0.25213188902636108 -0.37290115198395468 0 -0.24236754685893461 -0.37374732851379511 0 -0.24568756064932509 -0.36614136898781208 0 -0.25508423921391521 -0.36471290819752672 0 -0.24568756064932509 -0.36614136898781208 0 -0.2418713049423058 -0.35575341085507128 0 -0.24568756064932509 -0.36614136898781208 0 -0.2377609922491509 -0.36678200500941671 0 -0.2418713049423058 -0.35575341085507128 0 -0.2377609922491509 -0.36678200500941671 0 -0.22756533709028459 -0.36377996354737507 0 -0.2418713049423058 -0.35575341085507128 0 -0.24236754685893461 -0.37374732851379511 0 -0.24568756064932509 -0.36614136898781208 0 -0.2377609922491509 -0.36678200500941671 0 -0.24236754685893461 -0.37374732851379511 0 -0.2377609922491509 -0.36678200500941671 0 -0.2317626771701958 -0.37413522461946969 0 -0.2197229462937059 -0.37818771045308902 0 -0.22756533709028459 -0.36377996354737507 0 -0.21402120043337239 -0.35183828957895003 0 -0.2377609922491509 -0.36678200500941671 0 -0.2317626771701958 -0.37413522461946969 0 -0.22756533709028459 -0.36377996354737507 0 -0.2197229462937059 -0.37818771045308902 0 -0.2317626771701958 -0.37413522461946969 0 -0.22756533709028459 -0.36377996354737507 0 -0.23409260186247799 -0.35334955286142078 0 -0.2418713049423058 -0.35575341085507128 0 -0.21402120043337239 -0.35183828957895003 0 -0.22756533709028459 -0.36377996354737507 0 -0.2418713049423058 -0.35575341085507128 0 -0.21402120043337239 -0.35183828957895003 0 -0.2418713049423058 -0.35575341085507128 0 -0.21402120043337239 -0.35183828957895003 0 -0.23409260186247799 -0.35334955286142078 0 -0.21999550095729009 -0.34262302504050712 0 -0.21402120043337239 -0.35183828957895003 0 -0.2379719226497016 -0.34929098775622047 0 -0.24099733700684139 -0.34391548443178088 0 -0.21999550095729009 -0.34262302504050712 0 -0.23409260186247799 -0.35334955286142078 0 -0.2379719226497016 -0.34929098775622047 0 -0.21999550095729009 -0.34262302504050712 0 -0.23409260186247799 -0.35334955286142078 0 -0.21999550095729009 -0.34262302504050712 0 -0.2379719226497016 -0.34929098775622047 0 -0.2418713049423058 -0.35575341085507128 0 -0.24453587453487571 -0.3496054668012657 0 -0.2379719226497016 -0.34929098775622047 0 -0.24099733700684139 -0.34391548443178088 0 -0.24453587453487571 -0.3496054668012657 0 -0.23409260186247799 -0.35334955286142078 0 -0.2379719226497016 -0.34929098775622047 0 -0.2418713049423058 -0.35575341085507128 0 -0.25121822142711608 -0.34911212390415342 0 -0.2418713049423058 -0.35575341085507128 0 -0.24453587453487571 -0.3496054668012657 0 -0.25121822142711608 -0.34911212390415342 0 -0.24099733700684139 -0.34391548443178088 0 -0.24453587453487571 -0.3496054668012657 0 -0.24099733700684139 -0.34391548443178088 0 -0.24963887710169039 -0.33797626832805222 0 -0.24207630880964229 -0.34086027220056131 0 -0.24099733700684139 -0.34391548443178088 0 -0.24207630880964229 -0.34086027220056131 0 -0.22549863200964029 -0.33456442487780103 0 -0.24494035019171731 -0.33701303388135051 0 -0.24963887710169039 -0.33797626832805222 0 -0.24207630880964229 -0.34086027220056131 0 -0.24494035019171731 -0.33701303388135051 0 -0.24207630880964229 -0.34086027220056131 0 -0.24152463158862611 -0.3360139036137379 0 -0.24494035019171731 -0.33701303388135051 0 -0.24963887710169039 -0.33797626832805222 0 -0.24382114478876221 -0.33234919908699567 0 -0.25302992996794599 -0.32876472312003091 0 -0.24963887710169039 -0.33797626832805222 0 -0.24382114478876221 -0.33234919908699567 0 -0.24494035019171731 -0.33701303388135051 0 -0.24382114478876221 -0.33234919908699567 0 -0.24152463158862611 -0.3360139036137379 0 -0.24382114478876221 -0.33234919908699567 0 -0.23526072256438271 -0.33383310928604432 0 -0.2379365309409931 -0.3251696365217781 0 -0.24382114478876221 -0.33234919908699567 0 -0.23526072256438271 -0.33383310928604432 0 -0.24152463158862611 -0.3360139036137379 0 -0.23526072256438271 -0.33383310928604432 0 -0.24207630880964229 -0.34086027220056131 0 -0.24152463158862611 -0.3360139036137379 0 -0.2518103001501879 -0.31510795478552772 0 -0.2444626984315951 -0.3148219144055267 0 -0.24744872754676259 -0.30796639199311338 0 -0.2518103001501879 -0.31510795478552772 0 -0.2444626984315951 -0.3148219144055267 0 -0.24628349347346559 -0.32245400734170759 0 -0.2444626984315951 -0.3148219144055267 0 -0.24628349347346559 -0.32245400734170759 0 -0.23918166632781179 -0.31819497482788522 0 -0.24382114478876221 -0.33234919908699567 0 -0.24628349347346559 -0.32245400734170759 0 -0.2379365309409931 -0.3251696365217781 0 -0.25302992996794599 -0.32876472312003091 0 -0.24382114478876221 -0.33234919908699567 0 -0.24628349347346559 -0.32245400734170759 0 -0.24628349347346559 -0.32245400734170759 0 -0.2379365309409931 -0.3251696365217781 0 -0.23918166632781179 -0.31819497482788522 0 -0.2379365309409931 -0.3251696365217781 0 -0.23918166632781179 -0.31819497482788522 0 -0.2324454775921358 -0.31764972649313072 0 -0.23918166632781179 -0.31819497482788522 0 -0.2324454775921358 -0.31764972649313072 0 -0.2379531872321409 -0.31032233811853399 0 -0.2444626984315951 -0.3148219144055267 0 -0.23918166632781179 -0.31819497482788522 0 -0.2379531872321409 -0.31032233811853399 0 -0.2324454775921358 -0.31764972649313072 0 -0.2379531872321409 -0.31032233811853399 0 -0.2262151478085698 -0.31040456482104473 0 -0.2324454775921358 -0.31764972649313072 0 -0.2227448889872167 -0.31876903018766711 0 -0.2262151478085698 -0.31040456482104473 0 -0.2324454775921358 -0.31764972649313072 0 -0.22869807342647361 -0.32592151386562251 0 -0.2227448889872167 -0.31876903018766711 0 -0.2379365309409931 -0.3251696365217781 0 -0.2324454775921358 -0.31764972649313072 0 -0.22869807342647361 -0.32592151386562251 0 -0.22869807342647361 -0.32592151386562251 0 -0.2227448889872167 -0.31876903018766711 0 -0.21830218846447311 -0.32554315582731391 0 -0.2227448889872167 -0.31876903018766711 0 -0.21677762662543851 -0.3140438374194332 0 -0.2262151478085698 -0.31040456482104473 0 -0.24099733700684139 -0.34391548443178088 0 -0.21999550095729009 -0.34262302504050712 0 -0.24099733700684139 -0.34391548443178088 0 -0.22549863200964029 -0.33456442487780103 0 -0.21999550095729009 -0.34262302504050712 0 -0.23526072256438271 -0.33383310928604432 0 -0.24207630880964229 -0.34086027220056131 0 -0.22549863200964029 -0.33456442487780103 0 -0.24207630880964229 -0.34086027220056131 0 -0.22549863200964029 -0.33456442487780103 0 -0.23526072256438271 -0.33383310928604432 0 -0.2379365309409931 -0.3251696365217781 0 -0.22869807342647361 -0.32592151386562251 0 -0.23526072256438271 -0.33383310928604432 0 -0.22869807342647361 -0.32592151386562251 0 -0.22549863200964029 -0.33456442487780103 0 -0.22869807342647361 -0.32592151386562251 0 -0.22549863200964029 -0.33456442487780103 0 -0.21830218846447311 -0.32554315582731391 0 -0.21999550095729009 -0.34262302504050712 0 -0.2119195664518625 -0.3421260295697155 0 -0.22549863200964029 -0.33456442487780103 0 -0.2104564985343676 -0.3353647684981515 0 -0.20892095520963661 -0.32826857755504518 0 -0.22549863200964029 -0.33456442487780103 0 -0.21999550095729009 -0.34262302504050712 0 -0.2104564985343676 -0.3353647684981515 0 -0.2104564985343676 -0.3353647684981515 0 -0.20892095520963661 -0.32826857755504518 0 -0.1933675294217107 -0.32236171887465842 0 -0.22549863200964029 -0.33456442487780103 0 -0.20892095520963661 -0.32826857755504518 0 -0.21999550095729009 -0.34262302504050712 0 -0.2119195664518625 -0.3421260295697155 0 -0.2104564985343676 -0.3353647684981515 0 -0.22549863200964029 -0.33456442487780103 0 -0.20892095520963661 -0.32826857755504518 0 -0.21830218846447311 -0.32554315582731391 0 -0.21999550095729009 -0.34262302504050712 0 -0.2104564985343676 -0.3353647684981515 0 -0.2119195664518625 -0.3421260295697155 0 -0.2104564985343676 -0.3353647684981515 0 -0.2104564985343676 -0.3353647684981515 0 -0.20892095520963661 -0.32826857755504518 0 -0.2119195664518625 -0.3421260295697155 0 -0.2104564985343676 -0.3353647684981515 0 -0.19903323289787969 -0.33264661777059762 0 -0.2227448889872167 -0.31876903018766711 0 -0.21677762662543851 -0.3140438374194332 0 -0.21300752774916931 -0.31936196777866471 0 -0.21677762662543851 -0.3140438374194332 0 -0.21300752774916931 -0.31936196777866471 0 -0.20572236985072309 -0.31321218202599421 0 -0.20892095520963661 -0.32826857755504518 0 -0.21830218846447311 -0.32554315582731391 0 -0.21135953081662759 -0.32452652680119171 0 -0.2227448889872167 -0.31876903018766711 0 -0.21300752774916931 -0.31936196777866471 0 -0.21830218846447311 -0.32554315582731391 0 -0.21300752774916931 -0.31936196777866471 0 -0.21830218846447311 -0.32554315582731391 0 -0.21135953081662759 -0.32452652680119171 0 -0.20892095520963661 -0.32826857755504518 0 -0.21135953081662759 -0.32452652680119171 0 -0.20780486506990159 -0.32192438998627032 0 -0.20892095520963661 -0.32826857755504518 0 -0.20780486506990159 -0.32192438998627032 0 -0.20216609760094489 -0.32167068295677659 0 -0.21300752774916931 -0.31936196777866471 0 -0.21135953081662759 -0.32452652680119171 0 -0.20780486506990159 -0.32192438998627032 0 -0.21300752774916931 -0.31936196777866471 0 -0.20780486506990159 -0.32192438998627032 0 -0.20572236985072309 -0.31321218202599421 0 -0.20780486506990159 -0.32192438998627032 0 -0.20572236985072309 -0.31321218202599421 0 -0.20216609760094489 -0.32167068295677659 0 -0.1933675294217107 -0.32236171887465842 0 -0.18993590475829211 -0.31975058502021148 0 -0.19059662678797651 -0.34081380936415517 0 -0.20572236985072309 -0.31321218202599421 0 -0.19798672953582189 -0.31648439153481539 0 -0.20216609760094489 -0.32167068295677659 0 -0.20572236985072309 -0.31321218202599421 0 -0.19798672953582189 -0.31648439153481539 0 -0.19807122784292761 -0.30803924551965822 0 -0.19798672953582189 -0.31648439153481539 0 -0.20216609760094489 -0.32167068295677659 0 -0.1933675294217107 -0.32236171887465842 0 -0.19798672953582189 -0.31648439153481539 0 -0.18993590475829211 -0.31975058502021148 0 -0.19807122784292761 -0.30803924551965822 0 -0.20892095520963661 -0.32826857755504518 0 -0.20216609760094489 -0.32167068295677659 0 -0.1933675294217107 -0.32236171887465842 0 -0.20892095520963661 -0.32826857755504518 0 -0.1933675294217107 -0.32236171887465842 0 -0.1933675294217107 -0.32236171887465842 0 -0.18993590475829211 -0.31975058502021148 0 -0.19798672953582189 -0.31648439153481539 0 -0.1933675294217107 -0.32236171887465842 0 -0.18993590475829211 -0.31975058502021148 0 -0.18993590475829211 -0.31975058502021148 0 -0.19059662678797651 -0.34081380936415517 0 -0.182966515971271 -0.33087768440788229 0 -0.2119195664518625 -0.3421260295697155 0 -0.19059662678797651 -0.34081380936415517 0 -0.2104564985343676 -0.3353647684981515 0 -0.1933675294217107 -0.32236171887465842 0 -0.19903323289787969 -0.33264661777059762 0 -0.2119195664518625 -0.3421260295697155 0 -0.19903323289787969 -0.33264661777059762 0 -0.19059662678797651 -0.34081380936415517 0 -0.1933675294217107 -0.32236171887465842 0 -0.19903323289787969 -0.33264661777059762 0 -0.19059662678797651 -0.34081380936415517 0 -0.2104564985343676 -0.3353647684981515 0 -0.1933675294217107 -0.32236171887465842 0 -0.18993590475829211 -0.31975058502021148 0 -0.19059662678797651 -0.34081380936415517 0 -0.19059662678797651 -0.34081380936415517 0 -0.19084022642753981 -0.34857954688724913 0 -0.19084022642753981 -0.34857954688724913 0 -0.2020081382936979 -0.36228078043073247 0 -0.21402120043337239 -0.35183828957895003 0 -0.19059662678797651 -0.34081380936415517 0 -0.19084022642753981 -0.34857954688724913 0 -0.18155718359361381 -0.34727455219702719 0 -0.2119195664518625 -0.3421260295697155 0 -0.19059662678797651 -0.34081380936415517 0 -0.19084022642753981 -0.34857954688724913 0 -0.19084022642753981 -0.34857954688724913 0 -0.21402120043337239 -0.35183828957895003 0 -0.19167624550953449 -0.37523108367403307 0 -0.19084022642753981 -0.34857954688724913 0 -0.2020081382936979 -0.36228078043073247 0 -0.19167624550953449 -0.37523108367403307 0 -0.19084022642753981 -0.34857954688724913 0 -0.19167624550953449 -0.37523108367403307 0 -0.19084022642753981 -0.34857954688724913 0 -0.18149591431223769 -0.36310632736403459 0 -0.2197229462937059 -0.37818771045308902 0 -0.21402120043337239 -0.35183828957895003 0 -0.2197229462937059 -0.37818771045308902 0 -0.2020081382936979 -0.36228078043073247 0 -0.21402120043337239 -0.35183828957895003 0 -0.19167624550953449 -0.37523108367403307 0 -0.2197229462937059 -0.37818771045308902 0 -0.2020081382936979 -0.36228078043073247 0 -0.2119195664518625 -0.3421260295697155 0 -0.19084022642753981 -0.34857954688724913 0 -0.21402120043337239 -0.35183828957895003 0 -0.21999550095729009 -0.34262302504050712 0 -0.2119195664518625 -0.3421260295697155 0 -0.21402120043337239 -0.35183828957895003 0 -0.2119195664518625 -0.3421260295697155 0 -0.21402120043337239 -0.35183828957895003 0 -0.2212746676195744 -0.26045087117732713 0 -0.2272514515828625 -0.2502791158821675 0 -0.21602399407446621 -0.247801190812729 0 -0.2212746676195744 -0.26045087117732713 0 -0.22810783394940351 -0.26219867321108131 0 -0.2272514515828625 -0.2502791158821675 0 -0.2212746676195744 -0.26045087117732713 0 -0.22810783394940351 -0.26219867321108131 0 -0.22328654741184581 -0.27196468884437691 0 -0.22810783394940351 -0.26219867321108131 0 -0.23738639710949641 -0.25640226606834943 0 -0.2352269225049799 -0.26808945506924031 0 -0.22810783394940351 -0.26219867321108131 0 -0.2272514515828625 -0.2502791158821675 0 -0.23738639710949641 -0.25640226606834943 0 -0.25028155227244681 -0.25133287360632572 0 -0.23738639710949641 -0.25640226606834943 0 -0.2468702488025496 -0.26566197831265709 0 -0.23738639710949641 -0.25640226606834943 0 -0.2352269225049799 -0.26808945506924031 0 -0.2468702488025496 -0.26566197831265709 0 -0.2352269225049799 -0.26808945506924031 0 -0.2468702488025496 -0.26566197831265709 0 -0.24245436682581531 -0.27527901074192862 0 -0.25684844187067402 -0.27739777699689649 0 -0.2468702488025496 -0.26566197831265709 0 -0.24245436682581531 -0.27527901074192862 0 -0.25684844187067402 -0.27739777699689649 0 -0.24245436682581531 -0.27527901074192862 0 -0.2429299742697994 -0.28557213090274858 0 -0.2352269225049799 -0.26808945506924031 0 -0.24245436682581531 -0.27527901074192862 0 -0.23284049157356529 -0.27858370520062947 0 -0.24245436682581531 -0.27527901074192862 0 -0.23284049157356529 -0.27858370520062947 0 -0.2429299742697994 -0.28557213090274858 0 -0.23284049157356529 -0.27858370520062947 0 -0.22328654741184581 -0.27196468884437691 0 -0.225368807580548 -0.27898143587174118 0 -0.23284049157356529 -0.27858370520062947 0 -0.225368807580548 -0.27898143587174118 0 -0.23010320906266929 -0.28450524799174037 0 -0.2352269225049799 -0.26808945506924031 0 -0.23284049157356529 -0.27858370520062947 0 -0.22328654741184581 -0.27196468884437691 0 -0.22810783394940351 -0.26219867321108131 0 -0.2352269225049799 -0.26808945506924031 0 -0.22328654741184581 -0.27196468884437691 0 -0.2212746676195744 -0.26045087117732713 0 -0.22328654741184581 -0.27196468884437691 0 -0.21170351107929511 -0.2700106871362804 0 -0.22328654741184581 -0.27196468884437691 0 -0.225368807580548 -0.27898143587174118 0 -0.21510463251529299 -0.27802650620580738 0 -0.225368807580548 -0.27898143587174118 0 -0.23010320906266929 -0.28450524799174037 0 -0.21510463251529299 -0.27802650620580738 0 -0.2339914398565035 -0.29567127128895321 0 -0.21510463251529299 -0.27802650620580738 0 -0.2339914398565035 -0.29567127128895321 0 -0.22475358906973111 -0.30076732608111512 0 -0.21510463251529299 -0.27802650620580738 0 -0.22475358906973111 -0.30076732608111512 0 -0.21510463251529299 -0.27802650620580738 0 -0.2339914398565035 -0.29567127128895321 0 -0.23010320906266929 -0.28450524799174037 0 -0.21510463251529299 -0.27802650620580738 0 -0.23284049157356529 -0.27858370520062947 0 -0.23010320906266929 -0.28450524799174037 0 -0.2429299742697994 -0.28557213090274858 0 -0.2339914398565035 -0.29567127128895321 0 -0.23010320906266929 -0.28450524799174037 0 -0.2429299742697994 -0.28557213090274858 0 -0.25626706615710659 -0.29030607121618068 0 -0.2429299742697994 -0.28557213090274858 0 -0.24525025812571211 -0.2946661378347849 0 -0.2339914398565035 -0.29567127128895321 0 -0.2429299742697994 -0.28557213090274858 0 -0.24525025812571211 -0.2946661378347849 0 -0.2339914398565035 -0.29567127128895321 0 -0.24525025812571211 -0.2946661378347849 0 -0.2414841276634149 -0.30193720784210631 0 -0.2339914398565035 -0.29567127128895321 0 -0.2414841276634149 -0.30193720784210631 0 -0.23287949832607199 -0.30382054163035072 0 -0.25157868268173622 -0.29984400792393551 0 -0.24525025812571211 -0.2946661378347849 0 -0.2414841276634149 -0.30193720784210631 0 -0.25157868268173622 -0.29984400792393551 0 -0.2414841276634149 -0.30193720784210631 0 -0.24744872754676259 -0.30796639199311338 0 -0.2444626984315951 -0.3148219144055267 0 -0.24744872754676259 -0.30796639199311338 0 -0.2379531872321409 -0.31032233811853399 0 -0.2414841276634149 -0.30193720784210631 0 -0.24744872754676259 -0.30796639199311338 0 -0.2379531872321409 -0.31032233811853399 0 -0.2414841276634149 -0.30193720784210631 0 -0.2379531872321409 -0.31032233811853399 0 -0.23287949832607199 -0.30382054163035072 0 -0.2379531872321409 -0.31032233811853399 0 -0.23287949832607199 -0.30382054163035072 0 -0.2262151478085698 -0.31040456482104473 0 -0.23287949832607199 -0.30382054163035072 0 -0.22475358906973111 -0.30076732608111512 0 -0.2262151478085698 -0.31040456482104473 0 -0.2339914398565035 -0.29567127128895321 0 -0.23287949832607199 -0.30382054163035072 0 -0.22475358906973111 -0.30076732608111512 0 -0.21677762662543851 -0.3140438374194332 0 -0.2262151478085698 -0.31040456482104473 0 -0.21563609285352039 -0.30711560544441863 0 -0.22475358906973111 -0.30076732608111512 0 -0.2262151478085698 -0.31040456482104473 0 -0.21563609285352039 -0.30711560544441863 0 -0.21677762662543851 -0.3140438374194332 0 -0.20572236985072309 -0.31321218202599421 0 -0.21563609285352039 -0.30711560544441863 0 -0.22475358906973111 -0.30076732608111512 0 -0.2155308873128518 -0.30017520402614051 0 -0.21559694344419009 -0.29419208705170757 0 -0.2155308873128518 -0.30017520402614051 0 -0.2061369238839659 -0.29862579752732071 0 -0.21559694344419009 -0.29419208705170757 0 -0.22475358906973111 -0.30076732608111512 0 -0.21563609285352039 -0.30711560544441863 0 -0.2155308873128518 -0.30017520402614051 0 -0.21563609285352039 -0.30711560544441863 0 -0.2155308873128518 -0.30017520402614051 0 -0.2061369238839659 -0.29862579752732071 0 -0.20572236985072309 -0.31321218202599421 0 -0.2061369238839659 -0.29862579752732071 0 -0.19807122784292761 -0.30803924551965822 0 -0.20572236985072309 -0.31321218202599421 0 -0.21563609285352039 -0.30711560544441863 0 -0.2061369238839659 -0.29862579752732071 0 -0.18993590475829211 -0.31975058502021148 0 -0.18923317477681331 -0.29734818493639409 0 -0.2061369238839659 -0.29862579752732071 0 -0.19807122784292761 -0.30803924551965822 0 -0.18923317477681331 -0.29734818493639409 0 -0.18993590475829211 -0.31975058502021148 0 -0.19807122784292761 -0.30803924551965822 0 -0.18923317477681331 -0.29734818493639409 0 -0.18923317477681331 -0.29734818493639409 0 -0.18853044479533371 -0.27494578485257681 0 -0.18923317477681331 -0.29734818493639409 0 -0.19899948606910711 -0.28380698058347731 0 -0.18853044479533371 -0.27494578485257681 0 -0.2061369238839659 -0.29862579752732071 0 -0.18923317477681331 -0.29734818493639409 0 -0.19899948606910711 -0.28380698058347731 0 -0.2061369238839659 -0.29862579752732071 0 -0.21090703983943229 -0.27410495740498492 0 -0.2061369238839659 -0.29862579752732071 0 -0.19899948606910711 -0.28380698058347731 0 -0.21090703983943229 -0.27410495740498492 0 -0.2061369238839659 -0.29862579752732071 0 -0.21559694344419009 -0.29419208705170757 0 -0.21510463251529299 -0.27802650620580738 0 -0.22475358906973111 -0.30076732608111512 0 -0.21559694344419009 -0.29419208705170757 0 -0.21510463251529299 -0.27802650620580738 0 -0.2061369238839659 -0.29862579752732071 0 -0.21510463251529299 -0.27802650620580738 0 -0.21090703983943229 -0.27410495740498492 0 -0.21510463251529299 -0.27802650620580738 0 -0.21170351107929511 -0.2700106871362804 0 -0.21510463251529299 -0.27802650620580738 0 -0.21170351107929511 -0.2700106871362804 0 -0.21090703983943229 -0.27410495740498492 0 -0.21510463251529299 -0.27802650620580738 0 -0.21090703983943229 -0.27410495740498492 0 -0.22328654741184581 -0.27196468884437691 0 -0.21510463251529299 -0.27802650620580738 0 -0.21170351107929511 -0.2700106871362804 0 -0.21170351107929511 -0.2700106871362804 0 -0.21090703983943229 -0.27410495740498492 0 -0.21170351107929511 -0.2700106871362804 0 -0.21090703983943229 -0.27410495740498492 0 -0.19936737732664339 -0.26332417108687201 0 -0.21090703983943229 -0.27410495740498492 0 -0.19936737732664339 -0.26332417108687201 0 -0.21090703983943229 -0.27410495740498492 0 -0.20018984704998991 -0.27401017819611012 0 -0.19936737732664339 -0.26332417108687201 0 -0.19899948606910711 -0.28380698058347731 0 -0.21090703983943229 -0.27410495740498492 0 -0.20018984704998991 -0.27401017819611012 0 -0.19899948606910711 -0.28380698058347731 0 -0.20018984704998991 -0.27401017819611012 0 -0.18853044479533371 -0.27494578485257681 0 -0.20018984704998991 -0.27401017819611012 0 -0.18853044479533371 -0.27494578485257681 0 -0.19936737732664339 -0.26332417108687201 0 -0.18853044479533371 -0.27494578485257681 0 -0.1878277148138541 -0.25254338476875943 0 -0.19936737732664339 -0.26332417108687201 0 -0.1878277148138541 -0.25254338476875943 0 -0.20193578356967259 -0.24698994591579859 0 -0.18853044479533371 -0.27494578485257681 0 -0.19936737732664339 -0.26332417108687201 0 -0.1878277148138541 -0.25254338476875943 0 -0.19936737732664339 -0.26332417108687201 0 -0.1878277148138541 -0.25254338476875943 0 -0.2212746676195744 -0.26045087117732713 0 -0.21170351107929511 -0.2700106871362804 0 -0.21602399407446621 -0.247801190812729 0 -0.21170351107929511 -0.2700106871362804 0 -0.20193578356967259 -0.24698994591579859 0 -0.21170351107929511 -0.2700106871362804 0 -0.21602399407446621 -0.247801190812729 0 -0.21170351107929511 -0.2700106871362804 0 -0.19936737732664339 -0.26332417108687201 0 -0.20193578356967259 -0.24698994591579859 0 -0.21170351107929511 -0.2700106871362804 0 -0.21602399407446621 -0.247801190812729 0 -0.20193578356967259 -0.24698994591579859 0 -0.1694565717554577 -0.25345082804135399 0 -0.1598766627708792 -0.26688304602108293 0 -0.15553155684843309 -0.24989393853409089 0 -0.1694565717554577 -0.25345082804135399 0 -0.17486516780450351 -0.26689216108284419 0 -0.1598766627708792 -0.26688304602108293 0 -0.1878277148138541 -0.25254338476875943 0 -0.1694565717554577 -0.25345082804135399 0 -0.17486516780450351 -0.26689216108284419 0 -0.18853044479533371 -0.27494578485257681 0 -0.1878277148138541 -0.25254338476875943 0 -0.17486516780450351 -0.26689216108284419 0 -0.18853044479533371 -0.27494578485257681 0 -0.17486516780450351 -0.26689216108284419 0 -0.17172622699935039 -0.28441919710498859 0 -0.17486516780450351 -0.26689216108284419 0 -0.1598766627708792 -0.26688304602108293 0 -0.17172622699935039 -0.28441919710498859 0 -0.1598766627708792 -0.26688304602108293 0 -0.17172622699935039 -0.28441919710498859 0 -0.15373581344289489 -0.28312560420318822 0 -0.16105518228468671 -0.29217646741221392 0 -0.17172622699935039 -0.28441919710498859 0 -0.15373581344289489 -0.28312560420318822 0 -0.16105518228468671 -0.29217646741221392 0 -0.16905224277068909 -0.29605964543857283 0 -0.17172622699935039 -0.28441919710498859 0 -0.18923317477681331 -0.29734818493639409 0 -0.17172622699935039 -0.28441919710498859 0 -0.17723426951357349 -0.29873082422245772 0 -0.18923317477681331 -0.29734818493639409 0 -0.18853044479533371 -0.27494578485257681 0 -0.17172622699935039 -0.28441919710498859 0 -0.16905224277068909 -0.29605964543857283 0 -0.17172622699935039 -0.28441919710498859 0 -0.17723426951357349 -0.29873082422245772 0 -0.18993590475829211 -0.31975058502021148 0 -0.18923317477681331 -0.29734818493639409 0 -0.18218049804822631 -0.30554378754305123 0 -0.16905224277068909 -0.29605964543857283 0 -0.17723426951357349 -0.29873082422245772 0 -0.1723186431442254 -0.30634555599314139 0 -0.17723426951357349 -0.29873082422245772 0 -0.18218049804822631 -0.30554378754305123 0 -0.1723186431442254 -0.30634555599314139 0 -0.18993590475829211 -0.31975058502021148 0 -0.18218049804822631 -0.30554378754305123 0 -0.1723186431442254 -0.30634555599314139 0 -0.18923317477681331 -0.29734818493639409 0 -0.17723426951357349 -0.29873082422245772 0 -0.18218049804822631 -0.30554378754305123 0 -0.1628889043650063 -0.30423136814604501 0 -0.15228539343888761 -0.29829745849642347 0 -0.15688455242107591 -0.3147090816544324 0 -0.1723186431442254 -0.30634555599314139 0 -0.1628889043650063 -0.30423136814604501 0 -0.1682257901768964 -0.31281342368084741 0 -0.16905224277068909 -0.29605964543857283 0 -0.1723186431442254 -0.30634555599314139 0 -0.1628889043650063 -0.30423136814604501 0 -0.16105518228468671 -0.29217646741221392 0 -0.16905224277068909 -0.29605964543857283 0 -0.1628889043650063 -0.30423136814604501 0 -0.16105518228468671 -0.29217646741221392 0 -0.1628889043650063 -0.30423136814604501 0 -0.15228539343888761 -0.29829745849642347 0 -0.1628889043650063 -0.30423136814604501 0 -0.1682257901768964 -0.31281342368084741 0 -0.15688455242107591 -0.3147090816544324 0 -0.15228539343888761 -0.29829745849642347 0 -0.1389714875450882 -0.3066540158155262 0 -0.15688455242107591 -0.3147090816544324 0 -0.15228539343888761 -0.29829745849642347 0 -0.1389714875450882 -0.3066540158155262 0 -0.13975829984592841 -0.28901540033723749 0 -0.1389714875450882 -0.3066540158155262 0 -0.12548077667929941 -0.29414583202636879 0 -0.1202976478368228 -0.30824703983433283 0 -0.1389714875450882 -0.3066540158155262 0 -0.12891165126625459 -0.31944464591664379 0 -0.1202976478368228 -0.30824703983433283 0 -0.1389714875450882 -0.3066540158155262 0 -0.12548077667929941 -0.29414583202636879 0 -0.13975829984592841 -0.28901540033723749 0 -0.12548077667929941 -0.29414583202636879 0 -0.13975829984592841 -0.28901540033723749 0 -0.12512506967611009 -0.2770618739597428 0 -0.16105518228468671 -0.29217646741221392 0 -0.15228539343888761 -0.29829745849642347 0 -0.15373581344289489 -0.28312560420318822 0 -0.15228539343888761 -0.29829745849642347 0 -0.13975829984592841 -0.28901540033723749 0 -0.15373581344289489 -0.28312560420318822 0 -0.13975829984592841 -0.28901540033723749 0 -0.15373581344289489 -0.28312560420318822 0 -0.14234827377957579 -0.26696082460348292 0 -0.1598766627708792 -0.26688304602108293 0 -0.15373581344289489 -0.28312560420318822 0 -0.14234827377957579 -0.26696082460348292 0 -0.13975829984592841 -0.28901540033723749 0 -0.14234827377957579 -0.26696082460348292 0 -0.12512506967611009 -0.2770618739597428 0 -0.14234827377957579 -0.26696082460348292 0 -0.12512506967611009 -0.2770618739597428 0 -0.118532013173656 -0.25733504629078657 0 -0.14234827377957579 -0.26696082460348292 0 -0.118532013173656 -0.25733504629078657 0 -0.1413493128771299 -0.24330492591282529 0 -0.1598766627708792 -0.26688304602108293 0 -0.14234827377957579 -0.26696082460348292 0 -0.15553155684843309 -0.24989393853409089 0 -0.14234827377957579 -0.26696082460348292 0 -0.15553155684843309 -0.24989393853409089 0 -0.1413493128771299 -0.24330492591282529 0 -0.16722410145987429 -0.35625328302077991 0 -0.18155718359361381 -0.34727455219702719 0 -0.16675550653522789 -0.33934661955767997 0 -0.16722410145987429 -0.35625328302077991 0 -0.16675550653522789 -0.33934661955767997 0 -0.149531219264672 -0.35636998947374782 0 -0.16722410145987429 -0.35625328302077991 0 -0.16330196678568379 -0.37347445955680769 0 -0.149531219264672 -0.35636998947374782 0 -0.16722410145987429 -0.35625328302077991 0 -0.16330196678568379 -0.37347445955680769 0 -0.18149591431223769 -0.36310632736403459 0 -0.1773897988104518 -0.38620770669229082 0 -0.19167624550953449 -0.37523108367403307 0 -0.18149591431223769 -0.36310632736403459 0 -0.1773897988104518 -0.38620770669229082 0 -0.16330196678568379 -0.37347445955680769 0 -0.18149591431223769 -0.36310632736403459 0 -0.16722410145987429 -0.35625328302077991 0 -0.18149591431223769 -0.36310632736403459 0 -0.18155718359361381 -0.34727455219702719 0 -0.19084022642753981 -0.34857954688724913 0 -0.18149591431223769 -0.36310632736403459 0 -0.18155718359361381 -0.34727455219702719 0 -0.19084022642753981 -0.34857954688724913 0 -0.18155718359361381 -0.34727455219702719 0 -0.182966515971271 -0.33087768440788229 0 -0.17279902196298999 -0.328269878176633 0 -0.16675550653522789 -0.33934661955767997 0 -0.19059662678797651 -0.34081380936415517 0 -0.16675550653522789 -0.33934661955767997 0 -0.19059662678797651 -0.34081380936415517 0 -0.182966515971271 -0.33087768440788229 0 -0.16675550653522789 -0.33934661955767997 0 -0.19059662678797651 -0.34081380936415517 0 -0.18155718359361381 -0.34727455219702719 0 -0.16675550653522789 -0.33934661955767997 0 -0.18993590475829211 -0.31975058502021148 0 -0.1764668137376956 -0.32290803073376467 0 -0.1682257901768964 -0.31281342368084741 0 -0.18993590475829211 -0.31975058502021148 0 -0.1682257901768964 -0.31281342368084741 0 -0.18993590475829211 -0.31975058502021148 0 -0.1723186431442254 -0.30634555599314139 0 -0.1682257901768964 -0.31281342368084741 0 -0.18993590475829211 -0.31975058502021148 0 -0.1723186431442254 -0.30634555599314139 0 -0.18993590475829211 -0.31975058502021148 0 -0.182966515971271 -0.33087768440788229 0 -0.1764668137376956 -0.32290803073376467 0 -0.182966515971271 -0.33087768440788229 0 -0.17279902196298999 -0.328269878176633 0 -0.1764668137376956 -0.32290803073376467 0 -0.17279902196298999 -0.328269878176633 0 -0.1764668137376956 -0.32290803073376467 0 -0.16836531504799279 -0.32150493752815051 0 -0.1764668137376956 -0.32290803073376467 0 -0.1682257901768964 -0.31281342368084741 0 -0.16836531504799279 -0.32150493752815051 0 -0.1682257901768964 -0.31281342368084741 0 -0.16836531504799279 -0.32150493752815051 0 -0.15688455242107591 -0.3147090816544324 0 -0.17279902196298999 -0.328269878176633 0 -0.16836531504799279 -0.32150493752815051 0 -0.16045969169168839 -0.32610590880603751 0 -0.16836531504799279 -0.32150493752815051 0 -0.16045969169168839 -0.32610590880603751 0 -0.15688455242107591 -0.3147090816544324 0 -0.16045969169168839 -0.32610590880603751 0 -0.16675550653522789 -0.33934661955767997 0 -0.14965326296425729 -0.33739754562666607 0 -0.17279902196298999 -0.328269878176633 0 -0.16045969169168839 -0.32610590880603751 0 -0.16675550653522789 -0.33934661955767997 0 -0.14965326296425729 -0.33739754562666607 0 -0.12712841246852499 -0.33565257233610218 0 -0.149531219264672 -0.35636998947374782 0 -0.16045969169168839 -0.32610590880603751 0 -0.14965326296425729 -0.33739754562666607 0 -0.1446180852217035 -0.32337182992910712 0 -0.16045969169168839 -0.32610590880603751 0 -0.15688455242107591 -0.3147090816544324 0 -0.1446180852217035 -0.32337182992910712 0 -0.1389714875450882 -0.3066540158155262 0 -0.15688455242107591 -0.3147090816544324 0 -0.1446180852217035 -0.32337182992910712 0 -0.1446180852217035 -0.32337182992910712 0 -0.12891165126625459 -0.31944464591664379 0 -0.12712841246852499 -0.33565257233610218 0 -0.1389714875450882 -0.3066540158155262 0 -0.1446180852217035 -0.32337182992910712 0 -0.12891165126625459 -0.31944464591664379 0 -0.14965326296425729 -0.33739754562666607 0 -0.1446180852217035 -0.32337182992910712 0 -0.12712841246852499 -0.33565257233610218 0 -0.12712841246852499 -0.33565257233610218 0 -0.149531219264672 -0.35636998947374782 0 -0.1307327624025432 -0.36466620540319777 0 -0.16675550653522789 -0.33934661955767997 0 -0.14965326296425729 -0.33739754562666607 0 -0.149531219264672 -0.35636998947374782 0 -0.14471837491989131 -0.38030865844261169 0 -0.16330196678568379 -0.37347445955680769 0 -0.149531219264672 -0.35636998947374782 0 -0.14471837491989131 -0.38030865844261169 0 -0.149531219264672 -0.35636998947374782 0 -0.1307327624025432 -0.36466620540319777 0 -0.1307327624025432 -0.36466620540319777 0 -0.1072299800137736 -0.36656719463736409 0 -0.1212918100736281 -0.39233659862993148 0 -0.1307327624025432 -0.36466620540319777 0 -0.1072299800137736 -0.36656719463736409 0 -0.1168455151887359 -0.35202151931435971 0 -0.1072299800137736 -0.36656719463736409 0 -0.084054054731152225 -0.36782674296135592 0 -0.094305036861114688 -0.38739239419150512 0 -0.1072299800137736 -0.36656719463736409 0 -0.1022909058701018 -0.34120010488077479 0 -0.084054054731152225 -0.36782674296135592 0 -0.1072299800137736 -0.36656719463736409 0 -0.1168455151887359 -0.35202151931435971 0 -0.1022909058701018 -0.34120010488077479 0 -0.12712841246852499 -0.33565257233610218 0 -0.1307327624025432 -0.36466620540319777 0 -0.1168455151887359 -0.35202151931435971 0 -0.12712841246852499 -0.33565257233610218 0 -0.1135426232591336 -0.3232977716681511 0 -0.1022909058701018 -0.34120010488077479 0 -0.12712841246852499 -0.33565257233610218 0 -0.1168455151887359 -0.35202151931435971 0 -0.1022909058701018 -0.34120010488077479 0 -0.12712841246852499 -0.33565257233610218 0 -0.1022909058701018 -0.34120010488077479 0 -0.12891165126625459 -0.31944464591664379 0 -0.12712841246852499 -0.33565257233610218 0 -0.1135426232591336 -0.3232977716681511 0 -0.1135426232591336 -0.3232977716681511 0 -0.1202976478368228 -0.30824703983433283 0 -0.1018239845602936 -0.31060511109270439 0 -0.12891165126625459 -0.31944464591664379 0 -0.1135426232591336 -0.3232977716681511 0 -0.1202976478368228 -0.30824703983433283 0 -0.096762603439796702 -0.32549278085288069 0 -0.083034850098464966 -0.32247408868446142 0 -0.1018239845602936 -0.31060511109270439 0 -0.1135426232591336 -0.3232977716681511 0 -0.096762603439796702 -0.32549278085288069 0 -0.1018239845602936 -0.31060511109270439 0 -0.1135426232591336 -0.3232977716681511 0 -0.096762603439796702 -0.32549278085288069 0 -0.1022909058701018 -0.34120010488077479 0 -0.1022909058701018 -0.34120010488077479 0 -0.081866084176575135 -0.3316057710474325 0 -0.077453399271678602 -0.34674763742544751 0 -0.096762603439796702 -0.32549278085288069 0 -0.1022909058701018 -0.34120010488077479 0 -0.081866084176575135 -0.3316057710474325 0 -0.083034850098464966 -0.32247408868446142 0 -0.07737047237955226 -0.30309004455483363 0 -0.096762603439796702 -0.32549278085288069 0 -0.081866084176575135 -0.3316057710474325 0 -0.083034850098464966 -0.32247408868446142 0 -0.081866084176575135 -0.3316057710474325 0 -0.083034850098464966 -0.32247408868446142 0 -0.073822127650160746 -0.31999566639569871 0 -0.083034850098464966 -0.32247408868446142 0 -0.073822127650160746 -0.31999566639569871 0 -0.07737047237955226 -0.30309004455483363 0 -0.081866084176575135 -0.3316057710474325 0 -0.077453399271678602 -0.34674763742544751 0 -0.056215793802550047 -0.333258389360789 0 -0.081866084176575135 -0.3316057710474325 0 -0.073822127650160746 -0.31999566639569871 0 -0.056215793802550047 -0.333258389360789 0 -0.084054054731152225 -0.36782674296135592 0 -0.052615892673255248 -0.35229516997012011 0 -0.06731826364860119 -0.3824481897530787 0 -0.077453399271678602 -0.34674763742544751 0 -0.052615892673255248 -0.35229516997012011 0 -0.077453399271678602 -0.34674763742544751 0 -0.084054054731152225 -0.36782674296135592 0 -0.052615892673255248 -0.35229516997012011 0 -0.1022909058701018 -0.34120010488077479 0 -0.077453399271678602 -0.34674763742544751 0 -0.084054054731152225 -0.36782674296135592 0 -0.1022909058701018 -0.34120010488077479 0 -0.077453399271678602 -0.34674763742544751 0 -0.101690223803216 -0.25699634971212743 0 -0.118532013173656 -0.25733504629078657 0 -0.095776175806948916 -0.2727692575248456 0 -0.118532013173656 -0.25733504629078657 0 -0.095776175806948916 -0.2727692575248456 0 -0.101690223803216 -0.25699634971212743 0 -0.118532013173656 -0.25733504629078657 0 -0.1094851895512489 -0.23964322330611901 0 -0.12512506967611009 -0.2770618739597428 0 -0.118532013173656 -0.25733504629078657 0 -0.1112894060688291 -0.27114915785872318 0 -0.12512506967611009 -0.2770618739597428 0 -0.1112894060688291 -0.27114915785872318 0 -0.1128181765167344 -0.28356253522318808 0 -0.101690223803216 -0.25699634971212743 0 -0.095776175806948916 -0.2727692575248456 0 -0.090798481890329907 -0.26984666265281992 0 -0.1112894060688291 -0.27114915785872318 0 -0.1034176635917753 -0.27928259080531143 0 -0.1128181765167344 -0.28356253522318808 0 -0.1112894060688291 -0.27114915785872318 0 -0.1034176635917753 -0.27928259080531143 0 -0.095776175806948916 -0.2727692575248456 0 -0.118532013173656 -0.25733504629078657 0 -0.1112894060688291 -0.27114915785872318 0 -0.095776175806948916 -0.2727692575248456 0 -0.1034176635917753 -0.27928259080531143 0 -0.095776175806948916 -0.2727692575248456 0 -0.095592950725978718 -0.28259011461412048 0 -0.1034176635917753 -0.27928259080531143 0 -0.095592950725978718 -0.28259011461412048 0 -0.1016116088403855 -0.28634188880567929 0 -0.095592950725978718 -0.28259011461412048 0 -0.1016116088403855 -0.28634188880567929 0 -0.092349227696207709 -0.29359805622041307 0 -0.1016116088403855 -0.28634188880567929 0 -0.10698899056943879 -0.29688247947883439 0 -0.092349227696207709 -0.29359805622041307 0 -0.1034176635917753 -0.27928259080531143 0 -0.1016116088403855 -0.28634188880567929 0 -0.1128181765167344 -0.28356253522318808 0 -0.1016116088403855 -0.28634188880567929 0 -0.1128181765167344 -0.28356253522318808 0 -0.10698899056943879 -0.29688247947883439 0 -0.12548077667929941 -0.29414583202636879 0 -0.1128181765167344 -0.28356253522318808 0 -0.10698899056943879 -0.29688247947883439 0 -0.12548077667929941 -0.29414583202636879 0 -0.12512506967611009 -0.2770618739597428 0 -0.1128181765167344 -0.28356253522318808 0 -0.12548077667929941 -0.29414583202636879 0 -0.1202976478368228 -0.30824703983433283 0 -0.10698899056943879 -0.29688247947883439 0 -0.1202976478368228 -0.30824703983433283 0 -0.1018239845602936 -0.31060511109270439 0 -0.10698899056943879 -0.29688247947883439 0 -0.1018239845602936 -0.31060511109270439 0 -0.10698899056943879 -0.29688247947883439 0 -0.092349227696207709 -0.29359805622041307 0 -0.1018239845602936 -0.31060511109270439 0 -0.07737047237955226 -0.30309004455483363 0 -0.083034850098464966 -0.32247408868446142 0 -0.1018239845602936 -0.31060511109270439 0 -0.07737047237955226 -0.30309004455483363 0 -0.1018239845602936 -0.31060511109270439 0 -0.07737047237955226 -0.30309004455483363 0 -0.092349227696207709 -0.29359805622041307 0 -0.064228795506760167 -0.30843252506555768 0 -0.07737047237955226 -0.30309004455483363 0 -0.060720327721942233 -0.29797311312828401 0 -0.073822127650160746 -0.31999566639569871 0 -0.064228795506760167 -0.30843252506555768 0 -0.07737047237955226 -0.30309004455483363 0 -0.07737047237955226 -0.30309004455483363 0 -0.060720327721942233 -0.29797311312828401 0 -0.07737047237955226 -0.30309004455483363 0 -0.066276391185195835 -0.29277757011181771 0 -0.060720327721942233 -0.29797311312828401 0 -0.07737047237955226 -0.30309004455483363 0 -0.073020338440242069 -0.28820346875890501 0 -0.07737047237955226 -0.30309004455483363 0 -0.073020338440242069 -0.28820346875890501 0 -0.08176668511406518 -0.29241189436953979 0 -0.07737047237955226 -0.30309004455483363 0 -0.066276391185195835 -0.29277757011181771 0 -0.073020338440242069 -0.28820346875890501 0 -0.066276391185195835 -0.29277757011181771 0 -0.066262614589078464 -0.28553266995259979 0 -0.059272310506103751 -0.29752810769738308 0 -0.066276391185195835 -0.29277757011181771 0 -0.073020338440242069 -0.28820346875890501 0 -0.066276391185195835 -0.29277757011181771 0 -0.059272310506103751 -0.29752810769738308 0 -0.066276391185195835 -0.29277757011181771 0 -0.060720327721942233 -0.29797311312828401 0 -0.066276391185195835 -0.29277757011181771 0 -0.066262614589078464 -0.28553266995259979 0 -0.073020338440242069 -0.28820346875890501 0 -0.073020338440242069 -0.28820346875890501 0 -0.08176668511406518 -0.29241189436953979 0 -0.087701075556688768 -0.28591455829756468 0 -0.095776175806948916 -0.2727692575248456 0 -0.073020338440242069 -0.28820346875890501 0 -0.087701075556688768 -0.28591455829756468 0 -0.07737047237955226 -0.30309004455483363 0 -0.08176668511406518 -0.29241189436953979 0 -0.092349227696207709 -0.29359805622041307 0 -0.08176668511406518 -0.29241189436953979 0 -0.092349227696207709 -0.29359805622041307 0 -0.087701075556688768 -0.28591455829756468 0 -0.095592950725978718 -0.28259011461412048 0 -0.092349227696207709 -0.29359805622041307 0 -0.087701075556688768 -0.28591455829756468 0 -0.095776175806948916 -0.2727692575248456 0 -0.073020338440242069 -0.28820346875890501 0 -0.073020338440242069 -0.28820346875890501 0 -0.090798481890329907 -0.26984666265281992 0 -0.073020338440242069 -0.28820346875890501 0 -0.090798481890329907 -0.26984666265281992 0 -0.077605482814780524 -0.26668754792688187 0 -0.095776175806948916 -0.2727692575248456 0 -0.073020338440242069 -0.28820346875890501 0 -0.090798481890329907 -0.26984666265281992 0 -0.095776175806948916 -0.2727692575248456 0 -0.095592950725978718 -0.28259011461412048 0 -0.087701075556688768 -0.28591455829756468 0 -0.073020338440242069 -0.28820346875890501 0 -0.064205549884782886 -0.25803841642104808 0 -0.073020338440242069 -0.28820346875890501 0 -0.077605482814780524 -0.26668754792688187 0 -0.064205549884782886 -0.25803841642104808 0 -0.066262614589078464 -0.28553266995259979 0 -0.073020338440242069 -0.28820346875890501 0 -0.064205549884782886 -0.25803841642104808 0 -0.077605482814780524 -0.26668754792688187 0 -0.064205549884782886 -0.25803841642104808 0 -0.082795119816554824 -0.25202212814650959 0 -0.090798481890329907 -0.26984666265281992 0 -0.077605482814780524 -0.26668754792688187 0 -0.082795119816554824 -0.25202212814650959 0 -0.101690223803216 -0.25699634971212743 0 -0.090798481890329907 -0.26984666265281992 0 -0.082795119816554824 -0.25202212814650959 0 -0.064205549884782886 -0.25803841642104808 0 -0.033023651582679878 -0.26188564427574712 0 -0.042051540561044057 -0.2435795025130077 0 -0.064205549884782886 -0.25803841642104808 0 -0.033023651582679878 -0.26188564427574712 0 -0.049764267380188472 -0.27398849348764492 0 -0.066262614589078464 -0.28553266995259979 0 -0.064205549884782886 -0.25803841642104808 0 -0.049764267380188472 -0.27398849348764492 0 -0.049764267380188472 -0.27398849348764492 0 -0.033945257658552268 -0.27747282894928021 0 -0.040026570637398083 -0.29161349655217178 0 -0.033023651582679878 -0.26188564427574712 0 -0.049764267380188472 -0.27398849348764492 0 -0.033945257658552268 -0.27747282894928021 0 -0.066262614589078464 -0.28553266995259979 0 -0.040026570637398083 -0.29161349655217178 0 -0.066262614589078464 -0.28553266995259979 0 -0.040026570637398083 -0.29161349655217178 0 -0.059272310506103751 -0.29752810769738308 0 -0.040026570637398083 -0.29161349655217178 0 -0.059272310506103751 -0.29752810769738308 0 -0.040026570637398083 -0.29161349655217178 0 -0.059272310506103751 -0.29752810769738308 0 -0.041573507263641611 -0.30012567851709071 0 -0.066262614589078464 -0.28553266995259979 0 -0.049764267380188472 -0.27398849348764492 0 -0.040026570637398083 -0.29161349655217178 0 -0.066276391185195835 -0.29277757011181771 0 -0.060720327721942233 -0.29797311312828401 0 -0.059272310506103751 -0.29752810769738308 0 -0.060720327721942233 -0.29797311312828401 0 -0.059272310506103751 -0.29752810769738308 0 -0.045002254275385942 -0.31267127618341228 0 -0.059272310506103751 -0.29752810769738308 0 -0.042819844766696993 -0.30868703924760538 0 -0.045002254275385942 -0.31267127618341228 0 -0.059272310506103751 -0.29752810769738308 0 -0.042819844766696993 -0.30868703924760538 0 -0.059272310506103751 -0.29752810769738308 0 -0.042819844766696993 -0.30868703924760538 0 -0.041573507263641611 -0.30012567851709071 0 -0.064228795506760167 -0.30843252506555768 0 -0.060720327721942233 -0.29797311312828401 0 -0.045002254275385942 -0.31267127618341228 0 -0.060720327721942233 -0.29797311312828401 0 -0.045002254275385942 -0.31267127618341228 0 -0.060720327721942233 -0.29797311312828401 0 -0.059272310506103751 -0.29752810769738308 0 -0.022147538430558181 -0.30686289337542499 0 -0.045002254275385942 -0.31267127618341228 0 -0.042819844766696993 -0.30868703924760538 0 -0.022147538430558181 -0.30686289337542499 0 -0.045002254275385942 -0.31267127618341228 0 -0.042819844766696993 -0.30868703924760538 0 -0.0331425652787085 -0.30111543520220557 0 -0.022147538430558181 -0.30686289337542499 0 -0.042819844766696993 -0.30868703924760538 0 -0.041573507263641611 -0.30012567851709071 0 -0.0331425652787085 -0.30111543520220557 0 -0.040026570637398083 -0.29161349655217178 0 -0.041573507263641611 -0.30012567851709071 0 -0.0331425652787085 -0.30111543520220557 0 -0.0331425652787085 -0.30111543520220557 0 -0.022147538430558181 -0.30686289337542499 0 -0.019659696611564411 -0.29633400355980399 0 -0.022147538430558181 -0.30686289337542499 0 0.00070717741426924805 -0.30105451056743648 0 -0.022147538430558181 -0.30686289337542499 0 -0.019659696611564411 -0.29633400355980399 0 0.00070717741426924805 -0.30105451056743648 0 -0.019659696611564411 -0.29633400355980399 0 0.00070717741426924805 -0.30105451056743648 0 -0.022147538430558181 -0.30686289337542499 0 -0.011239517673991971 -0.32141043707258549 0 0.00070717741426924805 -0.30105451056743648 0 -0.0050405754245235164 -0.29162417193408269 0 -0.019659696611564411 -0.29633400355980399 0 0.00070717741426924805 -0.30105451056743648 0 -0.0050405754245235164 -0.29162417193408269 0 -0.011901790062749031 -0.28297017383356582 0 -0.019659696611564411 -0.29633400355980399 0 -0.0050405754245235164 -0.29162417193408269 0 -0.011901790062749031 -0.28297017383356582 0 0.00564281301234587 -0.28830513858829032 0 -0.033945257658552268 -0.27747282894928021 0 -0.040026570637398083 -0.29161349655217178 0 -0.011901790062749031 -0.28297017383356582 0 -0.040026570637398083 -0.29161349655217178 0 -0.0331425652787085 -0.30111543520220557 0 -0.019659696611564411 -0.29633400355980399 0 -0.040026570637398083 -0.29161349655217178 0 -0.019659696611564411 -0.29633400355980399 0 -0.040026570637398083 -0.29161349655217178 0 -0.011901790062749031 -0.28297017383356582 0 -0.019659696611564411 -0.29633400355980399 0 -0.040026570637398083 -0.29161349655217178 0 -0.011901790062749031 -0.28297017383356582 0 -0.033023651582679878 -0.26188564427574712 0 -0.033945257658552268 -0.27747282894928021 0 -0.011901790062749031 -0.28297017383356582 0 -0.033023651582679878 -0.26188564427574712 0 -0.011901790062749031 -0.28297017383356582 0 -0.0041159735410178696 -0.25344891444283252 0 -0.033023651582679878 -0.26188564427574712 0 -0.0041159735410178696 -0.25344891444283252 0 -0.02303724603858363 -0.2440156994103537 0 -0.052615892673255248 -0.35229516997012011 0 -0.038874666912867527 -0.34151846824579962 0 -0.02777838607483198 -0.35784270251479272 0 -0.052615892673255248 -0.35229516997012011 0 -0.02777838607483198 -0.35784270251479272 0 -0.052615892673255248 -0.35229516997012011 0 -0.02777838607483198 -0.35784270251479272 0 -0.040331490436087809 -0.37750398531465218 0 -0.052615892673255248 -0.35229516997012011 0 -0.040331490436087809 -0.37750398531465218 0 -0.06731826364860119 -0.3824481897530787 0 -0.077453399271678602 -0.34674763742544751 0 -0.052615892673255248 -0.35229516997012011 0 -0.056215793802550047 -0.333258389360789 0 -0.052615892673255248 -0.35229516997012011 0 -0.056215793802550047 -0.333258389360789 0 -0.038874666912867527 -0.34151846824579962 0 -0.073822127650160746 -0.31999566639569871 0 -0.064228795506760167 -0.30843252506555768 0 -0.045002254275385942 -0.31267127618341228 0 -0.073822127650160746 -0.31999566639569871 0 -0.045002254275385942 -0.31267127618341228 0 -0.073822127650160746 -0.31999566639569871 0 -0.056215793802550047 -0.333258389360789 0 -0.045002254275385942 -0.31267127618341228 0 -0.022147538430558181 -0.30686289337542499 0 -0.045002254275385942 -0.31267127618341228 0 -0.030596760079640739 -0.32614203029960043 0 -0.056215793802550047 -0.333258389360789 0 -0.045002254275385942 -0.31267127618341228 0 -0.030596760079640739 -0.32614203029960043 0 -0.045002254275385942 -0.31267127618341228 0 -0.030596760079640739 -0.32614203029960043 0 -0.056215793802550047 -0.333258389360789 0 -0.038874666912867527 -0.34151846824579962 0 -0.030596760079640739 -0.32614203029960043 0 -0.038874666912867527 -0.34151846824579962 0 -0.018762273919774291 -0.33931094299281411 0 -0.030596760079640739 -0.32614203029960043 0 -0.018762273919774291 -0.33931094299281411 0 -0.030596760079640739 -0.32614203029960043 0 -0.011239517673991971 -0.32141043707258549 0 -0.022147538430558181 -0.30686289337542499 0 -0.030596760079640739 -0.32614203029960043 0 -0.011239517673991971 -0.32141043707258549 0 -0.011239517673991971 -0.32141043707258549 0 0.0061862888993717497 -0.3179777746951396 0 0.00070717741426924805 -0.30105451056743648 0 -0.011239517673991971 -0.32141043707258549 0 0.001183956419959698 -0.33510798628862248 0 0.0061862888993717497 -0.3179777746951396 0 -0.018762273919774291 -0.33931094299281411 0 -0.0052682691972732263 -0.35384403353548421 0 0.001183956419959698 -0.33510798628862248 0 -0.018762273919774291 -0.33931094299281411 0 -0.011239517673991971 -0.32141043707258549 0 0.001183956419959698 -0.33510798628862248 0 -0.038874666912867527 -0.34151846824579962 0 -0.018762273919774291 -0.33931094299281411 0 -0.02777838607483198 -0.35784270251479272 0 -0.018762273919774291 -0.33931094299281411 0 -0.0052682691972732263 -0.35384403353548421 0 -0.02777838607483198 -0.35784270251479272 0 -0.02777838607483198 -0.35784270251479272 0 -0.01334471722357446 -0.37255978087622588 0 -0.040331490436087809 -0.37750398531465218 0 -0.0052682691972732263 -0.35384403353548421 0 -0.02777838607483198 -0.35784270251479272 0 -0.01334471722357446 -0.37255978087622588 0 -0.0052682691972732263 -0.35384403353548421 0 -0.01334471722357446 -0.37255978087622588 0 0.013642055988939099 -0.36761557643779952 0 -0.01334471722357446 -0.37255978087622588 0 -0.022358800314352091 -0.39441558789829639 0 0.0023911015538050019 -0.38232746550243429 0 -0.022358800314352091 -0.39441558789829639 0 -0.016207051346014831 -0.41788806192442529 0 0.007750905191636473 -0.40005586533195869 0 -0.022358800314352091 -0.39441558789829639 0 0.0023911015538050019 -0.38232746550243429 0 0.007750905191636473 -0.40005586533195869 0 -0.01334471722357446 -0.37255978087622588 0 -0.022358800314352091 -0.39441558789829639 0 -0.040331490436087809 -0.37750398531465218 0 -0.01334471722357446 -0.37255978087622588 0 -0.040331490436087809 -0.37750398531465218 0 -0.022358800314352091 -0.39441558789829639 0 -0.040331490436087809 -0.37750398531465218 0 -0.052353368779455192 -0.39637776505858791 0 -0.022358800314352091 -0.39441558789829639 0 -0.052353368779455192 -0.39637776505858791 0 -0.0419647696360912 -0.41346571944176741 0 -0.040331490436087809 -0.37750398531465218 0 -0.06731826364860119 -0.3824481897530787 0 -0.040331490436087809 -0.37750398531465218 0 -0.052353368779455192 -0.39637776505858791 0 -0.06731826364860119 -0.3824481897530787 0 -0.053768185748797701 -0.42486603278512031 0 -0.040165007883666143 -0.43572025851689178 0 -0.055661618887378077 -0.44126075725578667 0 -0.053768185748797701 -0.42486603278512031 0 -0.055661618887378077 -0.44126075725578667 0 -0.073218721930802394 -0.4280912359135709 0 -0.052353368779455192 -0.39637776505858791 0 -0.0419647696360912 -0.41346571944176741 0 -0.064202449757086777 -0.41196337243873832 0 -0.053768185748797701 -0.42486603278512031 0 -0.0419647696360912 -0.41346571944176741 0 -0.064202449757086777 -0.41196337243873832 0 -0.0419647696360912 -0.41346571944176741 0 -0.040165007883666143 -0.43572025851689178 0 -0.016207051346014831 -0.41788806192442529 0 -0.053768185748797701 -0.42486603278512031 0 -0.0419647696360912 -0.41346571944176741 0 -0.040165007883666143 -0.43572025851689178 0 -0.040165007883666143 -0.43572025851689178 0 -0.016207051346014831 -0.41788806192442529 0 -0.023334400937579811 -0.43924270308925689 0 -0.040165007883666143 -0.43572025851689178 0 -0.016207051346014831 -0.41788806192442529 0 -0.022358800314352091 -0.39441558789829639 0 -0.0419647696360912 -0.41346571944176741 0 -0.016207051346014831 -0.41788806192442529 0 -0.016207051346014831 -0.41788806192442529 0 0.007750905191636473 -0.40005586533195869 0 0.0069055634574273434 -0.42168796206344039 0 -0.016207051346014831 -0.41788806192442529 0 0.007750905191636473 -0.40005586533195869 0 -0.016207051346014831 -0.41788806192442529 0 -0.0066311259499642061 -0.440178816443689 0 -0.023334400937579811 -0.43924270308925689 0 -0.016207051346014831 -0.41788806192442529 0 -0.0066311259499642061 -0.440178816443689 0 0.0069055634574273434 -0.42168796206344039 0 -0.0066311259499642061 -0.440178816443689 0 -0.0066006157003303222 -0.46336526787431592 0 0.0063516365257839979 -0.45384575916289382 0 -0.0066311259499642061 -0.440178816443689 0 -0.0066006157003303222 -0.46336526787431592 0 -0.020457229222982629 -0.45522473267323338 0 -0.0066006157003303222 -0.46336526787431592 0 -0.020457229222982629 -0.45522473267323338 0 -0.020059436537822391 -0.47207955322741002 0 -0.020457229222982629 -0.45522473267323338 0 -0.031101931197275869 -0.46575762529363962 0 -0.020059436537822391 -0.47207955322741002 0 -0.020457229222982629 -0.45522473267323338 0 -0.031101931197275869 -0.46575762529363962 0 -0.035170336327180043 -0.45184608543379579 0 -0.020457229222982629 -0.45522473267323338 0 -0.023334400937579811 -0.43924270308925689 0 -0.035170336327180043 -0.45184608543379579 0 -0.0066311259499642061 -0.440178816443689 0 -0.020457229222982629 -0.45522473267323338 0 -0.023334400937579811 -0.43924270308925689 0 -0.013631810096076001 -0.5 0 -0.0021303832933065449 -0.49096203967707219 0 0.010139796643439111 -0.5 0 -0.01432445135220071 -0.49438071891738861 0 -0.013631810096076001 -0.5 0 -0.0021303832933065449 -0.49096203967707219 0 -0.01432445135220071 -0.49438071891738861 0 -0.01068510492237598 -0.48175359222249692 0 -0.018859546134281261 -0.4823599989706519 0 -0.01432445135220071 -0.49438071891738861 0 -0.0021303832933065449 -0.49096203967707219 0 -0.01068510492237598 -0.48175359222249692 0 -0.0066006157003303222 -0.46336526787431592 0 -0.01068510492237598 -0.48175359222249692 0 -0.020059436537822391 -0.47207955322741002 0 -0.0066006157003303222 -0.46336526787431592 0 -0.01068510492237598 -0.48175359222249692 0 0.0060305051869878699 -0.46711886282395609 0 -0.031101931197275869 -0.46575762529363962 0 -0.020059436537822391 -0.47207955322741002 0 -0.03036919172472595 -0.48122613151531218 0 -0.020059436537822391 -0.47207955322741002 0 -0.03036919172472595 -0.48122613151531218 0 -0.018859546134281261 -0.4823599989706519 0 -0.01068510492237598 -0.48175359222249692 0 -0.020059436537822391 -0.47207955322741002 0 -0.018859546134281261 -0.4823599989706519 0 -0.01432445135220071 -0.49438071891738861 0 -0.03036919172472595 -0.48122613151531218 0 -0.018859546134281261 -0.4823599989706519 0 -0.01432445135220071 -0.49438071891738861 0 -0.03036919172472595 -0.48122613151531218 0 -0.02606294056839566 -0.49292330895377767 0 -0.013631810096076001 -0.5 0 -0.02606294056839566 -0.49292330895377767 0 -0.037403416835591133 -0.49999999999999928 0 -0.01432445135220071 -0.49438071891738861 0 -0.03036919172472595 -0.48122613151531218 0 -0.03036919172472595 -0.48122613151531218 0 -0.02606294056839566 -0.49292330895377767 0 -0.033936055898783547 -0.48954630313142689 0 -0.01432445135220071 -0.49438071891738861 0 -0.013631810096076001 -0.5 0 -0.02606294056839566 -0.49292330895377767 0 -0.037403416835591133 -0.49999999999999928 0 -0.033936055898783547 -0.48954630313142689 0 -0.041908674466421512 -0.48403577205661769 0 -0.037403416835591133 -0.49999999999999928 0 -0.041908674466421512 -0.48403577205661769 0 -0.057207920322979833 -0.48523267956653471 0 -0.037403416835591133 -0.49999999999999928 0 -0.041908674466421512 -0.48403577205661769 0 -0.02606294056839566 -0.49292330895377767 0 -0.037403416835591133 -0.49999999999999928 0 -0.033936055898783547 -0.48954630313142689 0 -0.03036919172472595 -0.48122613151531218 0 -0.033936055898783547 -0.48954630313142689 0 -0.041908674466421512 -0.48403577205661769 0 -0.03036919172472595 -0.48122613151531218 0 -0.041908674466421512 -0.48403577205661769 0 -0.046413932097251608 -0.46807154411323609 0 -0.03036919172472595 -0.48122613151531218 0 -0.046413932097251608 -0.46807154411323609 0 -0.031101931197275869 -0.46575762529363962 0 -0.03036919172472595 -0.48122613151531218 0 -0.046413932097251608 -0.46807154411323609 0 -0.041908674466421512 -0.48403577205661769 0 -0.046413932097251608 -0.46807154411323609 0 -0.057207920322979833 -0.48523267956653471 0 -0.046413932097251608 -0.46807154411323609 0 -0.064282106036243347 -0.47080284298289771 0 -0.041908674466421512 -0.48403577205661769 0 -0.057207920322979833 -0.48523267956653471 0 -0.046413932097251608 -0.46807154411323609 0 -0.037403416835591133 -0.49999999999999928 0 -0.057207920322979833 -0.48523267956653471 0 -0.066197335620298114 -0.5 0 -0.040165007883666143 -0.43572025851689178 0 -0.023334400937579811 -0.43924270308925689 0 -0.035170336327180043 -0.45184608543379579 0 -0.040165007883666143 -0.43572025851689178 0 -0.035170336327180043 -0.45184608543379579 0 -0.050256635973876453 -0.45445505297507272 0 -0.031101931197275869 -0.46575762529363962 0 -0.035170336327180043 -0.45184608543379579 0 -0.046413932097251608 -0.46807154411323609 0 -0.035170336327180043 -0.45184608543379579 0 -0.046413932097251608 -0.46807154411323609 0 -0.050256635973876453 -0.45445505297507272 0 -0.046413932097251608 -0.46807154411323609 0 -0.050256635973876453 -0.45445505297507272 0 -0.064122964421319553 -0.45355245510935538 0 -0.046413932097251608 -0.46807154411323609 0 -0.064122964421319553 -0.45355245510935538 0 -0.046413932097251608 -0.46807154411323609 0 -0.064122964421319553 -0.45355245510935538 0 -0.064282106036243347 -0.47080284298289771 0 -0.046413932097251608 -0.46807154411323609 0 -0.050256635973876453 -0.45445505297507272 0 -0.040165007883666143 -0.43572025851689178 0 -0.055661618887378077 -0.44126075725578667 0 -0.064122964421319553 -0.45355245510935538 0 -0.040165007883666143 -0.43572025851689178 0 -0.064122964421319553 -0.45355245510935538 0 -0.040165007883666143 -0.43572025851689178 0 -0.050256635973876453 -0.45445505297507272 0 -0.064122964421319553 -0.45355245510935538 0 -0.055661618887378077 -0.44126075725578667 0 -0.076095764400646346 -0.44373632595305912 0 -0.064122964421319553 -0.45355245510935538 0 -0.055661618887378077 -0.44126075725578667 0 -0.076095764400646346 -0.44373632595305912 0 -0.073218721930802394 -0.4280912359135709 0 -0.055661618887378077 -0.44126075725578667 0 -0.076095764400646346 -0.44373632595305912 0 -0.076095764400646346 -0.44373632595305912 0 -0.064122964421319553 -0.45355245510935538 0 -0.076095764400646346 -0.44373632595305912 0 -0.064122964421319553 -0.45355245510935538 0 -0.078465599781672446 -0.46422785194455879 0 -0.064122964421319553 -0.45355245510935538 0 -0.078465599781672446 -0.46422785194455879 0 -0.064282106036243347 -0.47080284298289771 0 -0.064122964421319553 -0.45355245510935538 0 -0.078465599781672446 -0.46422785194455879 0 -0.076095764400646346 -0.44373632595305912 0 -0.10222648219352889 -0.44690202656742001 0 -0.076095764400646346 -0.44373632595305912 0 -0.078465599781672446 -0.46422785194455879 0 -0.10222648219352889 -0.44690202656742001 0 -0.076095764400646346 -0.44373632595305912 0 -0.10222648219352889 -0.44690202656742001 0 -0.086031070938001455 -0.43559067478154812 0 -0.076095764400646346 -0.44373632595305912 0 -0.086031070938001455 -0.43559067478154812 0 -0.057207920322979833 -0.48523267956653471 0 -0.066197335620298114 -0.5 0 -0.077114753435005456 -0.48281678829953212 0 -0.078465599781672446 -0.46422785194455879 0 -0.064282106036243347 -0.47080284298289771 0 -0.077114753435005456 -0.48281678829953212 0 -0.057207920322979833 -0.48523267956653471 0 -0.064282106036243347 -0.47080284298289771 0 -0.077114753435005456 -0.48281678829953212 0 -0.078465599781672446 -0.46422785194455879 0 -0.077114753435005456 -0.48281678829953212 0 -0.100923045899052 -0.47395765873935769 0 -0.066197335620298114 -0.5 0 -0.077114753435005456 -0.48281678829953212 0 -0.094991254405005221 -0.5 0 -0.077114753435005456 -0.48281678829953212 0 -0.094991254405005221 -0.5 0 -0.100923045899052 -0.47395765873935769 0 -0.094991254405005221 -0.5 0 -0.100923045899052 -0.47395765873935769 0 -0.1118445274035101 -0.48657032396575889 0 -0.12607118658806191 -0.47503386359089061 0 -0.100923045899052 -0.47395765873935769 0 -0.1143944786667636 -0.46149031901986243 0 -0.12607118658806191 -0.47503386359089061 0 -0.100923045899052 -0.47395765873935769 0 -0.1118445274035101 -0.48657032396575889 0 -0.094991254405005221 -0.5 0 -0.1237851731897123 -0.49999999999999978 0 -0.1118445274035101 -0.48657032396575889 0 -0.12607118658806191 -0.47503386359089061 0 -0.1237851731897123 -0.49999999999999978 0 -0.12607118658806191 -0.47503386359089061 0 -0.1237851731897123 -0.49999999999999978 0 -0.1118445274035101 -0.48657032396575889 0 -0.10222648219352889 -0.44690202656742001 0 -0.099766682893161804 -0.43303573125268702 0 -0.086031070938001455 -0.43559067478154812 0 -0.10222648219352889 -0.44690202656742001 0 -0.11413520241023389 -0.43538622187476822 0 -0.099766682893161804 -0.43303573125268702 0 -0.078465599781672446 -0.46422785194455879 0 -0.100923045899052 -0.47395765873935769 0 -0.10222648219352889 -0.44690202656742001 0 -0.100923045899052 -0.47395765873935769 0 -0.10222648219352889 -0.44690202656742001 0 -0.1143944786667636 -0.46149031901986243 0 -0.12835719998641151 -0.45006772718178129 0 -0.12607118658806191 -0.47503386359089061 0 -0.1143944786667636 -0.46149031901986243 0 -0.12835719998641151 -0.45006772718178129 0 -0.10222648219352889 -0.44690202656742001 0 -0.12835719998641151 -0.45006772718178129 0 -0.10222648219352889 -0.44690202656742001 0 -0.11413520241023389 -0.43538622187476822 0 -0.12835719998641151 -0.45006772718178129 0 -0.10222648219352889 -0.44690202656742001 0 -0.1143944786667636 -0.46149031901986243 0 -0.12835719998641151 -0.45006772718178129 0 -0.12981075808947021 -0.43419304774826278 0 -0.11413520241023389 -0.43538622187476822 0 -0.12981075808947021 -0.43419304774826278 0 -0.11953579869486899 -0.42421667690442399 0 -0.11413520241023389 -0.43538622187476822 0 -0.11953579869486899 -0.42421667690442399 0 -0.11413520241023389 -0.43538622187476822 0 -0.10504336752144131 -0.42208785554209172 0 -0.11413520241023389 -0.43538622187476822 0 -0.10504336752144131 -0.42208785554209172 0 -0.099766682893161804 -0.43303573125268702 0 -0.10504336752144131 -0.42208785554209172 0 -0.099766682893161804 -0.43303573125268702 0 -0.090701245610523951 -0.42597345145396309 0 -0.10504336752144131 -0.42208785554209172 0 -0.090701245610523951 -0.42597345145396309 0 -0.086105364967230855 -0.41471731477042612 0 -0.10504336752144131 -0.42208785554209172 0 -0.1034936970788287 -0.40405790771359262 0 -0.086105364967230855 -0.41471731477042612 0 -0.10504336752144131 -0.42208785554209172 0 -0.1174253492606708 -0.41109789104225303 0 -0.1034936970788287 -0.40405790771359262 0 -0.11953579869486899 -0.42421667690442399 0 -0.10504336752144131 -0.42208785554209172 0 -0.1174253492606708 -0.41109789104225303 0 -0.13126431619252879 -0.41831836831474428 0 -0.11953579869486899 -0.42421667690442399 0 -0.1174253492606708 -0.41109789104225303 0 -0.12818254669925219 -0.4058692702250673 0 -0.1174253492606708 -0.41109789104225303 0 -0.1212918100736281 -0.39233659862993148 0 -0.1174253492606708 -0.41109789104225303 0 -0.1212918100736281 -0.39233659862993148 0 -0.1034936970788287 -0.40405790771359262 0 -0.1212918100736281 -0.39233659862993148 0 -0.094305036861114688 -0.38739239419150512 0 -0.1072299800137736 -0.36656719463736409 0 -0.1212918100736281 -0.39233659862993148 0 -0.094305036861114688 -0.38739239419150512 0 -0.1212918100736281 -0.39233659862993148 0 -0.094305036861114688 -0.38739239419150512 0 -0.1034936970788287 -0.40405790771359262 0 -0.1034936970788287 -0.40405790771359262 0 -0.077944438884512107 -0.39846973550499432 0 -0.086105364967230855 -0.41471731477042612 0 -0.094305036861114688 -0.38739239419150512 0 -0.1034936970788287 -0.40405790771359262 0 -0.077944438884512107 -0.39846973550499432 0 -0.084054054731152225 -0.36782674296135592 0 -0.094305036861114688 -0.38739239419150512 0 -0.06731826364860119 -0.3824481897530787 0 -0.094305036861114688 -0.38739239419150512 0 -0.06731826364860119 -0.3824481897530787 0 -0.077944438884512107 -0.39846973550499432 0 -0.094305036861114688 -0.38739239419150512 0 -0.06731826364860119 -0.3824481897530787 0 -0.052353368779455192 -0.39637776505858791 0 -0.06731826364860119 -0.3824481897530787 0 -0.077944438884512107 -0.39846973550499432 0 -0.052353368779455192 -0.39637776505858791 0 -0.077944438884512107 -0.39846973550499432 0 -0.064202449757086777 -0.41196337243873832 0 -0.053768185748797701 -0.42486603278512031 0 -0.064202449757086777 -0.41196337243873832 0 -0.073218721930802394 -0.4280912359135709 0 -0.077944438884512107 -0.39846973550499432 0 -0.064202449757086777 -0.41196337243873832 0 -0.086105364967230855 -0.41471731477042612 0 -0.064202449757086777 -0.41196337243873832 0 -0.073218721930802394 -0.4280912359135709 0 -0.086105364967230855 -0.41471731477042612 0 -0.073218721930802394 -0.4280912359135709 0 -0.090701245610523951 -0.42597345145396309 0 -0.086105364967230855 -0.41471731477042612 0 -0.076095764400646346 -0.44373632595305912 0 -0.073218721930802394 -0.4280912359135709 0 -0.086031070938001455 -0.43559067478154812 0 -0.073218721930802394 -0.4280912359135709 0 -0.086031070938001455 -0.43559067478154812 0 -0.090701245610523951 -0.42597345145396309 0 -0.099766682893161804 -0.43303573125268702 0 -0.086031070938001455 -0.43559067478154812 0 -0.090701245610523951 -0.42597345145396309 0 -0.089478962433901785 -0.079097107568018604 0 -0.088971588040238511 -0.1049334330811507 0 -0.084347632114981447 -0.092066589439300836 0 -0.089478962433901785 -0.079097107568018604 0 -0.088971588040238511 -0.1049334330811507 0 -0.089478962433901785 -0.079097107568018604 0 -0.090151501130168815 -0.082203895009575284 0 -0.088971588040238511 -0.1049334330811507 0 -0.081150687114966924 -0.085865172116603328 0 -0.084347632114981447 -0.092066589439300836 0 -0.089478962433901785 -0.079097107568018604 0 -0.081421887146141209 -0.080370269591458224 0 -0.081150687114966924 -0.085865172116603328 0 -0.089478962433901785 -0.079097107568018604 0 -0.081421887146141209 -0.080370269591458224 0 -0.081150687114966924 -0.085865172116603328 0 -0.075747417073082204 -0.084026387092821342 0 -0.081150687114966924 -0.085865172116603328 0 -0.084347632114981447 -0.092066589439300836 0 -0.074757536806728003 -0.09376550689141766 0 -0.089478962433901785 -0.079097107568018604 0 -0.090151501130168815 -0.082203895009575284 0 -0.098045869828273208 -0.078868782170514004 0 -0.089478962433901785 -0.079097107568018604 0 -0.10021999346036239 -0.068792849472343862 0 -0.089986336827565044 -0.053260782054886519 0 -0.089478962433901785 -0.079097107568018604 0 -0.080281684046363419 -0.073883650778502855 0 -0.089986336827565044 -0.053260782054886519 0 -0.080281684046363419 -0.073883650778502855 0 -0.089986336827565044 -0.053260782054886519 0 -0.07633925675169935 -0.062375809643382012 0 -0.089478962433901785 -0.079097107568018604 0 -0.089986336827565044 -0.053260782054886519 0 -0.081421887146141209 -0.080370269591458224 0 -0.089478962433901785 -0.079097107568018604 0 -0.080281684046363419 -0.073883650778502855 0 -0.081421887146141209 -0.080370269591458224 0 -0.080281684046363419 -0.073883650778502855 0 -0.074004962825986675 -0.077047663339787881 0 -0.080281684046363419 -0.073883650778502855 0 -0.074004962825986675 -0.077047663339787881 0 -0.070117474479706773 -0.071012106416587992 0 -0.074004962825986675 -0.077047663339787881 0 -0.070117474479706773 -0.071012106416587992 0 -0.067391111490960831 -0.0794112796886427 0 -0.070117474479706773 -0.071012106416587992 0 -0.07633925675169935 -0.062375809643382012 0 -0.068382974433047902 -0.061785338846953093 0 -0.080281684046363419 -0.073883650778502855 0 -0.070117474479706773 -0.071012106416587992 0 -0.07633925675169935 -0.062375809643382012 0 -0.070117474479706773 -0.071012106416587992 0 -0.068382974433047902 -0.061785338846953093 0 -0.061934815525144377 -0.066100410256940717 0 -0.070117474479706773 -0.071012106416587992 0 -0.062703883391188556 -0.073448784533338751 0 -0.061934815525144377 -0.066100410256940717 0 -0.070117474479706773 -0.071012106416587992 0 -0.062703883391188556 -0.073448784533338751 0 -0.067391111490960831 -0.0794112796886427 0 -0.062703883391188556 -0.073448784533338751 0 -0.067391111490960831 -0.0794112796886427 0 -0.057720953467272497 -0.080287158755334126 0 -0.067391111490960831 -0.0794112796886427 0 -0.075747417073082204 -0.084026387092821342 0 -0.063710096565901708 -0.091351238043372779 0 -0.067391111490960831 -0.0794112796886427 0 -0.063710096565901708 -0.091351238043372779 0 -0.057720953467272497 -0.080287158755334126 0 -0.074004962825986675 -0.077047663339787881 0 -0.067391111490960831 -0.0794112796886427 0 -0.075747417073082204 -0.084026387092821342 0 -0.081421887146141209 -0.080370269591458224 0 -0.074004962825986675 -0.077047663339787881 0 -0.075747417073082204 -0.084026387092821342 0 -0.081150687114966924 -0.085865172116603328 0 -0.075747417073082204 -0.084026387092821342 0 -0.074757536806728003 -0.09376550689141766 0 -0.075747417073082204 -0.084026387092821342 0 -0.063710096565901708 -0.091351238043372779 0 -0.074757536806728003 -0.09376550689141766 0 -0.063710096565901708 -0.091351238043372779 0 -0.074757536806728003 -0.09376550689141766 0 -0.069877929086750071 -0.1112409104555752 0 -0.074757536806728003 -0.09376550689141766 0 -0.069877929086750071 -0.1112409104555752 0 -0.088971588040238511 -0.1049334330811507 0 -0.069877929086750071 -0.1112409104555752 0 -0.052844320097862843 -0.12507923435526319 0 -0.068994590933045608 -0.12759081868993979 0 -0.069877929086750071 -0.1112409104555752 0 -0.088464213646575252 -0.13076975859428289 0 -0.068994590933045608 -0.12759081868993979 0 -0.069877929086750071 -0.1112409104555752 0 -0.088971588040238511 -0.1049334330811507 0 -0.088464213646575252 -0.13076975859428289 0 -0.088971588040238511 -0.1049334330811507 0 -0.088464213646575252 -0.13076975859428289 0 -0.084347632114981447 -0.092066589439300836 0 -0.074757536806728003 -0.09376550689141766 0 -0.088971588040238511 -0.1049334330811507 0 -0.090151501130168815 -0.082203895009575284 0 -0.088971588040238511 -0.1049334330811507 0 -0.1051708067694259 -0.1026814940209255 0 -0.088971588040238511 -0.1049334330811507 0 -0.1051708067694259 -0.1026814940209255 0 -0.104626417548185 -0.1201891509129509 0 -0.088971588040238511 -0.1049334330811507 0 -0.104626417548185 -0.1201891509129509 0 -0.088464213646575252 -0.13076975859428289 0 -0.1051708067694259 -0.1026814940209255 0 -0.104626417548185 -0.1201891509129509 0 -0.1201901124086828 -0.1231590930322756 0 -0.1051708067694259 -0.1026814940209255 0 -0.1201901124086828 -0.1231590930322756 0 -0.1198936638897684 -0.1081371930307445 0 -0.1051708067694259 -0.1026814940209255 0 -0.1201901124086828 -0.1231590930322756 0 -0.104626417548185 -0.1201891509129509 0 -0.1201901124086828 -0.1231590930322756 0 -0.1167750734035595 -0.12601544616894339 0 -0.1201901124086828 -0.1231590930322756 0 -0.1167750734035595 -0.12601544616894339 0 -0.1051708067694259 -0.1026814940209255 0 -0.1215217130594437 -0.096679436671600061 0 -0.1054084815481328 -0.08896518790176236 0 -0.1051708067694259 -0.1026814940209255 0 -0.1215217130594437 -0.096679436671600061 0 -0.1198936638897684 -0.1081371930307445 0 -0.1215217130594437 -0.096679436671600061 0 -0.1202185783422542 -0.084809168005121616 0 -0.1054084815481328 -0.08896518790176236 0 -0.1202185783422542 -0.084809168005121616 0 -0.1054084815481328 -0.08896518790176236 0 -0.1092504121276167 -0.074905297073435656 0 -0.090151501130168815 -0.082203895009575284 0 -0.1051708067694259 -0.1026814940209255 0 -0.1054084815481328 -0.08896518790176236 0 -0.090151501130168815 -0.082203895009575284 0 -0.1051708067694259 -0.1026814940209255 0 -0.1054084815481328 -0.08896518790176236 0 -0.098045869828273208 -0.078868782170514004 0 -0.1092504121276167 -0.074905297073435656 0 -0.090151501130168815 -0.082203895009575284 0 -0.1054084815481328 -0.08896518790176236 0 -0.098045869828273208 -0.078868782170514004 0 -0.10021999346036239 -0.068792849472343862 0 -0.1092504121276167 -0.074905297073435656 0 -0.1143383860844555 -0.057832278494864553 0 -0.089478962433901785 -0.079097107568018604 0 -0.098045869828273208 -0.078868782170514004 0 -0.10021999346036239 -0.068792849472343862 0 -0.098045869828273208 -0.078868782170514004 0 -0.10021999346036239 -0.068792849472343862 0 -0.1092504121276167 -0.074905297073435656 0 -0.1092504121276167 -0.074905297073435656 0 -0.1143383860844555 -0.057832278494864553 0 -0.1256431312615125 -0.073383798652268462 0 -0.1202185783422542 -0.084809168005121616 0 -0.1092504121276167 -0.074905297073435656 0 -0.1256431312615125 -0.073383798652268462 0 -0.1143383860844555 -0.057832278494864553 0 -0.1113044219907203 -0.040473306035869058 0 -0.13515252671138711 -0.041552418356758061 0 -0.1113044219907203 -0.040473306035869058 0 -0.1197325795589636 -0.022268310888487491 0 -0.13515252671138711 -0.041552418356758061 0 -0.103387468491334 -0.027605835381037291 0 -0.090493711221228318 -0.02742445654175437 0 -0.089986336827565044 -0.053260782054886519 0 -0.1113044219907203 -0.040473306035869058 0 -0.103387468491334 -0.027605835381037291 0 -0.089986336827565044 -0.053260782054886519 0 -0.1143383860844555 -0.057832278494864553 0 -0.1113044219907203 -0.040473306035869058 0 -0.089986336827565044 -0.053260782054886519 0 -0.10021999346036239 -0.068792849472343862 0 -0.1143383860844555 -0.057832278494864553 0 -0.089986336827565044 -0.053260782054886519 0 -0.11445688888558631 -0.0079589434221928879 0 -0.10470026816516891 -0.0068842943183433196 0 -0.1109961699132179 0.0031988012185966432 0 -0.121953472101768 -0.00080781569352938066 0 -0.11445688888558631 -0.0079589434221928879 0 -0.1109961699132179 0.0031988012185966432 0 -0.121953472101768 -0.00080781569352938066 0 -0.11445688888558631 -0.0079589434221928879 0 -0.12614642889905739 -0.0086693613163847973 0 -0.11445688888558631 -0.0079589434221928879 0 -0.1197325795589636 -0.022268310888487491 0 -0.12614642889905739 -0.0086693613163847973 0 -0.11445688888558631 -0.0079589434221928879 0 -0.1197325795589636 -0.022268310888487491 0 -0.105053936751696 -0.015439829251773221 0 -0.1113044219907203 -0.040473306035869058 0 -0.1197325795589636 -0.022268310888487491 0 -0.103387468491334 -0.027605835381037291 0 -0.1197325795589636 -0.022268310888487491 0 -0.103387468491334 -0.027605835381037291 0 -0.105053936751696 -0.015439829251773221 0 -0.098838339895160457 -0.020401884985511529 0 -0.096418243116383515 -0.011137418767481221 0 -0.090493711221228318 -0.02742445654175437 0 -0.103387468491334 -0.027605835381037291 0 -0.098838339895160457 -0.020401884985511529 0 -0.090493711221228318 -0.02742445654175437 0 -0.098838339895160457 -0.020401884985511529 0 -0.105053936751696 -0.015439829251773221 0 -0.096418243116383515 -0.011137418767481221 0 -0.103387468491334 -0.027605835381037291 0 -0.098838339895160457 -0.020401884985511529 0 -0.105053936751696 -0.015439829251773221 0 -0.10077894170241571 -0.0041027607239625223 0 -0.091001085614892702 -0.0015881310286221899 0 -0.1109961699132179 0.0031988012185966432 0 -0.105053936751696 -0.015439829251773221 0 -0.096418243116383515 -0.011137418767481221 0 -0.10470026816516891 -0.0068842943183433196 0 -0.11445688888558631 -0.0079589434221928879 0 -0.105053936751696 -0.015439829251773221 0 -0.10470026816516891 -0.0068842943183433196 0 -0.096418243116383515 -0.011137418767481221 0 -0.10077894170241571 -0.0041027607239625223 0 -0.10470026816516891 -0.0068842943183433196 0 -0.096418243116383515 -0.011137418767481221 0 -0.10077894170241571 -0.0041027607239625223 0 -0.091001085614892702 -0.0015881310286221899 0 -0.10077894170241571 -0.0041027607239625223 0 -0.10470026816516891 -0.0068842943183433196 0 -0.1109961699132179 0.0031988012185966432 0 -0.091001085614892702 -0.0015881310286221899 0 -0.086630436055662743 -0.01045057309176328 0 -0.090493711221228318 -0.02742445654175437 0 -0.091001085614892702 -0.0015881310286221899 0 -0.090493711221228318 -0.02742445654175437 0 -0.096418243116383515 -0.011137418767481221 0 -0.091001085614892702 -0.0015881310286221899 0 -0.090493711221228318 -0.02742445654175437 0 -0.081906489495653267 -0.0059519053153721481 0 -0.087222326293029229 -0.002492786622088686 0 -0.086630436055662743 -0.01045057309176328 0 -0.079218927322204161 -0.0002374005262589096 0 -0.081906489495653267 -0.0059519053153721481 0 -0.083340597420130835 -0.00130003528545795 0 -0.079218927322204161 -0.0002374005262589096 0 -0.081906489495653267 -0.0059519053153721481 0 -0.075127978659702915 -0.002826437053744827 0 -0.083340597420130835 -0.00130003528545795 0 -0.087222326293029229 -0.002492786622088686 0 -0.086251528825368684 0.0014283631031671801 0 -0.081906489495653267 -0.0059519053153721481 0 -0.083340597420130835 -0.00130003528545795 0 -0.087222326293029229 -0.002492786622088686 0 -0.087222326293029229 -0.002492786622088686 0 -0.091001085614892702 -0.0015881310286221899 0 -0.086630436055662743 -0.01045057309176328 0 -0.087222326293029229 -0.002492786622088686 0 -0.091001085614892702 -0.0015881310286221899 0 -0.086251528825368684 0.0014283631031671801 0 -0.087222326293029229 -0.002492786622088686 0 -0.091001085614892702 -0.0015881310286221899 0 -0.081906489495653267 -0.0059519053153721481 0 -0.082528567653510243 -0.014795585950979019 0 -0.078712172979486322 -0.01067746938724359 0 -0.081906489495653267 -0.0059519053153721481 0 -0.086630436055662743 -0.01045057309176328 0 -0.082528567653510243 -0.014795585950979019 0 -0.081906489495653267 -0.0059519053153721481 0 -0.078712172979486322 -0.01067746938724359 0 -0.074313029672642555 -0.0076991468795479991 0 -0.082528567653510243 -0.014795585950979019 0 -0.078712172979486322 -0.01067746938724359 0 -0.076100605096139196 -0.014263239403075169 0 -0.086630436055662743 -0.01045057309176328 0 -0.082528567653510243 -0.014795585950979019 0 -0.090493711221228318 -0.02742445654175437 0 -0.082528567653510243 -0.014795585950979019 0 -0.081349236163307678 -0.022433654180458808 0 -0.090493711221228318 -0.02742445654175437 0 -0.082528567653510243 -0.014795585950979019 0 -0.081349236163307678 -0.022433654180458808 0 -0.076100605096139196 -0.014263239403075169 0 -0.081349236163307678 -0.022433654180458808 0 -0.090493711221228318 -0.02742445654175437 0 -0.081380016720265028 -0.034276096159750503 0 -0.081349236163307678 -0.022433654180458808 0 -0.05496194846913155 -0.027537946599722571 0 -0.081349236163307678 -0.022433654180458808 0 -0.0691724491590128 -0.018616013631682041 0 -0.060221661461457729 -0.02337832269176247 0 -0.081349236163307678 -0.022433654180458808 0 -0.070237862394981934 -0.03115570671916729 0 -0.05496194846913155 -0.027537946599722571 0 -0.081349236163307678 -0.022433654180458808 0 -0.060221661461457729 -0.02337832269176247 0 -0.05496194846913155 -0.027537946599722571 0 -0.081349236163307678 -0.022433654180458808 0 -0.070237862394981934 -0.03115570671916729 0 -0.081380016720265028 -0.034276096159750503 0 -0.070237862394981934 -0.03115570671916729 0 -0.062747282574657809 -0.033128635665740959 0 -0.05496194846913155 -0.027537946599722571 0 -0.062859313963756158 -0.01840943673002832 0 -0.0691724491590128 -0.018616013631682041 0 -0.060221661461457729 -0.02337832269176247 0 -0.062859313963756158 -0.01840943673002832 0 -0.0691724491590128 -0.018616013631682041 0 -0.066234343456628084 -0.01465487703823538 0 -0.062859313963756158 -0.01840943673002832 0 -0.066234343456628084 -0.01465487703823538 0 -0.062042584752078363 -0.014427658357088679 0 -0.081349236163307678 -0.022433654180458808 0 -0.0691724491590128 -0.018616013631682041 0 -0.076100605096139196 -0.014263239403075169 0 -0.078712172979486322 -0.01067746938724359 0 -0.076100605096139196 -0.014263239403075169 0 -0.074313029672642555 -0.0076991468795479991 0 -0.070738438865061121 -0.01211117660873713 0 -0.070085359104968659 -0.0064102931631240933 0 -0.074313029672642555 -0.0076991468795479991 0 -0.076100605096139196 -0.014263239403075169 0 -0.070738438865061121 -0.01211117660873713 0 -0.074313029672642555 -0.0076991468795479991 0 -0.0691724491590128 -0.018616013631682041 0 -0.076100605096139196 -0.014263239403075169 0 -0.070738438865061121 -0.01211117660873713 0 -0.0691724491590128 -0.018616013631682041 0 -0.070738438865061121 -0.01211117660873713 0 -0.066234343456628084 -0.01465487703823538 0 -0.070738438865061121 -0.01211117660873713 0 -0.066234343456628084 -0.01465487703823538 0 -0.065183449188090645 -0.01017656872046334 0 -0.066234343456628084 -0.01465487703823538 0 -0.065183449188090645 -0.01017656872046334 0 -0.062042584752078363 -0.014427658357088679 0 -0.070738438865061121 -0.01211117660873713 0 -0.065183449188090645 -0.01017656872046334 0 -0.070085359104968659 -0.0064102931631240933 0 -0.070085359104968659 -0.0064102931631240933 0 -0.065380336593012109 -0.0044956955412448728 0 -0.069768921651302607 -0.0011527341750063929 0 -0.065183449188090645 -0.01017656872046334 0 -0.070085359104968659 -0.0064102931631240933 0 -0.065380336593012109 -0.0044956955412448728 0 -0.065183449188090645 -0.01017656872046334 0 -0.065380336593012109 -0.0044956955412448728 0 -0.06151139756020764 -0.0070333661923872443 0 -0.065380336593012109 -0.0044956955412448728 0 -0.060391079500532692 -0.002438102107370714 0 -0.064599017022157201 0.0016192626074422851 0 -0.065380336593012109 -0.0044956955412448728 0 -0.069768921651302607 -0.0011527341750063929 0 -0.064599017022157201 0.0016192626074422851 0 -0.069768921651302607 -0.0011527341750063929 0 -0.075127978659702915 -0.002826437053744827 0 -0.074548929746931183 0.0024723005308605688 0 -0.070085359104968659 -0.0064102931631240933 0 -0.069768921651302607 -0.0011527341750063929 0 -0.075127978659702915 -0.002826437053744827 0 -0.070085359104968659 -0.0064102931631240933 0 -0.074313029672642555 -0.0076991468795479991 0 -0.075127978659702915 -0.002826437053744827 0 -0.081906489495653267 -0.0059519053153721481 0 -0.074313029672642555 -0.0076991468795479991 0 -0.075127978659702915 -0.002826437053744827 0 -0.079218927322204161 -0.0002374005262589096 0 -0.075127978659702915 -0.002826437053744827 0 -0.074548929746931183 0.0024723005308605688 0 -0.089986336827565044 -0.053260782054886519 0 -0.078761248891797836 -0.044469062331195061 0 -0.072927813971813638 -0.051937170119979607 0 -0.089986336827565044 -0.053260782054886519 0 -0.072927813971813638 -0.051937170119979607 0 -0.07633925675169935 -0.062375809643382012 0 -0.089986336827565044 -0.053260782054886519 0 -0.081380016720265028 -0.034276096159750503 0 -0.078761248891797836 -0.044469062331195061 0 -0.090493711221228318 -0.02742445654175437 0 -0.089986336827565044 -0.053260782054886519 0 -0.081380016720265028 -0.034276096159750503 0 -0.090493711221228318 -0.02742445654175437 0 -0.089986336827565044 -0.053260782054886519 0 -0.078761248891797836 -0.044469062331195061 0 -0.070750828047547634 -0.038402200990163622 0 -0.072927813971813638 -0.051937170119979607 0 -0.070237862394981934 -0.03115570671916729 0 -0.081380016720265028 -0.034276096159750503 0 -0.070750828047547634 -0.038402200990163622 0 -0.081380016720265028 -0.034276096159750503 0 -0.078761248891797836 -0.044469062331195061 0 -0.070750828047547634 -0.038402200990163622 0 -0.070750828047547634 -0.038402200990163622 0 -0.062747282574657809 -0.033128635665740959 0 -0.064205871687198629 -0.039120801481252541 0 -0.070237862394981934 -0.03115570671916729 0 -0.070750828047547634 -0.038402200990163622 0 -0.062747282574657809 -0.033128635665740959 0 -0.070750828047547634 -0.038402200990163622 0 -0.064601634422291124 -0.04540691479766603 0 -0.072927813971813638 -0.051937170119979607 0 -0.070750828047547634 -0.038402200990163622 0 -0.064205871687198629 -0.039120801481252541 0 -0.064601634422291124 -0.04540691479766603 0 -0.064601634422291124 -0.04540691479766603 0 -0.072927813971813638 -0.051937170119979607 0 -0.060449480544308661 -0.056223084446072283 0 -0.072927813971813638 -0.051937170119979607 0 -0.07633925675169935 -0.062375809643382012 0 -0.068382974433047902 -0.061785338846953093 0 -0.068382974433047902 -0.061785338846953093 0 -0.060449480544308661 -0.056223084446072283 0 -0.061934815525144377 -0.066100410256940717 0 -0.072927813971813638 -0.051937170119979607 0 -0.068382974433047902 -0.061785338846953093 0 -0.060449480544308661 -0.056223084446072283 0 -0.060449480544308661 -0.056223084446072283 0 -0.050306358920041171 -0.056647478042005511 0 -0.05343672494320495 -0.063834628805437083 0 -0.060449480544308661 -0.056223084446072283 0 -0.061934815525144377 -0.066100410256940717 0 -0.05343672494320495 -0.063834628805437083 0 -0.050306358920041171 -0.056647478042005511 0 -0.045448375830299023 -0.062075011907811388 0 -0.05343672494320495 -0.063834628805437083 0 -0.048491539236472418 -0.051786215425771803 0 -0.053879582639656143 -0.049202253693486207 0 -0.045066952869821209 -0.047142873717341389 0 -0.050306358920041171 -0.056647478042005511 0 -0.048491539236472418 -0.051786215425771803 0 -0.043856038847773803 -0.054448432967245552 0 -0.050306358920041171 -0.056647478042005511 0 -0.048491539236472418 -0.051786215425771803 0 -0.053879582639656143 -0.049202253693486207 0 -0.064601634422291124 -0.04540691479766603 0 -0.060449480544308661 -0.056223084446072283 0 -0.053879582639656143 -0.049202253693486207 0 -0.060449480544308661 -0.056223084446072283 0 -0.050306358920041171 -0.056647478042005511 0 -0.053879582639656143 -0.049202253693486207 0 -0.064205871687198629 -0.039120801481252541 0 -0.064601634422291124 -0.04540691479766603 0 -0.056771564871214431 -0.040714302643174959 0 -0.049372818525227929 -0.033919606201574581 0 -0.038876094073856157 -0.034752340823760552 0 -0.05496194846913155 -0.027537946599722571 0 -0.064601634422291124 -0.04540691479766603 0 -0.053879582639656143 -0.049202253693486207 0 -0.056771564871214431 -0.040714302643174959 0 -0.062747282574657809 -0.033128635665740959 0 -0.059095222500369297 -0.036089087527600823 0 -0.057105546067711767 -0.032593848019899931 0 -0.062747282574657809 -0.033128635665740959 0 -0.064205871687198629 -0.039120801481252541 0 -0.059095222500369297 -0.036089087527600823 0 -0.064205871687198629 -0.039120801481252541 0 -0.056771564871214431 -0.040714302643174959 0 -0.059095222500369297 -0.036089087527600823 0 -0.056771564871214431 -0.040714302643174959 0 -0.059095222500369297 -0.036089087527600823 0 -0.054645847301063873 -0.034887849827935691 0 -0.059095222500369297 -0.036089087527600823 0 -0.057105546067711767 -0.032593848019899931 0 -0.054645847301063873 -0.034887849827935691 0 -0.057105546067711767 -0.032593848019899931 0 -0.054206590535788073 -0.031865995205267658 0 -0.054645847301063873 -0.034887849827935691 0 -0.054206590535788073 -0.031865995205267658 0 -0.054645847301063873 -0.034887849827935691 0 -0.049372818525227929 -0.033919606201574581 0 -0.054645847301063873 -0.034887849827935691 0 -0.051323320676030529 -0.037774209866980081 0 -0.049372818525227929 -0.033919606201574581 0 -0.056771564871214431 -0.040714302643174959 0 -0.054645847301063873 -0.034887849827935691 0 -0.051323320676030529 -0.037774209866980081 0 -0.051323320676030529 -0.037774209866980081 0 -0.047116949735099667 -0.03775858460579095 0 -0.049372818525227929 -0.033919606201574581 0 -0.053879582639656143 -0.049202253693486207 0 -0.056771564871214431 -0.040714302643174959 0 -0.050275522098357603 -0.042252202817795938 0 -0.053879582639656143 -0.049202253693486207 0 -0.050275522098357603 -0.042252202817795938 0 -0.045066952869821209 -0.047142873717341389 0 -0.056771564871214431 -0.040714302643174959 0 -0.051323320676030529 -0.037774209866980081 0 -0.050275522098357603 -0.042252202817795938 0 -0.051323320676030529 -0.037774209866980081 0 -0.047116949735099667 -0.03775858460579095 0 -0.050275522098357603 -0.042252202817795938 0 -0.038876094073856157 -0.034752340823760552 0 -0.05496194846913155 -0.027537946599722571 0 -0.02857466077495522 -0.032642239018986358 0 -0.050275522098357603 -0.042252202817795938 0 -0.04319013147934854 -0.040986408824353449 0 -0.045066952869821209 -0.047142873717341389 0 -0.04319013147934854 -0.040986408824353449 0 -0.036499232010292149 -0.048411871718547578 0 -0.045066952869821209 -0.047142873717341389 0 -0.047116949735099667 -0.03775858460579095 0 -0.050275522098357603 -0.042252202817795938 0 -0.04319013147934854 -0.040986408824353449 0 -0.04319013147934854 -0.040986408824353449 0 -0.04240641390157765 -0.036991072000138563 0 -0.036839022712364042 -0.039880769182961011 0 -0.049372818525227929 -0.033919606201574581 0 -0.04240641390157765 -0.036991072000138563 0 -0.038876094073856157 -0.034752340823760552 0 -0.047116949735099667 -0.03775858460579095 0 -0.04319013147934854 -0.040986408824353449 0 -0.04240641390157765 -0.036991072000138563 0 -0.047116949735099667 -0.03775858460579095 0 -0.049372818525227929 -0.033919606201574581 0 -0.04240641390157765 -0.036991072000138563 0 -0.04240641390157765 -0.036991072000138563 0 -0.038876094073856157 -0.034752340823760552 0 -0.036839022712364042 -0.039880769182961011 0 -0.038876094073856157 -0.034752340823760552 0 -0.03020905539512406 -0.041098673310487902 0 -0.02857466077495522 -0.032642239018986358 0 -0.038876094073856157 -0.034752340823760552 0 -0.036839022712364042 -0.039880769182961011 0 -0.03020905539512406 -0.041098673310487902 0 -0.036839022712364042 -0.039880769182961011 0 -0.036499232010292149 -0.048411871718547578 0 -0.03020905539512406 -0.041098673310487902 0 -0.04319013147934854 -0.040986408824353449 0 -0.036839022712364042 -0.039880769182961011 0 -0.036499232010292149 -0.048411871718547578 0 -0.038016283661880673 -0.059650637021300683 0 -0.029000286087318548 -0.056459513414774017 0 -0.030299746460493961 -0.066482492709200702 0 -0.036499232010292149 -0.048411871718547578 0 -0.038016283661880673 -0.059650637021300683 0 -0.029000286087318548 -0.056459513414774017 0 -0.038016283661880673 -0.059650637021300683 0 -0.045448375830299023 -0.062075011907811388 0 -0.043856038847773803 -0.054448432967245552 0 -0.050306358920041171 -0.056647478042005511 0 -0.045448375830299023 -0.062075011907811388 0 -0.043856038847773803 -0.054448432967245552 0 -0.048491539236472418 -0.051786215425771803 0 -0.043856038847773803 -0.054448432967245552 0 -0.045066952869821209 -0.047142873717341389 0 -0.036499232010292149 -0.048411871718547578 0 -0.038016283661880673 -0.059650637021300683 0 -0.043856038847773803 -0.054448432967245552 0 -0.036499232010292149 -0.048411871718547578 0 -0.043856038847773803 -0.054448432967245552 0 -0.045066952869821209 -0.047142873717341389 0 -0.04764526290786273 -0.0030275928886248468 0 -0.053892082868607201 -0.0012325787593098711 0 -0.048385971650348983 0.002685452562897673 0 -0.046935423929498031 -0.0077477341307906379 0 -0.052067297638917001 -0.0058142632674539731 0 -0.051427624802950267 -0.0093670790293004999 0 -0.04764526290786273 -0.0030275928886248468 0 -0.046935423929498031 -0.0077477341307906379 0 -0.052067297638917001 -0.0058142632674539731 0 -0.052067297638917001 -0.0058142632674539731 0 -0.056566408217609797 -0.0073600064595267661 0 -0.051427624802950267 -0.0093670790293004999 0 -0.052067297638917001 -0.0058142632674539731 0 -0.053892082868607201 -0.0012325787593098711 0 -0.056566408217609797 -0.0073600064595267661 0 -0.04764526290786273 -0.0030275928886248468 0 -0.052067297638917001 -0.0058142632674539731 0 -0.053892082868607201 -0.0012325787593098711 0 -0.053892082868607201 -0.0012325787593098711 0 -0.060391079500532692 -0.002438102107370714 0 -0.056566408217609797 -0.0073600064595267661 0 -0.060391079500532692 -0.002438102107370714 0 -0.06151139756020764 -0.0070333661923872443 0 -0.056566408217609797 -0.0073600064595267661 0 -0.065380336593012109 -0.0044956955412448728 0 -0.060391079500532692 -0.002438102107370714 0 -0.06151139756020764 -0.0070333661923872443 0 -0.056566408217609797 -0.0073600064595267661 0 -0.059424746806585702 -0.01097301778518189 0 -0.054125307286248592 -0.012282354182614299 0 -0.065183449188090645 -0.01017656872046334 0 -0.06151139756020764 -0.0070333661923872443 0 -0.059424746806585702 -0.01097301778518189 0 -0.06151139756020764 -0.0070333661923872443 0 -0.056566408217609797 -0.0073600064595267661 0 -0.059424746806585702 -0.01097301778518189 0 -0.059424746806585702 -0.01097301778518189 0 -0.062042584752078363 -0.014427658357088679 0 -0.057119333835279201 -0.014558152799011039 0 -0.065183449188090645 -0.01017656872046334 0 -0.059424746806585702 -0.01097301778518189 0 -0.062042584752078363 -0.014427658357088679 0 -0.057119333835279201 -0.014558152799011039 0 -0.054125307286248592 -0.012282354182614299 0 -0.052930534731362083 -0.016677335397400041 0 -0.059424746806585702 -0.01097301778518189 0 -0.057119333835279201 -0.014558152799011039 0 -0.054125307286248592 -0.012282354182614299 0 -0.054125307286248592 -0.012282354182614299 0 -0.048450945434481398 -0.013319334389621129 0 -0.052930534731362083 -0.016677335397400041 0 -0.056566408217609797 -0.0073600064595267661 0 -0.054125307286248592 -0.012282354182614299 0 -0.051427624802950267 -0.0093670790293004999 0 -0.054125307286248592 -0.012282354182614299 0 -0.051427624802950267 -0.0093670790293004999 0 -0.048450945434481398 -0.013319334389621129 0 -0.046935423929498031 -0.0077477341307906379 0 -0.051427624802950267 -0.0093670790293004999 0 -0.048450945434481398 -0.013319334389621129 0 -0.048450945434481398 -0.013319334389621129 0 -0.049651229344848502 -0.017911673016021621 0 -0.046564575867488439 -0.016963276622458619 0 -0.049651229344848502 -0.017911673016021621 0 -0.049289353039696768 -0.020937810324250461 0 -0.046564575867488439 -0.016963276622458619 0 -0.048450945434481398 -0.013319334389621129 0 -0.049651229344848502 -0.017911673016021621 0 -0.052930534731362083 -0.016677335397400041 0 -0.049651229344848502 -0.017911673016021621 0 -0.049289353039696768 -0.020937810324250461 0 -0.051871247245075851 -0.019871532474350289 0 -0.049289353039696768 -0.020937810324250461 0 -0.052484847514963032 -0.022553539872596728 0 -0.051644246479673417 -0.026522799771468809 0 -0.049289353039696768 -0.020937810324250461 0 -0.051871247245075851 -0.019871532474350289 0 -0.052484847514963032 -0.022553539872596728 0 -0.052484847514963032 -0.022553539872596728 0 -0.055177461093230122 -0.020904579621476831 0 -0.053997403449331752 -0.024800933659961319 0 -0.051871247245075851 -0.019871532474350289 0 -0.052484847514963032 -0.022553539872596728 0 -0.055177461093230122 -0.020904579621476831 0 -0.051871247245075851 -0.019871532474350289 0 -0.052930534731362083 -0.016677335397400041 0 -0.055177461093230122 -0.020904579621476831 0 -0.049651229344848502 -0.017911673016021621 0 -0.051871247245075851 -0.019871532474350289 0 -0.052930534731362083 -0.016677335397400041 0 -0.057119333835279201 -0.014558152799011039 0 -0.052930534731362083 -0.016677335397400041 0 -0.058304549193259871 -0.01826043368137938 0 -0.052930534731362083 -0.016677335397400041 0 -0.058304549193259871 -0.01826043368137938 0 -0.055177461093230122 -0.020904579621476831 0 -0.062859313963756158 -0.01840943673002832 0 -0.062042584752078363 -0.014427658357088679 0 -0.058304549193259871 -0.01826043368137938 0 -0.062042584752078363 -0.014427658357088679 0 -0.057119333835279201 -0.014558152799011039 0 -0.058304549193259871 -0.01826043368137938 0 -0.062859313963756158 -0.01840943673002832 0 -0.058304549193259871 -0.01826043368137938 0 -0.060221661461457729 -0.02337832269176247 0 -0.058304549193259871 -0.01826043368137938 0 -0.060221661461457729 -0.02337832269176247 0 -0.055177461093230122 -0.020904579621476831 0 -0.060221661461457729 -0.02337832269176247 0 -0.055177461093230122 -0.020904579621476831 0 -0.056089618618287783 -0.0241554456432308 0 -0.055177461093230122 -0.020904579621476831 0 -0.056089618618287783 -0.0241554456432308 0 -0.053997403449331752 -0.024800933659961319 0 -0.060221661461457729 -0.02337832269176247 0 -0.056089618618287783 -0.0241554456432308 0 -0.05496194846913155 -0.027537946599722571 0 -0.056089618618287783 -0.0241554456432308 0 -0.05496194846913155 -0.027537946599722571 0 -0.053997403449331752 -0.024800933659961319 0 -0.057105546067711767 -0.032593848019899931 0 -0.054206590535788073 -0.031865995205267658 0 -0.05496194846913155 -0.027537946599722571 0 -0.062747282574657809 -0.033128635665740959 0 -0.057105546067711767 -0.032593848019899931 0 -0.05496194846913155 -0.027537946599722571 0 -0.054206590535788073 -0.031865995205267658 0 -0.049372818525227929 -0.033919606201574581 0 -0.05496194846913155 -0.027537946599722571 0 -0.05496194846913155 -0.027537946599722571 0 -0.053997403449331752 -0.024800933659961319 0 -0.051644246479673417 -0.026522799771468809 0 -0.05496194846913155 -0.027537946599722571 0 -0.051644246479673417 -0.026522799771468809 0 -0.047314457793966619 -0.026253490908046739 0 -0.052484847514963032 -0.022553539872596728 0 -0.053997403449331752 -0.024800933659961319 0 -0.051644246479673417 -0.026522799771468809 0 -0.05496194846913155 -0.027537946599722571 0 -0.047314457793966619 -0.026253490908046739 0 -0.02857466077495522 -0.032642239018986358 0 -0.05496194846913155 -0.027537946599722571 0 -0.02857466077495522 -0.032642239018986358 0 -0.047314457793966619 -0.026253490908046739 0 -0.037557445448573312 -0.02632957833390932 0 -0.02857466077495522 -0.032642239018986358 0 -0.037557445448573312 -0.02632957833390932 0 -0.03063260779114968 -0.026716313830341731 0 -0.02857466077495522 -0.032642239018986358 0 -0.037557445448573312 -0.02632957833390932 0 -0.032484579416924828 -0.022830891080009019 0 -0.03063260779114968 -0.026716313830341731 0 -0.037557445448573312 -0.02632957833390932 0 -0.032484579416924828 -0.022830891080009019 0 -0.034500036311657448 -0.017063655359157399 0 -0.032484579416924828 -0.022830891080009019 0 -0.034500036311657448 -0.017063655359157399 0 -0.03046460497660761 -0.020224142495350921 0 -0.047314457793966619 -0.026253490908046739 0 -0.034500036311657448 -0.017063655359157399 0 -0.036666692071537749 -0.012579279276814549 0 -0.047314457793966619 -0.026253490908046739 0 -0.034500036311657448 -0.017063655359157399 0 -0.051644246479673417 -0.026522799771468809 0 -0.036666692071537749 -0.012579279276814549 0 -0.051644246479673417 -0.026522799771468809 0 -0.047314457793966619 -0.026253490908046739 0 -0.036666692071537749 -0.012579279276814549 0 -0.049289353039696768 -0.020937810324250461 0 -0.051644246479673417 -0.026522799771468809 0 -0.036666692071537749 -0.012579279276814549 0 -0.049289353039696768 -0.020937810324250461 0 -0.046564575867488439 -0.016963276622458619 0 -0.036666692071537749 -0.012579279276814549 0 -0.047314457793966619 -0.026253490908046739 0 -0.037557445448573312 -0.02632957833390932 0 -0.034500036311657448 -0.017063655359157399 0 -0.046564575867488439 -0.016963276622458619 0 -0.043476356997886413 -0.01409140365085151 0 -0.036666692071537749 -0.012579279276814549 0 -0.048450945434481398 -0.013319334389621129 0 -0.046564575867488439 -0.016963276622458619 0 -0.043476356997886413 -0.01409140365085151 0 -0.048450945434481398 -0.013319334389621129 0 -0.043476356997886413 -0.01409140365085151 0 -0.043068461813005721 -0.010240165263638421 0 -0.046935423929498031 -0.0077477341307906379 0 -0.048450945434481398 -0.013319334389621129 0 -0.043068461813005721 -0.010240165263638421 0 -0.043068461813005721 -0.010240165263638421 0 -0.038988599490074591 -0.0093421125160283724 0 -0.040388140507921333 -0.0044884203867916776 0 -0.043068461813005721 -0.010240165263638421 0 -0.040550027593126113 -0.01156324017683321 0 -0.038988599490074591 -0.0093421125160283724 0 -0.043476356997886413 -0.01409140365085151 0 -0.040550027593126113 -0.01156324017683321 0 -0.036666692071537749 -0.012579279276814549 0 -0.043476356997886413 -0.01409140365085151 0 -0.043068461813005721 -0.010240165263638421 0 -0.040550027593126113 -0.01156324017683321 0 -0.036666692071537749 -0.012579279276814549 0 -0.033888019611149948 -0.007822557477047673 0 -0.038988599490074591 -0.0093421125160283724 0 -0.040550027593126113 -0.01156324017683321 0 -0.036666692071537749 -0.012579279276814549 0 -0.038988599490074591 -0.0093421125160283724 0 -0.033888019611149948 -0.007822557477047673 0 -0.038988599490074591 -0.0093421125160283724 0 -0.040388140507921333 -0.0044884203867916776 0 -0.033888019611149948 -0.007822557477047673 0 -0.040388140507921333 -0.0044884203867916776 0 -0.033842561342824082 0.00042381946667268148 0 -0.040388140507921333 -0.0044884203867916776 0 -0.033842561342824082 0.00042381946667268148 0 -0.038944704498370841 0.002115424966585071 0 -0.040388140507921333 -0.0044884203867916776 0 -0.043297820407160528 -0.0001124206318419891 0 -0.038944704498370841 0.002115424966585071 0 -0.046935423929498031 -0.0077477341307906379 0 -0.043068461813005721 -0.010240165263638421 0 -0.040388140507921333 -0.0044884203867916776 0 -0.04764526290786273 -0.0030275928886248468 0 -0.046935423929498031 -0.0077477341307906379 0 -0.040388140507921333 -0.0044884203867916776 0 -0.04764526290786273 -0.0030275928886248468 0 -0.043297820407160528 -0.0001124206318419891 0 -0.048385971650348983 0.002685452562897673 0 -0.04764526290786273 -0.0030275928886248468 0 -0.040388140507921333 -0.0044884203867916776 0 -0.043297820407160528 -0.0001124206318419891 0 -0.021685614829348158 -0.0078738198102682073 0 -0.021689137663402049 0.0013642412178396289 0 -0.036666692071537749 -0.012579279276814549 0 -0.021689137663402049 0.0013642412178396289 0 -0.036666692071537749 -0.012579279276814549 0 -0.021685614829348158 -0.0078738198102682073 0 -0.021689137663402049 0.0013642412178396289 0 -0.036666692071537749 -0.012579279276814549 0 -0.033888019611149948 -0.007822557477047673 0 -0.021689137663402049 0.0013642412178396289 0 -0.034500036311657448 -0.017063655359157399 0 -0.021685614829348158 -0.0078738198102682073 0 -0.034500036311657448 -0.017063655359157399 0 -0.021685614829348158 -0.0078738198102682073 0 -0.026678741915841211 -0.01742032807927282 0 -0.034500036311657448 -0.017063655359157399 0 -0.036666692071537749 -0.012579279276814549 0 -0.021685614829348158 -0.0078738198102682073 0 -0.021685614829348158 -0.0078738198102682073 0 -0.026678741915841211 -0.01742032807927282 0 -0.021677220390488871 -0.029886874437386041 0 -0.021685614829348158 -0.0078738198102682073 0 -0.021677220390488871 -0.029886874437386041 0 -0.01102018496183157 -0.01654779672861844 0 -0.021685614829348158 -0.0078738198102682073 0 -0.021677220390488871 -0.029886874437386041 0 -0.034500036311657448 -0.017063655359157399 0 -0.026678741915841211 -0.01742032807927282 0 -0.03046460497660761 -0.020224142495350921 0 -0.032484579416924828 -0.022830891080009019 0 -0.03046460497660761 -0.020224142495350921 0 -0.028195062262006979 -0.023581695462964441 0 -0.026678741915841211 -0.01742032807927282 0 -0.03046460497660761 -0.020224142495350921 0 -0.028195062262006979 -0.023581695462964441 0 -0.028195062262006979 -0.023581695462964441 0 -0.02726988780465019 -0.02820678068741965 0 -0.021677220390488871 -0.029886874437386041 0 -0.026678741915841211 -0.01742032807927282 0 -0.028195062262006979 -0.023581695462964441 0 -0.021677220390488871 -0.029886874437386041 0 -0.032484579416924828 -0.022830891080009019 0 -0.028195062262006979 -0.023581695462964441 0 -0.03063260779114968 -0.026716313830341731 0 -0.028195062262006979 -0.023581695462964441 0 -0.03063260779114968 -0.026716313830341731 0 -0.02726988780465019 -0.02820678068741965 0 -0.03063260779114968 -0.026716313830341731 0 -0.02726988780465019 -0.02820678068741965 0 -0.02857466077495522 -0.032642239018986358 0 -0.02726988780465019 -0.02820678068741965 0 -0.021677220390488871 -0.029886874437386041 0 -0.02857466077495522 -0.032642239018986358 0 -0.021677220390488871 -0.029886874437386041 0 -0.001067026699009976 -0.024777566455706231 0 -0.0021873730807788899 -0.037746531438250158 0 -0.021677220390488871 -0.029886874437386041 0 -0.001067026699009976 -0.024777566455706231 0 -0.01102018496183157 -0.01654779672861844 0 -0.001067026699009976 -0.024777566455706231 0 -0.01102018496183157 -0.01654779672861844 0 -1.164161945209005e-05 -0.012508092490703599 0 -0.021685614829348158 -0.0078738198102682073 0 -0.0080677037023437516 -0.0064395274798075171 0 0.0023733117805303811 0.0093799890591231283 0 -0.021685614829348158 -0.0078738198102682073 0 -0.01102018496183157 -0.01654779672861844 0 -0.0080677037023437516 -0.0064395274798075171 0 -0.01102018496183157 -0.01654779672861844 0 -1.164161945209005e-05 -0.012508092490703599 0 -0.0080677037023437516 -0.0064395274798075171 0 -1.164161945209005e-05 -0.012508092490703599 0 -0.0080677037023437516 -0.0064395274798075171 0 0.0034751517980762502 -0.001935438989210144 0 -0.020351297840947139 -0.052806305238433687 0 -0.02607007015574676 -0.047782424394183003 0 -0.0184984014415553 -0.043989474534174518 0 -0.020351297840947139 -0.052806305238433687 0 -0.01904119326324653 -0.061687735720043532 0 -0.0075949161188251886 -0.053305872426103879 0 -0.020351297840947139 -0.052806305238433687 0 -0.01904119326324653 -0.061687735720043532 0 -0.029000286087318548 -0.056459513414774017 0 -0.01904119326324653 -0.061687735720043532 0 -0.029000286087318548 -0.056459513414774017 0 -0.030299746460493961 -0.066482492709200702 0 -0.020351297840947139 -0.052806305238433687 0 -0.029000286087318548 -0.056459513414774017 0 -0.02607007015574676 -0.047782424394183003 0 -0.036499232010292149 -0.048411871718547578 0 -0.029000286087318548 -0.056459513414774017 0 -0.02607007015574676 -0.047782424394183003 0 -0.021677220390488871 -0.029886874437386041 0 -0.02857466077495522 -0.032642239018986358 0 -0.0021873730807788899 -0.037746531438250158 0 -0.02857466077495522 -0.032642239018986358 0 -0.0184984014415553 -0.043989474534174518 0 -0.0021873730807788899 -0.037746531438250158 0 -0.036499232010292149 -0.048411871718547578 0 -0.02607007015574676 -0.047782424394183003 0 -0.03020905539512406 -0.041098673310487902 0 -0.03020905539512406 -0.041098673310487902 0 -0.02857466077495522 -0.032642239018986358 0 -0.0184984014415553 -0.043989474534174518 0 -0.02607007015574676 -0.047782424394183003 0 -0.03020905539512406 -0.041098673310487902 0 -0.0184984014415553 -0.043989474534174518 0 -0.0184984014415553 -0.043989474534174518 0 -0.0021873730807788899 -0.037746531438250158 0 -0.0075949161188251886 -0.053305872426103879 0 -0.0021873730807788899 -0.037746531438250158 0 -0.0075949161188251886 -0.053305872426103879 0 0.0096261950961308729 -0.048971849511602349 0 -0.02857466077495522 -0.032642239018986358 0 -0.0021873730807788899 -0.037746531438250158 0 -0.01904119326324653 -0.061687735720043532 0 -0.0075949161188251886 -0.053305872426103879 0 -0.0083336402422200077 -0.06898342790466841 0 -0.0075949161188251886 -0.053305872426103879 0 -0.0083336402422200077 -0.06898342790466841 0 0.0052429822065970201 -0.062096166714421482 0 -0.020351297840947139 -0.052806305238433687 0 -0.0184984014415553 -0.043989474534174518 0 -0.0075949161188251886 -0.053305872426103879 0 -0.0083336402422200077 -0.06898342790466841 0 0.00073087841809113107 -0.079097178247617861 0 0.0052429822065970201 -0.062096166714421482 0 -0.0083336402422200077 -0.06898342790466841 0 -0.01217281403058294 -0.08231108662195781 0 0.00073087841809113107 -0.079097178247617861 0 -0.0083336402422200077 -0.06898342790466841 0 -0.01217281403058294 -0.08231108662195781 0 -0.021072635503842741 -0.074240747347761676 0 -0.01217281403058294 -0.08231108662195781 0 -0.014828273552446871 -0.09565500486132314 0 0.0046999500082680447 -0.092895676057009519 0 -0.01217281403058294 -0.08231108662195781 0 0.0046999500082680447 -0.092895676057009519 0 0.00073087841809113107 -0.079097178247617861 0 -0.01217281403058294 -0.08231108662195781 0 -0.024506752146184509 -0.08739890516548296 0 -0.014828273552446871 -0.09565500486132314 0 -0.01217281403058294 -0.08231108662195781 0 -0.024506752146184509 -0.08739890516548296 0 -0.021072635503842741 -0.074240747347761676 0 -0.024506752146184509 -0.08739890516548296 0 -0.021072635503842741 -0.074240747347761676 0 -0.032165220750343379 -0.078103697120571691 0 -0.024506752146184509 -0.08739890516548296 0 -0.038521237648334379 -0.089142855486973607 0 -0.029154639087392211 -0.09994725868394494 0 -0.01904119326324653 -0.061687735720043532 0 -0.0083336402422200077 -0.06898342790466841 0 -0.021072635503842741 -0.074240747347761676 0 -0.021072635503842741 -0.074240747347761676 0 -0.030299746460493961 -0.066482492709200702 0 -0.032165220750343379 -0.078103697120571691 0 -0.01904119326324653 -0.061687735720043532 0 -0.021072635503842741 -0.074240747347761676 0 -0.030299746460493961 -0.066482492709200702 0 -0.038016283661880673 -0.059650637021300683 0 -0.030299746460493961 -0.066482492709200702 0 -0.039496902693559238 -0.0687539612637241 0 -0.045448375830299023 -0.062075011907811388 0 -0.039496902693559238 -0.0687539612637241 0 -0.047577945915334263 -0.069114933347155391 0 -0.038016283661880673 -0.059650637021300683 0 -0.045448375830299023 -0.062075011907811388 0 -0.039496902693559238 -0.0687539612637241 0 -0.039496902693559238 -0.0687539612637241 0 -0.045732958936854702 -0.077946131421817999 0 -0.032165220750343379 -0.078103697120571691 0 -0.039496902693559238 -0.0687539612637241 0 -0.045732958936854702 -0.077946131421817999 0 -0.047577945915334263 -0.069114933347155391 0 -0.030299746460493961 -0.066482492709200702 0 -0.039496902693559238 -0.0687539612637241 0 -0.032165220750343379 -0.078103697120571691 0 -0.045732958936854702 -0.077946131421817999 0 -0.032165220750343379 -0.078103697120571691 0 -0.038521237648334379 -0.089142855486973607 0 -0.024506752146184509 -0.08739890516548296 0 -0.032165220750343379 -0.078103697120571691 0 -0.038521237648334379 -0.089142855486973607 0 -0.038521237648334379 -0.089142855486973607 0 -0.051059656082449327 -0.08828561145541361 0 -0.048591752756797037 -0.10269839022996551 0 -0.045732958936854702 -0.077946131421817999 0 -0.038521237648334379 -0.089142855486973607 0 -0.051059656082449327 -0.08828561145541361 0 -0.045732958936854702 -0.077946131421817999 0 -0.051059656082449327 -0.08828561145541361 0 -0.057720953467272497 -0.080287158755334126 0 -0.063710096565901708 -0.091351238043372779 0 -0.051059656082449327 -0.08828561145541361 0 -0.057720953467272497 -0.080287158755334126 0 -0.062703883391188556 -0.073448784533338751 0 -0.057720953467272497 -0.080287158755334126 0 -0.05508552398538711 -0.071804563985134684 0 -0.062703883391188556 -0.073448784533338751 0 -0.05508552398538711 -0.071804563985134684 0 -0.061934815525144377 -0.066100410256940717 0 -0.05508552398538711 -0.071804563985134684 0 -0.061934815525144377 -0.066100410256940717 0 -0.05343672494320495 -0.063834628805437083 0 -0.05508552398538711 -0.071804563985134684 0 -0.047577945915334263 -0.069114933347155391 0 -0.05343672494320495 -0.063834628805437083 0 -0.045448375830299023 -0.062075011907811388 0 -0.047577945915334263 -0.069114933347155391 0 -0.05343672494320495 -0.063834628805437083 0 -0.045732958936854702 -0.077946131421817999 0 -0.05508552398538711 -0.071804563985134684 0 -0.047577945915334263 -0.069114933347155391 0 -0.045732958936854702 -0.077946131421817999 0 -0.057720953467272497 -0.080287158755334126 0 -0.05508552398538711 -0.071804563985134684 0 -0.069877929086750071 -0.1112409104555752 0 -0.048591752756797037 -0.10269839022996551 0 -0.052844320097862843 -0.12507923435526319 0 -0.063710096565901708 -0.091351238043372779 0 -0.069877929086750071 -0.1112409104555752 0 -0.048591752756797037 -0.10269839022996551 0 -0.063710096565901708 -0.091351238043372779 0 -0.051059656082449327 -0.08828561145541361 0 -0.048591752756797037 -0.10269839022996551 0 -0.048591752756797037 -0.10269839022996551 0 -0.037056894435804177 -0.1137512082536232 0 -0.029154639087392211 -0.09994725868394494 0 -0.038521237648334379 -0.089142855486973607 0 -0.048591752756797037 -0.10269839022996551 0 -0.029154639087392211 -0.09994725868394494 0 -0.037056894435804177 -0.1137512082536232 0 -0.02599072949811012 -0.1270494197626687 0 -0.052844320097862843 -0.12507923435526319 0 -0.048591752756797037 -0.10269839022996551 0 -0.037056894435804177 -0.1137512082536232 0 -0.052844320097862843 -0.12507923435526319 0 -0.037056894435804177 -0.1137512082536232 0 -0.011164421983117409 -0.11083099766669 0 -0.02599072949811012 -0.1270494197626687 0 -0.037056894435804177 -0.1137512082536232 0 -0.029154639087392211 -0.09994725868394494 0 -0.011164421983117409 -0.11083099766669 0 -0.029154639087392211 -0.09994725868394494 0 -0.014828273552446871 -0.09565500486132314 0 -0.011164421983117409 -0.11083099766669 0 -0.024506752146184509 -0.08739890516548296 0 -0.029154639087392211 -0.09994725868394494 0 -0.014828273552446871 -0.09565500486132314 0 -0.014828273552446871 -0.09565500486132314 0 -0.011164421983117409 -0.11083099766669 0 0.0046999500082680447 -0.092895676057009519 0 -0.011164421983117409 -0.11083099766669 0 -0.02599072949811012 -0.1270494197626687 0 0.00046974689834634181 -0.13450195819434799 0 -0.02599072949811012 -0.1270494197626687 0 -0.02023594989243763 -0.1439515252423875 0 0.00046974689834634181 -0.13450195819434799 0 -0.02599072949811012 -0.1270494197626687 0 -0.02023594989243763 -0.1439515252423875 0 -0.040677454091989813 -0.14687078381850949 0 -0.02023594989243763 -0.1439515252423875 0 -0.027379671177208329 -0.15733166159926301 0 -0.040677454091989813 -0.14687078381850949 0 -0.02023594989243763 -0.1439515252423875 0 -0.01066229010784148 -0.1576742894548647 0 -0.027379671177208329 -0.15733166159926301 0 -0.01066229010784148 -0.1576742894548647 0 0.00046974689834634181 -0.13450195819434799 0 -0.02023594989243763 -0.1439515252423875 0 -0.01066229010784148 -0.1576742894548647 0 0.00046974689834634181 -0.13450195819434799 0 -0.01066229010784148 -0.1576742894548647 0 -0.0032326702379458019 -0.1749644231828294 0 0.0043372626668415496 -0.1633315661076635 0 -0.01066229010784148 -0.1576742894548647 0 -0.0032326702379458019 -0.1749644231828294 0 -0.021794327114029299 -0.18084662071538149 0 -0.0032326702379458019 -0.1749644231828294 0 -0.0081605602478435173 -0.18633719177851199 0 -0.021794327114029299 -0.18084662071538149 0 -0.0032326702379458019 -0.1749644231828294 0 -0.0081605602478435173 -0.18633719177851199 0 0.0068385699268319151 -0.18854980955585071 0 -0.01066229010784148 -0.1576742894548647 0 -0.021794327114029299 -0.18084662071538149 0 -0.027379671177208329 -0.15733166159926301 0 -0.021794327114029299 -0.18084662071538149 0 -0.027379671177208329 -0.15733166159926301 0 -0.036000268566187099 -0.17165903136216751 0 -0.01066229010784148 -0.1576742894548647 0 -0.021794327114029299 -0.18084662071538149 0 -0.036000268566187099 -0.17165903136216751 0 -0.061978553909550399 -0.16413255773479149 0 -0.040677454091989813 -0.14687078381850949 0 -0.027379671177208329 -0.15733166159926301 0 -0.036000268566187099 -0.17165903136216751 0 -0.040677454091989813 -0.14687078381850949 0 -0.021794327114029299 -0.18084662071538149 0 -0.036000268566187099 -0.17165903136216751 0 -0.037636246431528887 -0.1872560763627861 0 -0.036000268566187099 -0.17165903136216751 0 -0.037636246431528887 -0.1872560763627861 0 -0.050839020137464663 -0.18231418113350961 0 -0.050839020137464663 -0.18231418113350961 0 -0.061978553909550399 -0.16413255773479149 0 -0.0655524549807837 -0.1835896781198848 0 -0.036000268566187099 -0.17165903136216751 0 -0.050839020137464663 -0.18231418113350961 0 -0.061978553909550399 -0.16413255773479149 0 -0.050839020137464663 -0.18231418113350961 0 -0.058295118056562123 -0.19398890372107419 0 -0.0655524549807837 -0.1835896781198848 0 -0.036000268566187099 -0.17165903136216751 0 -0.061978553909550399 -0.16413255773479149 0 -0.061978553909550399 -0.16413255773479149 0 -0.040677454091989813 -0.14687078381850949 0 -0.068364659778476194 -0.14256318236284871 0 -0.052844320097862843 -0.12507923435526319 0 -0.040677454091989813 -0.14687078381850949 0 -0.068364659778476194 -0.14256318236284871 0 -0.02599072949811012 -0.1270494197626687 0 -0.052844320097862843 -0.12507923435526319 0 -0.040677454091989813 -0.14687078381850949 0 -0.0041159735410178696 -0.25344891444283252 0 -0.02303724603858363 -0.2440156994103537 0 -0.0059330273846503086 -0.2231535395972441 0 -0.0059330273846503086 -0.2231535395972441 0 -0.030684157556959621 -0.2272920991281511 0 -0.0059330273846503086 -0.2231535395972441 0 -0.030684157556959621 -0.2272920991281511 0 -0.02025187431062939 -0.21363351000921429 0 -0.02303724603858363 -0.2440156994103537 0 -0.0059330273846503086 -0.2231535395972441 0 -0.030684157556959621 -0.2272920991281511 0 -0.02025187431062939 -0.21363351000921429 0 -0.011463948180690501 -0.2000694493355635 0 -0.032926364120217107 -0.2040189519758982 0 -0.030684157556959621 -0.2272920991281511 0 -0.02025187431062939 -0.21363351000921429 0 -0.032926364120217107 -0.2040189519758982 0 -0.0059330273846503086 -0.2231535395972441 0 -0.011463948180690501 -0.2000694493355635 0 0.0048315302972443946 -0.20769696661081249 0 -0.0059330273846503086 -0.2231535395972441 0 -0.02025187431062939 -0.21363351000921429 0 -0.011463948180690501 -0.2000694493355635 0 -0.0081605602478435173 -0.18633719177851199 0 -0.011463948180690501 -0.2000694493355635 0 0.0068385699268319151 -0.18854980955585071 0 -0.0081605602478435173 -0.18633719177851199 0 -0.021794327114029299 -0.18084662071538149 0 -0.011463948180690501 -0.2000694493355635 0 -0.021794327114029299 -0.18084662071538149 0 -0.037636246431528887 -0.1872560763627861 0 -0.032926364120217107 -0.2040189519758982 0 -0.021794327114029299 -0.18084662071538149 0 -0.032926364120217107 -0.2040189519758982 0 -0.021794327114029299 -0.18084662071538149 0 -0.011463948180690501 -0.2000694493355635 0 -0.032926364120217107 -0.2040189519758982 0 -0.037636246431528887 -0.1872560763627861 0 -0.050839020137464663 -0.18231418113350961 0 -0.047371090319439577 -0.20042928028884441 0 -0.037636246431528887 -0.1872560763627861 0 -0.047371090319439577 -0.20042928028884441 0 -0.032926364120217107 -0.2040189519758982 0 -0.047371090319439577 -0.20042928028884441 0 -0.058295118056562123 -0.19398890372107419 0 -0.064334785012402113 -0.2051394756973739 0 -0.050839020137464663 -0.18231418113350961 0 -0.047371090319439577 -0.20042928028884441 0 -0.058295118056562123 -0.19398890372107419 0 -0.047371090319439577 -0.20042928028884441 0 -0.055788320102111273 -0.2292338483549464 0 -0.047371090319439577 -0.20042928028884441 0 -0.055788320102111273 -0.2292338483549464 0 -0.064334785012402113 -0.2051394756973739 0 -0.030684157556959621 -0.2272920991281511 0 -0.047371090319439577 -0.20042928028884441 0 -0.032926364120217107 -0.2040189519758982 0 -0.030684157556959621 -0.2272920991281511 0 -0.047371090319439577 -0.20042928028884441 0 -0.055788320102111273 -0.2292338483549464 0 -0.030684157556959621 -0.2272920991281511 0 -0.055788320102111273 -0.2292338483549464 0 -0.042051540561044057 -0.2435795025130077 0 -0.064205549884782886 -0.25803841642104808 0 -0.055788320102111273 -0.2292338483549464 0 -0.042051540561044057 -0.2435795025130077 0 -0.064205549884782886 -0.25803841642104808 0 -0.055788320102111273 -0.2292338483549464 0 -0.02303724603858363 -0.2440156994103537 0 -0.030684157556959621 -0.2272920991281511 0 -0.042051540561044057 -0.2435795025130077 0 -0.033023651582679878 -0.26188564427574712 0 -0.02303724603858363 -0.2440156994103537 0 -0.042051540561044057 -0.2435795025130077 0 -0.082795119816554824 -0.25202212814650959 0 -0.074548066105167843 -0.23799058094408959 0 -0.091317076419354881 -0.2340029970426957 0 -0.101690223803216 -0.25699634971212743 0 -0.082795119816554824 -0.25202212814650959 0 -0.091317076419354881 -0.2340029970426957 0 -0.064205549884782886 -0.25803841642104808 0 -0.082795119816554824 -0.25202212814650959 0 -0.074548066105167843 -0.23799058094408959 0 -0.064205549884782886 -0.25803841642104808 0 -0.055788320102111273 -0.2292338483549464 0 -0.074548066105167843 -0.23799058094408959 0 -0.055788320102111273 -0.2292338483549464 0 -0.074548066105167843 -0.23799058094408959 0 -0.078634264303035384 -0.21665551475524811 0 -0.074548066105167843 -0.23799058094408959 0 -0.091317076419354881 -0.2340029970426957 0 -0.078634264303035384 -0.21665551475524811 0 -0.091317076419354881 -0.2340029970426957 0 -0.078634264303035384 -0.21665551475524811 0 -0.098198621068264894 -0.21402361946698931 0 -0.078634264303035384 -0.21665551475524811 0 -0.075705568534527076 -0.19668580657840329 0 -0.091677297379891193 -0.20094020126420101 0 -0.078634264303035384 -0.21665551475524811 0 -0.091677297379891193 -0.20094020126420101 0 -0.098198621068264894 -0.21402361946698931 0 -0.055788320102111273 -0.2292338483549464 0 -0.078634264303035384 -0.21665551475524811 0 -0.064334785012402113 -0.2051394756973739 0 -0.078634264303035384 -0.21665551475524811 0 -0.064334785012402113 -0.2051394756973739 0 -0.075705568534527076 -0.19668580657840329 0 -0.058295118056562123 -0.19398890372107419 0 -0.064334785012402113 -0.2051394756973739 0 -0.075705568534527076 -0.19668580657840329 0 -0.058295118056562123 -0.19398890372107419 0 -0.075705568534527076 -0.19668580657840329 0 -0.0655524549807837 -0.1835896781198848 0 -0.075705568534527076 -0.19668580657840329 0 -0.0655524549807837 -0.1835896781198848 0 -0.0773614681101817 -0.18449890424479701 0 -0.075705568534527076 -0.19668580657840329 0 -0.091677297379891193 -0.20094020126420101 0 -0.086820956043290889 -0.1883284329624125 0 -0.075705568534527076 -0.19668580657840329 0 -0.086820956043290889 -0.1883284329624125 0 -0.0773614681101817 -0.18449890424479701 0 -0.091677297379891193 -0.20094020126420101 0 -0.086820956043290889 -0.1883284329624125 0 -0.098274101138547953 -0.18970177300612831 0 -0.091677297379891193 -0.20094020126420101 0 -0.098274101138547953 -0.18970177300612831 0 -0.1118153970553788 -0.194522824996923 0 -0.098274101138547953 -0.18970177300612831 0 -0.1118153970553788 -0.194522824996923 0 -0.1058665774325907 -0.18412889054590331 0 -0.1118153970553788 -0.194522824996923 0 -0.1149793515916465 -0.21152831373679601 0 -0.13058054973820091 -0.19761332826710029 0 -0.1118153970553788 -0.194522824996923 0 -0.1319429930248571 -0.1781446997569015 0 -0.13058054973820091 -0.19761332826710029 0 -0.1149793515916465 -0.21152831373679601 0 -0.1212814592463078 -0.22595425780586911 0 -0.1333949585688724 -0.21590920575330619 0 -0.1118153970553788 -0.194522824996923 0 -0.1149793515916465 -0.21152831373679601 0 -0.098198621068264894 -0.21402361946698931 0 -0.091677297379891193 -0.20094020126420101 0 -0.1118153970553788 -0.194522824996923 0 -0.098198621068264894 -0.21402361946698931 0 -0.1149793515916465 -0.21152831373679601 0 -0.098198621068264894 -0.21402361946698931 0 -0.1070523395753646 -0.22503048227169381 0 -0.091317076419354881 -0.2340029970426957 0 -0.1070523395753646 -0.22503048227169381 0 -0.1094851895512489 -0.23964322330611901 0 -0.091317076419354881 -0.2340029970426957 0 -0.098198621068264894 -0.21402361946698931 0 -0.1070523395753646 -0.22503048227169381 0 -0.1149793515916465 -0.21152831373679601 0 -0.1070523395753646 -0.22503048227169381 0 -0.1212814592463078 -0.22595425780586911 0 -0.1070523395753646 -0.22503048227169381 0 -0.1212814592463078 -0.22595425780586911 0 -0.1094851895512489 -0.23964322330611901 0 -0.1212814592463078 -0.22595425780586911 0 -0.1094851895512489 -0.23964322330611901 0 -0.12543259816514149 -0.23902726675730721 0 -0.118532013173656 -0.25733504629078657 0 -0.1094851895512489 -0.23964322330611901 0 -0.12543259816514149 -0.23902726675730721 0 -0.101690223803216 -0.25699634971212743 0 -0.091317076419354881 -0.2340029970426957 0 -0.1094851895512489 -0.23964322330611901 0 -0.088464213646575252 -0.13076975859428289 0 -0.087956839252913421 -0.156606084107415 0 -0.095243844507400283 -0.14528423906695609 0 -0.088464213646575252 -0.13076975859428289 0 -0.068364659778476194 -0.14256318236284871 0 -0.087956839252913421 -0.156606084107415 0 -0.088464213646575252 -0.13076975859428289 0 -0.087956839252913421 -0.156606084107415 0 -0.088464213646575252 -0.13076975859428289 0 -0.068994590933045608 -0.12759081868993979 0 -0.068364659778476194 -0.14256318236284871 0 -0.052844320097862843 -0.12507923435526319 0 -0.068994590933045608 -0.12759081868993979 0 -0.068364659778476194 -0.14256318236284871 0 -0.061978553909550399 -0.16413255773479149 0 -0.068364659778476194 -0.14256318236284871 0 -0.087956839252913421 -0.156606084107415 0 -0.061978553909550399 -0.16413255773479149 0 -0.074162936230020043 -0.1757652902403932 0 -0.082528699898014493 -0.16818751620517419 0 -0.061978553909550399 -0.16413255773479149 0 -0.082528699898014493 -0.16818751620517419 0 -0.08791190593069452 -0.15889416161722911 0 -0.061978553909550399 -0.16413255773479149 0 -0.087956839252913421 -0.156606084107415 0 -0.061978553909550399 -0.16413255773479149 0 -0.0655524549807837 -0.1835896781198848 0 -0.074162936230020043 -0.1757652902403932 0 -0.0655524549807837 -0.1835896781198848 0 -0.074162936230020043 -0.1757652902403932 0 -0.0773614681101817 -0.18449890424479701 0 -0.086820956043290889 -0.1883284329624125 0 -0.0773614681101817 -0.18449890424479701 0 -0.084565424762286831 -0.17812531332289111 0 -0.084565424762286831 -0.17812531332289111 0 -0.088145215044363373 -0.17249910888437411 0 -0.082528699898014493 -0.16818751620517419 0 -0.074162936230020043 -0.1757652902403932 0 -0.084565424762286831 -0.17812531332289111 0 -0.082528699898014493 -0.16818751620517419 0 -0.074162936230020043 -0.1757652902403932 0 -0.0773614681101817 -0.18449890424479701 0 -0.084565424762286831 -0.17812531332289111 0 -0.088145215044363373 -0.17249910888437411 0 -0.093987299666400237 -0.16947579718023931 0 -0.094513796845027587 -0.17972611778362729 0 -0.084565424762286831 -0.17812531332289111 0 -0.088145215044363373 -0.17249910888437411 0 -0.094513796845027587 -0.17972611778362729 0 -0.086820956043290889 -0.1883284329624125 0 -0.098274101138547953 -0.18970177300612831 0 -0.094513796845027587 -0.17972611778362729 0 -0.086820956043290889 -0.1883284329624125 0 -0.084565424762286831 -0.17812531332289111 0 -0.094513796845027587 -0.17972611778362729 0 -0.061978553909550399 -0.16413255773479149 0 -0.08791190593069452 -0.15889416161722911 0 -0.087956839252913421 -0.156606084107415 0 -0.082528699898014493 -0.16818751620517419 0 -0.089020815176984083 -0.16637915799325709 0 -0.08791190593069452 -0.15889416161722911 0 -0.088145215044363373 -0.17249910888437411 0 -0.082528699898014493 -0.16818751620517419 0 -0.089020815176984083 -0.16637915799325709 0 -0.088145215044363373 -0.17249910888437411 0 -0.089020815176984083 -0.16637915799325709 0 -0.093987299666400237 -0.16947579718023931 0 -0.089020815176984083 -0.16637915799325709 0 -0.092804742023861145 -0.16279686078530201 0 -0.093987299666400237 -0.16947579718023931 0 -0.087956839252913421 -0.156606084107415 0 -0.091275324332554961 -0.1590535059266692 0 -0.096427810122750757 -0.15791691719673071 0 -0.092804742023861145 -0.16279686078530201 0 -0.08791190593069452 -0.15889416161722911 0 -0.091275324332554961 -0.1590535059266692 0 -0.089020815176984083 -0.16637915799325709 0 -0.092804742023861145 -0.16279686078530201 0 -0.08791190593069452 -0.15889416161722911 0 -0.08791190593069452 -0.15889416161722911 0 -0.087956839252913421 -0.156606084107415 0 -0.091275324332554961 -0.1590535059266692 0 -0.08791190593069452 -0.15889416161722911 0 -0.087956839252913421 -0.156606084107415 0 -0.092804742023861145 -0.16279686078530201 0 -0.091275324332554961 -0.1590535059266692 0 -0.096427810122750757 -0.15791691719673071 0 -0.096427810122750757 -0.15791691719673071 0 -0.1008861690955123 -0.16514081189726329 0 -0.1067217123577056 -0.15946278496792121 0 -0.092804742023861145 -0.16279686078530201 0 -0.096427810122750757 -0.15791691719673071 0 -0.1008861690955123 -0.16514081189726329 0 -0.1008861690955123 -0.16514081189726329 0 -0.093987299666400237 -0.16947579718023931 0 -0.1037415848911965 -0.17447688697073499 0 -0.092804742023861145 -0.16279686078530201 0 -0.1008861690955123 -0.16514081189726329 0 -0.093987299666400237 -0.16947579718023931 0 -0.1008861690955123 -0.16514081189726329 0 -0.1037415848911965 -0.17447688697073499 0 -0.1140724924472576 -0.16296415427867761 0 -0.1008861690955123 -0.16514081189726329 0 -0.1067217123577056 -0.15946278496792121 0 -0.1140724924472576 -0.16296415427867761 0 -0.096427810122750757 -0.15791691719673071 0 -0.1067217123577056 -0.15946278496792121 0 -0.1028860861077896 -0.15228075696420129 0 -0.098274101138547953 -0.18970177300612831 0 -0.094513796845027587 -0.17972611778362729 0 -0.1058665774325907 -0.18412889054590331 0 -0.093987299666400237 -0.16947579718023931 0 -0.094513796845027587 -0.17972611778362729 0 -0.1037415848911965 -0.17447688697073499 0 -0.094513796845027587 -0.17972611778362729 0 -0.1037415848911965 -0.17447688697073499 0 -0.1058665774325907 -0.18412889054590331 0 -0.1037415848911965 -0.17447688697073499 0 -0.1058665774325907 -0.18412889054590331 0 -0.11579960416820891 -0.17706470228264609 0 -0.11579960416820891 -0.17706470228264609 0 -0.12546184985795761 -0.1664884829490155 0 -0.1319429930248571 -0.1781446997569015 0 -0.1118153970553788 -0.194522824996923 0 -0.11579960416820891 -0.17706470228264609 0 -0.1319429930248571 -0.1781446997569015 0 -0.1118153970553788 -0.194522824996923 0 -0.1058665774325907 -0.18412889054590331 0 -0.11579960416820891 -0.17706470228264609 0 -0.1140724924472576 -0.16296415427867761 0 -0.11781533296266571 -0.14795542982098731 0 -0.12546184985795761 -0.1664884829490155 0 -0.1067217123577056 -0.15946278496792121 0 -0.1140724924472576 -0.16296415427867761 0 -0.11781533296266571 -0.14795542982098731 0 -0.1037415848911965 -0.17447688697073499 0 -0.11579960416820891 -0.17706470228264609 0 -0.1140724924472576 -0.16296415427867761 0 -0.11579960416820891 -0.17706470228264609 0 -0.1140724924472576 -0.16296415427867761 0 -0.12546184985795761 -0.1664884829490155 0 -0.11781533296266571 -0.14795542982098731 0 -0.11882786692026059 -0.1354883928683113 0 -0.13477345590617221 -0.14304229319872161 0 -0.11781533296266571 -0.14795542982098731 0 -0.11340653440179189 -0.13952389899806689 0 -0.11882786692026059 -0.1354883928683113 0 -0.11781533296266571 -0.14795542982098731 0 -0.111844714661195 -0.14469089067094121 0 -0.11340653440179189 -0.13952389899806689 0 -0.11781533296266571 -0.14795542982098731 0 -0.111844714661195 -0.14469089067094121 0 -0.1028860861077896 -0.15228075696420129 0 -0.11781533296266571 -0.14795542982098731 0 -0.111844714661195 -0.14469089067094121 0 -0.111844714661195 -0.14469089067094121 0 -0.1079448426694234 -0.1399900147223001 0 -0.11340653440179189 -0.13952389899806689 0 -0.11781533296266571 -0.14795542982098731 0 -0.1028860861077896 -0.15228075696420129 0 -0.1067217123577056 -0.15946278496792121 0 -0.11781533296266571 -0.14795542982098731 0 -0.1028860861077896 -0.15228075696420129 0 -0.111844714661195 -0.14469089067094121 0 -0.1028860861077896 -0.15228075696420129 0 -0.1016682390223228 -0.14148035660192509 0 -0.111844714661195 -0.14469089067094121 0 -0.1016682390223228 -0.14148035660192509 0 -0.1079448426694234 -0.1399900147223001 0 -0.1028860861077896 -0.15228075696420129 0 -0.1016682390223228 -0.14148035660192509 0 -0.095243844507400283 -0.14528423906695609 0 -0.087956839252913421 -0.156606084107415 0 -0.1028860861077896 -0.15228075696420129 0 -0.087956839252913421 -0.156606084107415 0 -0.1028860861077896 -0.15228075696420129 0 -0.095243844507400283 -0.14528423906695609 0 -0.087956839252913421 -0.156606084107415 0 -0.096427810122750757 -0.15791691719673071 0 -0.1028860861077896 -0.15228075696420129 0 -0.104626417548185 -0.1201891509129509 0 -0.088464213646575252 -0.13076975859428289 0 -0.1081867110206283 -0.1335756805801275 0 -0.088464213646575252 -0.13076975859428289 0 -0.1016682390223228 -0.14148035660192509 0 -0.1081867110206283 -0.1335756805801275 0 -0.088464213646575252 -0.13076975859428289 0 -0.1016682390223228 -0.14148035660192509 0 -0.095243844507400283 -0.14528423906695609 0 -0.1016682390223228 -0.14148035660192509 0 -0.1079448426694234 -0.1399900147223001 0 -0.1081867110206283 -0.1335756805801275 0 -0.1201901124086828 -0.1231590930322756 0 -0.11882786692026059 -0.1354883928683113 0 -0.13477345590617221 -0.14304229319872161 0 -0.104626417548185 -0.1201891509129509 0 -0.1081867110206283 -0.1335756805801275 0 -0.1167750734035595 -0.12601544616894339 0 -0.1081867110206283 -0.1335756805801275 0 -0.1167750734035595 -0.12601544616894339 0 -0.11882786692026059 -0.1354883928683113 0 -0.1081867110206283 -0.1335756805801275 0 -0.11340653440179189 -0.13952389899806689 0 -0.11882786692026059 -0.1354883928683113 0 -0.1079448426694234 -0.1399900147223001 0 -0.1081867110206283 -0.1335756805801275 0 -0.11340653440179189 -0.13952389899806689 0 -0.1201901124086828 -0.1231590930322756 0 -0.1167750734035595 -0.12601544616894339 0 -0.11882786692026059 -0.1354883928683113 0 -0.1201901124086828 -0.1231590930322756 0 -0.13477345590617221 -0.14304229319872161 0 -0.1201901124086828 -0.1231590930322756 0 -0.1362739582956396 -0.12614003831070181 0 -0.13477345590617221 -0.14304229319872161 0 -0.1362739582956396 -0.12614003831070181 0 -0.15063389418157691 -0.1260808072689833 0 -0.13477345590617221 -0.14304229319872161 0 -0.1553065538681182 -0.1370934086493277 0 -0.13477345590617221 -0.14304229319872161 0 -0.1553065538681182 -0.1370934086493277 0 -0.15063389418157691 -0.1260808072689833 0 -0.13477345590617221 -0.14304229319872161 0 -0.1553065538681182 -0.1370934086493277 0 -0.15063389418157691 -0.1260808072689833 0 -0.15858079846130041 -0.1296812380808027 0 -0.1553065538681182 -0.1370934086493277 0 -0.15063389418157691 -0.1260808072689833 0 -0.15103355388471151 -0.1488955494345206 0 -0.13477345590617221 -0.14304229319872161 0 -0.14575042642219929 -0.1580084977614063 0 -0.1553065538681182 -0.1370934086493277 0 -0.15103355388471151 -0.1488955494345206 0 -0.13477345590617221 -0.14304229319872161 0 -0.15103355388471151 -0.1488955494345206 0 -0.14575042642219929 -0.1580084977614063 0 -0.15382272950521639 -0.15782967333105161 0 -0.11781533296266571 -0.14795542982098731 0 -0.13608775565537959 -0.15794619396544229 0 -0.13477345590617221 -0.14304229319872161 0 -0.14575042642219929 -0.1580084977614063 0 -0.11781533296266571 -0.14795542982098731 0 -0.13477345590617221 -0.14304229319872161 0 -0.13608775565537959 -0.15794619396544229 0 -0.13477345590617221 -0.14304229319872161 0 -0.13608775565537959 -0.15794619396544229 0 -0.14575042642219929 -0.1580084977614063 0 -0.11781533296266571 -0.14795542982098731 0 -0.13477345590617221 -0.14304229319872161 0 -0.12546184985795761 -0.1664884829490155 0 -0.13608775565537959 -0.15794619396544229 0 -0.1319429930248571 -0.1781446997569015 0 -0.11781533296266571 -0.14795542982098731 0 -0.12546184985795761 -0.1664884829490155 0 -0.13608775565537959 -0.15794619396544229 0 -0.1319429930248571 -0.1781446997569015 0 -0.14830010504254229 -0.1863826013232244 0 -0.13058054973820091 -0.19761332826710029 0 -0.1319429930248571 -0.1781446997569015 0 -0.14830010504254229 -0.1863826013232244 0 -0.1543601783480936 -0.1679369581098972 0 -0.13608775565537959 -0.15794619396544229 0 -0.14575042642219929 -0.1580084977614063 0 -0.1543601783480936 -0.1679369581098972 0 -0.13608775565537959 -0.15794619396544229 0 -0.1319429930248571 -0.1781446997569015 0 -0.1543601783480936 -0.1679369581098972 0 -0.13608775565537959 -0.15794619396544229 0 -0.1543601783480936 -0.1679369581098972 0 -0.14575042642219929 -0.1580084977614063 0 -0.1543601783480936 -0.1679369581098972 0 -0.15382272950521639 -0.15782967333105161 0 -0.1543601783480936 -0.1679369581098972 0 -0.16396957745446369 -0.15751056545183939 0 -0.1726326010408076 -0.17792772225435199 0 -0.1543601783480936 -0.1679369581098972 0 -0.15382272950521639 -0.15782967333105161 0 -0.16396957745446369 -0.15751056545183939 0 -0.16396957745446369 -0.15751056545183939 0 -0.1726326010408076 -0.17792772225435199 0 -0.14830010504254229 -0.1863826013232244 0 -0.1543601783480936 -0.1679369581098972 0 -0.1726326010408076 -0.17792772225435199 0 -0.1543601783480936 -0.1679369581098972 0 -0.1726326010408076 -0.17792772225435199 0 -0.14830010504254229 -0.1863826013232244 0 -0.1726326010408076 -0.17792772225435199 0 -0.16397645916687081 -0.19736563353027989 0 -0.1726326010408076 -0.17792772225435199 0 -0.19124773808791251 -0.1881058714183646 0 -0.1726326010408076 -0.17792772225435199 0 -0.19124773808791251 -0.1881058714183646 0 -0.19012642184286471 -0.1745616076859261 0 -0.1726326010408076 -0.17792772225435199 0 -0.1800333591079811 -0.16098163465581131 0 -0.19012642184286471 -0.1745616076859261 0 -0.16396957745446369 -0.15751056545183939 0 -0.1726326010408076 -0.17792772225435199 0 -0.1800333591079811 -0.16098163465581131 0 -0.1800333591079811 -0.16098163465581131 0 -0.18427115196462959 -0.1467003186180614 0 -0.1963597983376468 -0.16063927218711721 0 -0.1800333591079811 -0.16098163465581131 0 -0.18427115196462959 -0.1467003186180614 0 -0.170961325999928 -0.1461727875146642 0 -0.18427115196462959 -0.1467003186180614 0 -0.1831003223663685 -0.1321463419665152 0 -0.170961325999928 -0.1461727875146642 0 -0.1831003223663685 -0.1321463419665152 0 -0.164888839296359 -0.1343172123910914 0 -0.170961325999928 -0.1461727875146642 0 -0.1831003223663685 -0.1321463419665152 0 -0.164888839296359 -0.1343172123910914 0 -0.16401531199591979 -0.1217718165502641 0 -0.1553065538681182 -0.1370934086493277 0 -0.164888839296359 -0.1343172123910914 0 -0.170961325999928 -0.1461727875146642 0 -0.164888839296359 -0.1343172123910914 0 -0.15858079846130041 -0.1296812380808027 0 -0.16401531199591979 -0.1217718165502641 0 -0.15063389418157691 -0.1260808072689833 0 -0.15858079846130041 -0.1296812380808027 0 -0.16401531199591979 -0.1217718165502641 0 -0.1553065538681182 -0.1370934086493277 0 -0.164888839296359 -0.1343172123910914 0 -0.1553065538681182 -0.1370934086493277 0 -0.164888839296359 -0.1343172123910914 0 -0.15858079846130041 -0.1296812380808027 0 -0.1553065538681182 -0.1370934086493277 0 -0.16396957745446369 -0.15751056545183939 0 -0.170961325999928 -0.1461727875146642 0 -0.16396957745446369 -0.15751056545183939 0 -0.1800333591079811 -0.16098163465581131 0 -0.170961325999928 -0.1461727875146642 0 -0.1553065538681182 -0.1370934086493277 0 -0.15103355388471151 -0.1488955494345206 0 -0.16396957745446369 -0.15751056545183939 0 -0.1553065538681182 -0.1370934086493277 0 -0.16396957745446369 -0.15751056545183939 0 -0.15103355388471151 -0.1488955494345206 0 -0.15382272950521639 -0.15782967333105161 0 -0.16396957745446369 -0.15751056545183939 0 -0.15553155684843309 -0.24989393853409089 0 -0.1413493128771299 -0.24330492591282529 0 -0.14950916229247399 -0.22621746684687219 0 -0.118532013173656 -0.25733504629078657 0 -0.1413493128771299 -0.24330492591282529 0 -0.12543259816514149 -0.23902726675730721 0 -0.1413493128771299 -0.24330492591282529 0 -0.12543259816514149 -0.23902726675730721 0 -0.13419349822998511 -0.23008262461523599 0 -0.13419349822998511 -0.23008262461523599 0 -0.14950916229247399 -0.22621746684687219 0 -0.1333949585688724 -0.21590920575330619 0 -0.1212814592463078 -0.22595425780586911 0 -0.12543259816514149 -0.23902726675730721 0 -0.13419349822998511 -0.23008262461523599 0 -0.1212814592463078 -0.22595425780586911 0 -0.13419349822998511 -0.23008262461523599 0 -0.1333949585688724 -0.21590920575330619 0 -0.1413493128771299 -0.24330492591282529 0 -0.13419349822998511 -0.23008262461523599 0 -0.14950916229247399 -0.22621746684687219 0 -0.14950916229247399 -0.22621746684687219 0 -0.14750421256724061 -0.2052429873922634 0 -0.16058677290973469 -0.21264157590368121 0 -0.14950916229247399 -0.22621746684687219 0 -0.14750421256724061 -0.2052429873922634 0 -0.1333949585688724 -0.21590920575330619 0 -0.14750421256724061 -0.2052429873922634 0 -0.1333949585688724 -0.21590920575330619 0 -0.13058054973820091 -0.19761332826710029 0 -0.1149793515916465 -0.21152831373679601 0 -0.1333949585688724 -0.21590920575330619 0 -0.13058054973820091 -0.19761332826710029 0 -0.14830010504254229 -0.1863826013232244 0 -0.14750421256724061 -0.2052429873922634 0 -0.16397645916687081 -0.19736563353027989 0 -0.14830010504254229 -0.1863826013232244 0 -0.14750421256724061 -0.2052429873922634 0 -0.13058054973820091 -0.19761332826710029 0 -0.1726326010408076 -0.17792772225435199 0 -0.18240032855042931 -0.20094846347483411 0 -0.19124773808791251 -0.1881058714183646 0 -0.1726326010408076 -0.17792772225435199 0 -0.18240032855042931 -0.20094846347483411 0 -0.1726326010408076 -0.17792772225435199 0 -0.16397645916687081 -0.19736563353027989 0 -0.18240032855042931 -0.20094846347483411 0 -0.18240032855042931 -0.20094846347483411 0 -0.19216805606005091 -0.22396920469531639 0 -0.18240032855042931 -0.20094846347483411 0 -0.17560131061504089 -0.21732238084497291 0 -0.19216805606005091 -0.22396920469531639 0 -0.16397645916687081 -0.19736563353027989 0 -0.18240032855042931 -0.20094846347483411 0 -0.17560131061504089 -0.21732238084497291 0 -0.14750421256724061 -0.2052429873922634 0 -0.16397645916687081 -0.19736563353027989 0 -0.16058677290973469 -0.21264157590368121 0 -0.16397645916687081 -0.19736563353027989 0 -0.17560131061504089 -0.21732238084497291 0 -0.16058677290973469 -0.21264157590368121 0 -0.14950916229247399 -0.22621746684687219 0 -0.16058677290973469 -0.21264157590368121 0 -0.16818649162596189 -0.23419381605473941 0 -0.17560131061504089 -0.21732238084497291 0 -0.16058677290973469 -0.21264157590368121 0 -0.16818649162596189 -0.23419381605473941 0 -0.17560131061504089 -0.21732238084497291 0 -0.18728375997267749 -0.23520259342539571 0 -0.19216805606005091 -0.22396920469531639 0 -0.17560131061504089 -0.21732238084497291 0 -0.16818649162596189 -0.23419381605473941 0 -0.18728375997267749 -0.23520259342539571 0 -0.1878277148138541 -0.25254338476875943 0 -0.16818649162596189 -0.23419381605473941 0 -0.1878277148138541 -0.25254338476875943 0 -0.16818649162596189 -0.23419381605473941 0 -0.18728375997267749 -0.23520259342539571 0 -0.1878277148138541 -0.25254338476875943 0 -0.1694565717554577 -0.25345082804135399 0 -0.16818649162596189 -0.23419381605473941 0 -0.1694565717554577 -0.25345082804135399 0 -0.15553155684843309 -0.24989393853409089 0 -0.16818649162596189 -0.23419381605473941 0 -0.15553155684843309 -0.24989393853409089 0 -0.14950916229247399 -0.22621746684687219 0 -0.16818649162596189 -0.23419381605473941 0 -0.21602399407446621 -0.247801190812729 0 -0.20813778930562879 -0.23198229300227319 0 -0.2203444770696365 -0.2255916944891776 0 -0.21602399407446621 -0.247801190812729 0 -0.2203444770696365 -0.2255916944891776 0 -0.21602399407446621 -0.247801190812729 0 -0.20193578356967259 -0.24698994591579859 0 -0.20813778930562879 -0.23198229300227319 0 -0.1878277148138541 -0.25254338476875943 0 -0.18728375997267749 -0.23520259342539571 0 -0.18728375997267749 -0.23520259342539571 0 -0.20193578356967259 -0.24698994591579859 0 -0.19216805606005091 -0.22396920469531639 0 -0.20193578356967259 -0.24698994591579859 0 -0.19216805606005091 -0.22396920469531639 0 -0.1878277148138541 -0.25254338476875943 0 -0.18728375997267749 -0.23520259342539571 0 -0.20193578356967259 -0.24698994591579859 0 -0.20193578356967259 -0.24698994591579859 0 -0.19216805606005091 -0.22396920469531639 0 -0.20813778930562879 -0.23198229300227319 0 -0.20813778930562879 -0.23198229300227319 0 -0.21021663575431809 -0.21555942909834419 0 -0.2203444770696365 -0.2255916944891776 0 -0.19216805606005091 -0.22396920469531639 0 -0.20813778930562879 -0.23198229300227319 0 -0.21021663575431809 -0.21555942909834419 0 -0.21021663575431809 -0.21555942909834419 0 -0.2045683283548177 -0.2070852068432246 0 -0.2098628751350175 -0.1982840205823771 0 -0.21021663575431809 -0.21555942909834419 0 -0.2098628751350175 -0.1982840205823771 0 -0.22466496006480641 -0.20338219816562611 0 -0.21021663575431809 -0.21555942909834419 0 -0.22466496006480641 -0.20338219816562611 0 -0.2203444770696365 -0.2255916944891776 0 -0.18240032855042931 -0.20094846347483411 0 -0.19216805606005091 -0.22396920469531639 0 -0.1962691561645924 -0.20103402132608461 0 -0.19216805606005091 -0.22396920469531639 0 -0.2045683283548177 -0.2070852068432246 0 -0.1962691561645924 -0.20103402132608461 0 -0.19216805606005091 -0.22396920469531639 0 -0.21021663575431809 -0.21555942909834419 0 -0.2045683283548177 -0.2070852068432246 0 -0.19124773808791251 -0.1881058714183646 0 -0.2073956909538352 -0.1889719029257764 0 -0.2098628751350175 -0.1982840205823771 0 -0.19124773808791251 -0.1881058714183646 0 -0.2098628751350175 -0.1982840205823771 0 -0.1962691561645924 -0.20103402132608461 0 -0.19124773808791251 -0.1881058714183646 0 -0.2098628751350175 -0.1982840205823771 0 -0.18240032855042931 -0.20094846347483411 0 -0.1962691561645924 -0.20103402132608461 0 -0.19124773808791251 -0.1881058714183646 0 -0.2073956909538352 -0.1889719029257764 0 -0.22466496006480641 -0.20338219816562611 0 -0.2073956909538352 -0.1889719029257764 0 -0.2098628751350175 -0.1982840205823771 0 -0.22466496006480641 -0.20338219816562611 0 -0.2073956909538352 -0.1889719029257764 0 -0.22466496006480641 -0.20338219816562611 0 -0.2179409687699797 -0.18410559761127421 0 -0.2045683283548177 -0.2070852068432246 0 -0.1962691561645924 -0.20103402132608461 0 -0.2098628751350175 -0.1982840205823771 0 -0.227351678511414 -0.19091165034366611 0 -0.22466496006480641 -0.20338219816562611 0 -0.2179409687699797 -0.18410559761127421 0 -0.22747811594106451 -0.20254318133140839 0 -0.227351678511414 -0.19091165034366611 0 -0.24149726975936089 -0.18650804386295139 0 -0.22747811594106451 -0.20254318133140839 0 -0.227351678511414 -0.19091165034366611 0 -0.22466496006480641 -0.20338219816562611 0 -0.22747811594106451 -0.20254318133140839 0 -0.24149726975936089 -0.18650804386295139 0 -0.25269438654503779 -0.19620928489072131 0 -0.22747811594106451 -0.20254318133140839 0 -0.25269438654503779 -0.19620928489072131 0 -0.22747811594106451 -0.20254318133140839 0 -0.24722234033203469 -0.22220514356068349 0 -0.25269438654503779 -0.19620928489072131 0 -0.22466496006480641 -0.20338219816562611 0 -0.24722234033203469 -0.22220514356068349 0 -0.22466496006480641 -0.20338219816562611 0 -0.2203444770696365 -0.2255916944891776 0 -0.24722234033203469 -0.22220514356068349 0 -0.22747811594106451 -0.20254318133140839 0 -0.22466496006480641 -0.20338219816562611 0 -0.24722234033203469 -0.22220514356068349 0 -0.22466496006480641 -0.20338219816562611 0 -0.2203444770696365 -0.2255916944891776 0 -0.2203444770696365 -0.2255916944891776 0 -0.24722234033203469 -0.22220514356068349 0 -0.23658037354473599 -0.2408515003286246 0 -0.25028155227244681 -0.25133287360632572 0 -0.24722234033203469 -0.22220514356068349 0 -0.23658037354473599 -0.2408515003286246 0 -0.25028155227244681 -0.25133287360632572 0 -0.23738639710949641 -0.25640226606834943 0 -0.23658037354473599 -0.2408515003286246 0 -0.2272514515828625 -0.2502791158821675 0 -0.23738639710949641 -0.25640226606834943 0 -0.23658037354473599 -0.2408515003286246 0 -0.2272514515828625 -0.2502791158821675 0 -0.2203444770696365 -0.2255916944891776 0 -0.23658037354473599 -0.2408515003286246 0 -0.2272514515828625 -0.2502791158821675 0 -0.21602399407446621 -0.247801190812729 0 -0.2203444770696365 -0.2255916944891776 0 -0.20662049950574629 -0.1522384204664701 0 -0.20604061784248601 -0.13729083297101191 0 -0.22232724367893031 -0.15062754126384631 0 -0.20604061784248601 -0.13729083297101191 0 -0.22256908906772341 -0.1311970616334964 0 -0.20227963736212151 -0.11710742976728571 0 -0.20604061784248601 -0.13729083297101191 0 -0.22232724367893031 -0.15062754126384631 0 -0.22256908906772341 -0.1311970616334964 0 -0.1831003223663685 -0.1321463419665152 0 -0.20604061784248601 -0.13729083297101191 0 -0.20227963736212151 -0.11710742976728571 0 -0.1831003223663685 -0.1321463419665152 0 -0.20604061784248601 -0.13729083297101191 0 -0.19527847800337539 -0.14580303724183519 0 -0.18427115196462959 -0.1467003186180614 0 -0.1831003223663685 -0.1321463419665152 0 -0.19527847800337539 -0.14580303724183519 0 -0.20662049950574629 -0.1522384204664701 0 -0.20604061784248601 -0.13729083297101191 0 -0.19527847800337539 -0.14580303724183519 0 -0.20662049950574629 -0.1522384204664701 0 -0.19527847800337539 -0.14580303724183519 0 -0.1963597983376468 -0.16063927218711721 0 -0.18427115196462959 -0.1467003186180614 0 -0.19527847800337539 -0.14580303724183519 0 -0.1963597983376468 -0.16063927218711721 0 -0.1800333591079811 -0.16098163465581131 0 -0.1963597983376468 -0.16063927218711721 0 -0.19012642184286471 -0.1745616076859261 0 -0.1963597983376468 -0.16063927218711721 0 -0.19012642184286471 -0.1745616076859261 0 -0.2039803796044635 -0.17560838208279189 0 -0.2073956909538352 -0.1889719029257764 0 -0.19012642184286471 -0.1745616076859261 0 -0.2039803796044635 -0.17560838208279189 0 -0.2073956909538352 -0.1889719029257764 0 -0.19012642184286471 -0.1745616076859261 0 -0.19124773808791251 -0.1881058714183646 0 -0.2073956909538352 -0.1889719029257764 0 -0.19012642184286471 -0.1745616076859261 0 -0.2039803796044635 -0.17560838208279189 0 -0.2179409687699797 -0.18410559761127421 0 -0.2112332867804983 -0.16617636734295621 0 -0.2179409687699797 -0.18410559761127421 0 -0.2112332867804983 -0.16617636734295621 0 -0.22358740815732611 -0.1676341734172461 0 -0.2073956909538352 -0.1889719029257764 0 -0.2039803796044635 -0.17560838208279189 0 -0.2179409687699797 -0.18410559761127421 0 -0.20662049950574629 -0.1522384204664701 0 -0.2112332867804983 -0.16617636734295621 0 -0.22232724367893031 -0.15062754126384631 0 -0.20662049950574629 -0.1522384204664701 0 -0.1963597983376468 -0.16063927218711721 0 -0.2112332867804983 -0.16617636734295621 0 -0.1963597983376468 -0.16063927218711721 0 -0.2039803796044635 -0.17560838208279189 0 -0.2112332867804983 -0.16617636734295621 0 -0.22358740815732611 -0.1676341734172461 0 -0.23617844438914579 -0.1645236407398887 0 -0.22232724367893031 -0.15062754126384631 0 -0.2112332867804983 -0.16617636734295621 0 -0.22358740815732611 -0.1676341734172461 0 -0.22232724367893031 -0.15062754126384631 0 -0.22358740815732611 -0.1676341734172461 0 -0.22853189627713091 -0.1793394601634144 0 -0.23617844438914579 -0.1645236407398887 0 -0.2179409687699797 -0.18410559761127421 0 -0.22358740815732611 -0.1676341734172461 0 -0.22853189627713091 -0.1793394601634144 0 -0.227351678511414 -0.19091165034366611 0 -0.2179409687699797 -0.18410559761127421 0 -0.22853189627713091 -0.1793394601634144 0 -0.227351678511414 -0.19091165034366611 0 -0.22853189627713091 -0.1793394601634144 0 -0.24149726975936089 -0.18650804386295139 0 -0.24149726975936089 -0.18650804386295139 0 -0.23617844438914579 -0.1645236407398887 0 -0.25599809201884449 -0.1709627721450806 0 -0.22853189627713091 -0.1793394601634144 0 -0.24149726975936089 -0.18650804386295139 0 -0.23617844438914579 -0.1645236407398887 0 -0.23617844438914579 -0.1645236407398887 0 -0.2436476979385763 -0.14416495391590139 0 -0.25599809201884449 -0.1709627721450806 0 -0.2436476979385763 -0.14416495391590139 0 -0.22232724367893031 -0.15062754126384631 0 -0.22256908906772341 -0.1311970616334964 0 -0.23617844438914579 -0.1645236407398887 0 -0.2436476979385763 -0.14416495391590139 0 -0.22232724367893031 -0.15062754126384631 0 -0.2436476979385763 -0.14416495391590139 0 -0.2399745279511433 -0.1209080467912729 0 -0.26447848030961718 -0.12840680237226371 0 -0.2436476979385763 -0.14416495391590139 0 -0.22256908906772341 -0.1311970616334964 0 -0.2399745279511433 -0.1209080467912729 0 -0.2399745279511433 -0.1209080467912729 0 -0.2335564426954054 -0.1033911690047899 0 -0.2552947893057656 -0.1079463517741327 0 -0.2335564426954054 -0.1033911690047899 0 -0.2471059267811786 -0.09125116385748186 0 -0.2552947893057656 -0.1079463517741327 0 -0.2335564426954054 -0.1033911690047899 0 -0.22219261262214141 -0.1137550789484328 0 -0.21508125954042481 -0.1016139680672284 0 -0.2335564426954054 -0.1033911690047899 0 -0.2216895399717787 -0.084872404590191464 0 -0.21508125954042481 -0.1016139680672284 0 -0.2399745279511433 -0.1209080467912729 0 -0.2335564426954054 -0.1033911690047899 0 -0.22219261262214141 -0.1137550789484328 0 -0.22256908906772341 -0.1311970616334964 0 -0.2399745279511433 -0.1209080467912729 0 -0.22219261262214141 -0.1137550789484328 0 -0.24202839198547119 -0.062684054774057155 0 -0.2350941739044102 -0.077712122211809564 0 -0.25822132234207179 -0.065358415706088691 0 -0.2350941739044102 -0.077712122211809564 0 -0.25822132234207179 -0.065358415706088691 0 -0.2471059267811786 -0.09125116385748186 0 -0.2216895399717787 -0.084872404590191464 0 -0.2350941739044102 -0.077712122211809564 0 -0.2471059267811786 -0.09125116385748186 0 -0.2216895399717787 -0.084872404590191464 0 -0.2350941739044102 -0.077712122211809564 0 -0.2471059267811786 -0.09125116385748186 0 -0.25895973507009928 -0.085068113654524408 0 -0.2350941739044102 -0.077712122211809564 0 -0.25895973507009928 -0.085068113654524408 0 -0.2335564426954054 -0.1033911690047899 0 -0.2471059267811786 -0.09125116385748186 0 -0.2216895399717787 -0.084872404590191464 0 -0.2350941739044102 -0.077712122211809564 0 -0.2216895399717787 -0.084872404590191464 0 -0.2350941739044102 -0.077712122211809564 0 -0.2129650779428939 -0.070891354855958946 0 -0.2350941739044102 -0.077712122211809564 0 -0.2129650779428939 -0.070891354855958946 0 -0.22421484890680879 -0.057331127642876317 0 -0.2350941739044102 -0.077712122211809564 0 -0.2216895399717787 -0.084872404590191464 0 -0.2129650779428939 -0.070891354855958946 0 -0.24202839198547119 -0.062684054774057155 0 -0.2350941739044102 -0.077712122211809564 0 -0.22421484890680879 -0.057331127642876317 0 -0.2216895399717787 -0.084872404590191464 0 -0.2129650779428939 -0.070891354855958946 0 -0.20025816549145631 -0.079493765226447993 0 -0.2216895399717787 -0.084872404590191464 0 -0.20025816549145631 -0.079493765226447993 0 -0.2216895399717787 -0.084872404590191464 0 -0.20025816549145631 -0.079493765226447993 0 -0.1984659161519538 -0.097277644840314301 0 -0.2216895399717787 -0.084872404590191464 0 -0.1984659161519538 -0.097277644840314301 0 -0.20025816549145631 -0.079493765226447993 0 -0.1984659161519538 -0.097277644840314301 0 -0.1808745210513498 -0.092285996428851075 0 -0.2129650779428939 -0.070891354855958946 0 -0.1908359819813773 -0.064070587500109327 0 -0.2006344547818053 -0.058628464504910528 0 -0.2129650779428939 -0.070891354855958946 0 -0.20025816549145631 -0.079493765226447993 0 -0.1908359819813773 -0.064070587500109327 0 -0.2129650779428939 -0.070891354855958946 0 -0.1908359819813773 -0.064070587500109327 0 -0.20025816549145631 -0.079493765226447993 0 -0.1788267910111333 -0.074115125862706771 0 -0.20025816549145631 -0.079493765226447993 0 -0.1908359819813773 -0.064070587500109327 0 -0.1788267910111333 -0.074115125862706771 0 -0.22256908906772341 -0.1311970616334964 0 -0.22219261262214141 -0.1137550789484328 0 -0.20227963736212151 -0.11710742976728571 0 -0.22219261262214141 -0.1137550789484328 0 -0.21508125954042481 -0.1016139680672284 0 -0.20227963736212151 -0.11710742976728571 0 -0.21508125954042481 -0.1016139680672284 0 -0.1984659161519538 -0.097277644840314301 0 -0.20227963736212151 -0.11710742976728571 0 -0.2216895399717787 -0.084872404590191464 0 -0.21508125954042481 -0.1016139680672284 0 -0.1984659161519538 -0.097277644840314301 0 -0.1984659161519538 -0.097277644840314301 0 -0.20227963736212151 -0.11710742976728571 0 -0.17524229233212871 -0.1096828850904366 0 -0.1831003223663685 -0.1321463419665152 0 -0.20227963736212151 -0.11710742976728571 0 -0.17524229233212871 -0.1096828850904366 0 -0.1831003223663685 -0.1321463419665152 0 -0.17524229233212871 -0.1096828850904366 0 -0.16401531199591979 -0.1217718165502641 0 -0.17524229233212871 -0.1096828850904366 0 -0.16401531199591979 -0.1217718165502641 0 -0.15362399733639651 -0.11320353668722979 0 -0.17524229233212871 -0.1096828850904366 0 -0.1808745210513498 -0.092285996428851075 0 -0.159281231476983 -0.090463114919229648 0 -0.17524229233212871 -0.1096828850904366 0 -0.159281231476983 -0.090463114919229648 0 -0.15362399733639651 -0.11320353668722979 0 -0.1984659161519538 -0.097277644840314301 0 -0.17524229233212871 -0.1096828850904366 0 -0.1808745210513498 -0.092285996428851075 0 -0.1984659161519538 -0.097277644840314301 0 -0.17524229233212871 -0.1096828850904366 0 -0.1808745210513498 -0.092285996428851075 0 -0.1788267910111333 -0.074115125862706771 0 -0.159281231476983 -0.090463114919229648 0 -0.20025816549145631 -0.079493765226447993 0 -0.1808745210513498 -0.092285996428851075 0 -0.1788267910111333 -0.074115125862706771 0 -0.1908359819813773 -0.064070587500109327 0 -0.18062490157517769 -0.066270269468358317 0 -0.1861637644376484 -0.061849307779943158 0 -0.1908359819813773 -0.064070587500109327 0 -0.18062490157517769 -0.066270269468358317 0 -0.1788267910111333 -0.074115125862706771 0 -0.1908359819813773 -0.064070587500109327 0 -0.1788267910111333 -0.074115125862706771 0 -0.18062490157517769 -0.066270269468358317 0 -0.17309195608722119 -0.072675852385652218 0 -0.1788267910111333 -0.074115125862706771 0 -0.17309195608722119 -0.072675852385652218 0 -0.1788267910111333 -0.074115125862706771 0 -0.17354083396462219 -0.065571579734157351 0 -0.1665798690037513 -0.064238100428227335 0 -0.176207446614152 -0.058971476838522531 0 -0.18062490157517769 -0.066270269468358317 0 -0.17309195608722119 -0.072675852385652218 0 -0.17354083396462219 -0.065571579734157351 0 -0.18062490157517769 -0.066270269468358317 0 -0.17354083396462219 -0.065571579734157351 0 -0.176207446614152 -0.058971476838522531 0 -0.17309195608722119 -0.072675852385652218 0 -0.1665798690037513 -0.064238100428227335 0 -0.15683120400183881 -0.075671982165678123 0 -0.17309195608722119 -0.072675852385652218 0 -0.17354083396462219 -0.065571579734157351 0 -0.1665798690037513 -0.064238100428227335 0 -0.1665798690037513 -0.064238100428227335 0 -0.15683120400183881 -0.075671982165678123 0 -0.15504428407696841 -0.061366658046356791 0 -0.1788267910111333 -0.074115125862706771 0 -0.159281231476983 -0.090463114919229648 0 -0.17309195608722119 -0.072675852385652218 0 -0.15683120400183881 -0.075671982165678123 0 -0.159281231476983 -0.090463114919229648 0 -0.17309195608722119 -0.072675852385652218 0 -0.1788267910111333 -0.074115125862706771 0 -0.159281231476983 -0.090463114919229648 0 -0.15683120400183881 -0.075671982165678123 0 -0.14139283721761181 -0.073542156461900071 0 -0.13822224466359789 -0.087109662865904713 0 -0.15683120400183881 -0.075671982165678123 0 -0.159281231476983 -0.090463114919229648 0 -0.13822224466359789 -0.087109662865904713 0 -0.14139283721761181 -0.073542156461900071 0 -0.13759464571135599 -0.059223012964351167 0 -0.15504428407696841 -0.061366658046356791 0 -0.15683120400183881 -0.075671982165678123 0 -0.14139283721761181 -0.073542156461900071 0 -0.15504428407696841 -0.061366658046356791 0 -0.14139283721761181 -0.073542156461900071 0 -0.1256431312615125 -0.073383798652268462 0 -0.13822224466359789 -0.087109662865904713 0 -0.14139283721761181 -0.073542156461900071 0 -0.1256431312615125 -0.073383798652268462 0 -0.13759464571135599 -0.059223012964351167 0 -0.1143383860844555 -0.057832278494864553 0 -0.1256431312615125 -0.073383798652268462 0 -0.13759464571135599 -0.059223012964351167 0 -0.1215217130594437 -0.096679436671600061 0 -0.1202185783422542 -0.084809168005121616 0 -0.13822224466359789 -0.087109662865904713 0 -0.1202185783422542 -0.084809168005121616 0 -0.1256431312615125 -0.073383798652268462 0 -0.13822224466359789 -0.087109662865904713 0 -0.1215217130594437 -0.096679436671600061 0 -0.1198936638897684 -0.1081371930307445 0 -0.13973567194283229 -0.1068111039757518 0 -0.1215217130594437 -0.096679436671600061 0 -0.13822224466359789 -0.087109662865904713 0 -0.13973567194283229 -0.1068111039757518 0 -0.1201901124086828 -0.1231590930322756 0 -0.1362739582956396 -0.12614003831070181 0 -0.13973567194283229 -0.1068111039757518 0 -0.1201901124086828 -0.1231590930322756 0 -0.1198936638897684 -0.1081371930307445 0 -0.13973567194283229 -0.1068111039757518 0 -0.1201901124086828 -0.1231590930322756 0 -0.13973567194283229 -0.1068111039757518 0 -0.1362739582956396 -0.12614003831070181 0 -0.15063389418157691 -0.1260808072689833 0 -0.15362399733639651 -0.11320353668722979 0 -0.1362739582956396 -0.12614003831070181 0 -0.13973567194283229 -0.1068111039757518 0 -0.15362399733639651 -0.11320353668722979 0 -0.15063389418157691 -0.1260808072689833 0 -0.16401531199591979 -0.1217718165502641 0 -0.15362399733639651 -0.11320353668722979 0 -0.159281231476983 -0.090463114919229648 0 -0.13973567194283229 -0.1068111039757518 0 -0.159281231476983 -0.090463114919229648 0 -0.13973567194283229 -0.1068111039757518 0 -0.15362399733639651 -0.11320353668722979 0 -0.159281231476983 -0.090463114919229648 0 -0.13822224466359789 -0.087109662865904713 0 -0.13973567194283229 -0.1068111039757518 0 -0.1434229348759079 -0.014325987132379659 0 -0.1591647077626793 -0.029606815743382801 0 -0.15877971306813321 -0.01249274755930287 0 -0.1434229348759079 -0.014325987132379659 0 -0.13515252671138711 -0.041552418356758061 0 -0.1591647077626793 -0.029606815743382801 0 -0.1434229348759079 -0.014325987132379659 0 -0.15098633850986809 0.01277266571303476 0 -0.1434229348759079 -0.014325987132379659 0 -0.15877971306813321 -0.01249274755930287 0 -0.1554354557495416 0.00049390380166218755 0 -0.1434229348759079 -0.014325987132379659 0 -0.15098633850986809 0.01277266571303476 0 -0.1554354557495416 0.00049390380166218755 0 -0.1197325795589636 -0.022268310888487491 0 -0.1434229348759079 -0.014325987132379659 0 -0.12614642889905739 -0.0086693613163847973 0 -0.1434229348759079 -0.014325987132379659 0 -0.13597633252852689 -0.003855884808756756 0 -0.14165522932184821 0.003825106739535645 0 -0.1434229348759079 -0.014325987132379659 0 -0.13597633252852689 -0.003855884808756756 0 -0.12614642889905739 -0.0086693613163847973 0 -0.13597633252852689 -0.003855884808756756 0 -0.12984516583656999 -0.00027602279029826222 0 -0.134616995474622 0.0019197331515740941 0 -0.121953472101768 -0.00080781569352938066 0 -0.12984516583656999 -0.00027602279029826222 0 -0.12614642889905739 -0.0086693613163847973 0 -0.13597633252852689 -0.003855884808756756 0 -0.12984516583656999 -0.00027602279029826222 0 -0.12614642889905739 -0.0086693613163847973 0 -0.1434229348759079 -0.014325987132379659 0 -0.13515252671138711 -0.041552418356758061 0 -0.1197325795589636 -0.022268310888487491 0 -0.1434229348759079 -0.014325987132379659 0 -0.13515252671138711 -0.041552418356758061 0 -0.1143383860844555 -0.057832278494864553 0 -0.13515252671138711 -0.041552418356758061 0 -0.13759464571135599 -0.059223012964351167 0 -0.13759464571135599 -0.059223012964351167 0 -0.15399670891620049 -0.047660767773959112 0 -0.15504428407696841 -0.061366658046356791 0 -0.13515252671138711 -0.041552418356758061 0 -0.13759464571135599 -0.059223012964351167 0 -0.15399670891620049 -0.047660767773959112 0 -0.13515252671138711 -0.041552418356758061 0 -0.15399670891620049 -0.047660767773959112 0 -0.1591647077626793 -0.029606815743382801 0 -0.15399670891620049 -0.047660767773959112 0 -0.1676709408543329 -0.041706375680675561 0 -0.1591647077626793 -0.029606815743382801 0 -0.1676709408543329 -0.041706375680675561 0 -0.18162109924798259 -0.035133136917979722 0 -0.1591647077626793 -0.029606815743382801 0 -0.1665798690037513 -0.064238100428227335 0 -0.15504428407696841 -0.061366658046356791 0 -0.16721282484971201 -0.054175988617834313 0 -0.15399670891620049 -0.047660767773959112 0 -0.15504428407696841 -0.061366658046356791 0 -0.16721282484971201 -0.054175988617834313 0 -0.15399670891620049 -0.047660767773959112 0 -0.1676709408543329 -0.041706375680675561 0 -0.16721282484971201 -0.054175988617834313 0 -0.1665798690037513 -0.064238100428227335 0 -0.16721282484971201 -0.054175988617834313 0 -0.176207446614152 -0.058971476838522531 0 -0.16721282484971201 -0.054175988617834313 0 -0.176207446614152 -0.058971476838522531 0 -0.18080043360439249 -0.049998083585552487 0 -0.1676709408543329 -0.041706375680675561 0 -0.16721282484971201 -0.054175988617834313 0 -0.18080043360439249 -0.049998083585552487 0 -0.18080043360439249 -0.049998083585552487 0 -0.1832592305076616 -0.058570855469078087 0 -0.1853840168227211 -0.054910080545618113 0 -0.18080043360439249 -0.049998083585552487 0 -0.18880567903615131 -0.052325969561458817 0 -0.187975178107991 -0.044076144121936132 0 -0.18080043360439249 -0.049998083585552487 0 -0.1853840168227211 -0.054910080545618113 0 -0.18880567903615131 -0.052325969561458817 0 -0.176207446614152 -0.058971476838522531 0 -0.18080043360439249 -0.049998083585552487 0 -0.1832592305076616 -0.058570855469078087 0 -0.1832592305076616 -0.058570855469078087 0 -0.1853840168227211 -0.054910080545618113 0 -0.18867072414267899 -0.058745413566383013 0 -0.1832592305076616 -0.058570855469078087 0 -0.1861637644376484 -0.061849307779943158 0 -0.18867072414267899 -0.058745413566383013 0 -0.18062490157517769 -0.066270269468358317 0 -0.1832592305076616 -0.058570855469078087 0 -0.1861637644376484 -0.061849307779943158 0 -0.18062490157517769 -0.066270269468358317 0 -0.176207446614152 -0.058971476838522531 0 -0.1832592305076616 -0.058570855469078087 0 -0.1676709408543329 -0.041706375680675561 0 -0.18080043360439249 -0.049998083585552487 0 -0.18162109924798259 -0.035133136917979722 0 -0.18080043360439249 -0.049998083585552487 0 -0.18162109924798259 -0.035133136917979722 0 -0.187975178107991 -0.044076144121936132 0 -0.18162109924798259 -0.035133136917979722 0 -0.17975076597777681 -0.018804709674327371 0 -0.1591647077626793 -0.029606815743382801 0 -0.18162109924798259 -0.035133136917979722 0 -0.17975076597777681 -0.018804709674327371 0 -0.19945375232080351 -0.02513410657867091 0 -0.17975076597777681 -0.018804709674327371 0 -0.1591647077626793 -0.029606815743382801 0 -0.15877971306813321 -0.01249274755930287 0 -0.17975076597777681 -0.018804709674327371 0 -0.15877971306813321 -0.01249274755930287 0 -0.16794901456258729 -0.0027069884835841519 0 -0.15877971306813321 -0.01249274755930287 0 -0.16794901456258729 -0.0027069884835841519 0 -0.1554354557495416 0.00049390380166218755 0 -0.17975076597777681 -0.018804709674327371 0 -0.16794901456258729 -0.0027069884835841519 0 -0.19297088616264779 -0.0039345570842879724 0 -0.17975076597777681 -0.018804709674327371 0 -0.16794901456258729 -0.0027069884835841519 0 -0.17975076597777681 -0.018804709674327371 0 -0.19297088616264779 -0.0039345570842879724 0 -0.19945375232080351 -0.02513410657867091 0 -0.19945375232080351 -0.02513410657867091 0 -0.21838306712775379 -0.0071018941947125838 0 -0.22014756922145101 -0.036171659961180998 0 -0.19297088616264779 -0.0039345570842879724 0 -0.19945375232080351 -0.02513410657867091 0 -0.21838306712775379 -0.0071018941947125838 0 -0.2006344547818053 -0.058628464504910528 0 -0.1932180796937043 -0.057253291280158519 0 -0.1966444870881586 -0.048364401421457787 0 -0.1908359819813773 -0.064070587500109327 0 -0.19024737564286659 -0.061005595754321483 0 -0.1932180796937043 -0.057253291280158519 0 -0.1908359819813773 -0.064070587500109327 0 -0.2006344547818053 -0.058628464504910528 0 -0.1932180796937043 -0.057253291280158519 0 -0.1908359819813773 -0.064070587500109327 0 -0.19024737564286659 -0.061005595754321483 0 -0.18863572485578889 -0.061311777491701178 0 -0.1908359819813773 -0.064070587500109327 0 -0.1861637644376484 -0.061849307779943158 0 -0.18863572485578889 -0.061311777491701178 0 -0.19024737564286659 -0.061005595754321483 0 -0.18867072414267899 -0.058745413566383013 0 -0.1932180796937043 -0.057253291280158519 0 -0.19024737564286659 -0.061005595754321483 0 -0.18867072414267899 -0.058745413566383013 0 -0.18863572485578889 -0.061311777491701178 0 -0.1861637644376484 -0.061849307779943158 0 -0.18867072414267899 -0.058745413566383013 0 -0.18863572485578889 -0.061311777491701178 0 -0.1853840168227211 -0.054910080545618113 0 -0.18867072414267899 -0.058745413566383013 0 -0.18880567903615131 -0.052325969561458817 0 -0.18867072414267899 -0.058745413566383013 0 -0.1932180796937043 -0.057253291280158519 0 -0.18880567903615131 -0.052325969561458817 0 -0.1932180796937043 -0.057253291280158519 0 -0.18880567903615131 -0.052325969561458817 0 -0.1966444870881586 -0.048364401421457787 0 -0.18880567903615131 -0.052325969561458817 0 -0.1966444870881586 -0.048364401421457787 0 -0.187975178107991 -0.044076144121936132 0 -0.2006344547818053 -0.058628464504910528 0 -0.1966444870881586 -0.048364401421457787 0 -0.20925402721023789 -0.053698033423158077 0 -0.18162109924798259 -0.035133136917979722 0 -0.19945375232080351 -0.02513410657867091 0 -0.19503246281195699 -0.038186680872877667 0 -0.19945375232080351 -0.02513410657867091 0 -0.19503246281195699 -0.038186680872877667 0 -0.20646889070295901 -0.041387530987473532 0 -0.1966444870881586 -0.048364401421457787 0 -0.19503246281195699 -0.038186680872877667 0 -0.20646889070295901 -0.041387530987473532 0 -0.1966444870881586 -0.048364401421457787 0 -0.187975178107991 -0.044076144121936132 0 -0.19503246281195699 -0.038186680872877667 0 -0.18162109924798259 -0.035133136917979722 0 -0.187975178107991 -0.044076144121936132 0 -0.19503246281195699 -0.038186680872877667 0 -0.19945375232080351 -0.02513410657867091 0 -0.20646889070295901 -0.041387530987473532 0 -0.22014756922145101 -0.036171659961180998 0 -0.21772970360769581 -0.046870035114619207 0 -0.20646889070295901 -0.041387530987473532 0 -0.22014756922145101 -0.036171659961180998 0 -0.2129650779428939 -0.070891354855958946 0 -0.2006344547818053 -0.058628464504910528 0 -0.20925402721023789 -0.053698033423158077 0 -0.2129650779428939 -0.070891354855958946 0 -0.20925402721023789 -0.053698033423158077 0 -0.22421484890680879 -0.057331127642876317 0 -0.1966444870881586 -0.048364401421457787 0 -0.20646889070295901 -0.041387530987473532 0 -0.20925402721023789 -0.053698033423158077 0 -0.21772970360769581 -0.046870035114619207 0 -0.20925402721023789 -0.053698033423158077 0 -0.22421484890680879 -0.057331127642876317 0 -0.21772970360769581 -0.046870035114619207 0 -0.20646889070295901 -0.041387530987473532 0 -0.20925402721023789 -0.053698033423158077 0 -0.22421484890680879 -0.057331127642876317 0 -0.2285631819970225 -0.045761823558407078 0 -0.2398986052082317 -0.049302622359291802 0 -0.21772970360769581 -0.046870035114619207 0 -0.22421484890680879 -0.057331127642876317 0 -0.2285631819970225 -0.045761823558407078 0 -0.2285631819970225 -0.045761823558407078 0 -0.22014756922145101 -0.036171659961180998 0 -0.24177329437942019 -0.037652446329625722 0 -0.22014756922145101 -0.036171659961180998 0 -0.24177329437942019 -0.037652446329625722 0 -0.22014756922145101 -0.036171659961180998 0 -0.24177329437942019 -0.037652446329625722 0 -0.23152124373452879 -0.02431688719118591 0 -0.21772970360769581 -0.046870035114619207 0 -0.2285631819970225 -0.045761823558407078 0 -0.22014756922145101 -0.036171659961180998 0 -0.24177329437942019 -0.037652446329625722 0 -0.2398986052082317 -0.049302622359291802 0 -0.25261329598832732 -0.045372687114678442 0 -0.24177329437942019 -0.037652446329625722 0 -0.2398986052082317 -0.049302622359291802 0 -0.2285631819970225 -0.045761823558407078 0 -0.24177329437942019 -0.037652446329625722 0 -0.2398986052082317 -0.049302622359291802 0 -0.24202839198547119 -0.062684054774057155 0 -0.22421484890680879 -0.057331127642876317 0 -0.2398986052082317 -0.049302622359291802 0 -0.24202839198547119 -0.062684054774057155 0 -0.24819040388102551 -0.055679444988529017 0 -0.25822132234207179 -0.065358415706088691 0 -0.2398986052082317 -0.049302622359291802 0 -0.24819040388102551 -0.055679444988529017 0 -0.25261329598832732 -0.045372687114678442 0 -0.24202839198547119 -0.062684054774057155 0 -0.2398986052082317 -0.049302622359291802 0 -0.24819040388102551 -0.055679444988529017 0 -0.21838306712775379 -0.0071018941947125838 0 -0.23152124373452879 -0.02431688719118591 0 -0.23545616209219039 -0.011151047582239519 0 -0.21838306712775379 -0.0071018941947125838 0 -0.24136320450534329 0.0045979420509364606 0 -0.21838306712775379 -0.0071018941947125838 0 -0.23545616209219039 -0.011151047582239519 0 -0.24136320450534329 0.0045979420509364606 0 -0.21838306712775379 -0.0071018941947125838 0 -0.22014756922145101 -0.036171659961180998 0 -0.23152124373452879 -0.02431688719118591 0 -0.23152124373452879 -0.02431688719118591 0 -0.24432836541712771 -0.021774066161287148 0 -0.23545616209219039 -0.011151047582239519 0 -0.24432836541712771 -0.021774066161287148 0 -0.24688343645483499 -0.0058956859929485059 0 -0.25564394370744081 -0.02254888198646577 0 -0.24177329437942019 -0.037652446329625722 0 -0.24432836541712771 -0.021774066161287148 0 -0.25092654134387621 -0.030420203065008491 0 -0.24177329437942019 -0.037652446329625722 0 -0.24432836541712771 -0.021774066161287148 0 -0.24177329437942019 -0.037652446329625722 0 -0.23152124373452879 -0.02431688719118591 0 -0.24432836541712771 -0.021774066161287148 0 -0.24432836541712771 -0.021774066161287148 0 -0.24688343645483499 -0.0058956859929485059 0 -0.23545616209219039 -0.011151047582239519 0 -0.24688343645483499 -0.0058956859929485059 0 -0.24136320450534329 0.0045979420509364606 0 -0.24432836541712771 -0.021774066161287148 0 -0.23545616209219039 -0.011151047582239519 0 -0.24688343645483499 -0.0058956859929485059 0 -0.24688343645483499 -0.0058956859929485059 0 -0.24136320450534329 0.0045979420509364606 0 -0.24688343645483499 -0.0058956859929485059 0 -0.26218471576885938 -0.011659188312981111 0 -0.25564394370744081 -0.02254888198646577 0 -0.24688343645483499 -0.0058956859929485059 0 -0.26218471576885938 -0.011659188312981111 0 -0.2608019368049761 2.0678865882739801e-05 0 -0.24688343645483499 -0.0058956859929485059 0 -0.25564394370744081 -0.02254888198646577 0 -0.26218471576885938 -0.011659188312981111 0 -0.25564394370744081 -0.02254888198646577 0 -0.27238362949042078 -0.024373731304543671 0 -0.25564394370744081 -0.02254888198646577 0 -0.27238362949042078 -0.024373731304543671 0 -0.26440445096004578 -0.039202077979983402 0 -0.25092654134387621 -0.030420203065008491 0 -0.25564394370744081 -0.02254888198646577 0 -0.26440445096004578 -0.039202077979983402 0 -0.25564394370744081 -0.02254888198646577 0 -0.26440445096004578 -0.039202077979983402 0 -0.24432836541712771 -0.021774066161287148 0 -0.25092654134387621 -0.030420203065008491 0 -0.25564394370744081 -0.02254888198646577 0 -0.27238362949042078 -0.024373731304543671 0 -0.27521063238662452 -0.0054983211468302784 0 -0.28624318151729522 -0.019067164114175691 0 -0.26218471576885938 -0.011659188312981111 0 -0.27238362949042078 -0.024373731304543671 0 -0.27521063238662452 -0.0054983211468302784 0 -0.26218471576885938 -0.011659188312981111 0 -0.27521063238662452 -0.0054983211468302784 0 -0.2608019368049761 2.0678865882739801e-05 0 -0.27521063238662452 -0.0054983211468302784 0 -0.28941504264439272 -0.0055461420580558227 0 -0.28537312431214051 0.0054348841582710847 0 -0.28941504264439272 -0.0055461420580558227 0 -0.29945676593833731 -0.0036418591364568102 0 -0.29788703695391122 -0.01355981297764642 0 -0.28941504264439272 -0.0055461420580558227 0 -0.29945676593833731 -0.0036418591364568102 0 -0.2954666820038494 0.0053493285920646859 0 -0.28941504264439272 -0.0055461420580558227 0 -0.28624318151729522 -0.019067164114175691 0 -0.29788703695391122 -0.01355981297764642 0 -0.27521063238662452 -0.0054983211468302784 0 -0.28941504264439272 -0.0055461420580558227 0 -0.28624318151729522 -0.019067164114175691 0 -0.28624318151729522 -0.019067164114175691 0 -0.29646061354394831 -0.02469461578706893 0 -0.28670975014268901 -0.040729397074836873 0 -0.27238362949042078 -0.024373731304543671 0 -0.28624318151729522 -0.019067164114175691 0 -0.28670975014268901 -0.040729397074836873 0 -0.28624318151729522 -0.019067164114175691 0 -0.29646061354394831 -0.02469461578706893 0 -0.29788703695391122 -0.01355981297764642 0 -0.29646061354394831 -0.02469461578706893 0 -0.30607072078131992 -0.01960137335682401 0 -0.29788703695391122 -0.01355981297764642 0 -0.29646061354394831 -0.02469461578706893 0 -0.30539237832452609 -0.030515331411861649 0 -0.30607072078131992 -0.01960137335682401 0 -0.30539237832452609 -0.030515331411861649 0 -0.30607072078131992 -0.01960137335682401 0 -0.31531346347211869 -0.021017498740538081 0 -0.30539237832452609 -0.030515331411861649 0 -0.31531346347211869 -0.021017498740538081 0 -0.31528043347050888 -0.034240305893086367 0 -0.30607072078131992 -0.01960137335682401 0 -0.31055091883810693 -0.0080316569973730104 0 -0.31531346347211869 -0.021017498740538081 0 -0.30607072078131992 -0.01960137335682401 0 -0.31055091883810693 -0.0080316569973730104 0 -0.29788703695391122 -0.01355981297764642 0 -0.31055091883810693 -0.0080316569973730104 0 -0.29945676593833731 -0.0036418591364568102 0 -0.3050780036965437 0.0055563584912898482 0 -0.31055091883810693 -0.0080316569973730104 0 -0.29945676593833731 -0.0036418591364568102 0 -0.29788703695391122 -0.01355981297764642 0 -0.29754300304601089 -0.057543551029056873 0 -0.30917259176127537 -0.069163176341718535 0 -0.31382610207970318 -0.054741585660989953 0 -0.29754300304601089 -0.057543551029056873 0 -0.3090150493253323 -0.042256716169687833 0 -0.31382610207970318 -0.054741585660989953 0 -0.30539237832452609 -0.030515331411861649 0 -0.3090150493253323 -0.042256716169687833 0 -0.28670975014268901 -0.040729397074836873 0 -0.3090150493253323 -0.042256716169687833 0 -0.28670975014268901 -0.040729397074836873 0 -0.29754300304601089 -0.057543551029056873 0 -0.3090150493253323 -0.042256716169687833 0 -0.28670975014268901 -0.040729397074836873 0 -0.30539237832452609 -0.030515331411861649 0 -0.3090150493253323 -0.042256716169687833 0 -0.31528043347050888 -0.034240305893086367 0 -0.29646061354394831 -0.02469461578706893 0 -0.30539237832452609 -0.030515331411861649 0 -0.28670975014268901 -0.040729397074836873 0 -0.29754300304601089 -0.057543551029056873 0 -0.28670975014268901 -0.040729397074836873 0 -0.27564524998962409 -0.060570159069990082 0 -0.27564524998962409 -0.060570159069990082 0 -0.26440445096004578 -0.039202077979983402 0 -0.27564524998962409 -0.060570159069990082 0 -0.26440445096004578 -0.039202077979983402 0 -0.25822132234207179 -0.065358415706088691 0 -0.28670975014268901 -0.040729397074836873 0 -0.26440445096004578 -0.039202077979983402 0 -0.27238362949042078 -0.024373731304543671 0 -0.28670975014268901 -0.040729397074836873 0 -0.26440445096004578 -0.039202077979983402 0 -0.28670975014268901 -0.040729397074836873 0 -0.27564524998962409 -0.060570159069990082 0 -0.26440445096004578 -0.039202077979983402 0 -0.24177329437942019 -0.037652446329625722 0 -0.26440445096004578 -0.039202077979983402 0 -0.24177329437942019 -0.037652446329625722 0 -0.26440445096004578 -0.039202077979983402 0 -0.25261329598832732 -0.045372687114678442 0 -0.24177329437942019 -0.037652446329625722 0 -0.25092654134387621 -0.030420203065008491 0 -0.26440445096004578 -0.039202077979983402 0 -0.26440445096004578 -0.039202077979983402 0 -0.25261329598832732 -0.045372687114678442 0 -0.25822132234207179 -0.065358415706088691 0 -0.24819040388102551 -0.055679444988529017 0 -0.25261329598832732 -0.045372687114678442 0 -0.25822132234207179 -0.065358415706088691 0 -0.2350941739044102 -0.077712122211809564 0 -0.25822132234207179 -0.065358415706088691 0 -0.25895973507009928 -0.085068113654524408 0 -0.25822132234207179 -0.065358415706088691 0 -0.25895973507009928 -0.085068113654524408 0 -0.27379028827191049 -0.076013520788225819 0 -0.2471059267811786 -0.09125116385748186 0 -0.25895973507009928 -0.085068113654524408 0 -0.27252231359057832 -0.09762992312477306 0 -0.25895973507009928 -0.085068113654524408 0 -0.27379028827191049 -0.076013520788225819 0 -0.28282529623578778 -0.092424105097240361 0 -0.25895973507009928 -0.085068113654524408 0 -0.28282529623578778 -0.092424105097240361 0 -0.25895973507009928 -0.085068113654524408 0 -0.27252231359057832 -0.09762992312477306 0 -0.28282529623578778 -0.092424105097240361 0 -0.27564524998962409 -0.060570159069990082 0 -0.27379028827191049 -0.076013520788225819 0 -0.29329983772196921 -0.076646810413285499 0 -0.27564524998962409 -0.060570159069990082 0 -0.25822132234207179 -0.065358415706088691 0 -0.27379028827191049 -0.076013520788225819 0 -0.2399745279511433 -0.1209080467912729 0 -0.2552947893057656 -0.1079463517741327 0 -0.26447848030961718 -0.12840680237226371 0 -0.2471059267811786 -0.09125116385748186 0 -0.2552947893057656 -0.1079463517741327 0 -0.27252231359057832 -0.09762992312477306 0 -0.2471059267811786 -0.09125116385748186 0 -0.27252231359057832 -0.09762992312477306 0 -0.2552947893057656 -0.1079463517741327 0 -0.27252231359057832 -0.09762992312477306 0 -0.28048257176276109 -0.1138477360654179 0 -0.2552947893057656 -0.1079463517741327 0 -0.28048257176276109 -0.1138477360654179 0 -0.26447848030961718 -0.12840680237226371 0 -0.28048257176276109 -0.1138477360654179 0 -0.26447848030961718 -0.12840680237226371 0 -0.28411305796976621 -0.12890020180388581 0 -0.28048257176276109 -0.1138477360654179 0 -0.29874091052671309 -0.12134579492770579 0 -0.28411305796976621 -0.12890020180388581 0 -0.28048257176276109 -0.1138477360654179 0 -0.29793870039997777 -0.10400868239206421 0 -0.29874091052671309 -0.12134579492770579 0 -0.30669085740147639 -0.099780096539956342 0 -0.28282529623578778 -0.092424105097240361 0 -0.27252231359057832 -0.09762992312477306 0 -0.29793870039997777 -0.10400868239206421 0 -0.27252231359057832 -0.09762992312477306 0 -0.28048257176276109 -0.1138477360654179 0 -0.29793870039997777 -0.10400868239206421 0 -0.27252231359057832 -0.09762992312477306 0 -0.29793870039997777 -0.10400868239206421 0 -0.28282529623578778 -0.092424105097240361 0 -0.30669085740147639 -0.099780096539956342 0 -0.29793870039997777 -0.10400868239206421 0 -0.28282529623578778 -0.092424105097240361 0 -0.30669085740147639 -0.099780096539956342 0 -0.29793870039997777 -0.10400868239206421 0 -0.32335508720937689 -0.1103874416593571 0 -0.29793870039997777 -0.10400868239206421 0 -0.32335508720937689 -0.1103874416593571 0 -0.29793870039997777 -0.10400868239206421 0 -0.3141780950294436 -0.1145307931846002 0 -0.32335508720937689 -0.1103874416593571 0 -0.29793870039997777 -0.10400868239206421 0 -0.29874091052671309 -0.12134579492770579 0 -0.3141780950294436 -0.1145307931846002 0 -0.29874091052671309 -0.12134579492770579 0 -0.3141780950294436 -0.1145307931846002 0 -0.31335237135086602 -0.128331438324359 0 -0.29754300304601089 -0.057543551029056873 0 -0.27564524998962409 -0.060570159069990082 0 -0.29329983772196921 -0.076646810413285499 0 -0.30669085740147639 -0.099780096539956342 0 -0.29329983772196921 -0.076646810413285499 0 -0.28282529623578778 -0.092424105097240361 0 -0.27379028827191049 -0.076013520788225819 0 -0.29329983772196921 -0.076646810413285499 0 -0.28282529623578778 -0.092424105097240361 0 -0.30669085740147639 -0.099780096539956342 0 -0.29329983772196921 -0.076646810413285499 0 -0.31716807588706991 -0.086659375357668281 0 -0.29754300304601089 -0.057543551029056873 0 -0.29329983772196921 -0.076646810413285499 0 -0.30917259176127537 -0.069163176341718535 0 -0.29329983772196921 -0.076646810413285499 0 -0.30917259176127537 -0.069163176341718535 0 -0.31716807588706991 -0.086659375357668281 0 -0.32558620722490528 -0.066822734835479763 0 -0.31716807588706991 -0.086659375357668281 0 -0.33595906575386081 -0.080288067195815147 0 -0.30917259176127537 -0.069163176341718535 0 -0.32558620722490528 -0.066822734835479763 0 -0.31382610207970318 -0.054741585660989953 0 -0.30917259176127537 -0.069163176341718535 0 -0.32558620722490528 -0.066822734835479763 0 -0.31716807588706991 -0.086659375357668281 0 -0.31716807588706991 -0.086659375357668281 0 -0.33654178821482611 -0.093279511224594311 0 -0.33595906575386081 -0.080288067195815147 0 -0.33654178821482611 -0.093279511224594311 0 -0.33595906575386081 -0.080288067195815147 0 -0.35479052037085501 -0.088543993028146639 0 -0.33595906575386081 -0.080288067195815147 0 -0.33997340439794282 -0.068577053728572895 0 -0.35251116473422811 -0.076640871641840635 0 -0.32558620722490528 -0.066822734835479763 0 -0.33997340439794282 -0.068577053728572895 0 -0.33796514954878881 -0.055446709461315732 0 -0.32558620722490528 -0.066822734835479763 0 -0.33595906575386081 -0.080288067195815147 0 -0.33997340439794282 -0.068577053728572895 0 -0.32668496956332271 -0.1246002035700931 0 -0.3141780950294436 -0.1145307931846002 0 -0.31335237135086602 -0.128331438324359 0 -0.3141780950294436 -0.1145307931846002 0 -0.32335508720937689 -0.1103874416593571 0 -0.32668496956332271 -0.1246002035700931 0 -0.3141780950294436 -0.1145307931846002 0 -0.32335508720937689 -0.1103874416593571 0 -0.30669085740147639 -0.099780096539956342 0 -0.31716807588706991 -0.086659375357668281 0 -0.33055641856716339 -0.10713608798267769 0 -0.30669085740147639 -0.099780096539956342 0 -0.32335508720937689 -0.1103874416593571 0 -0.33055641856716339 -0.10713608798267769 0 -0.31716807588706991 -0.086659375357668281 0 -0.33654178821482611 -0.093279511224594311 0 -0.33055641856716339 -0.10713608798267769 0 -0.30669085740147639 -0.099780096539956342 0 -0.33055641856716339 -0.10713608798267769 0 -0.32335508720937689 -0.1103874416593571 0 -0.33055641856716339 -0.10713608798267769 0 -0.33055641856716339 -0.10713608798267769 0 -0.34862534212365531 -0.098978088007378034 0 -0.33654178821482611 -0.093279511224594311 0 -0.33055641856716339 -0.10713608798267769 0 -0.34862534212365531 -0.098978088007378034 0 -0.33500602276121499 -0.1085075726147606 0 -0.34535805605230407 -0.1159095342552563 0 -0.34862534212365531 -0.098978088007378034 0 -0.33500602276121499 -0.1085075726147606 0 -0.33055641856716339 -0.10713608798267769 0 -0.34862534212365531 -0.098978088007378034 0 -0.33500602276121499 -0.1085075726147606 0 -0.33055641856716339 -0.10713608798267769 0 -0.32335508720937689 -0.1103874416593571 0 -0.33500602276121499 -0.1085075726147606 0 -0.33055641856716339 -0.10713608798267769 0 -0.32668496956332271 -0.1246002035700931 0 -0.32335508720937689 -0.1103874416593571 0 -0.34535805605230407 -0.1159095342552563 0 -0.32335508720937689 -0.1103874416593571 0 -0.33500602276121499 -0.1085075726147606 0 -0.34535805605230407 -0.1159095342552563 0 -0.32335508720937689 -0.1103874416593571 0 -0.34535805605230407 -0.1159095342552563 0 -0.32668496956332271 -0.1246002035700931 0 -0.34535805605230407 -0.1159095342552563 0 -0.34036501442566103 -0.13075461299866339 0 -0.34535805605230407 -0.1159095342552563 0 -0.35709110688265749 -0.1106188879249244 0 -0.36734574323873548 -0.12149251713973851 0 -0.34535805605230407 -0.1159095342552563 0 -0.36734574323873548 -0.12149251713973851 0 -0.34535805605230407 -0.1159095342552563 0 -0.36734574323873548 -0.12149251713973851 0 -0.35735639026121607 -0.1325156923694823 0 -0.34535805605230407 -0.1159095342552563 0 -0.35709110688265749 -0.1106188879249244 0 -0.34862534212365531 -0.098978088007378034 0 -0.34862534212365531 -0.098978088007378034 0 -0.36669426568014513 -0.090820088032074031 0 -0.35709110688265749 -0.1106188879249244 0 -0.34862534212365531 -0.098978088007378034 0 -0.36702000445943961 -0.1061563025859063 0 -0.34862534212365531 -0.098978088007378034 0 -0.36702000445943961 -0.1061563025859063 0 -0.36669426568014513 -0.090820088032074031 0 -0.36702000445943961 -0.1061563025859063 0 -0.36669426568014513 -0.090820088032074031 0 -0.36702000445943961 -0.1061563025859063 0 -0.36669426568014513 -0.090820088032074031 0 -0.37731246693960541 -0.099519678806911843 0 -0.36702000445943961 -0.1061563025859063 0 -0.38031479293032783 -0.1122550577514228 0 -0.37731246693960541 -0.099519678806911843 0 -0.36702000445943961 -0.1061563025859063 0 -0.36734574323873548 -0.12149251713973851 0 -0.35709110688265749 -0.1106188879249244 0 -0.36702000445943961 -0.1061563025859063 0 -0.36734574323873548 -0.12149251713973851 0 -0.36702000445943961 -0.1061563025859063 0 -0.36734574323873548 -0.12149251713973851 0 -0.38031479293032783 -0.1122550577514228 0 -0.36734574323873548 -0.12149251713973851 0 -0.38083371266732718 -0.12481287189696361 0 -0.35251116473422811 -0.076640871641840635 0 -0.36607941754545342 -0.06187222087293677 0 -0.34972903559796931 -0.06211023025079361 0 -0.33997340439794282 -0.068577053728572895 0 -0.35251116473422811 -0.076640871641840635 0 -0.34972903559796931 -0.06211023025079361 0 -0.33595906575386081 -0.080288067195815147 0 -0.35251116473422811 -0.076640871641840635 0 -0.35479052037085501 -0.088543993028146639 0 -0.34862534212365531 -0.098978088007378034 0 -0.35479052037085501 -0.088543993028146639 0 -0.36669426568014513 -0.090820088032074031 0 -0.33654178821482611 -0.093279511224594311 0 -0.34862534212365531 -0.098978088007378034 0 -0.35479052037085501 -0.088543993028146639 0 -0.35251116473422811 -0.076640871641840635 0 -0.35479052037085501 -0.088543993028146639 0 -0.36669426568014513 -0.090820088032074031 0 -0.36669426568014513 -0.090820088032074031 0 -0.37810332958418308 -0.085668970824878315 0 -0.37731246693960541 -0.099519678806911843 0 -0.36669426568014513 -0.090820088032074031 0 -0.37810332958418308 -0.085668970824878315 0 -0.36669426568014513 -0.090820088032074031 0 -0.37240986260991649 -0.079808337404784352 0 -0.37810332958418308 -0.085668970824878315 0 -0.35251116473422811 -0.076640871641840635 0 -0.36669426568014513 -0.090820088032074031 0 -0.36607941754545342 -0.06187222087293677 0 -0.36669426568014513 -0.090820088032074031 0 -0.36607941754545342 -0.06187222087293677 0 -0.36669426568014513 -0.090820088032074031 0 -0.37240986260991649 -0.079808337404784352 0 -0.36607941754545342 -0.06187222087293677 0 -0.37240986260991649 -0.079808337404784352 0 -0.36607941754545342 -0.06187222087293677 0 -0.38259404550263459 -0.06569841926480964 0 -0.36607941754545342 -0.06187222087293677 0 -0.365464569410763 -0.03292435371379937 0 -0.36607941754545342 -0.06187222087293677 0 -0.365464569410763 -0.03292435371379937 0 -0.37647252317539642 -0.049068146908191508 0 -0.36607941754545342 -0.06187222087293677 0 -0.35295041857388548 -0.047670615522951307 0 -0.365464569410763 -0.03292435371379937 0 -0.36607941754545342 -0.06187222087293677 0 -0.35295041857388548 -0.047670615522951307 0 -0.34972903559796931 -0.06211023025079361 0 -0.35295041857388548 -0.047670615522951307 0 -0.34972903559796931 -0.06211023025079361 0 -0.33796514954878881 -0.055446709461315732 0 -0.35295041857388548 -0.047670615522951307 0 -0.365464569410763 -0.03292435371379937 0 -0.34363809246430438 -0.02606092217277528 0 -0.365464569410763 -0.03292435371379937 0 -0.37913629846176972 -0.035761070531685077 0 -0.37647252317539642 -0.049068146908191508 0 -0.365464569410763 -0.03292435371379937 0 -0.37199575145809988 -0.01788153845246419 0 -0.37913629846176972 -0.035761070531685077 0 -0.365464569410763 -0.03292435371379937 0 -0.37199575145809988 -0.01788153845246419 0 -0.34363809246430438 -0.02606092217277528 0 -0.37199575145809988 -0.01788153845246419 0 -0.36281876861650242 -0.0071526684811894243 0 -0.35237447050282739 -0.012476355464309649 0 -0.37400874851471311 -0.0042477121734612669 0 -0.36287466381577799 -0.00020400058517528621 0 -0.36995752774725699 0.0031307488956970248 0 -0.37199575145809988 -0.01788153845246419 0 -0.37400874851471311 -0.0042477121734612669 0 -0.36281876861650242 -0.0071526684811894243 0 -0.37400874851471311 -0.0042477121734612669 0 -0.36281876861650242 -0.0071526684811894243 0 -0.36287466381577799 -0.00020400058517528621 0 -0.36281876861650242 -0.0071526684811894243 0 -0.36287466381577799 -0.00020400058517528621 0 -0.35284020879109368 -0.00095373573053672707 0 -0.36281876861650242 -0.0071526684811894243 0 -0.35284020879109368 -0.00095373573053672707 0 -0.35237447050282739 -0.012476355464309649 0 -0.35284020879109368 -0.00095373573053672707 0 -0.35237447050282739 -0.012476355464309649 0 -0.34169510618077381 0.0001937460219223971 0 -0.37199575145809988 -0.01788153845246419 0 -0.34363809246430438 -0.02606092217277528 0 -0.37199575145809988 -0.01788153845246419 0 -0.35237447050282739 -0.012476355464309649 0 -0.34363809246430438 -0.02606092217277528 0 -0.34363809246430438 -0.02606092217277528 0 -0.32632101010574271 -0.020564696507990459 0 -0.31528043347050888 -0.034240305893086367 0 -0.35237447050282739 -0.012476355464309649 0 -0.34363809246430438 -0.02606092217277528 0 -0.33506357814409349 -0.01118421308281833 0 -0.34363809246430438 -0.02606092217277528 0 -0.31528043347050888 -0.034240305893086367 0 -0.34363809246430438 -0.02606092217277528 0 -0.33506357814409349 -0.01118421308281833 0 -0.32632101010574271 -0.020564696507990459 0 -0.35237447050282739 -0.012476355464309649 0 -0.33506357814409349 -0.01118421308281833 0 -0.34169510618077381 0.0001937460219223971 0 -0.33506357814409349 -0.01118421308281833 0 -0.32604278437505507 -0.00057843603705942334 0 -0.34169510618077381 0.0001937460219223971 0 -0.33506357814409349 -0.01118421308281833 0 -0.32604278437505507 -0.00057843603705942334 0 -0.32373768136470898 -0.012250491446474771 0 -0.33506357814409349 -0.01118421308281833 0 -0.32373768136470898 -0.012250491446474771 0 -0.32632101010574271 -0.020564696507990459 0 -0.31055091883810693 -0.0080316569973730104 0 -0.32604278437505507 -0.00057843603705942334 0 -0.31649211491032991 0.0075987614368238279 0 -0.31055091883810693 -0.0080316569973730104 0 -0.32373768136470898 -0.012250491446474771 0 -0.31531346347211869 -0.021017498740538081 0 -0.31055091883810693 -0.0080316569973730104 0 -0.32604278437505507 -0.00057843603705942334 0 -0.32373768136470898 -0.012250491446474771 0 -0.32373768136470898 -0.012250491446474771 0 -0.32632101010574271 -0.020564696507990459 0 -0.31531346347211869 -0.021017498740538081 0 -0.32632101010574271 -0.020564696507990459 0 -0.31531346347211869 -0.021017498740538081 0 -0.31528043347050888 -0.034240305893086367 0 -0.31528043347050888 -0.034240305893086367 0 -0.31925511875534052 -0.04525766813627155 0 -0.33217314732044229 -0.042954884484125523 0 -0.31925511875534052 -0.04525766813627155 0 -0.32598086158071549 -0.052094848473468083 0 -0.33217314732044229 -0.042954884484125523 0 -0.3090150493253323 -0.042256716169687833 0 -0.31528043347050888 -0.034240305893086367 0 -0.31925511875534052 -0.04525766813627155 0 -0.31925511875534052 -0.04525766813627155 0 -0.31382610207970318 -0.054741585660989953 0 -0.32598086158071549 -0.052094848473468083 0 -0.3090150493253323 -0.042256716169687833 0 -0.31925511875534052 -0.04525766813627155 0 -0.31382610207970318 -0.054741585660989953 0 -0.32558620722490528 -0.066822734835479763 0 -0.31382610207970318 -0.054741585660989953 0 -0.32598086158071549 -0.052094848473468083 0 -0.35295041857388548 -0.047670615522951307 0 -0.33796514954878881 -0.055446709461315732 0 -0.33217314732044229 -0.042954884484125523 0 -0.32598086158071549 -0.052094848473468083 0 -0.33796514954878881 -0.055446709461315732 0 -0.33217314732044229 -0.042954884484125523 0 -0.32558620722490528 -0.066822734835479763 0 -0.32598086158071549 -0.052094848473468083 0 -0.33796514954878881 -0.055446709461315732 0 -0.33997340439794282 -0.068577053728572895 0 -0.34972903559796931 -0.06211023025079361 0 -0.33796514954878881 -0.055446709461315732 0 -0.34363809246430438 -0.02606092217277528 0 -0.31528043347050888 -0.034240305893086367 0 -0.33217314732044229 -0.042954884484125523 0 -0.35295041857388548 -0.047670615522951307 0 -0.34363809246430438 -0.02606092217277528 0 -0.33217314732044229 -0.042954884484125523 0 -0.3047546492800971 -0.24663258192701329 0 -0.30322263507816227 -0.227942862921857 0 -0.31761132362141681 -0.23665216590307969 0 -0.3047546492800971 -0.24663258192701329 0 -0.30322263507816227 -0.227942862921857 0 -0.29086037910065549 -0.23888898654603249 0 -0.30322263507816227 -0.227942862921857 0 -0.28420778967926241 -0.21899036457475499 0 -0.29086037910065549 -0.23888898654603249 0 -0.28420778967926241 -0.21899036457475499 0 -0.29086037910065549 -0.23888898654603249 0 -0.26977972059926331 -0.24102808895574029 0 -0.29233710086649212 -0.25985103435079698 0 -0.3047546492800971 -0.24663258192701329 0 -0.29086037910065549 -0.23888898654603249 0 -0.29233710086649212 -0.25985103435079698 0 -0.29086037910065549 -0.23888898654603249 0 -0.26977972059926331 -0.24102808895574029 0 -0.25028155227244681 -0.25133287360632572 0 -0.24722234033203469 -0.22220514356068349 0 -0.26977972059926331 -0.24102808895574029 0 -0.24722234033203469 -0.22220514356068349 0 -0.26977972059926331 -0.24102808895574029 0 -0.26543291071159131 -0.2131797862236047 0 -0.24722234033203469 -0.22220514356068349 0 -0.26977972059926331 -0.24102808895574029 0 -0.28420778967926241 -0.21899036457475499 0 -0.26977972059926331 -0.24102808895574029 0 -0.26543291071159131 -0.2131797862236047 0 -0.28420778967926241 -0.21899036457475499 0 -0.26543291071159131 -0.2131797862236047 0 -0.27791065714901109 -0.18987538845003429 0 -0.24722234033203469 -0.22220514356068349 0 -0.26543291071159131 -0.2131797862236047 0 -0.25269438654503779 -0.19620928489072131 0 -0.26543291071159131 -0.2131797862236047 0 -0.25269438654503779 -0.19620928489072131 0 -0.27791065714901109 -0.18987538845003429 0 -0.25269438654503779 -0.19620928489072131 0 -0.27791065714901109 -0.18987538845003429 0 -0.27791065714901109 -0.18987538845003429 0 -0.30325728420617581 -0.20488459401731809 0 -0.30312692775298439 -0.18354149200934719 0 -0.28420778967926241 -0.21899036457475499 0 -0.27791065714901109 -0.18987538845003429 0 -0.30325728420617581 -0.20488459401731809 0 -0.30322263507816227 -0.227942862921857 0 -0.30325728420617581 -0.20488459401731809 0 -0.32494568950293828 -0.2162935716183742 0 -0.30322263507816227 -0.227942862921857 0 -0.28420778967926241 -0.21899036457475499 0 -0.30325728420617581 -0.20488459401731809 0 -0.30325728420617581 -0.20488459401731809 0 -0.30312692775298439 -0.18354149200934719 0 -0.32857462949351302 -0.1954574706241253 0 -0.30312692775298439 -0.18354149200934719 0 -0.31068575299767542 -0.1605856167987405 0 -0.29452439799640839 -0.15927508896344161 0 -0.29452439799640839 -0.15927508896344161 0 -0.27670327179865051 -0.16697951210083831 0 -0.28111601564106781 -0.14453410722631979 0 -0.30312692775298439 -0.18354149200934719 0 -0.29452439799640839 -0.15927508896344161 0 -0.27670327179865051 -0.16697951210083831 0 -0.27791065714901109 -0.18987538845003429 0 -0.30312692775298439 -0.18354149200934719 0 -0.27670327179865051 -0.16697951210083831 0 -0.27791065714901109 -0.18987538845003429 0 -0.30312692775298439 -0.18354149200934719 0 -0.27791065714901109 -0.18987538845003429 0 -0.25599809201884449 -0.1709627721450806 0 -0.27670327179865051 -0.16697951210083831 0 -0.24149726975936089 -0.18650804386295139 0 -0.25269438654503779 -0.19620928489072131 0 -0.25599809201884449 -0.1709627721450806 0 -0.25269438654503779 -0.19620928489072131 0 -0.27791065714901109 -0.18987538845003429 0 -0.25599809201884449 -0.1709627721450806 0 -0.25599809201884449 -0.1709627721450806 0 -0.27670327179865051 -0.16697951210083831 0 -0.26402969003818882 -0.15084887462688129 0 -0.27670327179865051 -0.16697951210083831 0 -0.28111601564106781 -0.14453410722631979 0 -0.26402969003818882 -0.15084887462688129 0 -0.28111601564106781 -0.14453410722631979 0 -0.26402969003818882 -0.15084887462688129 0 -0.26447848030961718 -0.12840680237226371 0 -0.2436476979385763 -0.14416495391590139 0 -0.26402969003818882 -0.15084887462688129 0 -0.26447848030961718 -0.12840680237226371 0 -0.2436476979385763 -0.14416495391590139 0 -0.25599809201884449 -0.1709627721450806 0 -0.26402969003818882 -0.15084887462688129 0 -0.28111601564106781 -0.14453410722631979 0 -0.26447848030961718 -0.12840680237226371 0 -0.28411305796976621 -0.12890020180388581 0 -0.29874091052671309 -0.12134579492770579 0 -0.28411305796976621 -0.12890020180388581 0 -0.30099002179166362 -0.14073471668196219 0 -0.28111601564106781 -0.14453410722631979 0 -0.28411305796976621 -0.12890020180388581 0 -0.30099002179166362 -0.14073471668196219 0 -0.29452439799640839 -0.15927508896344161 0 -0.28111601564106781 -0.14453410722631979 0 -0.30099002179166362 -0.14073471668196219 0 -0.31068575299767542 -0.1605856167987405 0 -0.29452439799640839 -0.15927508896344161 0 -0.30099002179166362 -0.14073471668196219 0 -0.29874091052671309 -0.12134579492770579 0 -0.30099002179166362 -0.14073471668196219 0 -0.31335237135086602 -0.128331438324359 0 -0.30099002179166362 -0.14073471668196219 0 -0.31335237135086602 -0.128331438324359 0 -0.32679184043510978 -0.1432146213065148 0 -0.32668496956332271 -0.1246002035700931 0 -0.31335237135086602 -0.128331438324359 0 -0.32679184043510978 -0.1432146213065148 0 -0.31068575299767542 -0.1605856167987405 0 -0.30099002179166362 -0.14073471668196219 0 -0.32679184043510978 -0.1432146213065148 0 -0.31068575299767542 -0.1605856167987405 0 -0.32679184043510978 -0.1432146213065148 0 -0.3269412135052675 -0.1604193129629205 0 -0.32679184043510978 -0.1432146213065148 0 -0.34683396919879678 -0.1445378049763742 0 -0.3423160360466655 -0.16137810897792601 0 -0.32679184043510978 -0.1432146213065148 0 -0.3423160360466655 -0.16137810897792601 0 -0.3269412135052675 -0.1604193129629205 0 -0.32668496956332271 -0.1246002035700931 0 -0.32679184043510978 -0.1432146213065148 0 -0.34036501442566103 -0.13075461299866339 0 -0.32679184043510978 -0.1432146213065148 0 -0.34036501442566103 -0.13075461299866339 0 -0.34683396919879678 -0.1445378049763742 0 -0.34535805605230407 -0.1159095342552563 0 -0.34036501442566103 -0.13075461299866339 0 -0.35735639026121607 -0.1325156923694823 0 -0.34036501442566103 -0.13075461299866339 0 -0.35735639026121607 -0.1325156923694823 0 -0.34683396919879678 -0.1445378049763742 0 -0.36734574323873548 -0.12149251713973851 0 -0.35735639026121607 -0.1325156923694823 0 -0.3723336391984105 -0.1301498908677981 0 -0.35735639026121607 -0.1325156923694823 0 -0.36933727980451247 -0.1395417502396174 0 -0.3723336391984105 -0.1301498908677981 0 -0.35735639026121607 -0.1325156923694823 0 -0.36933727980451247 -0.1395417502396174 0 -0.359924998813831 -0.14645486918835371 0 -0.36933727980451247 -0.1395417502396174 0 -0.3723336391984105 -0.1301498908677981 0 -0.38165034769410089 -0.13991668344623001 0 -0.36734574323873548 -0.12149251713973851 0 -0.3723336391984105 -0.1301498908677981 0 -0.38083371266732718 -0.12481287189696361 0 -0.36933727980451247 -0.1395417502396174 0 -0.37143688855564722 -0.15038444404302209 0 -0.38165034769410089 -0.13991668344623001 0 -0.36933727980451247 -0.1395417502396174 0 -0.37143688855564722 -0.15038444404302209 0 -0.359924998813831 -0.14645486918835371 0 -0.37143688855564722 -0.15038444404302209 0 -0.359924998813831 -0.14645486918835371 0 -0.3631005008485042 -0.1575365972484733 0 -0.35346190016739581 -0.1555523088175276 0 -0.34683396919879678 -0.1445378049763742 0 -0.3423160360466655 -0.16137810897792601 0 -0.359924998813831 -0.14645486918835371 0 -0.35346190016739581 -0.1555523088175276 0 -0.34683396919879678 -0.1445378049763742 0 -0.359924998813831 -0.14645486918835371 0 -0.35346190016739581 -0.1555523088175276 0 -0.3631005008485042 -0.1575365972484733 0 -0.35735639026121607 -0.1325156923694823 0 -0.359924998813831 -0.14645486918835371 0 -0.34683396919879678 -0.1445378049763742 0 -0.35346190016739581 -0.1555523088175276 0 -0.35513399592918132 -0.16785416369651071 0 -0.3423160360466655 -0.16137810897792601 0 -0.35513399592918132 -0.16785416369651071 0 -0.34367635658228141 -0.17967248973627931 0 -0.3423160360466655 -0.16137810897792601 0 -0.35346190016739581 -0.1555523088175276 0 -0.35513399592918132 -0.16785416369651071 0 -0.3631005008485042 -0.1575365972484733 0 -0.35513399592918132 -0.16785416369651071 0 -0.3631005008485042 -0.1575365972484733 0 -0.36474271407098208 -0.1662894721219137 0 -0.35513399592918132 -0.16785416369651071 0 -0.36474271407098208 -0.1662894721219137 0 -0.36402405655066122 -0.17539591910111349 0 -0.36474271407098208 -0.1662894721219137 0 -0.37416202899949957 -0.16539538014879679 0 -0.36402405655066122 -0.17539591910111349 0 -0.3631005008485042 -0.1575365972484733 0 -0.36474271407098208 -0.1662894721219137 0 -0.37416202899949957 -0.16539538014879679 0 -0.37143688855564722 -0.15038444404302209 0 -0.3631005008485042 -0.1575365972484733 0 -0.37416202899949957 -0.16539538014879679 0 -0.36402405655066122 -0.17539591910111349 0 -0.35711264755274141 -0.18356466025366991 0 -0.36839179835249058 -0.19299498901140921 0 -0.35513399592918132 -0.16785416369651071 0 -0.35711264755274141 -0.18356466025366991 0 -0.34367635658228141 -0.17967248973627931 0 -0.35513399592918132 -0.16785416369651071 0 -0.36402405655066122 -0.17539591910111349 0 -0.35711264755274141 -0.18356466025366991 0 -0.35711264755274141 -0.18356466025366991 0 -0.34367635658228141 -0.17967248973627931 0 -0.34951642186227061 -0.19194525668527029 0 -0.32834319835695769 -0.1772075955686602 0 -0.34367635658228141 -0.17967248973627931 0 -0.3423160360466655 -0.16137810897792601 0 -0.32834319835695769 -0.1772075955686602 0 -0.34367635658228141 -0.17967248973627931 0 -0.32857462949351302 -0.1954574706241253 0 -0.32834319835695769 -0.1772075955686602 0 -0.3423160360466655 -0.16137810897792601 0 -0.3269412135052675 -0.1604193129629205 0 -0.31068575299767542 -0.1605856167987405 0 -0.32834319835695769 -0.1772075955686602 0 -0.3269412135052675 -0.1604193129629205 0 -0.30312692775298439 -0.18354149200934719 0 -0.32834319835695769 -0.1772075955686602 0 -0.30312692775298439 -0.18354149200934719 0 -0.32834319835695769 -0.1772075955686602 0 -0.32857462949351302 -0.1954574706241253 0 -0.30312692775298439 -0.18354149200934719 0 -0.31068575299767542 -0.1605856167987405 0 -0.32834319835695769 -0.1772075955686602 0 -0.30325728420617581 -0.20488459401731809 0 -0.32494568950293828 -0.2162935716183742 0 -0.32857462949351302 -0.1954574706241253 0 -0.32494568950293828 -0.2162935716183742 0 -0.32857462949351302 -0.1954574706241253 0 -0.3466687439277143 -0.20464428031489129 0 -0.32494568950293828 -0.2162935716183742 0 -0.3466687439277143 -0.20464428031489129 0 -0.32494568950293828 -0.2162935716183742 0 -0.34025637167828338 -0.21854355731530209 0 -0.3466687439277143 -0.20464428031489129 0 -0.34367635658228141 -0.17967248973627931 0 -0.32857462949351302 -0.1954574706241253 0 -0.34951642186227061 -0.19194525668527029 0 -0.32857462949351302 -0.1954574706241253 0 -0.34951642186227061 -0.19194525668527029 0 -0.3466687439277143 -0.20464428031489129 0 -0.3612051764124028 -0.1933084383242997 0 -0.36839179835249058 -0.19299498901140921 0 -0.3466687439277143 -0.20464428031489129 0 -0.36839179835249058 -0.19299498901140921 0 -0.3466687439277143 -0.20464428031489129 0 -0.34951642186227061 -0.19194525668527029 0 -0.3612051764124028 -0.1933084383242997 0 -0.3466687439277143 -0.20464428031489129 0 -0.35711264755274141 -0.18356466025366991 0 -0.34951642186227061 -0.19194525668527029 0 -0.3612051764124028 -0.1933084383242997 0 -0.36839179835249058 -0.19299498901140921 0 -0.36561279569626931 -0.20929907651809779 0 -0.3466687439277143 -0.20464428031489129 0 -0.35711264755274141 -0.18356466025366991 0 -0.3612051764124028 -0.1933084383242997 0 -0.36839179835249058 -0.19299498901140921 0 -0.36839179835249058 -0.19299498901140921 0 -0.36561279569626931 -0.20929907651809779 0 -0.37798114319686488 -0.20351568203868139 0 -0.3612051764124028 -0.1933084383242997 0 -0.36839179835249058 -0.19299498901140921 0 -0.36561279569626931 -0.20929907651809779 0 -0.35509901765439728 -0.22146785082306189 0 -0.37192386166227109 -0.22264434061498811 0 -0.36561279569626931 -0.20929907651809779 0 -0.37192386166227109 -0.22264434061498811 0 -0.37687611570142021 -0.213351943526951 0 -0.36561279569626931 -0.20929907651809779 0 -0.37798114319686488 -0.20351568203868139 0 -0.37687611570142021 -0.213351943526951 0 -0.34025637167828338 -0.21854355731530209 0 -0.3466687439277143 -0.20464428031489129 0 -0.35509901765439728 -0.22146785082306189 0 -0.36561279569626931 -0.20929907651809779 0 -0.3466687439277143 -0.20464428031489129 0 -0.35509901765439728 -0.22146785082306189 0 -0.34025637167828338 -0.21854355731530209 0 -0.35509901765439728 -0.22146785082306189 0 -0.35460860167545349 -0.23850581033328969 0 -0.35509901765439728 -0.22146785082306189 0 -0.36668668184986419 -0.23467295576814379 0 -0.35460860167545349 -0.23850581033328969 0 -0.35509901765439728 -0.22146785082306189 0 -0.37192386166227109 -0.22264434061498811 0 -0.36668668184986419 -0.23467295576814379 0 -0.35509901765439728 -0.22146785082306189 0 -0.36668668184986419 -0.23467295576814379 0 -0.37192386166227109 -0.22264434061498811 0 -0.36668668184986419 -0.23467295576814379 0 -0.38076598459635208 -0.23516537682004451 0 -0.36668668184986419 -0.23467295576814379 0 -0.35460860167545349 -0.23850581033328969 0 -0.37827434604533111 -0.24787806071322571 0 -0.35460860167545349 -0.23850581033328969 0 -0.37827434604533111 -0.24787806071322571 0 -0.36090205873991021 -0.2510767480375789 0 -0.35460860167545349 -0.23850581033328969 0 -0.37827434604533111 -0.24787806071322571 0 -0.36668668184986419 -0.23467295576814379 0 -0.37827434604533111 -0.24787806071322571 0 -0.34797848727279818 -0.25014277960611248 0 -0.35460860167545349 -0.23850581033328969 0 -0.33614877026343898 -0.2456562992586736 0 -0.34797848727279818 -0.25014277960611248 0 -0.36090205873991021 -0.2510767480375789 0 -0.35460860167545349 -0.23850581033328969 0 -0.35460860167545349 -0.23850581033328969 0 -0.33614877026343898 -0.2456562992586736 0 -0.33094285730557588 -0.2291335599533538 0 -0.33614877026343898 -0.2456562992586736 0 -0.33094285730557588 -0.2291335599533538 0 -0.32672096143148283 -0.24097520998905811 0 -0.35460860167545349 -0.23850581033328969 0 -0.33094285730557588 -0.2291335599533538 0 -0.34025637167828338 -0.21854355731530209 0 -0.35460860167545349 -0.23850581033328969 0 -0.33094285730557588 -0.2291335599533538 0 -0.32494568950293828 -0.2162935716183742 0 -0.34025637167828338 -0.21854355731530209 0 -0.33094285730557588 -0.2291335599533538 0 -0.32494568950293828 -0.2162935716183742 0 -0.33094285730557588 -0.2291335599533538 0 -0.31761132362141681 -0.23665216590307969 0 -0.30322263507816227 -0.227942862921857 0 -0.32494568950293828 -0.2162935716183742 0 -0.31761132362141681 -0.23665216590307969 0 -0.30322263507816227 -0.227942862921857 0 -0.32494568950293828 -0.2162935716183742 0 -0.32011618262254121 -0.25330445636545418 0 -0.31761132362141681 -0.23665216590307969 0 -0.32672096143148283 -0.24097520998905811 0 -0.32011618262254121 -0.25330445636545418 0 -0.33614877026343898 -0.2456562992586736 0 -0.32672096143148283 -0.24097520998905811 0 -0.32011618262254121 -0.25330445636545418 0 -0.3047546492800971 -0.24663258192701329 0 -0.31761132362141681 -0.23665216590307969 0 -0.33094285730557588 -0.2291335599533538 0 -0.31761132362141681 -0.23665216590307969 0 -0.32672096143148283 -0.24097520998905811 0 -0.42651403449917302 -0.2308465668083145 0 -0.42038252665072862 -0.24568303451338261 0 -0.438967534288141 -0.24366452024067961 0 -0.42651403449917302 -0.2308465668083145 0 -0.44236199048596597 -0.22396935359248349 0 -0.438967534288141 -0.24366452024067961 0 -0.42651403449917302 -0.2308465668083145 0 -0.42477623441203671 -0.21147791954914871 0 -0.44236199048596597 -0.22396935359248349 0 -0.42651403449917302 -0.2308465668083145 0 -0.41158585602198 -0.22665016899802651 0 -0.42477623441203671 -0.21147791954914871 0 -0.41158585602198 -0.22665016899802651 0 -0.42038252665072862 -0.24568303451338261 0 -0.40433237812326739 -0.24601302649129031 0 -0.42651403449917302 -0.2308465668083145 0 -0.41158585602198 -0.22665016899802651 0 -0.42038252665072862 -0.24568303451338261 0 -0.38937862057857592 -0.25227564228034433 0 -0.39634215993616823 -0.23190658702028019 0 -0.41158585602198 -0.22665016899802651 0 -0.40433237812326739 -0.24601302649129031 0 -0.39634215993616823 -0.23190658702028019 0 -0.38937862057857592 -0.25227564228034433 0 -0.40433237812326739 -0.24601302649129031 0 -0.39634215993616823 -0.23190658702028019 0 -0.38937862057857592 -0.25227564228034433 0 -0.38076598459635208 -0.23516537682004451 0 -0.37827434604533111 -0.24787806071322571 0 -0.38937862057857592 -0.25227564228034433 0 -0.38076598459635208 -0.23516537682004451 0 -0.39634215993616823 -0.23190658702028019 0 -0.36668668184986419 -0.23467295576814379 0 -0.38076598459635208 -0.23516537682004451 0 -0.37827434604533111 -0.24787806071322571 0 -0.37192386166227109 -0.22264434061498811 0 -0.38643383921194102 -0.2215749364104446 0 -0.37687611570142021 -0.213351943526951 0 -0.37192386166227109 -0.22264434061498811 0 -0.38076598459635208 -0.23516537682004451 0 -0.38643383921194102 -0.2215749364104446 0 -0.38076598459635208 -0.23516537682004451 0 -0.38643383921194102 -0.2215749364104446 0 -0.39634215993616823 -0.23190658702028019 0 -0.41158585602198 -0.22665016899802651 0 -0.39634215993616823 -0.23190658702028019 0 -0.40330569929376042 -0.21153753176021631 0 -0.39634215993616823 -0.23190658702028019 0 -0.40330569929376042 -0.21153753176021631 0 -0.38643383921194102 -0.2215749364104446 0 -0.39634215993616823 -0.23190658702028019 0 -0.40330569929376042 -0.21153753176021631 0 -0.40330569929376042 -0.21153753176021631 0 -0.38821730533509852 -0.2091509120964154 0 -0.38933051850192152 -0.19208173275578061 0 -0.38643383921194102 -0.2215749364104446 0 -0.40330569929376042 -0.21153753176021631 0 -0.38821730533509852 -0.2091509120964154 0 -0.38643383921194102 -0.2215749364104446 0 -0.38821730533509852 -0.2091509120964154 0 -0.37687611570142021 -0.213351943526951 0 -0.38821730533509852 -0.2091509120964154 0 -0.37798114319686488 -0.20351568203868139 0 -0.37687611570142021 -0.213351943526951 0 -0.36839179835249058 -0.19299498901140921 0 -0.37798114319686488 -0.20351568203868139 0 -0.38933051850192152 -0.19208173275578061 0 -0.36839179835249058 -0.19299498901140921 0 -0.38933051850192152 -0.19208173275578061 0 -0.36839179835249058 -0.19299498901140921 0 -0.38933051850192152 -0.19208173275578061 0 -0.3936486972265173 -0.17945062427094299 0 -0.38821730533509852 -0.2091509120964154 0 -0.37798114319686488 -0.20351568203868139 0 -0.38933051850192152 -0.19208173275578061 0 -0.38933051850192152 -0.19208173275578061 0 -0.41026923865135229 -0.1911684765001522 0 -0.3936486972265173 -0.17945062427094299 0 -0.40330569929376042 -0.21153753176021631 0 -0.38933051850192152 -0.19208173275578061 0 -0.41026923865135229 -0.1911684765001522 0 -0.38933051850192152 -0.19208173275578061 0 -0.41026923865135229 -0.1911684765001522 0 -0.40330569929376042 -0.21153753176021631 0 -0.41026923865135229 -0.1911684765001522 0 -0.41158585602198 -0.22665016899802651 0 -0.40330569929376042 -0.21153753176021631 0 -0.42477623441203671 -0.21147791954914871 0 -0.40330569929376042 -0.21153753176021631 0 -0.41026923865135229 -0.1911684765001522 0 -0.42477623441203671 -0.21147791954914871 0 -0.42477623441203671 -0.21147791954914871 0 -0.44212396045216867 -0.2071436915961018 0 -0.44236199048596597 -0.22396935359248349 0 -0.41026923865135229 -0.1911684765001522 0 -0.42477623441203671 -0.21147791954914871 0 -0.43716751783420632 -0.18999529009935409 0 -0.42477623441203671 -0.21147791954914871 0 -0.43716751783420632 -0.18999529009935409 0 -0.44212396045216867 -0.2071436915961018 0 -0.41026923865135229 -0.1911684765001522 0 -0.43716751783420632 -0.18999529009935409 0 -0.41026923865135229 -0.1911684765001522 0 -0.43716751783420632 -0.18999529009935409 0 -0.42569337240369859 -0.1788487249780352 0 -0.43716751783420632 -0.18999529009935409 0 -0.42569337240369859 -0.1788487249780352 0 -0.43741192719165439 -0.1712359301264901 0 -0.42569337240369859 -0.1788487249780352 0 -0.43741192719165439 -0.1712359301264901 0 -0.42770975594238109 -0.16118490586287329 0 -0.42569337240369859 -0.1788487249780352 0 -0.42770975594238109 -0.16118490586287329 0 -0.41890559610054617 -0.1659062595304806 0 -0.41890559610054617 -0.1659062595304806 0 -0.42527940528665747 -0.147262224527304 0 -0.43741192719165439 -0.1712359301264901 0 -0.43655211123318588 -0.1593196913069177 0 -0.42770975594238109 -0.16118490586287329 0 -0.43655211123318588 -0.1593196913069177 0 -0.42770975594238109 -0.16118490586287329 0 -0.42848408137134819 -0.15455673810021289 0 -0.42770975594238109 -0.16118490586287329 0 -0.41890559610054617 -0.1659062595304806 0 -0.42770975594238109 -0.16118490586287329 0 -0.41890559610054617 -0.1659062595304806 0 -0.42848408137134819 -0.15455673810021289 0 -0.41890559610054617 -0.1659062595304806 0 -0.40088672176236462 -0.16296271958418421 0 -0.4112833689634674 -0.15288893985296109 0 -0.41890559610054617 -0.1659062595304806 0 -0.3936486972265173 -0.17945062427094299 0 -0.41026923865135229 -0.1911684765001522 0 -0.42569337240369859 -0.1788487249780352 0 -0.41890559610054617 -0.1659062595304806 0 -0.41026923865135229 -0.1911684765001522 0 -0.41890559610054617 -0.1659062595304806 0 -0.41026923865135229 -0.1911684765001522 0 -0.41890559610054617 -0.1659062595304806 0 -0.3936486972265173 -0.17945062427094299 0 -0.36839179835249058 -0.19299498901140921 0 -0.3936486972265173 -0.17945062427094299 0 -0.37416202899949957 -0.16539538014879679 0 -0.36402405655066122 -0.17539591910111349 0 -0.3936486972265173 -0.17945062427094299 0 -0.36402405655066122 -0.17539591910111349 0 -0.36839179835249058 -0.19299498901140921 0 -0.3936486972265173 -0.17945062427094299 0 -0.37416202899949957 -0.16539538014879679 0 -0.3936486972265173 -0.17945062427094299 0 -0.38868748588664831 -0.16299799219689451 0 -0.37416202899949957 -0.16539538014879679 0 -0.38868748588664831 -0.16299799219689451 0 -0.38198791200089122 -0.15389935508768429 0 -0.37143688855564722 -0.15038444404302209 0 -0.37416202899949957 -0.16539538014879679 0 -0.38198791200089122 -0.15389935508768429 0 -0.41890559610054617 -0.1659062595304806 0 -0.3936486972265173 -0.17945062427094299 0 -0.40088672176236462 -0.16296271958418421 0 -0.3936486972265173 -0.17945062427094299 0 -0.38868748588664831 -0.16299799219689451 0 -0.40088672176236462 -0.16296271958418421 0 -0.38868748588664831 -0.16299799219689451 0 -0.40088672176236462 -0.16296271958418421 0 -0.39678996296056618 -0.14902452029254509 0 -0.40088672176236462 -0.16296271958418421 0 -0.39678996296056618 -0.14902452029254509 0 -0.4112833689634674 -0.15288893985296109 0 -0.38868748588664831 -0.16299799219689451 0 -0.39678996296056618 -0.14902452029254509 0 -0.38198791200089122 -0.15389935508768429 0 -0.39678996296056618 -0.14902452029254509 0 -0.38198791200089122 -0.15389935508768429 0 -0.38165034769410089 -0.13991668344623001 0 -0.37143688855564722 -0.15038444404302209 0 -0.38198791200089122 -0.15389935508768429 0 -0.38165034769410089 -0.13991668344623001 0 -0.38165034769410089 -0.13991668344623001 0 -0.39876795566493017 -0.13176868492400931 0 -0.38083371266732718 -0.12481287189696361 0 -0.3723336391984105 -0.1301498908677981 0 -0.38165034769410089 -0.13991668344623001 0 -0.38083371266732718 -0.12481287189696361 0 -0.39876795566493017 -0.13176868492400931 0 -0.38083371266732718 -0.12481287189696361 0 -0.39360481716681428 -0.1187198781987259 0 -0.39678996296056618 -0.14902452029254509 0 -0.38165034769410089 -0.13991668344623001 0 -0.39876795566493017 -0.13176868492400931 0 -0.39678996296056618 -0.14902452029254509 0 -0.39876795566493017 -0.13176868492400931 0 -0.41460970259764007 -0.13713717822650701 0 -0.41460970259764007 -0.13713717822650701 0 -0.43000429498730591 -0.13909380559635229 0 -0.41270397318626401 -0.1212855273391953 0 -0.43000429498730591 -0.13909380559635229 0 -0.41270397318626401 -0.1212855273391953 0 -0.39876795566493017 -0.13176868492400931 0 -0.41460970259764007 -0.13713717822650701 0 -0.41270397318626401 -0.1212855273391953 0 -0.39678996296056618 -0.14902452029254509 0 -0.41460970259764007 -0.13713717822650701 0 -0.4112833689634674 -0.15288893985296109 0 -0.41890559610054617 -0.1659062595304806 0 -0.4112833689634674 -0.15288893985296109 0 -0.42527940528665747 -0.147262224527304 0 -0.41460970259764007 -0.13713717822650701 0 -0.4112833689634674 -0.15288893985296109 0 -0.42527940528665747 -0.147262224527304 0 -0.41890559610054617 -0.1659062595304806 0 -0.42527940528665747 -0.147262224527304 0 -0.42848408137134819 -0.15455673810021289 0 -0.41460970259764007 -0.13713717822650701 0 -0.42527940528665747 -0.147262224527304 0 -0.43000429498730591 -0.13909380559635229 0 -0.42527940528665747 -0.147262224527304 0 -0.42848408137134819 -0.15455673810021289 0 -0.43581848186738392 -0.1484565478841248 0 -0.43655211123318588 -0.1593196913069177 0 -0.42848408137134819 -0.15455673810021289 0 -0.43581848186738392 -0.1484565478841248 0 -0.43581848186738392 -0.1484565478841248 0 -0.43000429498730591 -0.13909380559635229 0 -0.43895089073574972 -0.1405861650180156 0 -0.42527940528665747 -0.147262224527304 0 -0.43581848186738392 -0.1484565478841248 0 -0.43000429498730591 -0.13909380559635229 0 -0.43000429498730591 -0.13909380559635229 0 -0.41270397318626401 -0.1212855273391953 0 -0.43058633599040758 -0.1245928324055645 0 -0.43000429498730591 -0.13909380559635229 0 -0.44008871057918408 -0.13146746738829829 0 -0.43895089073574972 -0.1405861650180156 0 -0.43000429498730591 -0.13909380559635229 0 -0.44008871057918408 -0.13146746738829829 0 -0.43058633599040758 -0.1245928324055645 0 -0.45052062645946811 -0.13274333925475551 0 -0.44796190286888021 -0.1414431893357064 0 -0.45584465629420978 -0.13860724270857011 0 -0.45052062645946811 -0.13274333925475551 0 -0.44008871057918408 -0.13146746738829829 0 -0.44796190286888021 -0.1414431893357064 0 -0.45052062645946811 -0.13274333925475551 0 -0.44008871057918408 -0.13146746738829829 0 -0.45000596495717371 -0.12362498449729981 0 -0.45052062645946811 -0.13274333925475551 0 -0.4583472108765142 -0.1302042544787598 0 -0.45000596495717371 -0.12362498449729981 0 -0.44008871057918408 -0.13146746738829829 0 -0.43895089073574972 -0.1405861650180156 0 -0.44796190286888021 -0.1414431893357064 0 -0.43581848186738392 -0.1484565478841248 0 -0.43895089073574972 -0.1405861650180156 0 -0.44355800372683168 -0.14734071106489219 0 -0.43895089073574972 -0.1405861650180156 0 -0.44355800372683168 -0.14734071106489219 0 -0.44796190286888021 -0.1414431893357064 0 -0.43655211123318588 -0.1593196913069177 0 -0.43581848186738392 -0.1484565478841248 0 -0.44413041130454972 -0.1549352564699957 0 -0.43581848186738392 -0.1484565478841248 0 -0.44355800372683168 -0.14734071106489219 0 -0.44413041130454972 -0.1549352564699957 0 -0.44413041130454972 -0.1549352564699957 0 -0.45092833185759479 -0.15128239661661841 0 -0.4524705165383765 -0.16098625972182529 0 -0.44355800372683168 -0.14734071106489219 0 -0.44413041130454972 -0.1549352564699957 0 -0.45092833185759479 -0.15128239661661841 0 -0.45092833185759479 -0.15128239661661841 0 -0.44796190286888021 -0.1414431893357064 0 -0.45731010421521218 -0.1485903736812324 0 -0.44355800372683168 -0.14734071106489219 0 -0.45092833185759479 -0.15128239661661841 0 -0.44796190286888021 -0.1414431893357064 0 -0.44796190286888021 -0.1414431893357064 0 -0.45731010421521218 -0.1485903736812324 0 -0.45584465629420978 -0.13860724270857011 0 -0.45731010421521218 -0.1485903736812324 0 -0.461247287473879 -0.14267525099239789 0 -0.45584465629420978 -0.13860724270857011 0 -0.45092833185759479 -0.15128239661661841 0 -0.45731010421521218 -0.1485903736812324 0 -0.45986699757075961 -0.15523932949498839 0 -0.45092833185759479 -0.15128239661661841 0 -0.45986699757075961 -0.15523932949498839 0 -0.4524705165383765 -0.16098625972182529 0 -0.45731010421521218 -0.1485903736812324 0 -0.45986699757075961 -0.15523932949498839 0 -0.46857036826618598 -0.14898869690039129 0 -0.45986699757075961 -0.15523932949498839 0 -0.46857036826618598 -0.14898869690039129 0 -0.46881148608743312 -0.15867141788459849 0 -0.46857036826618598 -0.14898869690039129 0 -0.461247287473879 -0.14267525099239789 0 -0.46783542440350789 -0.1408136660186157 0 -0.45731010421521218 -0.1485903736812324 0 -0.46857036826618598 -0.14898869690039129 0 -0.461247287473879 -0.14267525099239789 0 -0.46783542440350789 -0.1408136660186157 0 -0.463478516407476 -0.13581368119891979 0 -0.47027143633243101 -0.1353244438231628 0 -0.461247287473879 -0.14267525099239789 0 -0.46783542440350789 -0.1408136660186157 0 -0.463478516407476 -0.13581368119891979 0 -0.461247287473879 -0.14267525099239789 0 -0.463478516407476 -0.13581368119891979 0 -0.45584465629420978 -0.13860724270857011 0 -0.45052062645946811 -0.13274333925475551 0 -0.45584465629420978 -0.13860724270857011 0 -0.4583472108765142 -0.1302042544787598 0 -0.463478516407476 -0.13581368119891979 0 -0.45584465629420978 -0.13860724270857011 0 -0.4583472108765142 -0.1302042544787598 0 -0.4583472108765142 -0.1302042544787598 0 -0.45000596495717371 -0.12362498449729981 0 -0.4608719476415396 -0.123438587789915 0 -0.463478516407476 -0.13581368119891979 0 -0.4583472108765142 -0.1302042544787598 0 -0.46890746245438508 -0.12718499279299231 0 -0.463478516407476 -0.13581368119891979 0 -0.46890746245438508 -0.12718499279299231 0 -0.47027143633243101 -0.1353244438231628 0 -0.4583472108765142 -0.1302042544787598 0 -0.46890746245438508 -0.12718499279299231 0 -0.4608719476415396 -0.123438587789915 0 -0.47540452686240242 -0.131921629868714 0 -0.46890746245438508 -0.12718499279299231 0 -0.47927931349516018 -0.1260479764542336 0 -0.47540452686240242 -0.131921629868714 0 -0.46890746245438508 -0.12718499279299231 0 -0.47027143633243101 -0.1353244438231628 0 -0.47540452686240242 -0.131921629868714 0 -0.47027143633243101 -0.1353244438231628 0 -0.47561311121656502 -0.1408331201426738 0 -0.46783542440350789 -0.1408136660186157 0 -0.47027143633243101 -0.1353244438231628 0 -0.47561311121656502 -0.1408331201426738 0 -0.48150318735308401 -0.13425692379907281 0 -0.48591874097717919 -0.13254484724002419 0 -0.48441398585648249 -0.14148736923770791 0 -0.48150318735308401 -0.13425692379907281 0 -0.48441398585648249 -0.14148736923770791 0 -0.47561311121656502 -0.1408331201426738 0 -0.47540452686240242 -0.131921629868714 0 -0.48150318735308401 -0.13425692379907281 0 -0.47561311121656502 -0.1408331201426738 0 -0.47927931349516018 -0.1260479764542336 0 -0.48591874097717919 -0.13254484724002419 0 -0.48769591972578691 -0.12482602268879429 0 -0.48150318735308401 -0.13425692379907281 0 -0.47927931349516018 -0.1260479764542336 0 -0.48591874097717919 -0.13254484724002419 0 -0.47540452686240242 -0.131921629868714 0 -0.48150318735308401 -0.13425692379907281 0 -0.47927931349516018 -0.1260479764542336 0 -0.48591874097717919 -0.13254484724002419 0 -0.49231032574224542 -0.13749692222951801 0 -0.48769591972578691 -0.12482602268879429 0 -0.5 -0.13504768196693889 0 -0.49231032574224542 -0.13749692222951801 0 -0.49298345051341003 -0.11242092469539711 0 -0.48591874097717919 -0.13254484724002419 0 -0.49231032574224542 -0.13749692222951801 0 -0.48441398585648249 -0.14148736923770791 0 -0.5 -0.13504768196693889 0 -0.49231032574224542 -0.13749692222951801 0 -0.5 -0.16115124570840089 0 -0.49231032574224542 -0.13749692222951801 0 -0.49163720097108082 -0.16257291976363911 0 -0.49231032574224542 -0.13749692222951801 0 -0.48574390150527502 -0.1500432476929843 0 -0.49163720097108082 -0.16257291976363911 0 -0.49231032574224542 -0.13749692222951801 0 -0.5 -0.16115124570840089 0 -0.49163720097108082 -0.16257291976363911 0 -0.49231032574224542 -0.13749692222951801 0 -0.48441398585648249 -0.14148736923770791 0 -0.48574390150527502 -0.1500432476929843 0 -0.47997961243645249 -0.1497129573306267 0 -0.474173602737403 -0.1539154964491416 0 -0.48037838252011361 -0.1589460699034298 0 -0.48574390150527502 -0.1500432476929843 0 -0.47997961243645249 -0.1497129573306267 0 -0.48037838252011361 -0.1589460699034298 0 -0.48441398585648249 -0.14148736923770791 0 -0.48574390150527502 -0.1500432476929843 0 -0.47997961243645249 -0.1497129573306267 0 -0.48441398585648249 -0.14148736923770791 0 -0.47997961243645249 -0.1497129573306267 0 -0.47561311121656502 -0.1408331201426738 0 -0.46857036826618598 -0.14898869690039129 0 -0.47997961243645249 -0.1497129573306267 0 -0.47561311121656502 -0.1408331201426738 0 -0.46857036826618598 -0.14898869690039129 0 -0.46783542440350789 -0.1408136660186157 0 -0.47561311121656502 -0.1408331201426738 0 -0.46857036826618598 -0.14898869690039129 0 -0.47997961243645249 -0.1497129573306267 0 -0.474173602737403 -0.1539154964491416 0 -0.46857036826618598 -0.14898869690039129 0 -0.474173602737403 -0.1539154964491416 0 -0.46881148608743312 -0.15867141788459849 0 -0.46881148608743312 -0.15867141788459849 0 -0.47451872948767482 -0.16687732496940089 0 -0.48037838252011361 -0.1589460699034298 0 -0.474173602737403 -0.1539154964491416 0 -0.46881148608743312 -0.15867141788459849 0 -0.48037838252011361 -0.1589460699034298 0 -0.47451872948767482 -0.16687732496940089 0 -0.48294012452315738 -0.16583604356152029 0 -0.48522618511376059 -0.1749478596096114 0 -0.47451872948767482 -0.16687732496940089 0 -0.48294012452315738 -0.16583604356152029 0 -0.48037838252011361 -0.1589460699034298 0 -0.5 -0.16115124570840089 0 -0.49163720097108082 -0.16257291976363911 0 -0.49999999999999301 -0.18725480944986311 0 -0.48574390150527502 -0.1500432476929843 0 -0.48037838252011361 -0.1589460699034298 0 -0.49163720097108082 -0.16257291976363911 0 -0.48294012452315738 -0.16583604356152029 0 -0.48037838252011361 -0.1589460699034298 0 -0.49163720097108082 -0.16257291976363911 0 -0.48294012452315738 -0.16583604356152029 0 -0.49163720097108082 -0.16257291976363911 0 -0.48522618511376059 -0.1749478596096114 0 -0.49163720097108082 -0.16257291976363911 0 -0.49999999999999301 -0.18725480944986311 0 -0.49096407619991411 -0.18764891729776001 0 -0.49163720097108082 -0.16257291976363911 0 -0.48522618511376059 -0.1749478596096114 0 -0.49096407619991411 -0.18764891729776001 0 -0.49163720097108082 -0.16257291976363911 0 -0.49096407619991411 -0.18764891729776001 0 -0.49999999999999301 -0.18725480944986311 0 -0.49096407619991411 -0.18764891729776001 0 -0.47451872948767482 -0.16687732496940089 0 -0.48522618511376059 -0.1749478596096114 0 -0.46706470681803142 -0.17430478013821421 0 -0.48522618511376059 -0.1749478596096114 0 -0.46706470681803142 -0.17430478013821421 0 -0.46406579701706019 -0.18882210369855701 0 -0.48522618511376059 -0.1749478596096114 0 -0.46406579701706019 -0.18882210369855701 0 -0.49096407619991411 -0.18764891729776001 0 -0.45315277403508147 -0.17334755980879349 0 -0.46706470681803142 -0.17430478013821421 0 -0.46406579701706019 -0.18882210369855701 0 -0.47451872948767482 -0.16687732496940089 0 -0.46706470681803142 -0.17430478013821421 0 -0.46125997924222689 -0.16496162354530949 0 -0.45986699757075961 -0.15523932949498839 0 -0.46881148608743312 -0.15867141788459849 0 -0.46125997924222689 -0.16496162354530949 0 -0.46881148608743312 -0.15867141788459849 0 -0.47451872948767482 -0.16687732496940089 0 -0.46125997924222689 -0.16496162354530949 0 -0.45986699757075961 -0.15523932949498839 0 -0.46125997924222689 -0.16496162354530949 0 -0.4524705165383765 -0.16098625972182529 0 -0.45315277403508147 -0.17334755980879349 0 -0.46125997924222689 -0.16496162354530949 0 -0.4524705165383765 -0.16098625972182529 0 -0.45315277403508147 -0.17334755980879349 0 -0.46706470681803142 -0.17430478013821421 0 -0.46125997924222689 -0.16496162354530949 0 -0.45315277403508147 -0.17334755980879349 0 -0.4524705165383765 -0.16098625972182529 0 -0.44507049494876461 -0.1646054034907096 0 -0.43741192719165439 -0.1712359301264901 0 -0.45315277403508147 -0.17334755980879349 0 -0.44507049494876461 -0.1646054034907096 0 -0.44413041130454972 -0.1549352564699957 0 -0.4524705165383765 -0.16098625972182529 0 -0.44507049494876461 -0.1646054034907096 0 -0.43655211123318588 -0.1593196913069177 0 -0.44413041130454972 -0.1549352564699957 0 -0.44507049494876461 -0.1646054034907096 0 -0.43741192719165439 -0.1712359301264901 0 -0.43655211123318588 -0.1593196913069177 0 -0.44507049494876461 -0.1646054034907096 0 -0.43716751783420632 -0.18999529009935409 0 -0.45315277403508147 -0.17334755980879349 0 -0.46406579701706019 -0.18882210369855701 0 -0.43716751783420632 -0.18999529009935409 0 -0.43741192719165439 -0.1712359301264901 0 -0.45315277403508147 -0.17334755980879349 0 -0.43716751783420632 -0.18999529009935409 0 -0.46406579701706019 -0.18882210369855701 0 -0.43716751783420632 -0.18999529009935409 0 -0.44212396045216867 -0.2071436915961018 0 -0.46406579701706019 -0.18882210369855701 0 -0.44212396045216867 -0.2071436915961018 0 -0.45749899674158728 -0.21417084148481999 0 -0.44236199048596597 -0.22396935359248349 0 -0.45749899674158728 -0.21417084148481999 0 -0.47341240304165522 -0.20731993022262649 0 -0.47456301332095557 -0.22524356870550971 0 -0.45749899674158728 -0.21417084148481999 0 -0.46406579701706019 -0.18882210369855701 0 -0.47341240304165522 -0.20731993022262649 0 -0.44212396045216867 -0.2071436915961018 0 -0.45749899674158728 -0.21417084148481999 0 -0.46406579701706019 -0.18882210369855701 0 -0.46406579701706019 -0.18882210369855701 0 -0.47973833077321409 -0.1970791564026794 0 -0.49096407619991411 -0.18764891729776001 0 -0.47973833077321409 -0.1970791564026794 0 -0.49051104683422703 -0.20452567439177419 0 -0.47341240304165522 -0.20731993022262649 0 -0.46406579701706019 -0.18882210369855701 0 -0.47973833077321409 -0.1970791564026794 0 -0.47341240304165522 -0.20731993022262649 0 -0.46406579701706019 -0.18882210369855701 0 -0.49096407619991411 -0.18764891729776001 0 -0.47973833077321409 -0.1970791564026794 0 -0.49096407619991411 -0.18764891729776001 0 -0.49051104683422703 -0.20452567439177419 0 -0.49999999999999301 -0.18725480944986311 0 -0.5 -0.21653505479762461 0 -0.49051104683422703 -0.20452567439177419 0 -0.49999999999999301 -0.18725480944986311 0 -0.49096407619991411 -0.18764891729776001 0 -0.49051104683422703 -0.20452567439177419 0 -0.49096407619991411 -0.18764891729776001 0 -0.49051104683422703 -0.20452567439177419 0 -0.5 -0.21653505479762461 0 -0.49051104683422703 -0.20452567439177419 0 -0.48528773850504242 -0.217936590252403 0 -0.48528773850504242 -0.217936590252403 0 -0.47341240304165522 -0.20731993022262649 0 -0.47456301332095557 -0.22524356870550971 0 -0.49051104683422703 -0.20452567439177419 0 -0.48528773850504242 -0.217936590252403 0 -0.47341240304165522 -0.20731993022262649 0 -0.48528773850504242 -0.217936590252403 0 -0.47456301332095557 -0.22524356870550971 0 -0.48589168866960358 -0.234932200807945 0 -0.5 -0.21653505479762461 0 -0.48528773850504242 -0.217936590252403 0 -0.48589168866960358 -0.234932200807945 0 -0.5 -0.21653505479762461 0 -0.48589168866960358 -0.234932200807945 0 -0.5 -0.24581530014538619 0 -0.48433737659707737 -0.25778142917194902 0 -0.48589168866960358 -0.234932200807945 0 -0.5 -0.24581530014538619 0 -0.47456301332095557 -0.22524356870550971 0 -0.48589168866960358 -0.234932200807945 0 -0.47116200359454641 -0.24628126177479731 0 -0.48433737659707737 -0.25778142917194902 0 -0.48589168866960358 -0.234932200807945 0 -0.47116200359454641 -0.24628126177479731 0 -0.45521544069553432 -0.25665465505564039 0 -0.45635721871856078 -0.2354127482702302 0 -0.45521544069553432 -0.25665465505564039 0 -0.47116200359454641 -0.24628126177479731 0 -0.45635721871856078 -0.2354127482702302 0 -0.47456301332095557 -0.22524356870550971 0 -0.47116200359454641 -0.24628126177479731 0 -0.45635721871856078 -0.2354127482702302 0 -0.45749899674158728 -0.21417084148481999 0 -0.45635721871856078 -0.2354127482702302 0 -0.45749899674158728 -0.21417084148481999 0 -0.47456301332095557 -0.22524356870550971 0 -0.45635721871856078 -0.2354127482702302 0 -0.45749899674158728 -0.21417084148481999 0 -0.45635721871856078 -0.2354127482702302 0 -0.44236199048596597 -0.22396935359248349 0 -0.45635721871856078 -0.2354127482702302 0 -0.44236199048596597 -0.22396935359248349 0 -0.438967534288141 -0.24366452024067961 0 -0.45521544069553432 -0.25665465505564039 0 -0.45635721871856078 -0.2354127482702302 0 -0.438967534288141 -0.24366452024067961 0 -0.41018655523725961 -0.03398067405562756 0 -0.41869272004003139 -0.048741662523858843 0 -0.42159590677313569 -0.037906320638396218 0 -0.41018655523725961 -0.03398067405562756 0 -0.41869272004003139 -0.048741662523858843 0 -0.42159590677313569 -0.037906320638396218 0 -0.41018655523725961 -0.03398067405562756 0 -0.41849894624196449 -0.02620290884332295 0 -0.41018655523725961 -0.03398067405562756 0 -0.41869272004003139 -0.048741662523858843 0 -0.40361117145429942 -0.048152143651150878 0 -0.4097852621533602 -0.05896230181174409 0 -0.41869272004003139 -0.048741662523858843 0 -0.42719888484280522 -0.063502650992089044 0 -0.4097852621533602 -0.05896230181174409 0 -0.41869272004003139 -0.048741662523858843 0 -0.40361117145429942 -0.048152143651150878 0 -0.43083051841571918 -0.053229981508835227 0 -0.44173953715957037 -0.056937642242664517 0 -0.43851457814314021 -0.030921090601306891 0 -0.41869272004003139 -0.048741662523858843 0 -0.42719888484280522 -0.063502650992089044 0 -0.41869272004003139 -0.048741662523858843 0 -0.43083051841571918 -0.053229981508835227 0 -0.42719888484280522 -0.063502650992089044 0 -0.42719888484280522 -0.063502650992089044 0 -0.44173953715957037 -0.056937642242664517 0 -0.43083051841571918 -0.053229981508835227 0 -0.42719888484280522 -0.063502650992089044 0 -0.44173953715957037 -0.056937642242664517 0 -0.43083051841571918 -0.053229981508835227 0 -0.42977079393070411 -0.027376376260336531 0 -0.43851457814314021 -0.030921090601306891 0 -0.42159590677313569 -0.037906320638396218 0 -0.43083051841571918 -0.053229981508835227 0 -0.42977079393070411 -0.027376376260336531 0 -0.43083051841571918 -0.053229981508835227 0 -0.42977079393070411 -0.027376376260336531 0 -0.42159590677313569 -0.037906320638396218 0 -0.41869272004003139 -0.048741662523858843 0 -0.43083051841571918 -0.053229981508835227 0 -0.42977079393070411 -0.027376376260336531 0 -0.43528961912670949 -0.0049045389599491904 0 -0.43851457814314021 -0.030921090601306891 0 -0.43528961912670949 -0.0049045389599491904 0 -0.43851457814314021 -0.030921090601306891 0 -0.42977079393070411 -0.027376376260336531 0 -0.42274007378162959 -0.019723543970637691 0 -0.42485586860248797 -0.01431450250308107 0 -0.42977079393070411 -0.027376376260336531 0 -0.42274007378162959 -0.019723543970637691 0 -0.41849894624196449 -0.02620290884332295 0 -0.42159590677313569 -0.037906320638396218 0 -0.42977079393070411 -0.027376376260336531 0 -0.41849894624196449 -0.02620290884332295 0 -0.42977079393070411 -0.027376376260336531 0 -0.43528961912670949 -0.0049045389599491904 0 -0.42871106944568987 -0.0015227710118378671 0 -0.42977079393070411 -0.027376376260336531 0 -0.42485586860248797 -0.01431450250308107 0 -0.42871106944568987 -0.0015227710118378671 0 -0.42977079393070411 -0.027376376260336531 0 -0.42871106944568987 -0.0015227710118378671 0 -0.42485586860248797 -0.01431450250308107 0 -0.42871106944568987 -0.0015227710118378671 0 -0.41722326818375122 -0.014942170786306891 0 -0.42871106944568987 -0.0015227710118378671 0 -0.41722326818375122 -0.014942170786306891 0 -0.40035341045189549 -0.0097021547321530857 0 -0.42871106944568987 -0.0015227710118378671 0 -0.40035341045189549 -0.0097021547321530857 0 -0.42871106944568987 -0.0015227710118378671 0 -0.40035341045189549 -0.0097021547321530857 0 -0.41083551110533989 0.0019725482237971802 0 -0.41722326818375122 -0.014942170786306891 0 -0.40596551157018562 -0.02389680037348715 0 -0.40035341045189549 -0.0097021547321530857 0 -0.42274007378162959 -0.019723543970637691 0 -0.41722326818375122 -0.014942170786306891 0 -0.41849894624196449 -0.02620290884332295 0 -0.42274007378162959 -0.019723543970637691 0 -0.42485586860248797 -0.01431450250308107 0 -0.41722326818375122 -0.014942170786306891 0 -0.41722326818375122 -0.014942170786306891 0 -0.41849894624196449 -0.02620290884332295 0 -0.40596551157018562 -0.02389680037348715 0 -0.41018655523725961 -0.03398067405562756 0 -0.41849894624196449 -0.02620290884332295 0 -0.40596551157018562 -0.02389680037348715 0 -0.40596551157018562 -0.02389680037348715 0 -0.40035341045189549 -0.0097021547321530857 0 -0.38997084058988218 -0.02695335604816761 0 -0.40596551157018562 -0.02389680037348715 0 -0.38997084058988218 -0.02695335604816761 0 -0.39797344431410858 -0.036523266666227718 0 -0.40035341045189549 -0.0097021547321530857 0 -0.41083551110533989 0.0019725482237971802 0 -0.39741488456062768 0.0053064742788479077 0 -0.40035341045189549 -0.0097021547321530857 0 -0.38532640296595572 -0.0047291134655090203 0 -0.39741488456062768 0.0053064742788479077 0 -0.37199575145809988 -0.01788153845246419 0 -0.40035341045189549 -0.0097021547321530857 0 -0.37199575145809988 -0.01788153845246419 0 -0.40035341045189549 -0.0097021547321530857 0 -0.38532640296595572 -0.0047291134655090203 0 -0.37199575145809988 -0.01788153845246419 0 -0.37400874851471311 -0.0042477121734612669 0 -0.38532640296595572 -0.0047291134655090203 0 -0.37400874851471311 -0.0042477121734612669 0 -0.38532640296595572 -0.0047291134655090203 0 -0.38285921984444188 0.00287936375168554 0 -0.37199575145809988 -0.01788153845246419 0 -0.40035341045189549 -0.0097021547321530857 0 -0.38997084058988218 -0.02695335604816761 0 -0.37199575145809988 -0.01788153845246419 0 -0.38997084058988218 -0.02695335604816761 0 -0.37913629846176972 -0.035761070531685077 0 -0.38997084058988218 -0.02695335604816761 0 -0.37913629846176972 -0.035761070531685077 0 -0.39797344431410858 -0.036523266666227718 0 -0.37913629846176972 -0.035761070531685077 0 -0.39797344431410858 -0.036523266666227718 0 -0.38908828495636139 -0.04908467015772669 0 -0.37913629846176972 -0.035761070531685077 0 -0.38908828495636139 -0.04908467015772669 0 -0.37647252317539642 -0.049068146908191508 0 -0.39797344431410858 -0.036523266666227718 0 -0.40361117145429942 -0.048152143651150878 0 -0.38908828495636139 -0.04908467015772669 0 -0.41018655523725961 -0.03398067405562756 0 -0.39797344431410858 -0.036523266666227718 0 -0.40361117145429942 -0.048152143651150878 0 -0.41018655523725961 -0.03398067405562756 0 -0.40596551157018562 -0.02389680037348715 0 -0.39797344431410858 -0.036523266666227718 0 -0.4097852621533602 -0.05896230181174409 0 -0.40361117145429942 -0.048152143651150878 0 -0.3969737878575339 -0.059690608167552707 0 -0.40361117145429942 -0.048152143651150878 0 -0.3969737878575339 -0.059690608167552707 0 -0.38908828495636139 -0.04908467015772669 0 -0.36607941754545342 -0.06187222087293677 0 -0.37647252317539642 -0.049068146908191508 0 -0.38259404550263459 -0.06569841926480964 0 -0.3969737878575339 -0.059690608167552707 0 -0.38908828495636139 -0.04908467015772669 0 -0.38259404550263459 -0.06569841926480964 0 -0.38908828495636139 -0.04908467015772669 0 -0.37647252317539642 -0.049068146908191508 0 -0.38259404550263459 -0.06569841926480964 0 -0.37240986260991649 -0.079808337404784352 0 -0.38259404550263459 -0.06569841926480964 0 -0.37810332958418308 -0.085668970824878315 0 -0.38259404550263459 -0.06569841926480964 0 -0.37810332958418308 -0.085668970824878315 0 -0.40265110721349379 -0.07458581090848293 0 -0.37810332958418308 -0.085668970824878315 0 -0.40265110721349379 -0.07458581090848293 0 -0.37240986260991649 -0.079808337404784352 0 -0.37810332958418308 -0.085668970824878315 0 -0.37810332958418308 -0.085668970824878315 0 -0.40265110721349379 -0.07458581090848293 0 -0.39540365138522199 -0.1034772490820383 0 -0.40265110721349379 -0.07458581090848293 0 -0.39540365138522199 -0.1034772490820383 0 -0.41566554078485052 -0.09762747059717182 0 -0.3969737878575339 -0.059690608167552707 0 -0.38259404550263459 -0.06569841926480964 0 -0.40265110721349379 -0.07458581090848293 0 -0.4097852621533602 -0.05896230181174409 0 -0.3969737878575339 -0.059690608167552707 0 -0.40265110721349379 -0.07458581090848293 0 -0.38083371266732718 -0.12481287189696361 0 -0.38031479293032783 -0.1122550577514228 0 -0.39360481716681428 -0.1187198781987259 0 -0.36734574323873548 -0.12149251713973851 0 -0.38083371266732718 -0.12481287189696361 0 -0.38031479293032783 -0.1122550577514228 0 -0.38031479293032783 -0.1122550577514228 0 -0.39540365138522199 -0.1034772490820383 0 -0.39360481716681428 -0.1187198781987259 0 -0.37810332958418308 -0.085668970824878315 0 -0.39540365138522199 -0.1034772490820383 0 -0.38031479293032783 -0.1122550577514228 0 -0.37731246693960541 -0.099519678806911843 0 -0.39540365138522199 -0.1034772490820383 0 -0.37810332958418308 -0.085668970824878315 0 -0.37731246693960541 -0.099519678806911843 0 -0.39540365138522199 -0.1034772490820383 0 -0.39876795566493017 -0.13176868492400931 0 -0.39360481716681428 -0.1187198781987259 0 -0.41270397318626401 -0.1212855273391953 0 -0.39540365138522199 -0.1034772490820383 0 -0.41270397318626401 -0.1212855273391953 0 -0.39540365138522199 -0.1034772490820383 0 -0.39360481716681428 -0.1187198781987259 0 -0.41270397318626401 -0.1212855273391953 0 -0.41270397318626401 -0.1212855273391953 0 -0.41566554078485052 -0.09762747059717182 0 -0.43041998658908742 -0.1103145333681218 0 -0.39540365138522199 -0.1034772490820383 0 -0.41270397318626401 -0.1212855273391953 0 -0.41566554078485052 -0.09762747059717182 0 -0.43080035970117347 -0.094546422095081989 0 -0.43041998658908742 -0.1103145333681218 0 -0.4467613637157164 -0.097449974109906454 0 -0.41566554078485052 -0.09762747059717182 0 -0.43080035970117347 -0.094546422095081989 0 -0.43041998658908742 -0.1103145333681218 0 -0.41270397318626401 -0.1212855273391953 0 -0.43041998658908742 -0.1103145333681218 0 -0.43058633599040758 -0.1245928324055645 0 -0.43041998658908742 -0.1103145333681218 0 -0.43058633599040758 -0.1245928324055645 0 -0.4395724723663138 -0.1174899583538382 0 -0.44008871057918408 -0.13146746738829829 0 -0.43058633599040758 -0.1245928324055645 0 -0.4395724723663138 -0.1174899583538382 0 -0.4097852621533602 -0.05896230181174409 0 -0.40265110721349379 -0.07458581090848293 0 -0.42719888484280522 -0.063502650992089044 0 -0.40265110721349379 -0.07458581090848293 0 -0.42719888484280522 -0.063502650992089044 0 -0.40265110721349379 -0.07458581090848293 0 -0.42190277578530538 -0.080653513572512991 0 -0.42719888484280522 -0.063502650992089044 0 -0.40265110721349379 -0.07458581090848293 0 -0.41566554078485052 -0.09762747059717182 0 -0.42190277578530538 -0.080653513572512991 0 -0.41566554078485052 -0.09762747059717182 0 -0.43080035970117347 -0.094546422095081989 0 -0.42190277578530538 -0.080653513572512991 0 -0.43080035970117347 -0.094546422095081989 0 -0.42190277578530538 -0.080653513572512991 0 -0.43698012427925997 -0.080476312550998283 0 -0.43698012427925997 -0.080476312550998283 0 -0.42719888484280522 -0.063502650992089044 0 -0.44425045043764361 -0.077193808176285475 0 -0.43698012427925997 -0.080476312550998283 0 -0.42719888484280522 -0.063502650992089044 0 -0.42190277578530538 -0.080653513572512991 0 -0.43698012427925997 -0.080476312550998283 0 -0.42719888484280522 -0.063502650992089044 0 -0.44425045043764361 -0.077193808176285475 0 -0.45989764996754989 -0.08551345581385876 0 -0.45399337268754458 -0.065702388451669883 0 -0.44425045043764361 -0.077193808176285475 0 -0.44173953715957037 -0.056937642242664517 0 -0.44425045043764361 -0.077193808176285475 0 -0.45399337268754458 -0.065702388451669883 0 -0.44173953715957037 -0.056937642242664517 0 -0.42719888484280522 -0.063502650992089044 0 -0.44425045043764361 -0.077193808176285475 0 -0.44173953715957037 -0.056937642242664517 0 -0.44425045043764361 -0.077193808176285475 0 -0.4467613637157164 -0.097449974109906454 0 -0.43698012427925997 -0.080476312550998283 0 -0.44425045043764361 -0.077193808176285475 0 -0.4467613637157164 -0.097449974109906454 0 -0.44425045043764361 -0.077193808176285475 0 -0.45989764996754989 -0.08551345581385876 0 -0.4467613637157164 -0.097449974109906454 0 -0.43698012427925997 -0.080476312550998283 0 -0.4467613637157164 -0.097449974109906454 0 -0.43080035970117347 -0.094546422095081989 0 -0.43698012427925997 -0.080476312550998283 0 -0.4467613637157164 -0.097449974109906454 0 -0.45989764996754989 -0.08551345581385876 0 -0.45399337268754458 -0.065702388451669883 0 -0.46762176551561502 -0.068843089862828125 0 -0.45000596495717371 -0.12362498449729981 0 -0.4467613637157164 -0.097449974109906454 0 -0.45000596495717371 -0.12362498449729981 0 -0.4395724723663138 -0.1174899583538382 0 -0.4467613637157164 -0.097449974109906454 0 -0.45000596495717371 -0.12362498449729981 0 -0.4467613637157164 -0.097449974109906454 0 -0.45797372362712802 -0.11690709952323849 0 -0.44008871057918408 -0.13146746738829829 0 -0.45000596495717371 -0.12362498449729981 0 -0.4395724723663138 -0.1174899583538382 0 -0.43041998658908742 -0.1103145333681218 0 -0.4395724723663138 -0.1174899583538382 0 -0.4467613637157164 -0.097449974109906454 0 -0.4467613637157164 -0.097449974109906454 0 -0.45797372362712802 -0.11690709952323849 0 -0.4467613637157164 -0.097449974109906454 0 -0.46699861626783451 -0.10685230354431401 0 -0.45797372362712802 -0.11690709952323849 0 -0.45989764996754989 -0.08551345581385876 0 -0.4467613637157164 -0.097449974109906454 0 -0.46699861626783451 -0.10685230354431401 0 -0.45989764996754989 -0.08551345581385876 0 -0.46699861626783451 -0.10685230354431401 0 -0.47531103928585972 -0.095731092754799019 0 -0.46699861626783451 -0.10685230354431401 0 -0.45797372362712802 -0.11690709952323849 0 -0.46674421408456879 -0.1174987038152195 0 -0.46890746245438508 -0.12718499279299231 0 -0.46674421408456879 -0.1174987038152195 0 -0.4608719476415396 -0.123438587789915 0 -0.45797372362712802 -0.11690709952323849 0 -0.46674421408456879 -0.1174987038152195 0 -0.4608719476415396 -0.123438587789915 0 -0.45000596495717371 -0.12362498449729981 0 -0.45797372362712802 -0.11690709952323849 0 -0.4608719476415396 -0.123438587789915 0 -0.47927931349516018 -0.1260479764542336 0 -0.47593529618528591 -0.1182281312078387 0 -0.48378162192875679 -0.11629810705506149 0 -0.47927931349516018 -0.1260479764542336 0 -0.48378162192875679 -0.11629810705506149 0 -0.48769591972578691 -0.12482602268879429 0 -0.46890746245438508 -0.12718499279299231 0 -0.46674421408456879 -0.1174987038152195 0 -0.47593529618528591 -0.1182281312078387 0 -0.46890746245438508 -0.12718499279299231 0 -0.47927931349516018 -0.1260479764542336 0 -0.47593529618528591 -0.1182281312078387 0 -0.46699861626783451 -0.10685230354431401 0 -0.47593529618528591 -0.1182281312078387 0 -0.47826758128332841 -0.10790263840869629 0 -0.46699861626783451 -0.10685230354431401 0 -0.46674421408456879 -0.1174987038152195 0 -0.47593529618528591 -0.1182281312078387 0 -0.48378162192875679 -0.11629810705506149 0 -0.47826758128332841 -0.10790263840869629 0 -0.4867318654704671 -0.1085085817188005 0 -0.47593529618528591 -0.1182281312078387 0 -0.48378162192875679 -0.11629810705506149 0 -0.47826758128332841 -0.10790263840869629 0 -0.47826758128332841 -0.10790263840869629 0 -0.48698470322539089 -0.097462877275088539 0 -0.4867318654704671 -0.1085085817188005 0 -0.46699861626783451 -0.10685230354431401 0 -0.47826758128332841 -0.10790263840869629 0 -0.47531103928585972 -0.095731092754799019 0 -0.47826758128332841 -0.10790263840869629 0 -0.47531103928585972 -0.095731092754799019 0 -0.48698470322539089 -0.097462877275088539 0 -0.48698470322539089 -0.097462877275088539 0 -0.5 -0.108944118225477 0 -0.5 -0.082840554484015061 0 -0.48698470322539089 -0.097462877275088539 0 -0.5 -0.108944118225477 0 -0.4867318654704671 -0.1085085817188005 0 -0.5 -0.13504768196693889 0 -0.5 -0.108944118225477 0 -0.49298345051341003 -0.11242092469539711 0 -0.49231032574224542 -0.13749692222951801 0 -0.49298345051341003 -0.11242092469539711 0 -0.48769591972578691 -0.12482602268879429 0 -0.49231032574224542 -0.13749692222951801 0 -0.49298345051341003 -0.11242092469539711 0 -0.48378162192875679 -0.11629810705506149 0 -0.4867318654704671 -0.1085085817188005 0 -0.49298345051341003 -0.11242092469539711 0 -0.5 -0.108944118225477 0 -0.4867318654704671 -0.1085085817188005 0 -0.49298345051341003 -0.11242092469539711 0 -0.48378162192875679 -0.11629810705506149 0 -0.49298345051341003 -0.11242092469539711 0 -0.48769591972578691 -0.12482602268879429 0 -0.45989764996754989 -0.08551345581385876 0 -0.46762176551561502 -0.068843089862828125 0 -0.48191805859186682 -0.079817967173140408 0 -0.46762176551561502 -0.068843089862828125 0 -0.48191805859186682 -0.079817967173140408 0 -0.47970947244785422 -0.058413559777439887 0 -0.45989764996754989 -0.08551345581385876 0 -0.47531103928585972 -0.095731092754799019 0 -0.48191805859186682 -0.079817967173140408 0 -0.47531103928585972 -0.095731092754799019 0 -0.48698470322539089 -0.097462877275088539 0 -0.48191805859186682 -0.079817967173140408 0 -0.48698470322539089 -0.097462877275088539 0 -0.48191805859186682 -0.079817967173140408 0 -0.5 -0.082840554484015061 0 -0.48191805859186682 -0.079817967173140408 0 -0.5 -0.082840554484015061 0 -0.5 -0.056736990742553117 0 -0.48191805859186682 -0.079817967173140408 0 -0.5 -0.056736990742553117 0 -0.47970947244785422 -0.058413559777439887 0 -0.5 -0.056736990742553117 0 -0.48057984571985751 -0.039401498748282089 0 -0.47970947244785422 -0.058413559777439887 0 -0.48057984571985751 -0.039401498748282089 0 -0.50000000000000111 -0.030633427001091201 0 -0.5 -0.056736990742553117 0 -0.48057984571985751 -0.039401498748282089 0 -0.50000000000000111 -0.030633427001091201 0 -0.48057984571985751 -0.039401498748282089 0 -0.46115969143971358 -0.048169570495472547 0 -0.48057984571985751 -0.039401498748282089 0 -0.46115969143971358 -0.048169570495472547 0 -0.46751353545002272 -0.026811573212308579 0 -0.48057984571985751 -0.039401498748282089 0 -0.47970947244785422 -0.058413559777439887 0 -0.46115969143971358 -0.048169570495472547 0 -0.46762176551561502 -0.068843089862828125 0 -0.47970947244785422 -0.058413559777439887 0 -0.46115969143971358 -0.048169570495472547 0 -0.45399337268754458 -0.065702388451669883 0 -0.46762176551561502 -0.068843089862828125 0 -0.46115969143971358 -0.048169570495472547 0 -0.46115969143971358 -0.048169570495472547 0 -0.45268324731859633 -0.02997433171316238 0 -0.46751353545002272 -0.026811573212308579 0 -0.46115969143971358 -0.048169570495472547 0 -0.44852426351525487 -0.041500658763151219 0 -0.45268324731859633 -0.02997433171316238 0 -0.44173953715957037 -0.056937642242664517 0 -0.43851457814314021 -0.030921090601306891 0 -0.44852426351525487 -0.041500658763151219 0 -0.44173953715957037 -0.056937642242664517 0 -0.43851457814314021 -0.030921090601306891 0 -0.44852426351525487 -0.041500658763151219 0 -0.43851457814314021 -0.030921090601306891 0 -0.45268324731859633 -0.02997433171316238 0 -0.45399337268754458 -0.065702388451669883 0 -0.46115969143971358 -0.048169570495472547 0 -0.44173953715957037 -0.056937642242664517 0 -0.46115969143971358 -0.048169570495472547 0 -0.44173953715957037 -0.056937642242664517 0 -0.46115969143971358 -0.048169570495472547 0 -0.44852426351525487 -0.041500658763151219 0 -0.44173953715957037 -0.056937642242664517 0 -0.43528961912670949 -0.0049045389599491904 0 -0.44559416686324432 -0.010305570938581889 0 -0.45364846760321148 0.0056700846664481793 0 -0.43528961912670949 -0.0049045389599491904 0 -0.42871106944568987 -0.0015227710118378671 0 -0.45364846760321148 0.0056700846664481793 0 -0.44559416686324432 -0.010305570938581889 0 -0.4549694485862768 -0.01519252444092975 0 -0.45364846760321148 0.0056700846664481793 0 -0.43528961912670949 -0.0049045389599491904 0 -0.44559416686324432 -0.010305570938581889 0 -0.44505111436037581 -0.022249664132225559 0 -0.43528961912670949 -0.0049045389599491904 0 -0.44505111436037581 -0.022249664132225559 0 -0.43851457814314021 -0.030921090601306891 0 -0.44505111436037581 -0.022249664132225559 0 -0.43851457814314021 -0.030921090601306891 0 -0.45268324731859633 -0.02997433171316238 0 -0.44559416686324432 -0.010305570938581889 0 -0.44505111436037581 -0.022249664132225559 0 -0.4549694485862768 -0.01519252444092975 0 -0.44505111436037581 -0.022249664132225559 0 -0.45268324731859633 -0.02997433171316238 0 -0.4549694485862768 -0.01519252444092975 0 -0.46751353545002272 -0.026811573212308579 0 -0.46632212098528653 -0.0060179636848488403 0 -0.4549694485862768 -0.01519252444092975 0 -0.45268324731859633 -0.02997433171316238 0 -0.46751353545002272 -0.026811573212308579 0 -0.4549694485862768 -0.01519252444092975 0 -0.46632212098528653 -0.0060179636848488403 0 -0.4549694485862768 -0.01519252444092975 0 -0.45364846760321148 0.0056700846664481793 0 -0.46632212098528653 -0.0060179636848488403 0 -0.482286577453925 -0.015589976606687161 0 -0.47858586576073192 0.012862940344738351 0 -0.48057984571985751 -0.039401498748282089 0 -0.46751353545002272 -0.026811573212308579 0 -0.482286577453925 -0.015589976606687161 0 -0.46751353545002272 -0.026811573212308579 0 -0.46632212098528653 -0.0060179636848488403 0 -0.482286577453925 -0.015589976606687161 0 -0.482286577453925 -0.015589976606687161 0 -0.50000000000000111 -0.030633427001091201 0 -0.5 -0.003255970355262261 0 -0.48057984571985751 -0.039401498748282089 0 -0.482286577453925 -0.015589976606687161 0 -0.50000000000000111 -0.030633427001091201 0 -0.482286577453925 -0.015589976606687161 0 -0.5 -0.003255970355262261 0 -0.47858586576073192 0.012862940344738351 0 -0.5 -0.003255970355262261 0 -0.5 0.024121486290566489 0 -0.47858586576073192 0.012862940344738351 0 -0.5 0.024121486290566489 0 -0.47858586576073192 0.012862940344738351 0 -0.48809583030284731 0.032680833920444879 0 -0.47643762322499572 0.030460062774372378 0 -0.47858586576073192 0.012862940344738351 0 -0.48809583030284731 0.032680833920444879 0 -0.47643762322499572 0.030460062774372378 0 -0.47858586576073192 0.012862940344738351 0 -0.46093558311621358 0.023751993990009001 0 -0.50000000000000178 0.051498942936395287 0 -0.48017774301169458 0.05053451098836434 0 -0.49008887150584729 0.060060873728000223 0 -0.50000000000000178 0.051498942936395287 0 -0.5 0.069587236467637092 0 -0.49008887150584729 0.060060873728000223 0 -0.50000000000000178 0.051498942936395287 0 -0.48017774301169458 0.05053451098836434 0 -0.50000000000000178 0.051498942936395287 0 -0.48545566252850819 0.044460737256151892 0 -0.48017774301169458 0.05053451098836434 0 -0.5 0.024121486290566489 0 -0.50000000000000178 0.051498942936395287 0 -0.48809583030284731 0.032680833920444879 0 -0.50000000000000178 0.051498942936395287 0 -0.48545566252850819 0.044460737256151892 0 -0.48809583030284731 0.032680833920444879 0 -0.48545566252850819 0.044460737256151892 0 -0.48017774301169458 0.05053451098836434 0 -0.46542217052765128 0.039822522022760411 0 -0.47643762322499572 0.030460062774372378 0 -0.48545566252850819 0.044460737256151892 0 -0.46542217052765128 0.039822522022760411 0 -0.48545566252850819 0.044460737256151892 0 -0.46542217052765128 0.039822522022760411 0 -0.47643762322499572 0.030460062774372378 0 -0.48545566252850819 0.044460737256151892 0 -0.48809583030284731 0.032680833920444879 0 -0.48017774301169458 0.05053451098836434 0 -0.46035548602338738 0.049570079040331012 0 -0.46035548602338738 0.049570079040331012 0 -0.48017774301169502 0.068622804519604147 0 -0.48017774301169458 0.05053451098836434 0 -0.46035548602338738 0.049570079040331012 0 -0.48017774301169502 0.068622804519604147 0 -0.49008887150584729 0.060060873728000223 0 -0.48017774301169458 0.05053451098836434 0 -0.48017774301169502 0.068622804519604147 0 -0.46542217052765128 0.039822522022760411 0 -0.44538867852679431 0.035184306789369617 0 -0.46035548602338738 0.049570079040331012 0 -0.46542217052765128 0.039822522022760411 0 -0.44538867852679431 0.035184306789369617 0 -0.46542217052765128 0.039822522022760411 0 -0.44538867852679431 0.035184306789369617 0 -0.46093558311621358 0.023751993990009001 0 -0.48017774301169458 0.05053451098836434 0 -0.46035548602338738 0.049570079040331012 0 -0.46542217052765128 0.039822522022760411 0 -0.47643762322499572 0.030460062774372378 0 -0.46542217052765128 0.039822522022760411 0 -0.46093558311621358 0.023751993990009001 0 -0.46035548602338738 0.049570079040331012 0 -0.44538867852679431 0.035184306789369617 0 -0.44351971994793582 0.048750951799559718 0 -0.44538867852679431 0.035184306789369617 0 -0.44351971994793582 0.048750951799559718 0 -0.43547214915034088 0.040730250447058552 0 -0.46035548602338738 0.049570079040331012 0 -0.44538867852679431 0.035184306789369617 0 -0.46035548602338738 0.049570079040331012 0 -0.44351971994793582 0.048750951799559718 0 -0.46035548602338738 0.049570079040331012 0 -0.44351971994793582 0.048750951799559718 0 -0.4473643294105511 0.070707798873374847 0 -0.44351971994793582 0.048750951799559718 0 -0.43459534612296441 0.058751444137396108 0 -0.4473643294105511 0.070707798873374847 0 -0.46632212098528653 -0.0060179636848488403 0 -0.47858586576073192 0.012862940344738351 0 -0.45364846760321148 0.0056700846664481793 0 -0.47858586576073192 0.012862940344738351 0 -0.45364846760321148 0.0056700846664481793 0 -0.47858586576073192 0.012862940344738351 0 -0.45364846760321148 0.0056700846664481793 0 -0.46093558311621358 0.023751993990009001 0 -0.45364846760321148 0.0056700846664481793 0 -0.46093558311621358 0.023751993990009001 0 -0.44613069305389741 0.018512047342364588 0 -0.44613069305389741 0.018512047342364588 0 -0.43924141779050918 0.010912801511383191 0 -0.43032739329858088 0.018463453250300708 0 -0.44538867852679431 0.035184306789369617 0 -0.46093558311621358 0.023751993990009001 0 -0.44613069305389741 0.018512047342364588 0 -0.44538867852679431 0.035184306789369617 0 -0.44613069305389741 0.018512047342364588 0 -0.43032739329858088 0.018463453250300708 0 -0.42871106944568987 -0.0015227710118378671 0 -0.45364846760321148 0.0056700846664481793 0 -0.42871106944568987 -0.0015227710118378671 0 -0.45364846760321148 0.0056700846664481793 0 -0.43924141779050918 0.010912801511383191 0 -0.45364846760321148 0.0056700846664481793 0 -0.44613069305389741 0.018512047342364588 0 -0.43924141779050918 0.010912801511383191 0 -0.42871106944568987 -0.0015227710118378671 0 -0.42789565995465728 0.01837039499035506 0 -0.43032739329858088 0.018463453250300708 0 -0.42871106944568987 -0.0015227710118378671 0 -0.42789565995465728 0.01837039499035506 0 -0.42871106944568987 -0.0015227710118378671 0 -0.41083551110533989 0.0019725482237971802 0 -0.42789565995465728 0.01837039499035506 0 -0.42871106944568987 -0.0015227710118378671 0 -0.43924141779050918 0.010912801511383191 0 -0.43032739329858088 0.018463453250300708 0 -0.41083551110533989 0.0019725482237971802 0 -0.41301989297341452 0.01677346399720717 0 -0.42789565995465728 0.01837039499035506 0 -0.41083551110533989 0.0019725482237971802 0 -0.42789565995465728 0.01837039499035506 0 -0.41301989297341452 0.01677346399720717 0 -0.40597877016552142 0.01013328669561922 0 -0.39980228282518698 0.015562481074941251 0 -0.41083551110533989 0.0019725482237971802 0 -0.41301989297341452 0.01677346399720717 0 -0.40597877016552142 0.01013328669561922 0 -0.42737739437235228 0.031014279290680211 0 -0.42789565995465728 0.01837039499035506 0 -0.40036949073354422 0.024761326980923939 0 -0.42789565995465728 0.01837039499035506 0 -0.40036949073354422 0.024761326980923939 0 -0.41301989297341452 0.01677346399720717 0 -0.42789565995465728 0.01837039499035506 0 -0.40036949073354422 0.024761326980923939 0 -0.42737739437235228 0.031014279290680211 0 -0.40036949073354422 0.024761326980923939 0 -0.42737739437235228 0.031014279290680211 0 -0.40828659242082888 0.036940770852450663 0 -0.40036949073354422 0.024761326980923939 0 -0.44538867852679431 0.035184306789369617 0 -0.42737739437235228 0.031014279290680211 0 -0.42789565995465728 0.01837039499035506 0 -0.42737739437235228 0.031014279290680211 0 -0.42789565995465728 0.01837039499035506 0 -0.44538867852679431 0.035184306789369617 0 -0.42789565995465728 0.01837039499035506 0 -0.44538867852679431 0.035184306789369617 0 -0.42789565995465728 0.01837039499035506 0 -0.43032739329858088 0.018463453250300708 0 -0.42789565995465728 0.01837039499035506 0 -0.43032739329858088 0.018463453250300708 0 -0.44351971994793582 0.048750951799559718 0 -0.43547214915034088 0.040730250447058552 0 -0.42668395387248481 0.047931824558778001 0 -0.44538867852679431 0.035184306789369617 0 -0.42737739437235228 0.031014279290680211 0 -0.43547214915034088 0.040730250447058552 0 -0.42737739437235228 0.031014279290680211 0 -0.43547214915034088 0.040730250447058552 0 -0.42668395387248481 0.047931824558778001 0 -0.44538867852679431 0.035184306789369617 0 -0.42737739437235228 0.031014279290680211 0 -0.42737739437235228 0.031014279290680211 0 -0.42668395387248481 0.047931824558778001 0 -0.44351971994793582 0.048750951799559718 0 -0.42668395387248481 0.047931824558778001 0 -0.42668395387248481 0.047931824558778001 0 -0.4258250013819509 0.068887288862466395 0 -0.43459534612296441 0.058751444137396108 0 -0.42668395387248481 0.047931824558778001 0 -0.4258250013819509 0.068887288862466395 0 -0.44351971994793582 0.048750951799559718 0 -0.43459534612296441 0.058751444137396108 0 -0.42668395387248481 0.047931824558778001 0 -0.42668395387248481 0.047931824558778001 0 -0.40298083834568621 0.046778573347513959 0 -0.42668395387248481 0.047931824558778001 0 -0.41108481739452812 0.061261410417967122 0 -0.4258250013819509 0.068887288862466395 0 -0.42668395387248481 0.047931824558778001 0 -0.41108481739452812 0.061261410417967122 0 -0.40298083834568621 0.046778573347513959 0 -0.42668395387248481 0.047931824558778001 0 -0.40828659242082888 0.036940770852450663 0 -0.40298083834568621 0.046778573347513959 0 -0.42737739437235228 0.031014279290680211 0 -0.42668395387248481 0.047931824558778001 0 -0.40828659242082888 0.036940770852450663 0 -0.39241982953118948 0.040285642024592547 0 -0.38092417059000577 0.028849202313640021 0 -0.40036949073354422 0.024761326980923939 0 -0.40828659242082888 0.036940770852450663 0 -0.39241982953118948 0.040285642024592547 0 -0.40036949073354422 0.024761326980923939 0 -0.40828659242082888 0.036940770852450663 0 -0.39526359371119052 0.056249831106497311 0 -0.40828659242082888 0.036940770852450663 0 -0.39241982953118948 0.040285642024592547 0 -0.39526359371119052 0.056249831106497311 0 -0.40828659242082888 0.036940770852450663 0 -0.40298083834568621 0.046778573347513959 0 -0.39526359371119052 0.056249831106497311 0 -0.41108481739452812 0.061261410417967122 0 -0.40298083834568621 0.046778573347513959 0 -0.39526359371119052 0.056249831106497311 0 -0.39241982953118948 0.040285642024592547 0 -0.39526359371119052 0.056249831106497311 0 -0.37825752026316828 0.045926596126056082 0 -0.39526359371119052 0.056249831106497311 0 -0.37729163114285852 0.061108069570809963 0 -0.37825752026316828 0.045926596126056082 0 -0.39241982953118948 0.040285642024592547 0 -0.37825752026316828 0.045926596126056082 0 -0.38092417059000577 0.028849202313640021 0 -0.38092417059000577 0.028849202313640021 0 -0.37629709539325201 0.022446272769353081 0 -0.36975876873902208 0.027003851161392901 0 -0.38092417059000577 0.028849202313640021 0 -0.38770913059742618 0.021490693425287279 0 -0.40036949073354422 0.024761326980923939 0 -0.38092417059000577 0.028849202313640021 0 -0.38770913059742618 0.021490693425287279 0 -0.37629709539325201 0.022446272769353081 0 -0.38770913059742618 0.021490693425287279 0 -0.38547823527235442 0.01740512988306725 0 -0.37629709539325201 0.022446272769353081 0 -0.38547823527235442 0.01740512988306725 0 -0.39096067278549479 0.01290982578289074 0 -0.39225923226014192 0.021109693622491339 0 -0.38770913059742618 0.021490693425287279 0 -0.38547823527235442 0.01740512988306725 0 -0.39225923226014192 0.021109693622491339 0 -0.38770913059742618 0.021490693425287279 0 -0.39225923226014192 0.021109693622491339 0 -0.37629709539325201 0.022446272769353081 0 -0.37510249736046869 0.014956919035563209 0 -0.38239594065052879 0.01315472735753386 0 -0.38770913059742618 0.021490693425287279 0 -0.37629709539325201 0.022446272769353081 0 -0.38547823527235442 0.01740512988306725 0 -0.37629709539325201 0.022446272769353081 0 -0.38239594065052879 0.01315472735753386 0 -0.37510249736046869 0.014956919035563209 0 -0.37602548333172819 0.0091133998885727478 0 -0.38239594065052879 0.01315472735753386 0 -0.37602548333172819 0.0091133998885727478 0 -0.38239594065052879 0.01315472735753386 0 -0.38285921984444188 0.00287936375168554 0 -0.37400874851471311 -0.0042477121734612669 0 -0.38285921984444188 0.00287936375168554 0 -0.36995752774725699 0.0031307488956970248 0 -0.37602548333172819 0.0091133998885727478 0 -0.38285921984444188 0.00287936375168554 0 -0.36995752774725699 0.0031307488956970248 0 -0.38285921984444188 0.00287936375168554 0 -0.39096067278549479 0.01290982578289074 0 -0.39741488456062768 0.0053064742788479077 0 -0.38532640296595572 -0.0047291134655090203 0 -0.38285921984444188 0.00287936375168554 0 -0.39741488456062768 0.0053064742788479077 0 -0.38547823527235442 0.01740512988306725 0 -0.38239594065052879 0.01315472735753386 0 -0.39096067278549479 0.01290982578289074 0 -0.38239594065052879 0.01315472735753386 0 -0.38285921984444188 0.00287936375168554 0 -0.39096067278549479 0.01290982578289074 0 -0.39096067278549479 0.01290982578289074 0 -0.39741488456062768 0.0053064742788479077 0 -0.39980228282518698 0.015562481074941251 0 -0.41083551110533989 0.0019725482237971802 0 -0.39741488456062768 0.0053064742788479077 0 -0.40597877016552142 0.01013328669561922 0 -0.39741488456062768 0.0053064742788479077 0 -0.40597877016552142 0.01013328669561922 0 -0.39980228282518698 0.015562481074941251 0 -0.38092417059000577 0.028849202313640021 0 -0.40036949073354422 0.024761326980923939 0 -0.41301989297341452 0.01677346399720717 0 -0.39980228282518698 0.015562481074941251 0 -0.40036949073354422 0.024761326980923939 0 -0.39096067278549479 0.01290982578289074 0 -0.39980228282518698 0.015562481074941251 0 -0.39225923226014192 0.021109693622491339 0 -0.39980228282518698 0.015562481074941251 0 -0.40036949073354422 0.024761326980923939 0 -0.39225923226014192 0.021109693622491339 0 -0.38770913059742618 0.021490693425287279 0 -0.40036949073354422 0.024761326980923939 0 -0.38770913059742618 0.021490693425287279 0 -0.40036949073354422 0.024761326980923939 0 -0.39225923226014192 0.021109693622491339 0 -0.39689423337254148 0.10468880722356361 0 -0.38581127907702339 0.092013351679691144 0 -0.40774962414915661 0.092812531047285984 0 -0.39689423337254148 0.10468880722356361 0 -0.38414258032083909 0.11366654036785701 0 -0.39711042574400818 0.12718653536669799 0 -0.39689423337254148 0.10468880722356361 0 -0.42410709640088778 0.1107982174698435 0 -0.39711042574400818 0.12718653536669799 0 -0.38414258032083909 0.11366654036785701 0 -0.39711042574400818 0.12718653536669799 0 -0.37288429182261751 0.1242114219038563 0 -0.38414258032083909 0.11366654036785701 0 -0.36968137034418957 0.098579396977308803 0 -0.37288429182261751 0.1242114219038563 0 -0.39689423337254148 0.10468880722356361 0 -0.36968137034418957 0.098579396977308803 0 -0.39689423337254148 0.10468880722356361 0 -0.38581127907702339 0.092013351679691144 0 -0.36968137034418957 0.098579396977308803 0 -0.39689423337254148 0.10468880722356361 0 -0.38414258032083909 0.11366654036785701 0 -0.36968137034418957 0.098579396977308803 0 -0.38581127907702339 0.092013351679691144 0 -0.38224059500155211 0.075558891360543959 0 -0.36921759629191309 0.094867951614590135 0 -0.38224059500155211 0.075558891360543959 0 -0.36921759629191309 0.094867951614590135 0 -0.38581127907702339 0.092013351679691144 0 -0.38224059500155211 0.075558891360543959 0 -0.39615225056398579 0.081554171890369689 0 -0.39526359371119052 0.056249831106497311 0 -0.38224059500155211 0.075558891360543959 0 -0.39526359371119052 0.056249831106497311 0 -0.37729163114285852 0.061108069570809963 0 -0.38224059500155211 0.075558891360543959 0 -0.37729163114285852 0.061108069570809963 0 -0.38224059500155211 0.075558891360543959 0 -0.36663801434343141 0.074224326958514206 0 -0.41108481739452812 0.061261410417967122 0 -0.39526359371119052 0.056249831106497311 0 -0.39777255259938449 0.070379358208174689 0 -0.39526359371119052 0.056249831106497311 0 -0.38224059500155211 0.075558891360543959 0 -0.39777255259938449 0.070379358208174689 0 -0.41108481739452812 0.061261410417967122 0 -0.39777255259938449 0.070379358208174689 0 -0.40718720199281289 0.077006727156152643 0 -0.38224059500155211 0.075558891360543959 0 -0.39777255259938449 0.070379358208174689 0 -0.39615225056398579 0.081554171890369689 0 -0.39777255259938449 0.070379358208174689 0 -0.39615225056398579 0.081554171890369689 0 -0.40718720199281289 0.077006727156152643 0 -0.38581127907702339 0.092013351679691144 0 -0.39615225056398579 0.081554171890369689 0 -0.40774962414915661 0.092812531047285984 0 -0.39615225056398579 0.081554171890369689 0 -0.40774962414915661 0.092812531047285984 0 -0.40718720199281289 0.077006727156152643 0 -0.40718720199281289 0.077006727156152643 0 -0.4258250013819509 0.068887288862466395 0 -0.42496604889141698 0.089842753166154907 0 -0.40774962414915661 0.092812531047285984 0 -0.40718720199281289 0.077006727156152643 0 -0.42496604889141698 0.089842753166154907 0 -0.41108481739452812 0.061261410417967122 0 -0.40718720199281289 0.077006727156152643 0 -0.4258250013819509 0.068887288862466395 0 -0.4258250013819509 0.068887288862466395 0 -0.42496604889141698 0.089842753166154907 0 -0.4473643294105511 0.070707798873374847 0 -0.43459534612296441 0.058751444137396108 0 -0.4258250013819509 0.068887288862466395 0 -0.4473643294105511 0.070707798873374847 0 -0.4258250013819509 0.068887288862466395 0 -0.42496604889141698 0.089842753166154907 0 -0.42496604889141698 0.089842753166154907 0 -0.42410709640088778 0.1107982174698435 0 -0.42496604889141698 0.089842753166154907 0 -0.42410709640088778 0.1107982174698435 0 -0.44311706866797268 0.09481075825097865 0 -0.39689423337254148 0.10468880722356361 0 -0.40774962414915661 0.092812531047285984 0 -0.42410709640088778 0.1107982174698435 0 -0.39689423337254148 0.10468880722356361 0 -0.42410709640088778 0.1107982174698435 0 -0.40774962414915661 0.092812531047285984 0 -0.42496604889141698 0.089842753166154907 0 -0.42410709640088778 0.1107982174698435 0 -0.42410709640088778 0.1107982174698435 0 -0.44940473093392869 0.11647765029763391 0 -0.42299958379619662 0.1378176872416397 0 -0.42410709640088778 0.1107982174698435 0 -0.44940473093392869 0.11647765029763391 0 -0.42410709640088778 0.1107982174698435 0 -0.42299958379619662 0.1378176872416397 0 -0.42410709640088778 0.1107982174698435 0 -0.44940473093392869 0.11647765029763391 0 -0.44311706866797268 0.09481075825097865 0 -0.44940473093392869 0.11647765029763391 0 -0.44311706866797268 0.09481075825097865 0 -0.45958804587761859 0.089767613784677402 0 -0.44940473093392869 0.11647765029763391 0 -0.45958804587761859 0.089767613784677402 0 -0.47787635736394551 0.09821905698179545 0 -0.44940473093392869 0.11647765029763391 0 -0.47470236546696382 0.1221570831254505 0 -0.47787635736394551 0.09821905698179545 0 -0.44940473093392869 0.11647765029763391 0 -0.47470236546696382 0.1221570831254505 0 -0.46035548602338738 0.049570079040331012 0 -0.4473643294105511 0.070707798873374847 0 -0.48017774301169502 0.068622804519604147 0 -0.4473643294105511 0.070707798873374847 0 -0.45958804587761859 0.089767613784677402 0 -0.48017774301169502 0.068622804519604147 0 -0.44311706866797268 0.09481075825097865 0 -0.4473643294105511 0.070707798873374847 0 -0.45958804587761859 0.089767613784677402 0 -0.42496604889141698 0.089842753166154907 0 -0.44311706866797268 0.09481075825097865 0 -0.4473643294105511 0.070707798873374847 0 -0.45958804587761859 0.089767613784677402 0 -0.48017774301169502 0.068622804519604147 0 -0.47787635736394551 0.09821905698179545 0 -0.48017774301169502 0.068622804519604147 0 -0.50000000000000089 0.087675529998878968 0 -0.47787635736394551 0.09821905698179545 0 -0.48017774301169502 0.068622804519604147 0 -0.50000000000000089 0.087675529998878968 0 -0.48017774301169502 0.068622804519604147 0 -0.50000000000000089 0.087675529998878968 0 -0.5 0.069587236467637092 0 -0.49008887150584729 0.060060873728000223 0 -0.48017774301169502 0.068622804519604147 0 -0.5 0.069587236467637092 0 -0.47470236546696382 0.1221570831254505 0 -0.47787635736394551 0.09821905698179545 0 -0.5 0.10775602297607299 0 -0.50000000000000089 0.087675529998878968 0 -0.47787635736394551 0.09821905698179545 0 -0.5 0.10775602297607299 0 -0.47470236546696382 0.1221570831254505 0 -0.5 0.10775602297607299 0 -0.49999999999999889 0.12783651595326689 0 -0.47470236546696382 0.1221570831254505 0 -0.49999999999999889 0.12783651595326689 0 -0.47470236546696382 0.1221570831254505 0 -0.49999999999999889 0.12783651595326689 0 -0.48184969847342152 0.14647164524483999 0 -0.47470236546696382 0.1221570831254505 0 -0.48184969847342152 0.14647164524483999 0 -0.45626047049729263 0.14224157658680761 0 -0.48184969847342152 0.14647164524483999 0 -0.46838479130376143 0.16684073313567299 0 -0.45626047049729263 0.14224157658680761 0 -0.49999999999999889 0.12783651595326689 0 -0.48184969847342152 0.14647164524483999 0 -0.5 0.1534688882577902 0 -0.48184969847342152 0.14647164524483999 0 -0.5 0.1534688882577902 0 -0.48692124849776292 0.16502084568856129 0 -0.5 0.1534688882577902 0 -0.48692124849776292 0.16502084568856129 0 -0.5 0.1791012605623136 0 -0.5 0.18075982472562499 0 -0.48437175271163169 0.17922170124218961 0 -0.47954525479177951 0.19704376012642361 0 -0.5 0.18075982472562499 0 -0.5 0.1791012605623136 0 -0.48437175271163169 0.17922170124218961 0 -0.48692124849776292 0.16502084568856129 0 -0.5 0.1791012605623136 0 -0.48437175271163169 0.17922170124218961 0 -0.48437175271163169 0.17922170124218961 0 -0.46838479130376143 0.16684073313567299 0 -0.46667941133851237 0.18529955449305049 0 -0.48437175271163169 0.17922170124218961 0 -0.46667941133851237 0.18529955449305049 0 -0.47954525479177951 0.19704376012642361 0 -0.48692124849776292 0.16502084568856129 0 -0.48437175271163169 0.17922170124218961 0 -0.46838479130376143 0.16684073313567299 0 -0.48184969847342152 0.14647164524483999 0 -0.48692124849776292 0.16502084568856129 0 -0.46838479130376143 0.16684073313567299 0 -0.46838479130376143 0.16684073313567299 0 -0.44333769632053432 0.16538099185416891 0 -0.45626047049729263 0.14224157658680761 0 -0.46838479130376143 0.16684073313567299 0 -0.44333769632053432 0.16538099185416891 0 -0.44945465380811989 0.18846248387647441 0 -0.46838479130376143 0.16684073313567299 0 -0.46667941133851237 0.18529955449305049 0 -0.44945465380811989 0.18846248387647441 0 -0.44333769632053432 0.16538099185416891 0 -0.44945465380811989 0.18846248387647441 0 -0.42078455858682379 0.19185662678523269 0 -0.44940473093392869 0.11647765029763391 0 -0.45626047049729263 0.14224157658680761 0 -0.42299958379619662 0.1378176872416397 0 -0.44333769632053432 0.16538099185416891 0 -0.45626047049729263 0.14224157658680761 0 -0.42299958379619662 0.1378176872416397 0 -0.44940473093392869 0.11647765029763391 0 -0.47470236546696382 0.1221570831254505 0 -0.45626047049729263 0.14224157658680761 0 -0.48369894156041199 0.2490072932834429 0 -0.49184947078020608 0.22687046307514 0 -0.470496963015412 0.23410979243873539 0 -0.48369894156041199 0.2490072932834429 0 -0.470496963015412 0.23410979243873539 0 -0.46969455812884547 0.25756891218921818 0 -0.48369894156041199 0.2490072932834429 0 -0.49184947078020608 0.22687046307514 0 -0.48369894156041199 0.2490072932834429 0 -0.5 0.23484318994461811 0 -0.49184947078020608 0.22687046307514 0 -0.5 0.23484318994461811 0 -0.49184947078020608 0.22687046307514 0 -0.50000000000000011 0.20473363286683691 0 -0.470496963015412 0.23410979243873539 0 -0.47807521851449308 0.2151014252573307 0 -0.45922001432033333 0.21332769552722211 0 -0.49184947078020608 0.22687046307514 0 -0.470496963015412 0.23410979243873539 0 -0.47807521851449308 0.2151014252573307 0 -0.47807521851449308 0.2151014252573307 0 -0.47954525479177951 0.19704376012642361 0 -0.45922001432033333 0.21332769552722211 0 -0.47954525479177951 0.19704376012642361 0 -0.45922001432033333 0.21332769552722211 0 -0.49184947078020608 0.22687046307514 0 -0.47807521851449308 0.2151014252573307 0 -0.50000000000000011 0.20473363286683691 0 -0.49184947078020608 0.22687046307514 0 -0.50000000000000011 0.20473363286683691 0 -0.47807521851449308 0.2151014252573307 0 -0.50000000000000011 0.20473363286683691 0 -0.47954525479177951 0.19704376012642361 0 -0.5 0.18075982472562499 0 -0.50000000000000011 0.20473363286683691 0 -0.47954525479177951 0.19704376012642361 0 -0.5 0.18075982472562499 0 -0.47954525479177951 0.19704376012642361 0 -0.46667941133851237 0.18529955449305049 0 -0.44945465380811989 0.18846248387647441 0 -0.45922001432033333 0.21332769552722211 0 -0.46667941133851237 0.18529955449305049 0 -0.47954525479177951 0.19704376012642361 0 -0.45922001432033333 0.21332769552722211 0 -0.43832145097875408 0.20806930146349939 0 -0.45922001432033333 0.21332769552722211 0 -0.43889477384888698 0.22961163092802059 0 -0.44945465380811989 0.18846248387647441 0 -0.43832145097875408 0.20806930146349939 0 -0.45922001432033333 0.21332769552722211 0 -0.470496963015412 0.23410979243873539 0 -0.45922001432033333 0.21332769552722211 0 -0.45461804023786728 0.23368552089559541 0 -0.45922001432033333 0.21332769552722211 0 -0.43889477384888698 0.22961163092802059 0 -0.45922001432033333 0.21332769552722211 0 -0.45461804023786728 0.23368552089559541 0 -0.43889477384888698 0.22961163092802059 0 -0.45461804023786728 0.23368552089559541 0 -0.43993218093340919 0.2473559455409233 0 -0.45484124628143119 0.24953928328129871 0 -0.45461804023786728 0.23368552089559541 0 -0.43889477384888698 0.22961163092802059 0 -0.43993218093340919 0.2473559455409233 0 -0.470496963015412 0.23410979243873539 0 -0.45461804023786728 0.23368552089559541 0 -0.45484124628143119 0.24953928328129871 0 -0.470496963015412 0.23410979243873539 0 -0.45484124628143119 0.24953928328129871 0 -0.46969455812884547 0.25756891218921818 0 -0.41856953337744579 0.24589556632882531 0 -0.41039604310841571 0.23635338619003679 0 -0.40193477290694568 0.25922280667758157 0 -0.43889477384888698 0.22961163092802059 0 -0.41856953337744579 0.24589556632882531 0 -0.43889477384888698 0.22961163092802059 0 -0.43993218093340919 0.2473559455409233 0 -0.41856953337744579 0.24589556632882531 0 -0.43832145097875408 0.20806930146349939 0 -0.43889477384888698 0.22961163092802059 0 -0.41967704598213751 0.21887609655702911 0 -0.43889477384888698 0.22961163092802059 0 -0.41856953337744579 0.24589556632882531 0 -0.41967704598213751 0.21887609655702911 0 -0.41039604310841571 0.23635338619003679 0 -0.41967704598213751 0.21887609655702911 0 -0.40953662949058428 0.22451868653496421 0 -0.41856953337744579 0.24589556632882531 0 -0.41039604310841571 0.23635338619003679 0 -0.41967704598213751 0.21887609655702911 0 -0.41856953337744579 0.24589556632882531 0 -0.41967704598213751 0.21887609655702911 0 -0.41039604310841571 0.23635338619003679 0 -0.40953662949058428 0.22451868653496421 0 -0.40000670604255628 0.22928791944602039 0 -0.41967704598213751 0.21887609655702911 0 -0.40953662949058428 0.22451868653496421 0 -0.40780984770167289 0.21469342308314729 0 -0.41967704598213751 0.21887609655702911 0 -0.42078455858682379 0.19185662678523269 0 -0.40936919897944152 0.20295369009591049 0 -0.41967704598213751 0.21887609655702911 0 -0.40780984770167289 0.21469342308314729 0 -0.40936919897944152 0.20295369009591049 0 -0.41967704598213751 0.21887609655702911 0 -0.42078455858682379 0.19185662678523269 0 -0.43832145097875408 0.20806930146349939 0 -0.41967704598213751 0.21887609655702911 0 -0.42078455858682379 0.19185662678523269 0 -0.44945465380811989 0.18846248387647441 0 -0.43832145097875408 0.20806930146349939 0 -0.42078455858682379 0.19185662678523269 0 -0.42078455858682379 0.19185662678523269 0 -0.40936919897944152 0.20295369009591049 0 -0.40049590344840708 0.18998927183968409 0 -0.40936919897944152 0.20295369009591049 0 -0.40049590344840708 0.18998927183968409 0 -0.39807863917816583 0.1993530322144593 0 -0.40049590344840708 0.18998927183968409 0 -0.39807863917816583 0.1993530322144593 0 -0.39305613481072721 0.19726206132805121 0 -0.39807863917816583 0.1993530322144593 0 -0.39298655893364848 0.20164660976276991 0 -0.39305613481072721 0.19726206132805121 0 -0.39807863917816583 0.1993530322144593 0 -0.39298655893364848 0.20164660976276991 0 -0.39217309361135122 0.20646062697518411 0 -0.40049590344840708 0.18998927183968409 0 -0.39305613481072721 0.19726206132805121 0 -0.38819192257589569 0.18683373944589629 0 -0.39305613481072721 0.19726206132805121 0 -0.36948574959659769 0.1802646511014431 0 -0.39305613481072721 0.19726206132805121 0 -0.37595412976460102 0.19499275106298369 0 -0.38462674792718021 0.20216392171761419 0 -0.37595412976460102 0.19499275106298369 0 -0.38462674792718021 0.20216392171761419 0 -0.36808921052598897 0.20886901021100601 0 -0.39305613481072721 0.19726206132805121 0 -0.37595412976460102 0.19499275106298369 0 -0.36948574959659769 0.1802646511014431 0 -0.39305613481072721 0.19726206132805121 0 -0.38819192257589569 0.18683373944589629 0 -0.36948574959659769 0.1802646511014431 0 -0.39298655893364848 0.20164660976276991 0 -0.39305613481072721 0.19726206132805121 0 -0.38462674792718021 0.20216392171761419 0 -0.38462674792718021 0.20216392171761419 0 -0.38862143662024429 0.21499169398593551 0 -0.39217309361135122 0.20646062697518411 0 -0.39298655893364848 0.20164660976276991 0 -0.38462674792718021 0.20216392171761419 0 -0.39217309361135122 0.20646062697518411 0 -0.38462674792718021 0.20216392171761419 0 -0.38862143662024429 0.21499169398593551 0 -0.36808921052598897 0.20886901021100601 0 -0.38862143662024429 0.21499169398593551 0 -0.37885643547646941 0.22078865296232911 0 -0.36808921052598897 0.20886901021100601 0 -0.38862143662024429 0.21499169398593551 0 -0.39349928818898822 0.21563797605271559 0 -0.39217309361135122 0.20646062697518411 0 -0.39807863917816583 0.1993530322144593 0 -0.39349928818898822 0.21563797605271559 0 -0.40000670604255628 0.22928791944602039 0 -0.40780984770167289 0.21469342308314729 0 -0.39807863917816583 0.1993530322144593 0 -0.40000670604255628 0.22928791944602039 0 -0.39807863917816583 0.1993530322144593 0 -0.39349928818898822 0.21563797605271559 0 -0.39217309361135122 0.20646062697518411 0 -0.39807863917816583 0.1993530322144593 0 -0.40000670604255628 0.22928791944602039 0 -0.40780984770167289 0.21469342308314729 0 -0.40936919897944152 0.20295369009591049 0 -0.39807863917816583 0.1993530322144593 0 -0.40953662949058428 0.22451868653496421 0 -0.40780984770167289 0.21469342308314729 0 -0.40000670604255628 0.22928791944602039 0 -0.40000670604255628 0.22928791944602039 0 -0.38861656549262308 0.22809660764197889 0 -0.39436286210359961 0.2380028986139 0 -0.39349928818898822 0.21563797605271559 0 -0.40000670604255628 0.22928791944602039 0 -0.38861656549262308 0.22809660764197889 0 -0.38862143662024429 0.21499169398593551 0 -0.39349928818898822 0.21563797605271559 0 -0.38861656549262308 0.22809660764197889 0 -0.38862143662024429 0.21499169398593551 0 -0.37885643547646941 0.22078865296232911 0 -0.38861656549262308 0.22809660764197889 0 -0.37885643547646941 0.22078865296232911 0 -0.37848024042938039 0.23083225470993321 0 -0.36922010057813098 0.2230694271390726 0 -0.37885643547646941 0.22078865296232911 0 -0.37848024042938039 0.23083225470993321 0 -0.38861656549262308 0.22809660764197889 0 -0.37848024042938039 0.23083225470993321 0 -0.38861656549262308 0.22809660764197889 0 -0.38402670470816941 0.23861260812222049 0 -0.39436286210359961 0.2380028986139 0 -0.38197479272916068 0.25369059837298019 0 -0.38402670470816941 0.23861260812222049 0 -0.39436286210359961 0.2380028986139 0 -0.38197479272916068 0.25369059837298019 0 -0.38861656549262308 0.22809660764197889 0 -0.38402670470816941 0.23861260812222049 0 -0.39436286210359961 0.2380028986139 0 -0.39436286210359961 0.2380028986139 0 -0.38197479272916068 0.25369059837298019 0 -0.39304946851050482 0.25250712154075899 0 -0.37848024042938039 0.23083225470993321 0 -0.38402670470816941 0.23861260812222049 0 -0.37669906278608267 0.24244068127231 0 -0.38402670470816941 0.23861260812222049 0 -0.37669906278608267 0.24244068127231 0 -0.38197479272916068 0.25369059837298019 0 -0.40000670604255628 0.22928791944602039 0 -0.40193477290694568 0.25922280667758157 0 -0.39436286210359961 0.2380028986139 0 -0.39304946851050482 0.25250712154075899 0 -0.40193477290694568 0.25922280667758157 0 -0.41039604310841571 0.23635338619003679 0 -0.40000670604255628 0.22928791944602039 0 -0.40193477290694568 0.25922280667758157 0 -0.40000670604255628 0.22928791944602039 0 -0.39436286210359961 0.2380028986139 0 -0.40193477290694568 0.25922280667758157 0 -0.42299958379619662 0.1378176872416397 0 -0.42189207119151018 0.16483715701343629 0 -0.40542096663330379 0.15281242686173921 0 -0.42410709640088778 0.1107982174698435 0 -0.42299958379619662 0.1378176872416397 0 -0.39711042574400818 0.12718653536669799 0 -0.42299958379619662 0.1378176872416397 0 -0.40542096663330379 0.15281242686173921 0 -0.39711042574400818 0.12718653536669799 0 -0.44333769632053432 0.16538099185416891 0 -0.42299958379619662 0.1378176872416397 0 -0.42189207119151018 0.16483715701343629 0 -0.42299958379619662 0.1378176872416397 0 -0.42189207119151018 0.16483715701343629 0 -0.44333769632053432 0.16538099185416891 0 -0.42078455858682379 0.19185662678523269 0 -0.42189207119151018 0.16483715701343629 0 -0.42078455858682379 0.19185662678523269 0 -0.42189207119151018 0.16483715701343629 0 -0.40513583044793727 0.17512739963628751 0 -0.42078455858682379 0.19185662678523269 0 -0.42189207119151018 0.16483715701343629 0 -0.42078455858682379 0.19185662678523269 0 -0.40049590344840708 0.18998927183968409 0 -0.40513583044793727 0.17512739963628751 0 -0.42189207119151018 0.16483715701343629 0 -0.40513583044793727 0.17512739963628751 0 -0.40542096663330379 0.15281242686173921 0 -0.39113280952192198 0.16661554371995779 0 -0.40513583044793727 0.17512739963628751 0 -0.40542096663330379 0.15281242686173921 0 -0.39113280952192198 0.16661554371995779 0 -0.37608721330104511 0.1498434468304039 0 -0.40542096663330379 0.15281242686173921 0 -0.40049590344840708 0.18998927183968409 0 -0.40513583044793727 0.17512739963628751 0 -0.389729902447851 0.17981897351440679 0 -0.39113280952192198 0.16661554371995779 0 -0.40513583044793727 0.17512739963628751 0 -0.389729902447851 0.17981897351440679 0 -0.40049590344840708 0.18998927183968409 0 -0.38819192257589569 0.18683373944589629 0 -0.389729902447851 0.17981897351440679 0 -0.38819192257589569 0.18683373944589629 0 -0.389729902447851 0.17981897351440679 0 -0.36948574959659769 0.1802646511014431 0 -0.389729902447851 0.17981897351440679 0 -0.3792901347794726 0.17547547175695141 0 -0.36948574959659769 0.1802646511014431 0 -0.39113280952192198 0.16661554371995779 0 -0.389729902447851 0.17981897351440679 0 -0.3792901347794726 0.17547547175695141 0 -0.3792901347794726 0.17547547175695141 0 -0.37608721330104511 0.1498434468304039 0 -0.39113280952192198 0.16661554371995779 0 -0.3792901347794726 0.17547547175695141 0 -0.37608721330104511 0.1498434468304039 0 -0.3792901347794726 0.17547547175695141 0 -0.37608721330104511 0.1498434468304039 0 -0.37073470612734227 0.17039117393583039 0 -0.37608721330104511 0.1498434468304039 0 -0.40542096663330379 0.15281242686173921 0 -0.39711042574400818 0.12718653536669799 0 -0.37608721330104511 0.1498434468304039 0 -0.39711042574400818 0.12718653536669799 0 -0.37288429182261751 0.1242114219038563 0 -0.37608721330104511 0.1498434468304039 0 -0.37288429182261751 0.1242114219038563 0 -0.37608721330104511 0.1498434468304039 0 -0.35950853425556911 0.13319734615059009 0 -0.37288429182261751 0.1242114219038563 0 -0.35950853425556911 0.13319734615059009 0 -0.35237349500430237 0.14638388091668331 0 -0.34339469061482231 0.13315529639367671 0 -0.35950853425556911 0.13319734615059009 0 -0.34339469061482231 0.13315529639367671 0 -0.35524963595769382 0.115578096315747 0 -0.34539830311073599 0.15390276159546151 0 -0.35237349500430237 0.14638388091668331 0 -0.33560360913760312 0.15066076098761619 0 -0.35237349500430237 0.14638388091668331 0 -0.34339469061482231 0.13315529639367671 0 -0.33560360913760312 0.15066076098761619 0 -0.34539830311073599 0.15390276159546151 0 -0.35237349500430237 0.14638388091668331 0 -0.35488026373393938 0.1577601913247674 0 -0.37608721330104511 0.1498434468304039 0 -0.35950853425556911 0.13319734615059009 0 -0.35237349500430237 0.14638388091668331 0 -0.37608721330104511 0.1498434468304039 0 -0.35237349500430237 0.14638388091668331 0 -0.35488026373393938 0.1577601913247674 0 -0.36356536132445788 0.16396997158440871 0 -0.36948574959659769 0.1802646511014431 0 -0.34591536438246839 0.1632672408748351 0 -0.37608721330104511 0.1498434468304039 0 -0.36356536132445788 0.16396997158440871 0 -0.35488026373393938 0.1577601913247674 0 -0.36356536132445788 0.16396997158440871 0 -0.37073470612734227 0.17039117393583039 0 -0.36948574959659769 0.1802646511014431 0 -0.37608721330104511 0.1498434468304039 0 -0.36356536132445788 0.16396997158440871 0 -0.37073470612734227 0.17039117393583039 0 -0.3792901347794726 0.17547547175695141 0 -0.37073470612734227 0.17039117393583039 0 -0.36948574959659769 0.1802646511014431 0 -0.34591536438246839 0.1632672408748351 0 -0.33759305628755581 0.16713622383582011 0 -0.35284113340677242 0.188002617023413 0 -0.36948574959659769 0.1802646511014431 0 -0.34591536438246839 0.1632672408748351 0 -0.35284113340677242 0.188002617023413 0 -0.33759305628755581 0.16713622383582011 0 -0.35284113340677242 0.188002617023413 0 -0.36948574959659769 0.1802646511014431 0 -0.34591536438246839 0.1632672408748351 0 -0.36356536132445788 0.16396997158440871 0 -0.35488026373393938 0.1577601913247674 0 -0.34591536438246839 0.1632672408748351 0 -0.34539830311073599 0.15390276159546151 0 -0.35488026373393938 0.1577601913247674 0 -0.34591536438246839 0.1632672408748351 0 -0.33759305628755581 0.16713622383582011 0 -0.32234497916833921 0.1462698306482271 0 -0.33759305628755581 0.16713622383582011 0 -0.32760132086156207 0.15843321722210271 0 -0.32234497916833921 0.1462698306482271 0 -0.34591536438246839 0.1632672408748351 0 -0.33759305628755581 0.16713622383582011 0 -0.32234497916833921 0.1462698306482271 0 -0.33759305628755581 0.16713622383582011 0 -0.32893038824474607 0.1671485174297774 0 -0.33185196287686092 0.17243642511572371 0 -0.33759305628755581 0.16713622383582011 0 -0.32893038824474607 0.1671485174297774 0 -0.32760132086156207 0.15843321722210271 0 -0.32893038824474607 0.1671485174297774 0 -0.33185196287686092 0.17243642511572371 0 -0.32541885925960401 0.1740961278431146 0 -0.33759305628755581 0.16713622383582011 0 -0.33546554771553783 0.18136483135418269 0 -0.35284113340677242 0.188002617023413 0 -0.33546554771553783 0.18136483135418269 0 -0.35284113340677242 0.188002617023413 0 -0.34290191091262351 0.19244710697290149 0 -0.33759305628755581 0.16713622383582011 0 -0.33185196287686092 0.17243642511572371 0 -0.33546554771553783 0.18136483135418269 0 -0.33185196287686092 0.17243642511572371 0 -0.33546554771553783 0.18136483135418269 0 -0.32541885925960401 0.1740961278431146 0 -0.33546554771553783 0.18136483135418269 0 -0.32101748356053439 0.1869759051186704 0 -0.32541885925960401 0.1740961278431146 0 -0.32101748356053439 0.1869759051186704 0 -0.32541885925960401 0.1740961278431146 0 -0.31453647384894862 0.17334529459728321 0 -0.32101748356053439 0.1869759051186704 0 -0.31453647384894862 0.17334529459728321 0 -0.30632486022094579 0.18445880760491379 0 -0.32893038824474607 0.1671485174297774 0 -0.32760132086156207 0.15843321722210271 0 -0.32006323511539858 0.16394660457773169 0 -0.32162266836489672 0.15832299394689001 0 -0.32760132086156207 0.15843321722210271 0 -0.32006323511539858 0.16394660457773169 0 -0.32162266836489672 0.15832299394689001 0 -0.32760132086156207 0.15843321722210271 0 -0.32418317208059388 0.1529192678649923 0 -0.32893038824474607 0.1671485174297774 0 -0.32541885925960401 0.1740961278431146 0 -0.32006323511539858 0.16394660457773169 0 -0.31453647384894862 0.17334529459728321 0 -0.32006323511539858 0.16394660457773169 0 -0.31142270949026019 0.1631115476153264 0 -0.32541885925960401 0.1740961278431146 0 -0.31453647384894862 0.17334529459728321 0 -0.32006323511539858 0.16394660457773169 0 -0.32162266836489672 0.15832299394689001 0 -0.32006323511539858 0.16394660457773169 0 -0.31530658940033862 0.15588720550669791 0 -0.32006323511539858 0.16394660457773169 0 -0.31530658940033862 0.15588720550669791 0 -0.31142270949026019 0.1631115476153264 0 -0.31530658940033862 0.15588720550669791 0 -0.31810143061111579 0.15034383329654261 0 -0.31245562758774059 0.14774431305847049 0 -0.31810143061111579 0.15034383329654261 0 -0.32007683209171539 0.15402610052049789 0 -0.32095455355458902 0.15032338803676179 0 -0.31810143061111579 0.15034383329654261 0 -0.32095455355458902 0.15032338803676179 0 -0.32004161225615307 0.14779026863903 0 -0.32162266836489672 0.15832299394689001 0 -0.31530658940033862 0.15588720550669791 0 -0.32007683209171539 0.15402610052049789 0 -0.31530658940033862 0.15588720550669791 0 -0.31810143061111579 0.15034383329654261 0 -0.32007683209171539 0.15402610052049789 0 -0.32007683209171539 0.15402610052049789 0 -0.32418317208059388 0.1529192678649923 0 -0.32095455355458902 0.15032338803676179 0 -0.32760132086156207 0.15843321722210271 0 -0.32418317208059388 0.1529192678649923 0 -0.32234497916833921 0.1462698306482271 0 -0.32162266836489672 0.15832299394689001 0 -0.32007683209171539 0.15402610052049789 0 -0.32418317208059388 0.1529192678649923 0 -0.32418317208059388 0.1529192678649923 0 -0.32095455355458902 0.15032338803676179 0 -0.32234497916833921 0.1462698306482271 0 -0.32234497916833921 0.1462698306482271 0 -0.3210378467187735 0.1381023976838619 0 -0.33560360913760312 0.15066076098761619 0 -0.32234497916833921 0.1462698306482271 0 -0.32008035001355672 0.1431707748132966 0 -0.3210378467187735 0.1381023976838619 0 -0.32095455355458902 0.15032338803676179 0 -0.32234497916833921 0.1462698306482271 0 -0.32004161225615307 0.14779026863903 0 -0.32234497916833921 0.1462698306482271 0 -0.32083000282017349 0.1451773294336971 0 -0.32008035001355672 0.1431707748132966 0 -0.32234497916833921 0.1462698306482271 0 -0.32008035001355672 0.1431707748132966 0 -0.32234497916833921 0.1462698306482271 0 -0.32083000282017349 0.1451773294336971 0 -0.32004161225615307 0.14779026863903 0 -0.32234497916833921 0.1462698306482271 0 -0.32083000282017349 0.1451773294336971 0 -0.32008035001355672 0.1431707748132966 0 -0.3169059087494206 0.1455000656001707 0 -0.31460629498721371 0.14028410321705831 0 -0.32083000282017349 0.1451773294336971 0 -0.3169059087494206 0.1455000656001707 0 -0.32004161225615307 0.14779026863903 0 -0.32083000282017349 0.1451773294336971 0 -0.32008035001355672 0.1431707748132966 0 -0.3169059087494206 0.1455000656001707 0 -0.31810143061111579 0.15034383329654261 0 -0.3169059087494206 0.1455000656001707 0 -0.32004161225615307 0.14779026863903 0 -0.31810143061111579 0.15034383329654261 0 -0.3169059087494206 0.1455000656001707 0 -0.31245562758774059 0.14774431305847049 0 -0.3169059087494206 0.1455000656001707 0 -0.31460629498721371 0.14028410321705831 0 -0.31245562758774059 0.14774431305847049 0 -0.3270255229622156 0.12774929361843371 0 -0.3210378467187735 0.1381023976838619 0 -0.33560360913760312 0.15066076098761619 0 -0.31460629498721371 0.14028410321705831 0 -0.3210378467187735 0.1381023976838619 0 -0.31052321338085093 0.1325596747034711 0 -0.32008035001355672 0.1431707748132966 0 -0.31460629498721371 0.14028410321705831 0 -0.3210378467187735 0.1381023976838619 0 -0.3210378467187735 0.1381023976838619 0 -0.31052321338085093 0.1325596747034711 0 -0.3168793687521726 0.1245983052550378 0 -0.3270255229622156 0.12774929361843371 0 -0.3210378467187735 0.1381023976838619 0 -0.3168793687521726 0.1245983052550378 0 -0.3270255229622156 0.12774929361843371 0 -0.33560360913760312 0.15066076098761619 0 -0.3270255229622156 0.12774929361843371 0 -0.34339469061482231 0.13315529639367671 0 -0.33560360913760312 0.15066076098761619 0 -0.34591536438246839 0.1632672408748351 0 -0.32234497916833921 0.1462698306482271 0 -0.33560360913760312 0.15066076098761619 0 -0.34591536438246839 0.1632672408748351 0 -0.32234497916833921 0.1462698306482271 0 -0.34539830311073599 0.15390276159546151 0 -0.34591536438246839 0.1632672408748351 0 -0.33560360913760312 0.15066076098761619 0 -0.35381820439796502 0.24467217258497789 0 -0.34780936448502803 0.25083961099709462 0 -0.36449684552302269 0.25380190415558501 0 -0.36432988153602852 0.24362276266018659 0 -0.3466849703428963 0.23355492694739299 0 -0.35381820439796502 0.24467217258497789 0 -0.36432988153602852 0.24362276266018659 0 -0.3466849703428963 0.23355492694739299 0 -0.36432988153602852 0.24362276266018659 0 -0.35969879848134351 0.23498919806938481 0 -0.3466849703428963 0.23355492694739299 0 -0.34576996010284933 0.2415416581646303 0 -0.34061543277458589 0.24415732502091139 0 -0.34780936448502803 0.25083961099709462 0 -0.34576996010284933 0.2415416581646303 0 -0.35381820439796502 0.24467217258497789 0 -0.34780936448502803 0.25083961099709462 0 -0.34576996010284933 0.2415416581646303 0 -0.35381820439796502 0.24467217258497789 0 -0.3466849703428963 0.23355492694739299 0 -0.34576996010284933 0.2415416581646303 0 -0.3466849703428963 0.23355492694739299 0 -0.33940849937536233 0.23590400508974499 0 -0.37669906278608267 0.24244068127231 0 -0.36432988153602852 0.24362276266018659 0 -0.38197479272916068 0.25369059837298019 0 -0.36432988153602852 0.24362276266018659 0 -0.38197479272916068 0.25369059837298019 0 -0.35381820439796502 0.24467217258497789 0 -0.36432988153602852 0.24362276266018659 0 -0.36449684552302269 0.25380190415558501 0 -0.37848024042938039 0.23083225470993321 0 -0.37669906278608267 0.24244068127231 0 -0.3685532414897158 0.2335531352341518 0 -0.37669906278608267 0.24244068127231 0 -0.36432988153602852 0.24362276266018659 0 -0.3685532414897158 0.2335531352341518 0 -0.36432988153602852 0.24362276266018659 0 -0.35969879848134351 0.23498919806938481 0 -0.3685532414897158 0.2335531352341518 0 -0.36084950277021588 0.2270391496419375 0 -0.3685532414897158 0.2335531352341518 0 -0.36922010057813098 0.2230694271390726 0 -0.35969879848134351 0.23498919806938481 0 -0.36084950277021588 0.2270391496419375 0 -0.3685532414897158 0.2335531352341518 0 -0.37848024042938039 0.23083225470993321 0 -0.3685532414897158 0.2335531352341518 0 -0.36922010057813098 0.2230694271390726 0 -0.36084950277021588 0.2270391496419375 0 -0.36922010057813098 0.2230694271390726 0 -0.36020859387240062 0.217317223394034 0 -0.36084950277021588 0.2270391496419375 0 -0.35444673947396799 0.22945742676575581 0 -0.35055368630141642 0.22224643240430769 0 -0.36084950277021588 0.2270391496419375 0 -0.35055368630141642 0.22224643240430769 0 -0.36020859387240062 0.217317223394034 0 -0.35969879848134351 0.23498919806938481 0 -0.35444673947396799 0.22945742676575581 0 -0.3466849703428963 0.23355492694739299 0 -0.35969879848134351 0.23498919806938481 0 -0.36084950277021588 0.2270391496419375 0 -0.35444673947396799 0.22945742676575581 0 -0.35444673947396799 0.22945742676575581 0 -0.3466849703428963 0.23355492694739299 0 -0.35055368630141642 0.22224643240430769 0 -0.3466849703428963 0.23355492694739299 0 -0.35055368630141642 0.22224643240430769 0 -0.34086092293211862 0.22795872615230731 0 -0.35055368630141642 0.22224643240430769 0 -0.3498594051380044 0.2052126657151439 0 -0.33942413792932069 0.21884744508530729 0 -0.35055368630141642 0.22224643240430769 0 -0.3498594051380044 0.2052126657151439 0 -0.36020859387240062 0.217317223394034 0 -0.36922010057813098 0.2230694271390726 0 -0.36020859387240062 0.217317223394034 0 -0.36808921052598897 0.20886901021100601 0 -0.3498594051380044 0.2052126657151439 0 -0.36020859387240062 0.217317223394034 0 -0.36808921052598897 0.20886901021100601 0 -0.37885643547646941 0.22078865296232911 0 -0.36922010057813098 0.2230694271390726 0 -0.36808921052598897 0.20886901021100601 0 -0.36808921052598897 0.20886901021100601 0 -0.35284113340677242 0.188002617023413 0 -0.37595412976460102 0.19499275106298369 0 -0.36948574959659769 0.1802646511014431 0 -0.35284113340677242 0.188002617023413 0 -0.37595412976460102 0.19499275106298369 0 -0.36808921052598897 0.20886901021100601 0 -0.35284113340677242 0.188002617023413 0 -0.3498594051380044 0.2052126657151439 0 -0.35284113340677242 0.188002617023413 0 -0.34290191091262351 0.19244710697290149 0 -0.3498594051380044 0.2052126657151439 0 -0.36808921052598897 0.20886901021100601 0 -0.35284113340677242 0.188002617023413 0 -0.33546554771553783 0.18136483135418269 0 -0.34290191091262351 0.19244710697290149 0 -0.33485390018671057 0.19869132372065021 0 -0.33546554771553783 0.18136483135418269 0 -0.32101748356053439 0.1869759051186704 0 -0.33485390018671057 0.19869132372065021 0 -0.3498594051380044 0.2052126657151439 0 -0.34290191091262351 0.19244710697290149 0 -0.33485390018671057 0.19869132372065021 0 -0.32101748356053439 0.1869759051186704 0 -0.3117336911654206 0.19929169345745171 0 -0.30632486022094579 0.18445880760491379 0 -0.32101748356053439 0.1869759051186704 0 -0.323030764461885 0.2020327644431138 0 -0.3117336911654206 0.19929169345745171 0 -0.32101748356053439 0.1869759051186704 0 -0.33485390018671057 0.19869132372065021 0 -0.323030764461885 0.2020327644431138 0 -0.323030764461885 0.2020327644431138 0 -0.32359004667764069 0.2118711209327086 0 -0.33345870088866092 0.20948327796602889 0 -0.323030764461885 0.2020327644431138 0 -0.31543881968258058 0.2110650351079684 0 -0.32359004667764069 0.2118711209327086 0 -0.323030764461885 0.2020327644431138 0 -0.31543881968258058 0.2110650351079684 0 -0.3117336911654206 0.19929169345745171 0 -0.31543881968258058 0.2110650351079684 0 -0.31917536768506771 0.22132902525274381 0 -0.31063458778162389 0.22024076039998211 0 -0.31543881968258058 0.2110650351079684 0 -0.32359004667764069 0.2118711209327086 0 -0.31917536768506771 0.22132902525274381 0 -0.32359004667764069 0.2118711209327086 0 -0.32837771918587599 0.2202579957084235 0 -0.31917536768506771 0.22132902525274381 0 -0.3498594051380044 0.2052126657151439 0 -0.33485390018671057 0.19869132372065021 0 -0.33345870088866092 0.20948327796602889 0 -0.32359004667764069 0.2118711209327086 0 -0.33345870088866092 0.20948327796602889 0 -0.32837771918587599 0.2202579957084235 0 -0.33345870088866092 0.20948327796602889 0 -0.33942413792932069 0.21884744508530729 0 -0.32837771918587599 0.2202579957084235 0 -0.3498594051380044 0.2052126657151439 0 -0.33345870088866092 0.20948327796602889 0 -0.33942413792932069 0.21884744508530729 0 -0.33485390018671057 0.19869132372065021 0 -0.323030764461885 0.2020327644431138 0 -0.33345870088866092 0.20948327796602889 0 -0.33942413792932069 0.21884744508530729 0 -0.34086092293211862 0.22795872615230731 0 -0.33322908102206938 0.2279956699982342 0 -0.35055368630141642 0.22224643240430769 0 -0.33942413792932069 0.21884744508530729 0 -0.34086092293211862 0.22795872615230731 0 -0.34086092293211862 0.22795872615230731 0 -0.33322908102206938 0.2279956699982342 0 -0.33940849937536233 0.23590400508974499 0 -0.3466849703428963 0.23355492694739299 0 -0.34086092293211862 0.22795872615230731 0 -0.33940849937536233 0.23590400508974499 0 -0.33322908102206938 0.2279956699982342 0 -0.32392070264962519 0.22920733744410951 0 -0.32827028813350928 0.23535496272985509 0 -0.33322908102206938 0.2279956699982342 0 -0.32827028813350928 0.23535496272985509 0 -0.33940849937536233 0.23590400508974499 0 -0.33322908102206938 0.2279956699982342 0 -0.32837771918587599 0.2202579957084235 0 -0.32392070264962519 0.22920733744410951 0 -0.33942413792932069 0.21884744508530729 0 -0.33322908102206938 0.2279956699982342 0 -0.32837771918587599 0.2202579957084235 0 -0.32837771918587599 0.2202579957084235 0 -0.31917536768506771 0.22132902525274381 0 -0.32392070264962519 0.22920733744410951 0 -0.31917536768506771 0.22132902525274381 0 -0.31648640064488431 0.22998394941459399 0 -0.31063458778162389 0.22024076039998211 0 -0.31917536768506771 0.22132902525274381 0 -0.31648640064488431 0.22998394941459399 0 -0.32392070264962519 0.22920733744410951 0 -0.31648640064488431 0.22998394941459399 0 -0.3180389135795329 0.23738958445463751 0 -0.30668032612480117 0.23514910017233481 0 -0.31648640064488431 0.22998394941459399 0 -0.32217662171102218 0.23428482324842501 0 -0.3180389135795329 0.23738958445463751 0 -0.31648640064488431 0.22998394941459399 0 -0.32217662171102218 0.23428482324842501 0 -0.32392070264962519 0.22920733744410951 0 -0.32217662171102218 0.23428482324842501 0 -0.32392070264962519 0.22920733744410951 0 -0.32827028813350928 0.23535496272985509 0 -0.324166803547559 0.2394882821989287 0 -0.3180389135795329 0.23738958445463751 0 -0.32446009899550038 0.24669474519871951 0 -0.32446009899550038 0.24669474519871951 0 -0.30668032612480117 0.23514910017233481 0 -0.32446009899550038 0.24669474519871951 0 -0.30915276452523299 0.24032005686929431 0 -0.30668032612480117 0.23514910017233481 0 -0.32446009899550038 0.24669474519871951 0 -0.303274251812374 0.24293392054073221 0 -0.32217662171102218 0.23428482324842501 0 -0.324166803547559 0.2394882821989287 0 -0.32827028813350928 0.23535496272985509 0 -0.3180389135795329 0.23738958445463751 0 -0.32446009899550038 0.24669474519871951 0 -0.30668032612480117 0.23514910017233481 0 -0.324166803547559 0.2394882821989287 0 -0.32948551469979293 0.2410638626111706 0 -0.32827028813350928 0.23535496272985509 0 -0.32217662171102218 0.23428482324842501 0 -0.324166803547559 0.2394882821989287 0 -0.3180389135795329 0.23738958445463751 0 -0.324166803547559 0.2394882821989287 0 -0.32446009899550038 0.24669474519871951 0 -0.32948551469979293 0.2410638626111706 0 -0.32446009899550038 0.24669474519871951 0 -0.32962093469929932 0.25004603531411429 0 -0.32446009899550038 0.24669474519871951 0 -0.33112188344703353 0.2478773178386029 0 -0.32446009899550038 0.24669474519871951 0 -0.33112188344703353 0.2478773178386029 0 -0.32962093469929932 0.25004603531411429 0 -0.33112188344703353 0.2478773178386029 0 -0.34780936448502803 0.25083961099709462 0 -0.32962093469929932 0.25004603531411429 0 -0.33112188344703353 0.2478773178386029 0 -0.34780936448502803 0.25083961099709462 0 -0.33112188344703353 0.2478773178386029 0 -0.34061543277458589 0.24415732502091139 0 -0.34780936448502803 0.25083961099709462 0 -0.33112188344703353 0.2478773178386029 0 -0.32962093469929932 0.25004603531411429 0 -0.32446009899550038 0.24669474519871951 0 -0.33112188344703353 0.2478773178386029 0 -0.32948551469979293 0.2410638626111706 0 -0.32948551469979293 0.2410638626111706 0 -0.32827028813350928 0.23535496272985509 0 -0.33940849937536233 0.23590400508974499 0 -0.33112188344703353 0.2478773178386029 0 -0.33940849937536233 0.23590400508974499 0 -0.33112188344703353 0.2478773178386029 0 -0.32948551469979293 0.2410638626111706 0 -0.33940849937536233 0.23590400508974499 0 -0.34576996010284933 0.2415416581646303 0 -0.33940849937536233 0.23590400508974499 0 -0.34061543277458589 0.24415732502091139 0 -0.33112188344703353 0.2478773178386029 0 -0.33940849937536233 0.23590400508974499 0 -0.34061543277458589 0.24415732502091139 0 -0.28208840462924772 0.23917309588274399 0 -0.29773114563310221 0.2379266470320113 0 -0.29215908948193758 0.2331676751748748 0 -0.28208840462924772 0.23917309588274399 0 -0.303274251812374 0.24293392054073221 0 -0.29773114563310221 0.2379266470320113 0 -0.28208840462924772 0.23917309588274399 0 -0.303274251812374 0.24293392054073221 0 -0.28208840462924772 0.23917309588274399 0 -0.2935740589596243 0.24534008891287029 0 -0.303274251812374 0.24293392054073221 0 -0.28208840462924772 0.23917309588274399 0 -0.2935740589596243 0.24534008891287029 0 -0.28954968439565232 0.24798004373659691 0 -0.28208840462924772 0.23917309588274399 0 -0.28954968439565232 0.24798004373659691 0 -0.280383934275375 0.24949377627904179 0 -0.28208840462924772 0.23917309588274399 0 -0.29215908948193758 0.2331676751748748 0 -0.28290200542930333 0.23079303663968659 0 -0.2935740589596243 0.24534008891287029 0 -0.28954968439565232 0.24798004373659691 0 -0.29938389500122342 0.25127329549140842 0 -0.303274251812374 0.24293392054073221 0 -0.30687159053626512 0.24968921777616279 0 -0.29938389500122342 0.25127329549140842 0 -0.32446009899550038 0.24669474519871951 0 -0.303274251812374 0.24293392054073221 0 -0.30915276452523299 0.24032005686929431 0 -0.32446009899550038 0.24669474519871951 0 -0.303274251812374 0.24293392054073221 0 -0.30687159053626512 0.24968921777616279 0 -0.2935740589596243 0.24534008891287029 0 -0.303274251812374 0.24293392054073221 0 -0.29938389500122342 0.25127329549140842 0 -0.303274251812374 0.24293392054073221 0 -0.30915276452523299 0.24032005686929431 0 -0.3044536561171502 0.23920944338937039 0 -0.30915276452523299 0.24032005686929431 0 -0.30668032612480117 0.23514910017233481 0 -0.30915276452523299 0.24032005686929431 0 -0.30668032612480117 0.23514910017233481 0 -0.3044536561171502 0.23920944338937039 0 -0.30668032612480117 0.23514910017233481 0 -0.3044536561171502 0.23920944338937039 0 -0.29773114563310221 0.2379266470320113 0 -0.30668032612480117 0.23514910017233481 0 -0.29773114563310221 0.2379266470320113 0 -0.29215908948193758 0.2331676751748748 0 -0.303274251812374 0.24293392054073221 0 -0.3044536561171502 0.23920944338937039 0 -0.29773114563310221 0.2379266470320113 0 -0.30668032612480117 0.23514910017233481 0 -0.29485522034295802 0.2104176003201233 0 -0.30668032612480117 0.23514910017233481 0 -0.31063458778162389 0.22024076039998211 0 -0.29485522034295802 0.2104176003201233 0 -0.31648640064488431 0.22998394941459399 0 -0.30668032612480117 0.23514910017233481 0 -0.31063458778162389 0.22024076039998211 0 -0.30668032612480117 0.23514910017233481 0 -0.29215908948193758 0.2331676751748748 0 -0.28456151970014237 0.22078581841144879 0 -0.30668032612480117 0.23514910017233481 0 -0.28456151970014237 0.22078581841144879 0 -0.30668032612480117 0.23514910017233481 0 -0.28456151970014237 0.22078581841144879 0 -0.29485522034295802 0.2104176003201233 0 -0.29215908948193758 0.2331676751748748 0 -0.28290200542930333 0.23079303663968659 0 -0.28456151970014237 0.22078581841144879 0 -0.28456151970014237 0.22078581841144879 0 -0.29485522034295802 0.2104176003201233 0 -0.27752852504578851 0.2035094021870538 0 -0.31063458778162389 0.22024076039998211 0 -0.29485522034295802 0.2104176003201233 0 -0.3064300831709133 0.2089001123883317 0 -0.31543881968258058 0.2110650351079684 0 -0.31063458778162389 0.22024076039998211 0 -0.3064300831709133 0.2089001123883317 0 -0.31543881968258058 0.2110650351079684 0 -0.3064300831709133 0.2089001123883317 0 -0.3117336911654206 0.19929169345745171 0 -0.29485522034295802 0.2104176003201233 0 -0.3064300831709133 0.2089001123883317 0 -0.3004747938922705 0.19775086284774651 0 -0.3064300831709133 0.2089001123883317 0 -0.3004747938922705 0.19775086284774651 0 -0.3117336911654206 0.19929169345745171 0 -0.3004747938922705 0.19775086284774651 0 -0.3117336911654206 0.19929169345745171 0 -0.30632486022094579 0.18445880760491379 0 -0.29485522034295802 0.2104176003201233 0 -0.27752852504578851 0.2035094021870538 0 -0.28303011456111471 0.1856861004679119 0 -0.29485522034295802 0.2104176003201233 0 -0.3004747938922705 0.19775086284774651 0 -0.28303011456111471 0.1856861004679119 0 -0.3004747938922705 0.19775086284774651 0 -0.30632486022094579 0.18445880760491379 0 -0.28303011456111471 0.1856861004679119 0 -0.29485522034295802 0.2104176003201233 0 -0.28303011456111471 0.1856861004679119 0 -0.26149968301133297 0.19228987572774389 0 -0.27752852504578851 0.2035094021870538 0 -0.28303011456111471 0.1856861004679119 0 -0.26149968301133297 0.19228987572774389 0 -0.25738732630020861 0.21188680502626489 0 -0.27752852504578851 0.2035094021870538 0 -0.26149968301133297 0.19228987572774389 0 -0.25738732630020861 0.21188680502626489 0 -0.2338181723720815 0.2019576276995047 0 -0.28456151970014237 0.22078581841144879 0 -0.27752852504578851 0.2035094021870538 0 -0.27125811138663519 0.2172881407661785 0 -0.25738732630020861 0.21188680502626489 0 -0.27752852504578851 0.2035094021870538 0 -0.27125811138663519 0.2172881407661785 0 -0.27125811138663519 0.2172881407661785 0 -0.27279900790588568 0.2300455570896788 0 -0.25689469164723111 0.22866214397666371 0 -0.28456151970014237 0.22078581841144879 0 -0.27125811138663519 0.2172881407661785 0 -0.27279900790588568 0.2300455570896788 0 -0.28290200542930333 0.23079303663968659 0 -0.28456151970014237 0.22078581841144879 0 -0.27279900790588568 0.2300455570896788 0 -0.28208840462924772 0.23917309588274399 0 -0.28290200542930333 0.23079303663968659 0 -0.27279900790588568 0.2300455570896788 0 -0.25738732630020861 0.21188680502626489 0 -0.25689469164723111 0.22866214397666371 0 -0.23788164023497829 0.22564485439493009 0 -0.25738732630020861 0.21188680502626489 0 -0.27125811138663519 0.2172881407661785 0 -0.25689469164723111 0.22866214397666371 0 -0.27279900790588568 0.2300455570896788 0 -0.25689469164723111 0.22866214397666371 0 -0.26127899367985208 0.24348335632562881 0 -0.25689469164723111 0.22866214397666371 0 -0.26127899367985208 0.24348335632562881 0 -0.24581323106551739 0.2437480082967432 0 -0.26127899367985208 0.24348335632562881 0 -0.25255416139143072 0.25802888911799787 0 -0.24581323106551739 0.2437480082967432 0 -0.26127899367985208 0.24348335632562881 0 -0.27276097546744771 0.2441872763264186 0 -0.26725453684687822 0.25874059605499972 0 -0.27279900790588568 0.2300455570896788 0 -0.26127899367985208 0.24348335632562881 0 -0.27276097546744771 0.2441872763264186 0 -0.28208840462924772 0.23917309588274399 0 -0.27279900790588568 0.2300455570896788 0 -0.27276097546744771 0.2441872763264186 0 -0.28208840462924772 0.23917309588274399 0 -0.27276097546744771 0.2441872763264186 0 -0.280383934275375 0.24949377627904179 0 -0.29096145560485143 0.14752787387398411 0 -0.30398768041118379 0.15449205730521709 0 -0.29057365555260872 0.16405053826378749 0 -0.29096145560485143 0.14752787387398411 0 -0.29627821103755531 0.13464684179109099 0 -0.27660369640717353 0.13691433916039031 0 -0.29627821103755531 0.13464684179109099 0 -0.27660369640717353 0.13691433916039031 0 -0.28954754472565652 0.1206496303768894 0 -0.29627821103755531 0.13464684179109099 0 -0.28954754472565652 0.1206496303768894 0 -0.30736282391219338 0.1197423340201717 0 -0.29627821103755531 0.13464684179109099 0 -0.31052321338085093 0.1325596747034711 0 -0.30482452440093782 0.14279093991048741 0 -0.29627821103755531 0.13464684179109099 0 -0.30736282391219338 0.1197423340201717 0 -0.31052321338085093 0.1325596747034711 0 -0.30736282391219338 0.1197423340201717 0 -0.3168793687521726 0.1245983052550378 0 -0.29627821103755531 0.13464684179109099 0 -0.31052321338085093 0.1325596747034711 0 -0.30736282391219338 0.1197423340201717 0 -0.31460629498721371 0.14028410321705831 0 -0.31052321338085093 0.1325596747034711 0 -0.30482452440093782 0.14279093991048741 0 -0.31460629498721371 0.14028410321705831 0 -0.30482452440093782 0.14279093991048741 0 -0.31245562758774059 0.14774431305847049 0 -0.30482452440093782 0.14279093991048741 0 -0.31245562758774059 0.14774431305847049 0 -0.30398768041118379 0.15449205730521709 0 -0.29096145560485143 0.14752787387398411 0 -0.29627821103755531 0.13464684179109099 0 -0.30482452440093782 0.14279093991048741 0 -0.29096145560485143 0.14752787387398411 0 -0.30482452440093782 0.14279093991048741 0 -0.30398768041118379 0.15449205730521709 0 -0.31530658940033862 0.15588720550669791 0 -0.31245562758774059 0.14774431305847049 0 -0.30398768041118379 0.15449205730521709 0 -0.30398768041118379 0.15449205730521709 0 -0.31142270949026019 0.1631115476153264 0 -0.30321956867543109 0.16788657608970209 0 -0.31530658940033862 0.15588720550669791 0 -0.30398768041118379 0.15449205730521709 0 -0.31142270949026019 0.1631115476153264 0 -0.31453647384894862 0.17334529459728321 0 -0.31142270949026019 0.1631115476153264 0 -0.30321956867543109 0.16788657608970209 0 -0.30398768041118379 0.15449205730521709 0 -0.30321956867543109 0.16788657608970209 0 -0.29057365555260872 0.16405053826378749 0 -0.30321956867543109 0.16788657608970209 0 -0.30632486022094579 0.18445880760491379 0 -0.29426708800933032 0.1772828306271281 0 -0.31453647384894862 0.17334529459728321 0 -0.30321956867543109 0.16788657608970209 0 -0.30632486022094579 0.18445880760491379 0 -0.30632486022094579 0.18445880760491379 0 -0.28303011456111471 0.1856861004679119 0 -0.29426708800933032 0.1772828306271281 0 -0.28303011456111471 0.1856861004679119 0 -0.29426708800933032 0.1772828306271281 0 -0.29057365555260872 0.16405053826378749 0 -0.28303011456111471 0.1856861004679119 0 -0.29057365555260872 0.16405053826378749 0 -0.27120500877927151 0.16095460061570049 0 -0.29096145560485143 0.14752787387398411 0 -0.29057365555260872 0.16405053826378749 0 -0.27120500877927151 0.16095460061570049 0 -0.30321956867543109 0.16788657608970209 0 -0.29426708800933032 0.1772828306271281 0 -0.29057365555260872 0.16405053826378749 0 -0.26149968301133297 0.19228987572774389 0 -0.28303011456111471 0.1856861004679119 0 -0.27120500877927151 0.16095460061570049 0 -0.26149968301133297 0.19228987572774389 0 -0.27120500877927151 0.16095460061570049 0 -0.247705706256448 0.17530712345902891 0 -0.28303011456111471 0.1856861004679119 0 -0.27120500877927151 0.16095460061570049 0 -0.27120500877927151 0.16095460061570049 0 -0.25421078616032078 0.15192607385175011 0 -0.247705706256448 0.17530712345902891 0 -0.27120500877927151 0.16095460061570049 0 -0.25421078616032078 0.15192607385175011 0 -0.27660369640717353 0.13691433916039031 0 -0.29096145560485143 0.14752787387398411 0 -0.27120500877927151 0.16095460061570049 0 -0.27660369640717353 0.13691433916039031 0 -0.27660369640717353 0.13691433916039031 0 -0.25876795588782892 0.13024720116186519 0 -0.27330583561021582 0.1130587662659711 0 -0.25421078616032078 0.15192607385175011 0 -0.25876795588782892 0.13024720116186519 0 -0.24166171629040539 0.13581120266282659 0 -0.25421078616032078 0.15192607385175011 0 -0.27660369640717353 0.13691433916039031 0 -0.25876795588782892 0.13024720116186519 0 -0.25876795588782892 0.13024720116186519 0 -0.27330583561021582 0.1130587662659711 0 -0.24902246101515019 0.1053005087708679 0 -0.27330583561021582 0.1130587662659711 0 -0.27044414494820301 0.085669676061396555 0 -0.24902246101515019 0.1053005087708679 0 -0.27044414494820301 0.085669676061396555 0 -0.24902246101515019 0.1053005087708679 0 -0.27330583561021582 0.1130587662659711 0 -0.29418715666114409 0.098885870646822693 0 -0.27044414494820301 0.085669676061396555 0 -0.27660369640717353 0.13691433916039031 0 -0.27330583561021582 0.1130587662659711 0 -0.28954754472565652 0.1206496303768894 0 -0.27330583561021582 0.1130587662659711 0 -0.28954754472565652 0.1206496303768894 0 -0.29418715666114409 0.098885870646822693 0 -0.29418715666114409 0.098885870646822693 0 -0.30736282391219338 0.1197423340201717 0 -0.31844743678682941 0.1048378262492506 0 -0.28954754472565652 0.1206496303768894 0 -0.29418715666114409 0.098885870646822693 0 -0.30736282391219338 0.1197423340201717 0 -0.3080259730216881 0.077002826447173017 0 -0.29186582888125578 0.066038843351925225 0 -0.31339491849600998 0.063747432470164775 0 -0.3080259730216881 0.077002826447173017 0 -0.29276404699158087 0.082106385258312251 0 -0.29186582888125578 0.066038843351925225 0 -0.29418715666114409 0.098885870646822693 0 -0.3080259730216881 0.077002826447173017 0 -0.31844743678682941 0.1048378262492506 0 -0.29418715666114409 0.098885870646822693 0 -0.3080259730216881 0.077002826447173017 0 -0.29276404699158087 0.082106385258312251 0 -0.29418715666114409 0.098885870646822693 0 -0.29276404699158087 0.082106385258312251 0 -0.27044414494820301 0.085669676061396555 0 -0.29276404699158087 0.082106385258312251 0 -0.29186582888125578 0.066038843351925225 0 -0.27044414494820301 0.085669676061396555 0 -0.29186582888125578 0.066038843351925225 0 -0.27044414494820301 0.085669676061396555 0 -0.27418684640983221 0.062474615501350562 0 -0.27044414494820301 0.085669676061396555 0 -0.26114991209949701 0.069411703087345927 0 -0.27418684640983221 0.062474615501350562 0 -0.29186582888125578 0.066038843351925225 0 -0.27044414494820301 0.085669676061396555 0 -0.27044414494820301 0.085669676061396555 0 -0.26114991209949701 0.069411703087345927 0 -0.24991547091353811 0.081767159184359894 0 -0.27044414494820301 0.085669676061396555 0 -0.24991547091353811 0.081767159184359894 0 -0.24902246101515019 0.1053005087708679 0 -0.26114991209949701 0.069411703087345927 0 -0.24837463598186221 0.061507587765831193 0 -0.24991547091353811 0.081767159184359894 0 -0.2569587028785647 0.043247512967783668 0 -0.2652503373022293 0.046809720150105961 0 -0.24837463598186221 0.061507587765831193 0 -0.26114991209949701 0.069411703087345927 0 -0.2652503373022293 0.046809720150105961 0 -0.24837463598186221 0.061507587765831193 0 -0.2569587028785647 0.043247512967783668 0 -0.2479374015173661 0.043009514699025683 0 -0.24837463598186221 0.061507587765831193 0 -0.2652503373022293 0.046809720150105961 0 -0.24837463598186221 0.061507587765831193 0 -0.25310400399909361 0.032761766137688372 0 -0.27181512972504129 0.03119500219698541 0 -0.2569587028785647 0.043247512967783668 0 -0.2534531874534216 0.034931751846300332 0 -0.27181512972504129 0.03119500219698541 0 -0.2569587028785647 0.043247512967783668 0 -0.25183647733317932 0.039748921217354911 0 -0.2479374015173661 0.043009514699025683 0 -0.2569587028785647 0.043247512967783668 0 -0.25183647733317932 0.039748921217354911 0 -0.2534531874534216 0.034931751846300332 0 -0.25310400399909361 0.032761766137688372 0 -0.2534531874534216 0.034931751846300332 0 -0.27181512972504129 0.03119500219698541 0 -0.25310400399909361 0.032761766137688372 0 -0.24703104510379709 0.033270281400205652 0 -0.25310400399909361 0.032761766137688372 0 -0.2534531874534216 0.034931751846300332 0 -0.24703104510379709 0.033270281400205652 0 -0.25310400399909361 0.032761766137688372 0 -0.2534531874534216 0.034931751846300332 0 -0.25183647733317932 0.039748921217354911 0 -0.2534531874534216 0.034931751846300332 0 -0.24899661748336491 0.037806905356309962 0 -0.2569587028785647 0.043247512967783668 0 -0.2652503373022293 0.046809720150105961 0 -0.27181512972504129 0.03119500219698541 0 -0.2652503373022293 0.046809720150105961 0 -0.27962058912579718 0.039427640784089141 0 -0.28310569310592648 0.050128214680881293 0 -0.27962058912579718 0.039427640784089141 0 -0.27181512972504129 0.03119500219698541 0 -0.29052625545098892 0.029628238256281261 0 -0.2652503373022293 0.046809720150105961 0 -0.27962058912579718 0.039427640784089141 0 -0.27181512972504129 0.03119500219698541 0 -0.2652503373022293 0.046809720150105961 0 -0.27418684640983221 0.062474615501350562 0 -0.28310569310592648 0.050128214680881293 0 -0.26114991209949701 0.069411703087345927 0 -0.2652503373022293 0.046809720150105961 0 -0.27418684640983221 0.062474615501350562 0 -0.2608019368049761 2.0678865882739801e-05 0 -0.2698707851457785 0.019111955599784739 0 -0.249215314840568 0.0085956729432886559 0 -0.2698707851457785 0.019111955599784739 0 -0.249215314840568 0.0085956729432886559 0 -0.24688343645483499 -0.0058956859929485059 0 -0.2608019368049761 2.0678865882739801e-05 0 -0.249215314840568 0.0085956729432886559 0 -0.25310400399909361 0.032761766137688372 0 -0.249215314840568 0.0085956729432886559 0 -0.25310400399909361 0.032761766137688372 0 -0.2698707851457785 0.019111955599784739 0 -0.27181512972504129 0.03119500219698541 0 -0.25310400399909361 0.032761766137688372 0 -0.2698707851457785 0.019111955599784739 0 -0.249215314840568 0.0085956729432886559 0 -0.2698707851457785 0.019111955599784739 0 -0.29052625545098892 0.029628238256281261 0 -0.27181512972504129 0.03119500219698541 0 -0.29052625545098892 0.029628238256281261 0 -0.2698707851457785 0.019111955599784739 0 -0.27181512972504129 0.03119500219698541 0 -0.29052625545098892 0.029628238256281261 0 -0.27521063238662452 -0.0054983211468302784 0 -0.2698707851457785 0.019111955599784739 0 -0.28537312431214051 0.0054348841582710847 0 -0.27521063238662452 -0.0054983211468302784 0 -0.2608019368049761 2.0678865882739801e-05 0 -0.2698707851457785 0.019111955599784739 0 -0.2698707851457785 0.019111955599784739 0 -0.28537312431214051 0.0054348841582710847 0 -0.28757141348391319 0.01688153439624673 0 -0.28941504264439272 -0.0055461420580558227 0 -0.2954666820038494 0.0053493285920646859 0 -0.28537312431214051 0.0054348841582710847 0 -0.2954666820038494 0.0053493285920646859 0 -0.28537312431214051 0.0054348841582710847 0 -0.28757141348391319 0.01688153439624673 0 -0.2954666820038494 0.0053493285920646859 0 -0.28757141348391319 0.01688153439624673 0 -0.29790801301182768 0.01498533673230954 0 -0.2698707851457785 0.019111955599784739 0 -0.28757141348391319 0.01688153439624673 0 -0.29052625545098892 0.029628238256281261 0 -0.28757141348391319 0.01688153439624673 0 -0.29052625545098892 0.029628238256281261 0 -0.29790801301182768 0.01498533673230954 0 -0.29052625545098892 0.029628238256281261 0 -0.29669525211612968 0.032769048495843452 0 -0.29052625545098892 0.029628238256281261 0 -0.29669525211612968 0.032769048495843452 0 -0.31379582314277987 0.027679776142926521 0 -0.29052625545098892 0.029628238256281261 0 -0.3088322755339275 0.017182219601754669 0 -0.29790801301182768 0.01498533673230954 0 -0.29052625545098892 0.029628238256281261 0 -0.3088322755339275 0.017182219601754669 0 -0.31379582314277987 0.027679776142926521 0 -0.29052625545098892 0.029628238256281261 0 -0.31379582314277987 0.027679776142926521 0 -0.31055091883810693 -0.0080316569973730104 0 -0.3050780036965437 0.0055563584912898482 0 -0.31649211491032991 0.0075987614368238279 0 -0.3088322755339275 0.017182219601754669 0 -0.29790801301182768 0.01498533673230954 0 -0.3050780036965437 0.0055563584912898482 0 -0.2954666820038494 0.0053493285920646859 0 -0.29790801301182768 0.01498533673230954 0 -0.3050780036965437 0.0055563584912898482 0 -0.3088322755339275 0.017182219601754669 0 -0.3050780036965437 0.0055563584912898482 0 -0.31649211491032991 0.0075987614368238279 0 -0.29945676593833731 -0.0036418591364568102 0 -0.2954666820038494 0.0053493285920646859 0 -0.3050780036965437 0.0055563584912898482 0 -0.29186582888125578 0.066038843351925225 0 -0.28310569310592648 0.050128214680881293 0 -0.29674004404481708 0.045503979801786762 0 -0.29186582888125578 0.066038843351925225 0 -0.27418684640983221 0.062474615501350562 0 -0.28310569310592648 0.050128214680881293 0 -0.27962058912579718 0.039427640784089141 0 -0.28310569310592648 0.050128214680881293 0 -0.28916192706655619 0.039481024788541513 0 -0.27962058912579718 0.039427640784089141 0 -0.29052625545098892 0.029628238256281261 0 -0.28916192706655619 0.039481024788541513 0 -0.29052625545098892 0.029628238256281261 0 -0.29669525211612968 0.032769048495843452 0 -0.28916192706655619 0.039481024788541513 0 -0.28310569310592648 0.050128214680881293 0 -0.28916192706655619 0.039481024788541513 0 -0.29674004404481708 0.045503979801786762 0 -0.29669525211612968 0.032769048495843452 0 -0.28916192706655619 0.039481024788541513 0 -0.29674004404481708 0.045503979801786762 0 -0.29674004404481708 0.045503979801786762 0 -0.30569808876256538 0.038244063799083593 0 -0.31328751281430861 0.046408010642453909 0 -0.30569808876256538 0.038244063799083593 0 -0.31328751281430861 0.046408010642453909 0 -0.31379582314277987 0.027679776142926521 0 -0.29669525211612968 0.032769048495843452 0 -0.30569808876256538 0.038244063799083593 0 -0.31379582314277987 0.027679776142926521 0 -0.29669525211612968 0.032769048495843452 0 -0.29674004404481708 0.045503979801786762 0 -0.30569808876256538 0.038244063799083593 0 -0.29186582888125578 0.066038843351925225 0 -0.31328751281430861 0.046408010642453909 0 -0.29186582888125578 0.066038843351925225 0 -0.31328751281430861 0.046408010642453909 0 -0.31339491849600998 0.063747432470164775 0 -0.29186582888125578 0.066038843351925225 0 -0.29674004404481708 0.045503979801786762 0 -0.31328751281430861 0.046408010642453909 0 -0.31328751281430861 0.046408010642453909 0 -0.33079232810300779 0.042468012627824729 0 -0.32932862048195238 0.057368066107089617 0 -0.31328751281430861 0.046408010642453909 0 -0.32932862048195238 0.057368066107089617 0 -0.31339491849600998 0.063747432470164775 0 -0.33079232810300779 0.042468012627824729 0 -0.31379582314277987 0.027679776142926521 0 -0.33706539083457099 0.02573131402957067 0 -0.31328751281430861 0.046408010642453909 0 -0.33079232810300779 0.042468012627824729 0 -0.31379582314277987 0.027679776142926521 0 -0.33079232810300779 0.042468012627824729 0 -0.34403404017827699 0.048756163319912997 0 -0.34741313307230431 0.035894030716111559 0 -0.33079232810300779 0.042468012627824729 0 -0.33706539083457099 0.02573131402957067 0 -0.34741313307230431 0.035894030716111559 0 -0.3406733122742725 0.058828567634455882 0 -0.35257490485679033 0.058949609962122132 0 -0.33658086183940172 0.06706289141556207 0 -0.3406733122742725 0.058828567634455882 0 -0.32932862048195238 0.057368066107089617 0 -0.34403404017827699 0.048756163319912997 0 -0.3406733122742725 0.058828567634455882 0 -0.32932862048195238 0.057368066107089617 0 -0.33658086183940172 0.06706289141556207 0 -0.33079232810300779 0.042468012627824729 0 -0.32932862048195238 0.057368066107089617 0 -0.34403404017827699 0.048756163319912997 0 -0.32604278437505507 -0.00057843603705942334 0 -0.31649211491032991 0.0075987614368238279 0 -0.33127506590844968 0.010379394963250769 0 -0.3088322755339275 0.017182219601754669 0 -0.31649211491032991 0.0075987614368238279 0 -0.3217505672514171 0.017711962809228741 0 -0.31649211491032991 0.0075987614368238279 0 -0.3217505672514171 0.017711962809228741 0 -0.33127506590844968 0.010379394963250769 0 -0.31379582314277987 0.027679776142926521 0 -0.33706539083457099 0.02573131402957067 0 -0.3217505672514171 0.017711962809228741 0 -0.31379582314277987 0.027679776142926521 0 -0.33706539083457099 0.02573131402957067 0 -0.3088322755339275 0.017182219601754669 0 -0.3217505672514171 0.017711962809228741 0 -0.31379582314277987 0.027679776142926521 0 -0.3217505672514171 0.017711962809228741 0 -0.33706539083457099 0.02573131402957067 0 -0.33127506590844968 0.010379394963250769 0 -0.32604278437505507 -0.00057843603705942334 0 -0.33127506590844968 0.010379394963250769 0 -0.34169510618077381 0.0001937460219223971 0 -0.33706539083457099 0.02573131402957067 0 -0.33127506590844968 0.010379394963250769 0 -0.34526942064786798 0.010177204623406259 0 -0.33127506590844968 0.010379394963250769 0 -0.34169510618077381 0.0001937460219223971 0 -0.34526942064786798 0.010177204623406259 0 -0.36287466381577799 -0.00020400058517528621 0 -0.35284020879109368 -0.00095373573053672707 0 -0.35605573250715628 0.0077135419246969596 0 -0.35284020879109368 -0.00095373573053672707 0 -0.34169510618077381 0.0001937460219223971 0 -0.34526942064786798 0.010177204623406259 0 -0.35284020879109368 -0.00095373573053672707 0 -0.35605573250715628 0.0077135419246969596 0 -0.34526942064786798 0.010177204623406259 0 -0.35605573250715628 0.0077135419246969596 0 -0.34526942064786798 0.010177204623406259 0 -0.35292364804661119 0.016763396663240129 0 -0.35605573250715628 0.0077135419246969596 0 -0.35931648687510798 0.01359568366031416 0 -0.35292364804661119 0.016763396663240129 0 -0.33706539083457099 0.02573131402957067 0 -0.34526942064786798 0.010177204623406259 0 -0.35292364804661119 0.016763396663240129 0 -0.33706539083457099 0.02573131402957067 0 -0.3603349585263621 0.02378285191621635 0 -0.33706539083457099 0.02573131402957067 0 -0.35157308321992647 0.029586318577065181 0 -0.3603349585263621 0.02378285191621635 0 -0.33706539083457099 0.02573131402957067 0 -0.35292364804661119 0.016763396663240129 0 -0.3603349585263621 0.02378285191621635 0 -0.35931648687510798 0.01359568366031416 0 -0.35292364804661119 0.016763396663240129 0 -0.35979326408519091 0.019447832930521991 0 -0.35292364804661119 0.016763396663240129 0 -0.3603349585263621 0.02378285191621635 0 -0.35979326408519091 0.019447832930521991 0 -0.33706539083457099 0.02573131402957067 0 -0.35157308321992647 0.029586318577065181 0 -0.34741313307230431 0.035894030716111559 0 -0.35157308321992647 0.029586318577065181 0 -0.3603349585263621 0.02378285191621635 0 -0.36147885044646849 0.032937077646362202 0 -0.37629709539325201 0.022446272769353081 0 -0.3603349585263621 0.02378285191621635 0 -0.38092417059000577 0.028849202313640021 0 -0.36147885044646849 0.032937077646362202 0 -0.37629709539325201 0.022446272769353081 0 -0.3603349585263621 0.02378285191621635 0 -0.36975876873902208 0.027003851161392901 0 -0.37629709539325201 0.022446272769353081 0 -0.3603349585263621 0.02378285191621635 0 -0.36810634279441851 0.02061040285877009 0 -0.38092417059000577 0.028849202313640021 0 -0.36975876873902208 0.027003851161392901 0 -0.36147885044646849 0.032937077646362202 0 -0.3603349585263621 0.02378285191621635 0 -0.36147885044646849 0.032937077646362202 0 -0.3603349585263621 0.02378285191621635 0 -0.36975876873902208 0.027003851161392901 0 -0.36147885044646849 0.032937077646362202 0 -0.37510249736046869 0.014956919035563209 0 -0.36810634279441851 0.02061040285877009 0 -0.36981223105594491 0.011445240402384109 0 -0.37629709539325201 0.022446272769353081 0 -0.37510249736046869 0.014956919035563209 0 -0.36810634279441851 0.02061040285877009 0 -0.36810634279441851 0.02061040285877009 0 -0.36416220880211869 0.015501245072291279 0 -0.36981223105594491 0.011445240402384109 0 -0.36810634279441851 0.02061040285877009 0 -0.36309919355202258 0.019835583194449929 0 -0.36416220880211869 0.015501245072291279 0 -0.3603349585263621 0.02378285191621635 0 -0.36810634279441851 0.02061040285877009 0 -0.36309919355202258 0.019835583194449929 0 -0.3603349585263621 0.02378285191621635 0 -0.36309919355202258 0.019835583194449929 0 -0.35979326408519091 0.019447832930521991 0 -0.3603349585263621 0.02378285191621635 0 -0.35979326408519091 0.019447832930521991 0 -0.35931648687510798 0.01359568366031416 0 -0.35979326408519091 0.019447832930521991 0 -0.36416220880211869 0.015501245072291279 0 -0.36309919355202258 0.019835583194449929 0 -0.35979326408519091 0.019447832930521991 0 -0.36416220880211869 0.015501245072291279 0 -0.35931648687510798 0.01359568366031416 0 -0.36364758093446242 0.0085524017108204384 0 -0.36416220880211869 0.015501245072291279 0 -0.35605573250715628 0.0077135419246969596 0 -0.35931648687510798 0.01359568366031416 0 -0.36364758093446242 0.0085524017108204384 0 -0.36364758093446242 0.0085524017108204384 0 -0.36416220880211869 0.015501245072291279 0 -0.36981223105594491 0.011445240402384109 0 -0.37602548333172819 0.0091133998885727478 0 -0.36981223105594491 0.011445240402384109 0 -0.36995752774725699 0.0031307488956970248 0 -0.37510249736046869 0.014956919035563209 0 -0.37602548333172819 0.0091133998885727478 0 -0.36981223105594491 0.011445240402384109 0 -0.36364758093446242 0.0085524017108204384 0 -0.36981223105594491 0.011445240402384109 0 -0.36995752774725699 0.0031307488956970248 0 -0.36287466381577799 -0.00020400058517528621 0 -0.36364758093446242 0.0085524017108204384 0 -0.36995752774725699 0.0031307488956970248 0 -0.36287466381577799 -0.00020400058517528621 0 -0.35605573250715628 0.0077135419246969596 0 -0.36364758093446242 0.0085524017108204384 0 -0.35257490485679033 0.058949609962122132 0 -0.35391187218975811 0.046023516789389401 0 -0.36405843239495023 0.053580702302438173 0 -0.3406733122742725 0.058828567634455882 0 -0.35257490485679033 0.058949609962122132 0 -0.34403404017827699 0.048756163319912997 0 -0.35257490485679033 0.058949609962122132 0 -0.34403404017827699 0.048756163319912997 0 -0.35391187218975811 0.046023516789389401 0 -0.34403404017827699 0.048756163319912997 0 -0.34741313307230431 0.035894030716111559 0 -0.35391187218975811 0.046023516789389401 0 -0.34741313307230431 0.035894030716111559 0 -0.35391187218975811 0.046023516789389401 0 -0.36147885044646849 0.032937077646362202 0 -0.35157308321992647 0.029586318577065181 0 -0.34741313307230431 0.035894030716111559 0 -0.36147885044646849 0.032937077646362202 0 -0.34741313307230431 0.035894030716111559 0 -0.36147885044646849 0.032937077646362202 0 -0.36147885044646849 0.032937077646362202 0 -0.36405843239495023 0.053580702302438173 0 -0.35391187218975811 0.046023516789389401 0 -0.36147885044646849 0.032937077646362202 0 -0.36405843239495023 0.053580702302438173 0 -0.37825752026316828 0.045926596126056082 0 -0.36147885044646849 0.032937077646362202 0 -0.36405843239495023 0.053580702302438173 0 -0.37825752026316828 0.045926596126056082 0 -0.38092417059000577 0.028849202313640021 0 -0.36147885044646849 0.032937077646362202 0 -0.37729163114285852 0.061108069570809963 0 -0.37825752026316828 0.045926596126056082 0 -0.36405843239495023 0.053580702302438173 0 -0.35257490485679033 0.058949609962122132 0 -0.36405843239495023 0.053580702302438173 0 -0.36663801434343141 0.074224326958514206 0 -0.36405843239495023 0.053580702302438173 0 -0.36663801434343141 0.074224326958514206 0 -0.37729163114285852 0.061108069570809963 0 -0.36405843239495023 0.053580702302438173 0 -0.36663801434343141 0.074224326958514206 0 -0.35257490485679033 0.058949609962122132 0 -0.36663801434343141 0.074224326958514206 0 -0.35032213319339078 0.075884910237294989 0 -0.35257490485679033 0.058949609962122132 0 -0.35032213319339078 0.075884910237294989 0 -0.33551117082181092 0.081893718105687269 0 -0.35257490485679033 0.058949609962122132 0 -0.33551117082181092 0.081893718105687269 0 -0.36663801434343141 0.074224326958514206 0 -0.35032213319339078 0.075884910237294989 0 -0.35637167210773513 0.08848304999594514 0 -0.35637167210773513 0.08848304999594514 0 -0.36710458130056811 0.09800089623781913 0 -0.34260023878091861 0.092499561037945294 0 -0.3462013037259638 0.084690309844218173 0 -0.35637167210773513 0.08848304999594514 0 -0.34260023878091861 0.092499561037945294 0 -0.35032213319339078 0.075884910237294989 0 -0.3462013037259638 0.084690309844218173 0 -0.35637167210773513 0.08848304999594514 0 -0.35032213319339078 0.075884910237294989 0 -0.3462013037259638 0.084690309844218173 0 -0.33551117082181092 0.081893718105687269 0 -0.38224059500155211 0.075558891360543959 0 -0.36663801434343141 0.074224326958514206 0 -0.36921759629191309 0.094867951614590135 0 -0.36663801434343141 0.074224326958514206 0 -0.36921759629191309 0.094867951614590135 0 -0.36663801434343141 0.074224326958514206 0 -0.35637167210773513 0.08848304999594514 0 -0.36921759629191309 0.094867951614590135 0 -0.36710458130056811 0.09800089623781913 0 -0.35524963595769382 0.115578096315747 0 -0.38581127907702339 0.092013351679691144 0 -0.36921759629191309 0.094867951614590135 0 -0.36968137034418957 0.098579396977308803 0 -0.36968137034418957 0.098579396977308803 0 -0.36710458130056811 0.09800089623781913 0 -0.35524963595769382 0.115578096315747 0 -0.36921759629191309 0.094867951614590135 0 -0.36968137034418957 0.098579396977308803 0 -0.36921759629191309 0.094867951614590135 0 -0.36968137034418957 0.098579396977308803 0 -0.36710458130056811 0.09800089623781913 0 -0.36921759629191309 0.094867951614590135 0 -0.36710458130056811 0.09800089623781913 0 -0.36968137034418957 0.098579396977308803 0 -0.36710458130056811 0.09800089623781913 0 -0.35637167210773513 0.08848304999594514 0 -0.36921759629191309 0.094867951614590135 0 -0.36710458130056811 0.09800089623781913 0 -0.36968137034418957 0.098579396977308803 0 -0.37288429182261751 0.1242114219038563 0 -0.35524963595769382 0.115578096315747 0 -0.36968137034418957 0.098579396977308803 0 -0.37288429182261751 0.1242114219038563 0 -0.35950853425556911 0.13319734615059009 0 -0.37288429182261751 0.1242114219038563 0 -0.35524963595769382 0.115578096315747 0 -0.34339469061482231 0.13315529639367671 0 -0.35524963595769382 0.115578096315747 0 -0.35524963595769382 0.115578096315747 0 -0.35039745006522638 0.10417771049572989 0 -0.33810668009224992 0.1118401160922879 0 -0.34339469061482231 0.13315529639367671 0 -0.35524963595769382 0.115578096315747 0 -0.33810668009224992 0.1118401160922879 0 -0.36710458130056811 0.09800089623781913 0 -0.34260023878091861 0.092499561037945294 0 -0.36710458130056811 0.09800089623781913 0 -0.35524963595769382 0.115578096315747 0 -0.35039745006522638 0.10417771049572989 0 -0.36710458130056811 0.09800089623781913 0 -0.35039745006522638 0.10417771049572989 0 -0.34260023878091861 0.092499561037945294 0 -0.35039745006522638 0.10417771049572989 0 -0.33810668009224992 0.1118401160922879 0 -0.34260023878091861 0.092499561037945294 0 -0.33810668009224992 0.1118401160922879 0 -0.31844743678682941 0.1048378262492506 0 -0.34260023878091861 0.092499561037945294 0 -0.3270255229622156 0.12774929361843371 0 -0.34339469061482231 0.13315529639367671 0 -0.33810668009224992 0.1118401160922879 0 -0.3270255229622156 0.12774929361843371 0 -0.31844743678682941 0.1048378262492506 0 -0.30736282391219338 0.1197423340201717 0 -0.3168793687521726 0.1245983052550378 0 -0.31844743678682941 0.1048378262492506 0 -0.3270255229622156 0.12774929361843371 0 -0.3168793687521726 0.1245983052550378 0 -0.31844743678682941 0.1048378262492506 0 -0.3270255229622156 0.12774929361843371 0 -0.33810668009224992 0.1118401160922879 0 -0.31844743678682941 0.1048378262492506 0 -0.30736282391219338 0.1197423340201717 0 -0.31844743678682941 0.1048378262492506 0 -0.31844743678682941 0.1048378262492506 0 -0.32123779779149592 0.084297407830269483 0 -0.33551117082181092 0.081893718105687269 0 -0.31844743678682941 0.1048378262492506 0 -0.33551117082181092 0.081893718105687269 0 -0.3080259730216881 0.077002826447173017 0 -0.31844743678682941 0.1048378262492506 0 -0.32123779779149592 0.084297407830269483 0 -0.3080259730216881 0.077002826447173017 0 -0.31844743678682941 0.1048378262492506 0 -0.32123779779149592 0.084297407830269483 0 -0.32446665728084478 0.071919415802182141 0 -0.33551117082181092 0.081893718105687269 0 -0.3080259730216881 0.077002826447173017 0 -0.32123779779149592 0.084297407830269483 0 -0.32446665728084478 0.071919415802182141 0 -0.3080259730216881 0.077002826447173017 0 -0.31339491849600998 0.063747432470164775 0 -0.32446665728084478 0.071919415802182141 0 -0.32932862048195238 0.057368066107089617 0 -0.31339491849600998 0.063747432470164775 0 -0.32446665728084478 0.071919415802182141 0 -0.32446665728084478 0.071919415802182141 0 -0.33658086183940172 0.06706289141556207 0 -0.33551117082181092 0.081893718105687269 0 -0.35257490485679033 0.058949609962122132 0 -0.33658086183940172 0.06706289141556207 0 -0.33551117082181092 0.081893718105687269 0 -0.32932862048195238 0.057368066107089617 0 -0.32446665728084478 0.071919415802182141 0 -0.33658086183940172 0.06706289141556207 0 -0.31844743678682941 0.1048378262492506 0 -0.34260023878091861 0.092499561037945294 0 -0.33551117082181092 0.081893718105687269 0 -0.3462013037259638 0.084690309844218173 0 -0.34260023878091861 0.092499561037945294 0 -0.33551117082181092 0.081893718105687269 0 -0.39651838747466339 0.47394432849503598 0 -0.40188179970876031 0.48526020250046897 0 -0.39372364564679779 0.49093896171438928 0 -0.39651838747466339 0.47394432849503598 0 -0.40913122766699778 0.47615751979245169 0 -0.39651838747466339 0.47394432849503598 0 -0.40188179970876031 0.48526020250046897 0 -0.40913122766699778 0.47615751979245169 0 -0.39372364564679779 0.49093896171438928 0 -0.38123887431339581 0.5 0 -0.40815393804658628 0.5000000000000171 0 -0.40188179970876031 0.48526020250046897 0 -0.39372364564679779 0.49093896171438928 0 -0.40815393804658628 0.5000000000000171 0 -0.39651838747466339 0.47394432849503598 0 -0.38118635390301531 0.49826738227632439 0 -0.39651838747466339 0.47394432849503598 0 -0.39372364564679779 0.49093896171438928 0 -0.38118635390301531 0.49826738227632439 0 -0.38118635390301531 0.49826738227632439 0 -0.37758615809245688 0.48856506227096308 0 -0.38265777613394292 0.48249296953548831 0 -0.39651838747466339 0.47394432849503598 0 -0.38118635390301531 0.49826738227632439 0 -0.38265777613394292 0.48249296953548831 0 -0.39372364564679779 0.49093896171438928 0 -0.38118635390301531 0.49826738227632439 0 -0.38123887431339581 0.5 0 -0.38118635390301531 0.49826738227632439 0 -0.37758615809245688 0.48856506227096308 0 -0.36743429158012608 0.48620629452141523 0 -0.38265777613394292 0.48249296953548831 0 -0.37526499686547798 0.47949172834642351 0 -0.37988262705014297 0.47102523020825299 0 -0.39651838747466339 0.47394432849503598 0 -0.37988262705014297 0.47102523020825299 0 -0.37758615809245688 0.48856506227096308 0 -0.38265777613394292 0.48249296953548831 0 -0.37526499686547798 0.47949172834642351 0 -0.39651838747466339 0.47394432849503598 0 -0.38265777613394292 0.48249296953548831 0 -0.37988262705014297 0.47102523020825299 0 -0.37988262705014297 0.47102523020825299 0 -0.38572000477373541 0.45944708158615633 0 -0.37205691663698409 0.45999325085252107 0 -0.39651838747466339 0.47394432849503598 0 -0.37988262705014297 0.47102523020825299 0 -0.38572000477373541 0.45944708158615633 0 -0.38572000477373541 0.45944708158615633 0 -0.37544029859325118 0.44747915153378331 0 -0.37205691663698409 0.45999325085252107 0 -0.38572000477373541 0.45944708158615633 0 -0.38882182105873309 0.44857077967345799 0 -0.39610968390004753 0.45593224488899559 0 -0.37544029859325118 0.44747915153378331 0 -0.38667177372313388 0.43775646185617317 0 -0.37751695372585831 0.42895811772820769 0 -0.38572000477373541 0.45944708158615633 0 -0.37544029859325118 0.44747915153378331 0 -0.38882182105873309 0.44857077967345799 0 -0.37544029859325118 0.44747915153378331 0 -0.38882182105873309 0.44857077967345799 0 -0.38667177372313388 0.43775646185617317 0 -0.38882182105873309 0.44857077967345799 0 -0.38667177372313388 0.43775646185617317 0 -0.39932333775898349 0.44554200330215171 0 -0.38882182105873309 0.44857077967345799 0 -0.39932333775898349 0.44554200330215171 0 -0.39610968390004753 0.45593224488899559 0 -0.39932333775898349 0.44554200330215171 0 -0.39610968390004753 0.45593224488899559 0 -0.41010546482033472 0.45238950920348958 0 -0.39651838747466339 0.47394432849503598 0 -0.41010546482033472 0.45238950920348958 0 -0.40913122766699778 0.47615751979245169 0 -0.39651838747466339 0.47394432849503598 0 -0.38572000477373541 0.45944708158615633 0 -0.39610968390004753 0.45593224488899559 0 -0.39651838747466339 0.47394432849503598 0 -0.41010546482033472 0.45238950920348958 0 -0.39651838747466339 0.47394432849503598 0 -0.39610968390004753 0.45593224488899559 0 -0.41010546482033472 0.45238950920348958 0 -0.41478474660388731 0.45872963948030249 0 -0.42195380780412978 0.46888430165124101 0 -0.40913122766699778 0.47615751979245169 0 -0.41478474660388731 0.45872963948030249 0 -0.41010546482033472 0.45238950920348958 0 -0.40913122766699778 0.47615751979245169 0 -0.41010546482033472 0.45238950920348958 0 -0.40913122766699778 0.47615751979245169 0 -0.41478474660388731 0.45872963948030249 0 -0.42054426793302851 0.45193372131677251 0 -0.42387193395908801 0.45948771491266549 0 -0.41478474660388731 0.45872963948030249 0 -0.42387193395908801 0.45948771491266549 0 -0.42195380780412978 0.46888430165124101 0 -0.41398044451652061 0.44624216161833569 0 -0.41010546482033472 0.45238950920348958 0 -0.41093594768492758 0.43212860511934759 0 -0.41398044451652061 0.44624216161833569 0 -0.41287343753301292 0.42905493132677047 0 -0.39932333775898349 0.44554200330215171 0 -0.41010546482033472 0.45238950920348958 0 -0.41093594768492758 0.43212860511934759 0 -0.41010546482033472 0.45238950920348958 0 -0.41093594768492758 0.43212860511934759 0 -0.41478474660388731 0.45872963948030249 0 -0.41398044451652061 0.44624216161833569 0 -0.41010546482033472 0.45238950920348958 0 -0.41398044451652061 0.44624216161833569 0 -0.41010546482033472 0.45238950920348958 0 -0.41478474660388731 0.45872963948030249 0 -0.41398044451652061 0.44624216161833569 0 -0.42054426793302851 0.45193372131677251 0 -0.41478474660388731 0.45872963948030249 0 -0.41398044451652061 0.44624216161833569 0 -0.41398044451652061 0.44624216161833569 0 -0.42054426793302851 0.45193372131677251 0 -0.42281650984382041 0.44425477854095302 0 -0.41398044451652061 0.44624216161833569 0 -0.42301931899253847 0.43190270501755063 0 -0.41398044451652061 0.44624216161833569 0 -0.42281650984382041 0.44425477854095302 0 -0.42301931899253847 0.43190270501755063 0 -0.42281650984382041 0.44425477854095302 0 -0.42726770474182718 0.4509543120316058 0 -0.43192081730955711 0.43991499542901069 0 -0.42281650984382041 0.44425477854095302 0 -0.43192081730955711 0.43991499542901069 0 -0.42301931899253847 0.43190270501755063 0 -0.42054426793302851 0.45193372131677251 0 -0.42281650984382041 0.44425477854095302 0 -0.42726770474182718 0.4509543120316058 0 -0.42726770474182718 0.4509543120316058 0 -0.43192081730955711 0.43991499542901069 0 -0.43785395315509762 0.45075108819435422 0 -0.42726770474182718 0.4509543120316058 0 -0.43163652849366752 0.45753607286575337 0 -0.43785395315509762 0.45075108819435422 0 -0.42387193395908801 0.45948771491266549 0 -0.43084073239609522 0.4663451078590507 0 -0.42195380780412978 0.46888430165124101 0 -0.42387193395908801 0.45948771491266549 0 -0.43163652849366752 0.45753607286575337 0 -0.43084073239609522 0.4663451078590507 0 -0.42054426793302851 0.45193372131677251 0 -0.42726770474182718 0.4509543120316058 0 -0.42387193395908801 0.45948771491266549 0 -0.42726770474182718 0.4509543120316058 0 -0.42387193395908801 0.45948771491266549 0 -0.43163652849366752 0.45753607286575337 0 -0.43163652849366752 0.45753607286575337 0 -0.44207204443722342 0.46270854352675822 0 -0.43785395315509762 0.45075108819435422 0 -0.43163652849366752 0.45753607286575337 0 -0.43084073239609522 0.4663451078590507 0 -0.44207204443722342 0.46270854352675822 0 -0.40913122766699778 0.47615751979245169 0 -0.42592766382879521 0.49059914338498761 0 -0.43785824661465322 0.48119828676997722 0 -0.43084073239609522 0.4663451078590507 0 -0.42195380780412978 0.46888430165124101 0 -0.43785824661465322 0.48119828676997722 0 -0.43084073239609522 0.4663451078590507 0 -0.43785824661465322 0.48119828676997722 0 -0.44207204443722342 0.46270854352675822 0 -0.41399708104293681 0.49999999999999728 0 -0.42592766382879521 0.49059914338498761 0 -0.4533462727810485 0.48391599064970447 0 -0.42195380780412978 0.46888430165124101 0 -0.40913122766699778 0.47615751979245169 0 -0.43785824661465322 0.48119828676997722 0 -0.40913122766699778 0.47615751979245169 0 -0.43785824661465322 0.48119828676997722 0 -0.40913122766699778 0.47615751979245169 0 -0.40815393804658628 0.5000000000000171 0 -0.41399708104293681 0.49999999999999728 0 -0.40188179970876031 0.48526020250046897 0 -0.40913122766699778 0.47615751979245169 0 -0.40815393804658628 0.5000000000000171 0 -0.40913122766699778 0.47615751979245169 0 -0.40815393804658628 0.5000000000000171 0 -0.40913122766699778 0.47615751979245169 0 -0.41399708104293681 0.49999999999999728 0 -0.42592766382879521 0.49059914338498761 0 -0.41399708104293681 0.49999999999999728 0 -0.42592766382879521 0.49059914338498761 0 -0.42592766382879521 0.49059914338498761 0 -0.43785824661465322 0.48119828676997722 0 -0.42592766382879521 0.49059914338498761 0 -0.43785824661465322 0.48119828676997722 0 -0.4533462727810485 0.48391599064970447 0 -0.41399708104293681 0.49999999999999728 0 -0.4533462727810485 0.48391599064970447 0 -0.5 0.5 0 -0.5 0.5 0 -0.48700262844200198 0.44247433712858741 0 -0.5 0.40249255150606611 0 -0.43785824661465322 0.48119828676997722 0 -0.45423970722377072 0.46829030355618217 0 -0.44207204443722342 0.46270854352675822 0 -0.43785824661465322 0.48119828676997722 0 -0.4533462727810485 0.48391599064970447 0 -0.45423970722377072 0.46829030355618217 0 -0.43785824661465322 0.48119828676997722 0 -0.45423970722377072 0.46829030355618217 0 -0.43785824661465322 0.48119828676997722 0 -0.4533462727810485 0.48391599064970447 0 -0.4533462727810485 0.48391599064970447 0 -0.47348998456403357 0.47209282470462272 0 -0.45423970722377072 0.46829030355618217 0 -0.5 0.5 0 -0.47348998456403357 0.47209282470462272 0 -0.48700262844200198 0.44247433712858741 0 -0.4533462727810485 0.48391599064970447 0 -0.5 0.5 0 -0.47348998456403357 0.47209282470462272 0 -0.47348998456403357 0.47209282470462272 0 -0.48700262844200198 0.44247433712858741 0 -0.47062116783288638 0.45538232034238468 0 -0.48700262844200198 0.44247433712858741 0 -0.47062116783288638 0.45538232034238468 0 -0.48700262844200198 0.44247433712858741 0 -0.47062116783288638 0.45538232034238468 0 -0.4673233129846171 0.43814454578607909 0 -0.4673233129846171 0.43814454578607909 0 -0.45303301306101351 0.44876998865927431 0 -0.45265181592420628 0.42825183580592507 0 -0.47062116783288638 0.45538232034238468 0 -0.4673233129846171 0.43814454578607909 0 -0.45303301306101351 0.44876998865927431 0 -0.47062116783288638 0.45538232034238468 0 -0.45423970722377072 0.46829030355618217 0 -0.45303301306101351 0.44876998865927431 0 -0.47062116783288638 0.45538232034238468 0 -0.45423970722377072 0.46829030355618217 0 -0.47348998456403357 0.47209282470462272 0 -0.47062116783288638 0.45538232034238468 0 -0.45423970722377072 0.46829030355618217 0 -0.45423970722377072 0.46829030355618217 0 -0.44207204443722342 0.46270854352675822 0 -0.45303301306101351 0.44876998865927431 0 -0.44207204443722342 0.46270854352675822 0 -0.45303301306101351 0.44876998865927431 0 -0.43785395315509762 0.45075108819435422 0 -0.45303301306101351 0.44876998865927431 0 -0.44360202655286168 0.4388531832003974 0 -0.45265181592420628 0.42825183580592507 0 -0.45303301306101351 0.44876998865927431 0 -0.43785395315509762 0.45075108819435422 0 -0.44360202655286168 0.4388531832003974 0 -0.43192081730955711 0.43991499542901069 0 -0.43785395315509762 0.45075108819435422 0 -0.44360202655286168 0.4388531832003974 0 -0.44360202655286168 0.4388531832003974 0 -0.45265181592420628 0.42825183580592507 0 -0.43485866563061798 0.42409682419123901 0 -0.45265181592420628 0.42825183580592507 0 -0.43983706267688638 0.40391940948595872 0 -0.45265181592420628 0.42825183580592507 0 -0.43983706267688638 0.40391940948595872 0 -0.43485866563061798 0.42409682419123901 0 -0.45265181592420628 0.42825183580592507 0 -0.4583709103017477 0.3989566529996551 0 -0.43983706267688638 0.40391940948595872 0 -0.45265181592420628 0.42825183580592507 0 -0.47330793966297752 0.41584424699422412 0 -0.4583709103017477 0.3989566529996551 0 -0.4673233129846171 0.43814454578607909 0 -0.45265181592420628 0.42825183580592507 0 -0.47330793966297752 0.41584424699422412 0 -0.48700262844200198 0.44247433712858741 0 -0.47330793966297752 0.41584424699422412 0 -0.5 0.40249255150606611 0 -0.48700262844200198 0.44247433712858741 0 -0.4673233129846171 0.43814454578607909 0 -0.47330793966297752 0.41584424699422412 0 -0.5 0.40249255150606611 0 -0.47220342618925581 0.38766992873300798 0 -0.48071775549589912 0.36593397050009108 0 -0.47330793966297752 0.41584424699422412 0 -0.5 0.40249255150606611 0 -0.47220342618925581 0.38766992873300798 0 -0.47220342618925581 0.38766992873300798 0 -0.4583709103017477 0.3989566529996551 0 -0.44847417915411641 0.38127285243336728 0 -0.47220342618925581 0.38766992873300798 0 -0.44847417915411641 0.38127285243336728 0 -0.45928328929899798 0.36342421901998889 0 -0.47330793966297752 0.41584424699422412 0 -0.47220342618925581 0.38766992873300798 0 -0.4583709103017477 0.3989566529996551 0 -0.4583709103017477 0.3989566529996551 0 -0.43983706267688638 0.40391940948595872 0 -0.44847417915411641 0.38127285243336728 0 -0.43983706267688638 0.40391940948595872 0 -0.44847417915411641 0.38127285243336728 0 -0.42702230942956532 0.37958698316599299 0 -0.42702230942956532 0.37958698316599299 0 -0.41303126941258272 0.38101001572993243 0 -0.41211321731936651 0.40340730554537513 0 -0.41303126941258272 0.38101001572993243 0 -0.40979053381671232 0.3811902141856518 0 -0.41211321731936651 0.40340730554537513 0 -0.40979053381671232 0.3811902141856518 0 -0.41211321731936651 0.40340730554537513 0 -0.40312697538488379 0.398245376598034 0 -0.40979053381671232 0.3811902141856518 0 -0.41211321731936651 0.40340730554537513 0 -0.41303126941258272 0.38101001572993243 0 -0.41211321731936651 0.40340730554537513 0 -0.42702230942956532 0.37958698316599299 0 -0.41211321731936651 0.40340730554537513 0 -0.42488398688935458 0.40714767282236142 0 -0.42702230942956532 0.37958698316599299 0 -0.41211321731936651 0.40340730554537513 0 -0.43983706267688638 0.40391940948595872 0 -0.42702230942956532 0.37958698316599299 0 -0.43983706267688638 0.40391940948595872 0 -0.42702230942956532 0.37958698316599299 0 -0.42488398688935458 0.40714767282236142 0 -0.43983706267688638 0.40391940948595872 0 -0.42488398688935458 0.40714767282236142 0 -0.43485866563061798 0.42409682419123901 0 -0.42488398688935458 0.40714767282236142 0 -0.43485866563061798 0.42409682419123901 0 -0.4215684471099545 0.42083807950831942 0 -0.43192081730955711 0.43991499542901069 0 -0.44360202655286168 0.4388531832003974 0 -0.43485866563061798 0.42409682419123901 0 -0.43192081730955711 0.43991499542901069 0 -0.43485866563061798 0.42409682419123901 0 -0.42301931899253847 0.43190270501755063 0 -0.43485866563061798 0.42409682419123901 0 -0.42301931899253847 0.43190270501755063 0 -0.4215684471099545 0.42083807950831942 0 -0.41093594768492758 0.43212860511934759 0 -0.41287343753301292 0.42905493132677047 0 -0.41176643054950718 0.41186770103520509 0 -0.41093594768492758 0.43212860511934759 0 -0.41176643054950718 0.41186770103520509 0 -0.41398044451652061 0.44624216161833569 0 -0.41093594768492758 0.43212860511934759 0 -0.41287343753301292 0.42905493132677047 0 -0.41398044451652061 0.44624216161833569 0 -0.42301931899253847 0.43190270501755063 0 -0.41287343753301292 0.42905493132677047 0 -0.42301931899253847 0.43190270501755063 0 -0.41287343753301292 0.42905493132677047 0 -0.4215684471099545 0.42083807950831942 0 -0.41093594768492758 0.43212860511934759 0 -0.40641143005016128 0.41251707627366357 0 -0.41176643054950718 0.41186770103520509 0 -0.41287343753301292 0.42905493132677047 0 -0.4215684471099545 0.42083807950831942 0 -0.41176643054950718 0.41186770103520509 0 -0.41287343753301292 0.42905493132677047 0 -0.41176643054950718 0.41186770103520509 0 -0.41211321731936651 0.40340730554537513 0 -0.42488398688935458 0.40714767282236142 0 -0.41176643054950718 0.41186770103520509 0 -0.42488398688935458 0.40714767282236142 0 -0.4215684471099545 0.42083807950831942 0 -0.41176643054950718 0.41186770103520509 0 -0.41211321731936651 0.40340730554537513 0 -0.41176643054950718 0.41186770103520509 0 -0.41211321731936651 0.40340730554537513 0 -0.40641143005016128 0.41251707627366357 0 -0.41176643054950718 0.41186770103520509 0 -0.41211321731936651 0.40340730554537513 0 -0.40641143005016128 0.41251707627366357 0 -0.40308245869331172 0.40709070602316072 0 -0.41211321731936651 0.40340730554537513 0 -0.40641143005016128 0.41251707627366357 0 -0.40308245869331172 0.40709070602316072 0 -0.39784554907476061 0.41520516152810111 0 -0.39672363090201662 0.40478685134402442 0 -0.39784554907476061 0.41520516152810111 0 -0.39243024306015062 0.4240627859780563 0 -0.38553714836131731 0.40258356865396122 0 -0.40641143005016128 0.41251707627366357 0 -0.40308245869331172 0.40709070602316072 0 -0.39784554907476061 0.41520516152810111 0 -0.41093594768492758 0.43212860511934759 0 -0.40641143005016128 0.41251707627366357 0 -0.39784554907476061 0.41520516152810111 0 -0.39784554907476061 0.41520516152810111 0 -0.38553714836131731 0.40258356865396122 0 -0.39672363090201662 0.40478685134402442 0 -0.39932333775898349 0.44554200330215171 0 -0.39243024306015062 0.4240627859780563 0 -0.39932333775898349 0.44554200330215171 0 -0.41093594768492758 0.43212860511934759 0 -0.39243024306015062 0.4240627859780563 0 -0.41093594768492758 0.43212860511934759 0 -0.39784554907476061 0.41520516152810111 0 -0.39243024306015062 0.4240627859780563 0 -0.38667177372313388 0.43775646185617317 0 -0.39932333775898349 0.44554200330215171 0 -0.39243024306015062 0.4240627859780563 0 -0.38667177372313388 0.43775646185617317 0 -0.39243024306015062 0.4240627859780563 0 -0.37751695372585831 0.42895811772820769 0 -0.39243024306015062 0.4240627859780563 0 -0.37751695372585831 0.42895811772820769 0 -0.38553714836131731 0.40258356865396122 0 -0.37751695372585831 0.42895811772820769 0 -0.38553714836131731 0.40258356865396122 0 -0.36369939129051299 0.42280224804719713 0 -0.39243024306015062 0.4240627859780563 0 -0.38553714836131731 0.40258356865396122 0 -0.37684719813873402 0.39474512111051518 0 -0.38553714836131731 0.40258356865396122 0 -0.36417286906282609 0.40746008020869801 0 -0.38553714836131731 0.40258356865396122 0 -0.37729908560740633 0.37691336565344752 0 -0.39395897212032571 0.3947861490775072 0 -0.37684719813873402 0.39474512111051518 0 -0.38553714836131731 0.40258356865396122 0 -0.37729908560740633 0.37691336565344752 0 -0.38553714836131731 0.40258356865396122 0 -0.39395897212032571 0.3947861490775072 0 -0.37729908560740633 0.37691336565344752 0 -0.39363192654861617 0.37838995862909391 0 -0.39395897212032571 0.3947861490775072 0 -0.38553714836131731 0.40258356865396122 0 -0.37729908560740633 0.37691336565344752 0 -0.37684719813873402 0.39474512111051518 0 -0.37729908560740633 0.37691336565344752 0 -0.37261332619671661 0.37988145980262988 0 -0.40979053381671232 0.3811902141856518 0 -0.39363192654861617 0.37838995862909391 0 -0.39395897212032571 0.3947861490775072 0 -0.40979053381671232 0.3811902141856518 0 -0.39363192654861617 0.37838995862909391 0 -0.3978892563572804 0.36753917996145352 0 -0.40979053381671232 0.3811902141856518 0 -0.40312697538488379 0.398245376598034 0 -0.39395897212032571 0.3947861490775072 0 -0.41211321731936651 0.40340730554537513 0 -0.40308245869331172 0.40709070602316072 0 -0.40312697538488379 0.398245376598034 0 -0.40308245869331172 0.40709070602316072 0 -0.40312697538488379 0.398245376598034 0 -0.39672363090201662 0.40478685134402442 0 -0.38553714836131731 0.40258356865396122 0 -0.39672363090201662 0.40478685134402442 0 -0.39395897212032571 0.3947861490775072 0 -0.40312697538488379 0.398245376598034 0 -0.39672363090201662 0.40478685134402442 0 -0.39395897212032571 0.3947861490775072 0 -0.38866869121609032 0.35446226332612951 0 -0.39444006253755198 0.34201708727176922 0 -0.40827635957868819 0.35768136399932332 0 -0.38866869121609032 0.35446226332612951 0 -0.40827635957868819 0.35768136399932332 0 -0.40979053381671232 0.3811902141856518 0 -0.3978892563572804 0.36753917996145352 0 -0.40827635957868819 0.35768136399932332 0 -0.3978892563572804 0.36753917996145352 0 -0.38866869121609032 0.35446226332612951 0 -0.40827635957868819 0.35768136399932332 0 -0.39363192654861617 0.37838995862909391 0 -0.3978892563572804 0.36753917996145352 0 -0.38639111999978332 0.3674132923219518 0 -0.3978892563572804 0.36753917996145352 0 -0.38639111999978332 0.3674132923219518 0 -0.38866869121609032 0.35446226332612951 0 -0.38639111999978332 0.3674132923219518 0 -0.38042273119276088 0.36029766295296012 0 -0.38866869121609032 0.35446226332612951 0 -0.37729908560740633 0.37691336565344752 0 -0.39363192654861617 0.37838995862909391 0 -0.38639111999978332 0.3674132923219518 0 -0.37729908560740633 0.37691336565344752 0 -0.38639111999978332 0.3674132923219518 0 -0.37829348991336081 0.36396687089532348 0 -0.38639111999978332 0.3674132923219518 0 -0.38042273119276088 0.36029766295296012 0 -0.37829348991336081 0.36396687089532348 0 -0.38866869121609032 0.35446226332612951 0 -0.36906102285349263 0.35124316265293481 0 -0.38866869121609032 0.35446226332612951 0 -0.37988562128689429 0.34284984480764552 0 -0.36906102285349263 0.35124316265293481 0 -0.38042273119276088 0.36029766295296012 0 -0.38866869121609032 0.35446226332612951 0 -0.36906102285349263 0.35124316265293481 0 -0.38042273119276088 0.36029766295296012 0 -0.37829348991336081 0.36396687089532348 0 -0.36906102285349263 0.35124316265293481 0 -0.38866869121609032 0.35446226332612951 0 -0.37988562128689429 0.34284984480764552 0 -0.39444006253755198 0.34201708727176922 0 -0.37988562128689429 0.34284984480764552 0 -0.3848166482689257 0.33187159538396488 0 -0.37338648306743499 0.33577570995908618 0 -0.3848166482689257 0.33187159538396488 0 -0.37119583518251048 0.32486854935313869 0 -0.37338648306743499 0.33577570995908618 0 -0.37988562128689429 0.34284984480764552 0 -0.3848166482689257 0.33187159538396488 0 -0.39444006253755198 0.34201708727176922 0 -0.3848166482689257 0.33187159538396488 0 -0.38365658521709428 0.31817359109501742 0 -0.37119583518251048 0.32486854935313869 0 -0.38365658521709428 0.31817359109501742 0 -0.40633530232206622 0.32754478981713309 0 -0.38365658521709428 0.31817359109501742 0 -0.40576685474938518 0.31871915503263493 0 -0.40633530232206622 0.32754478981713309 0 -0.3848166482689257 0.33187159538396488 0 -0.38365658521709428 0.31817359109501742 0 -0.40633530232206622 0.32754478981713309 0 -0.40576685474938518 0.31871915503263493 0 -0.40633530232206622 0.32754478981713309 0 -0.3848166482689257 0.33187159538396488 0 -0.39444006253755198 0.34201708727176922 0 -0.40633530232206622 0.32754478981713309 0 -0.39444006253755198 0.34201708727176922 0 -0.40633530232206622 0.32754478981713309 0 -0.40827635957868819 0.35768136399932332 0 -0.41507475423071488 0.33115606730601338 0 -0.414095678383261 0.35504212526442303 0 -0.40633530232206622 0.32754478981713309 0 -0.40827635957868819 0.35768136399932332 0 -0.41507475423071488 0.33115606730601338 0 -0.40633530232206622 0.32754478981713309 0 -0.41017023689786131 0.34758856655175102 0 -0.41507475423071488 0.33115606730601338 0 -0.40633530232206622 0.32754478981713309 0 -0.41507475423071488 0.33115606730601338 0 -0.40633530232206622 0.32754478981713309 0 -0.41525950217577579 0.32664885764041329 0 -0.41507475423071488 0.33115606730601338 0 -0.42310427969802622 0.33959634866456728 0 -0.42611748372897079 0.33571909492721319 0 -0.41507475423071488 0.33115606730601338 0 -0.42611748372897079 0.33571909492721319 0 -0.41525950217577579 0.32664885764041329 0 -0.42611748372897079 0.33571909492721319 0 -0.41507475423071488 0.33115606730601338 0 -0.41525950217577579 0.32664885764041329 0 -0.42611748372897079 0.33571909492721319 0 -0.41507475423071488 0.33115606730601338 0 -0.41525950217577579 0.32664885764041329 0 -0.41507475423071488 0.33115606730601338 0 -0.42310427969802622 0.33959634866456728 0 -0.41977672158752788 0.34511926291189993 0 -0.41525950217577579 0.32664885764041329 0 -0.41634025711388301 0.30028218221164332 0 -0.41525950217577579 0.32664885764041329 0 -0.42687290991077342 0.31958500164778969 0 -0.41634025711388301 0.30028218221164332 0 -0.40576685474938518 0.31871915503263493 0 -0.41525950217577579 0.32664885764041329 0 -0.41634025711388301 0.30028218221164332 0 -0.40576685474938518 0.31871915503263493 0 -0.41525950217577579 0.32664885764041329 0 -0.40576685474938518 0.31871915503263493 0 -0.40633530232206622 0.32754478981713309 0 -0.41525950217577579 0.32664885764041329 0 -0.43310718082405908 0.32638511688408822 0 -0.42933690710723021 0.33704941075189859 0 -0.44999065382673592 0.31867069744687693 0 -0.41525950217577579 0.32664885764041329 0 -0.42687290991077342 0.31958500164778969 0 -0.42611748372897079 0.33571909492721319 0 -0.42687290991077342 0.31958500164778969 0 -0.43310718082405908 0.32638511688408822 0 -0.42611748372897079 0.33571909492721319 0 -0.42687290991077342 0.31958500164778969 0 -0.43310718082405908 0.32638511688408822 0 -0.43615199045641478 0.31877154439246441 0 -0.43615199045641478 0.31877154439246441 0 -0.44133657113887992 0.31378400092083131 0 -0.43426104516554231 0.30970321383091598 0 -0.42687290991077342 0.31958500164778969 0 -0.43615199045641478 0.31877154439246441 0 -0.43426104516554231 0.30970321383091598 0 -0.42933690710723021 0.33704941075189859 0 -0.42310427969802622 0.33959634866456728 0 -0.42668486062826461 0.34521602226745413 0 -0.42933690710723021 0.33704941075189859 0 -0.42310427969802622 0.33959634866456728 0 -0.42611748372897079 0.33571909492721319 0 -0.42933690710723021 0.33704941075189859 0 -0.42611748372897079 0.33571909492721319 0 -0.42310427969802622 0.33959634866456728 0 -0.42668486062826461 0.34521602226745413 0 -0.41977672158752788 0.34511926291189993 0 -0.43310718082405908 0.32638511688408822 0 -0.42933690710723021 0.33704941075189859 0 -0.42611748372897079 0.33571909492721319 0 -0.42933690710723021 0.33704941075189859 0 -0.43459865771235229 0.33922364795934812 0 -0.44055492053475448 0.33547395967525279 0 -0.42933690710723021 0.33704941075189859 0 -0.43459865771235229 0.33922364795934812 0 -0.4447416022247721 0.35127679072794687 0 -0.42933690710723021 0.33704941075189859 0 -0.43459865771235229 0.33922364795934812 0 -0.42808462324278063 0.35409025524443138 0 -0.41616798037873642 0.35897697556109998 0 -0.43769079166372649 0.36251049596828189 0 -0.42933690710723021 0.33704941075189859 0 -0.4447416022247721 0.35127679072794687 0 -0.42933690710723021 0.33704941075189859 0 -0.43315020591893411 0.35016879162070269 0 -0.4447416022247721 0.35127679072794687 0 -0.42933690710723021 0.33704941075189859 0 -0.43315020591893411 0.35016879162070269 0 -0.42668486062826461 0.34521602226745413 0 -0.43315020591893411 0.35016879162070269 0 -0.42808462324278063 0.35409025524443138 0 -0.43769079166372649 0.36251049596828189 0 -0.43315020591893411 0.35016879162070269 0 -0.42808462324278063 0.35409025524443138 0 -0.42668486062826461 0.34521602226745413 0 -0.42808462324278063 0.35409025524443138 0 -0.42668486062826461 0.34521602226745413 0 -0.42096197284411663 0.35168892824986042 0 -0.42668486062826461 0.34521602226745413 0 -0.41977672158752788 0.34511926291189993 0 -0.42096197284411663 0.35168892824986042 0 -0.41507475423071488 0.33115606730601338 0 -0.41977672158752788 0.34511926291189993 0 -0.414095678383261 0.35504212526442303 0 -0.41977672158752788 0.34511926291189993 0 -0.42096197284411663 0.35168892824986042 0 -0.414095678383261 0.35504212526442303 0 -0.40633530232206622 0.32754478981713309 0 -0.40827635957868819 0.35768136399932332 0 -0.41017023689786131 0.34758856655175102 0 -0.41507475423071488 0.33115606730601338 0 -0.414095678383261 0.35504212526442303 0 -0.41017023689786131 0.34758856655175102 0 -0.42808462324278063 0.35409025524443138 0 -0.42096197284411663 0.35168892824986042 0 -0.41616798037873642 0.35897697556109998 0 -0.41616798037873642 0.35897697556109998 0 -0.414095678383261 0.35504212526442303 0 -0.41394932150579 0.35861272591448939 0 -0.41616798037873642 0.35897697556109998 0 -0.414095678383261 0.35504212526442303 0 -0.41616798037873642 0.35897697556109998 0 -0.41394932150579 0.35861272591448939 0 -0.42096197284411663 0.35168892824986042 0 -0.41616798037873642 0.35897697556109998 0 -0.414095678383261 0.35504212526442303 0 -0.414095678383261 0.35504212526442303 0 -0.40827635957868819 0.35768136399932332 0 -0.41017023689786131 0.34758856655175102 0 -0.414095678383261 0.35504212526442303 0 -0.41394932150579 0.35861272591448939 0 -0.40827635957868819 0.35768136399932332 0 -0.41394932150579 0.35861272591448939 0 -0.40827635957868819 0.35768136399932332 0 -0.414095678383261 0.35504212526442303 0 -0.41394932150579 0.35861272591448939 0 -0.414095678383261 0.35504212526442303 0 -0.41017023689786131 0.34758856655175102 0 -0.41303126941258272 0.38101001572993243 0 -0.40979053381671232 0.3811902141856518 0 -0.41394932150579 0.35861272591448939 0 -0.41303126941258272 0.38101001572993243 0 -0.41394932150579 0.35861272591448939 0 -0.42702230942956532 0.37958698316599299 0 -0.41616798037873642 0.35897697556109998 0 -0.40979053381671232 0.3811902141856518 0 -0.40827635957868819 0.35768136399932332 0 -0.41303126941258272 0.38101001572993243 0 -0.41616798037873642 0.35897697556109998 0 -0.41394932150579 0.35861272591448939 0 -0.42702230942956532 0.37958698316599299 0 -0.41303126941258272 0.38101001572993243 0 -0.41616798037873642 0.35897697556109998 0 -0.40979053381671232 0.3811902141856518 0 -0.41394932150579 0.35861272591448939 0 -0.40827635957868819 0.35768136399932332 0 -0.42702230942956532 0.37958698316599299 0 -0.43769079166372649 0.36251049596828189 0 -0.42702230942956532 0.37958698316599299 0 -0.41616798037873642 0.35897697556109998 0 -0.43769079166372649 0.36251049596828189 0 -0.41616798037873642 0.35897697556109998 0 -0.43769079166372649 0.36251049596828189 0 -0.5 0.40249255150606611 0 -0.48071775549589912 0.36593397050009108 0 -0.5 0.32957444582711931 0 -0.44847417915411641 0.38127285243336728 0 -0.43769079166372649 0.36251049596828189 0 -0.45928328929899798 0.36342421901998889 0 -0.44847417915411641 0.38127285243336728 0 -0.42702230942956532 0.37958698316599299 0 -0.43769079166372649 0.36251049596828189 0 -0.43769079166372649 0.36251049596828189 0 -0.4447416022247721 0.35127679072794687 0 -0.45928328929899798 0.36342421901998889 0 -0.43769079166372649 0.36251049596828189 0 -0.4447416022247721 0.35127679072794687 0 -0.43315020591893411 0.35016879162070269 0 -0.43769079166372649 0.36251049596828189 0 -0.4447416022247721 0.35127679072794687 0 -0.4447416022247721 0.35127679072794687 0 -0.45928328929899798 0.36342421901998889 0 -0.4447416022247721 0.35127679072794687 0 -0.46448383289822881 0.34660093335974929 0 -0.45928328929899798 0.36342421901998889 0 -0.46448383289822881 0.34660093335974929 0 -0.45928328929899798 0.36342421901998889 0 -0.48071775549589912 0.36593397050009108 0 -0.48071775549589912 0.36593397050009108 0 -0.5 0.32957444582711931 0 -0.47920971016864561 0.34067521011088342 0 -0.47220342618925581 0.38766992873300798 0 -0.45928328929899798 0.36342421901998889 0 -0.48071775549589912 0.36593397050009108 0 -0.46448383289822881 0.34660093335974929 0 -0.48071775549589912 0.36593397050009108 0 -0.47920971016864561 0.34067521011088342 0 -0.5 0.32957444582711931 0 -0.47879466834356549 0.32641974848253619 0 -0.47504237910549008 0.30286510554221308 0 -0.5 0.32957444582711931 0 -0.47920971016864561 0.34067521011088342 0 -0.47879466834356549 0.32641974848253619 0 -0.47059505051889272 0.33519171002206222 0 -0.47879466834356549 0.32641974848253619 0 -0.45989199066513098 0.32707094813507998 0 -0.46448383289822881 0.34660093335974929 0 -0.47920971016864561 0.34067521011088342 0 -0.47059505051889272 0.33519171002206222 0 -0.47920971016864561 0.34067521011088342 0 -0.47059505051889272 0.33519171002206222 0 -0.47879466834356549 0.32641974848253619 0 -0.47879466834356549 0.32641974848253619 0 -0.45989199066513098 0.32707094813507998 0 -0.47504237910549008 0.30286510554221308 0 -0.45989199066513098 0.32707094813507998 0 -0.47504237910549008 0.30286510554221308 0 -0.46364167976451459 0.31256697762251617 0 -0.45989199066513098 0.32707094813507998 0 -0.47504237910549008 0.30286510554221308 0 -0.46364167976451459 0.31256697762251617 0 -0.45989199066513098 0.32707094813507998 0 -0.44999065382673592 0.31867069744687693 0 -0.4447416022247721 0.35127679072794687 0 -0.46448383289822881 0.34660093335974929 0 -0.45989199066513098 0.32707094813507998 0 -0.46448383289822881 0.34660093335974929 0 -0.47059505051889272 0.33519171002206222 0 -0.45989199066513098 0.32707094813507998 0 -0.4447416022247721 0.35127679072794687 0 -0.45989199066513098 0.32707094813507998 0 -0.44484786472669308 0.33913632275076538 0 -0.4486050601639785 0.33070918424230089 0 -0.44055492053475448 0.33547395967525279 0 -0.44999065382673592 0.31867069744687693 0 -0.42933690710723021 0.33704941075189859 0 -0.44055492053475448 0.33547395967525279 0 -0.44999065382673592 0.31867069744687693 0 -0.4447416022247721 0.35127679072794687 0 -0.45989199066513098 0.32707094813507998 0 -0.45989199066513098 0.32707094813507998 0 -0.4486050601639785 0.33070918424230089 0 -0.44484786472669308 0.33913632275076538 0 -0.4486050601639785 0.33070918424230089 0 -0.44055492053475448 0.33547395967525279 0 -0.44484786472669308 0.33913632275076538 0 -0.43459865771235229 0.33922364795934812 0 -0.44055492053475448 0.33547395967525279 0 -0.44484786472669308 0.33913632275076538 0 -0.43459865771235229 0.33922364795934812 0 -0.4447416022247721 0.35127679072794687 0 -0.44484786472669308 0.33913632275076538 0 -0.42933690710723021 0.33704941075189859 0 -0.44999065382673592 0.31867069744687693 0 -0.43310718082405908 0.32638511688408822 0 -0.43615199045641478 0.31877154439246441 0 -0.44999065382673592 0.31867069744687693 0 -0.44999065382673592 0.31867069744687693 0 -0.44133657113887992 0.31378400092083131 0 -0.44494259510682682 0.30799054801306791 0 -0.45989199066513098 0.32707094813507998 0 -0.4486050601639785 0.33070918424230089 0 -0.44999065382673592 0.31867069744687693 0 -0.43615199045641478 0.31877154439246441 0 -0.44999065382673592 0.31867069744687693 0 -0.44133657113887992 0.31378400092083131 0 -0.44133657113887992 0.31378400092083131 0 -0.44494259510682682 0.30799054801306791 0 -0.43426104516554231 0.30970321383091598 0 -0.44494259510682682 0.30799054801306791 0 -0.44070746512665637 0.30006120770947142 0 -0.43426104516554231 0.30970321383091598 0 -0.44494259510682682 0.30799054801306791 0 -0.44070746512665637 0.30006120770947142 0 -0.44959147378012421 0.29973511957658749 0 -0.44494259510682682 0.30799054801306791 0 -0.44959147378012421 0.29973511957658749 0 -0.45469408284623353 0.3051176515484687 0 -0.44070746512665637 0.30006120770947142 0 -0.44959147378012421 0.29973511957658749 0 -0.4461694059741676 0.29358187562362831 0 -0.44999065382673592 0.31867069744687693 0 -0.44494259510682682 0.30799054801306791 0 -0.45469408284623353 0.3051176515484687 0 -0.44364083933201037 0.28573412479540189 0 -0.43769054725682138 0.29127714208015509 0 -0.43615192342467141 0.28259191558332342 0 -0.44364083933201037 0.28573412479540189 0 -0.44568653819221948 0.27547187037304688 0 -0.43615192342467141 0.28259191558332342 0 -0.44364083933201037 0.28573412479540189 0 -0.43769054725682138 0.29127714208015509 0 -0.4461694059741676 0.29358187562362831 0 -0.44070746512665637 0.30006120770947142 0 -0.43769054725682138 0.29127714208015509 0 -0.4461694059741676 0.29358187562362831 0 -0.44959147378012421 0.29973511957658749 0 -0.4461694059741676 0.29358187562362831 0 -0.45497036606989472 0.29236062916643413 0 -0.4461694059741676 0.29358187562362831 0 -0.45069520069195229 0.28332109699427649 0 -0.45497036606989472 0.29236062916643413 0 -0.44364083933201037 0.28573412479540189 0 -0.4461694059741676 0.29358187562362831 0 -0.45069520069195229 0.28332109699427649 0 -0.44364083933201037 0.28573412479540189 0 -0.45069520069195229 0.28332109699427649 0 -0.44568653819221948 0.27547187037304688 0 -0.45069520069195229 0.28332109699427649 0 -0.45497036606989472 0.29236062916643413 0 -0.46111360403636692 0.28519644073732192 0 -0.45069520069195229 0.28332109699427649 0 -0.46111360403636692 0.28519644073732192 0 -0.45554555489151388 0.27639204557321451 0 -0.45497036606989472 0.29236062916643413 0 -0.46308664076443301 0.29396181414024569 0 -0.45830129097123867 0.29889990856395582 0 -0.45497036606989472 0.29236062916643413 0 -0.46308664076443301 0.29396181414024569 0 -0.46111360403636692 0.28519644073732192 0 -0.46308664076443301 0.29396181414024569 0 -0.46782918722755179 0.28993164048052039 0 -0.46111360403636692 0.28519644073732192 0 -0.46308664076443301 0.29396181414024569 0 -0.46782918722755179 0.28993164048052039 0 -0.47064440054624179 0.30029198414185532 0 -0.46782918722755179 0.28993164048052039 0 -0.46111360403636692 0.28519644073732192 0 -0.46872228268402899 0.28218268419544218 0 -0.44999065382673592 0.31867069744687693 0 -0.47064440054624179 0.30029198414185532 0 -0.45469408284623353 0.3051176515484687 0 -0.45830129097123867 0.29889990856395582 0 -0.47064440054624179 0.30029198414185532 0 -0.44999065382673592 0.31867069744687693 0 -0.45469408284623353 0.3051176515484687 0 -0.47064440054624179 0.30029198414185532 0 -0.46364167976451459 0.31256697762251617 0 -0.44999065382673592 0.31867069744687693 0 -0.47064440054624179 0.30029198414185532 0 -0.44959147378012421 0.29973511957658749 0 -0.45469408284623353 0.3051176515484687 0 -0.45830129097123867 0.29889990856395582 0 -0.44959147378012421 0.29973511957658749 0 -0.45497036606989472 0.29236062916643413 0 -0.45830129097123867 0.29889990856395582 0 -0.46308664076443301 0.29396181414024569 0 -0.45830129097123867 0.29889990856395582 0 -0.47064440054624179 0.30029198414185532 0 -0.5 0.32957444582711931 0 -0.49129814726574772 0.28191327083683382 0 -0.5 0.27527911237967168 0 -0.46364167976451459 0.31256697762251617 0 -0.47504237910549008 0.30286510554221308 0 -0.47064440054624179 0.30029198414185532 0 -0.5 0.32957444582711931 0 -0.47504237910549008 0.30286510554221308 0 -0.49129814726574772 0.28191327083683382 0 -0.46782918722755179 0.28993164048052039 0 -0.47064440054624179 0.30029198414185532 0 -0.47619527727673377 0.28582432191283391 0 -0.47504237910549008 0.30286510554221308 0 -0.47064440054624179 0.30029198414185532 0 -0.49129814726574772 0.28191327083683382 0 -0.47064440054624179 0.30029198414185532 0 -0.49129814726574772 0.28191327083683382 0 -0.47064440054624179 0.30029198414185532 0 -0.47619527727673377 0.28582432191283391 0 -0.49129814726574772 0.28191327083683382 0 -0.46782918722755179 0.28993164048052039 0 -0.46872228268402899 0.28218268419544218 0 -0.47619527727673377 0.28582432191283391 0 -0.46872228268402899 0.28218268419544218 0 -0.47619527727673377 0.28582432191283391 0 -0.47468707968058821 0.27820598870791391 0 -0.47619527727673377 0.28582432191283391 0 -0.49129814726574772 0.28191327083683382 0 -0.48262911784639179 0.27940939497342798 0 -0.48369894156041199 0.2490072932834429 0 -0.5 0.23484318994461811 0 -0.5 0.27527911237967168 0 -0.48369894156041199 0.2490072932834429 0 -0.5 0.27527911237967168 0 -0.48094438603014389 0.27052177026240398 0 -0.49129814726574772 0.28191327083683382 0 -0.5 0.27527911237967168 0 -0.48094438603014389 0.27052177026240398 0 -0.49129814726574772 0.28191327083683382 0 -0.48094438603014389 0.27052177026240398 0 -0.48262911784639179 0.27940939497342798 0 -0.48094438603014389 0.27052177026240398 0 -0.47468707968058821 0.27820598870791391 0 -0.46494433456564233 0.27309177219546121 0 -0.48094438603014389 0.27052177026240398 0 -0.46969455812884547 0.25756891218921818 0 -0.46494433456564233 0.27309177219546121 0 -0.48094438603014389 0.27052177026240398 0 -0.48262911784639179 0.27940939497342798 0 -0.47468707968058821 0.27820598870791391 0 -0.47619527727673377 0.28582432191283391 0 -0.48262911784639179 0.27940939497342798 0 -0.47468707968058821 0.27820598870791391 0 -0.46872228268402899 0.28218268419544218 0 -0.47468707968058821 0.27820598870791391 0 -0.46494433456564233 0.27309177219546121 0 -0.48369894156041199 0.2490072932834429 0 -0.48094438603014389 0.27052177026240398 0 -0.46969455812884547 0.25756891218921818 0 -0.46969455812884547 0.25756891218921818 0 -0.45528809697138839 0.26487904756596597 0 -0.46494433456564233 0.27309177219546121 0 -0.45484124628143119 0.24953928328129871 0 -0.46969455812884547 0.25756891218921818 0 -0.45528809697138839 0.26487904756596597 0 -0.46111360403636692 0.28519644073732192 0 -0.46872228268402899 0.28218268419544218 0 -0.46494433456564233 0.27309177219546121 0 -0.45528809697138839 0.26487904756596597 0 -0.46494433456564233 0.27309177219546121 0 -0.45554555489151388 0.27639204557321451 0 -0.46111360403636692 0.28519644073732192 0 -0.46494433456564233 0.27309177219546121 0 -0.45554555489151388 0.27639204557321451 0 -0.45069520069195229 0.28332109699427649 0 -0.45554555489151388 0.27639204557321451 0 -0.44568653819221948 0.27547187037304688 0 -0.45528809697138839 0.26487904756596597 0 -0.44568653819221948 0.27547187037304688 0 -0.44312445018356422 0.26205988847702572 0 -0.45528809697138839 0.26487904756596597 0 -0.45554555489151388 0.27639204557321451 0 -0.44568653819221948 0.27547187037304688 0 -0.44568653819221948 0.27547187037304688 0 -0.44312445018356422 0.26205988847702572 0 -0.43569684758007571 0.27294374587129361 0 -0.44568653819221948 0.27547187037304688 0 -0.43569684758007571 0.27294374587129361 0 -0.43615192342467141 0.28259191558332342 0 -0.43993218093340919 0.2473559455409233 0 -0.44312445018356422 0.26205988847702572 0 -0.42968481154267812 0.26341695307764279 0 -0.43993218093340919 0.2473559455409233 0 -0.45484124628143119 0.24953928328129871 0 -0.44312445018356422 0.26205988847702572 0 -0.45484124628143119 0.24953928328129871 0 -0.45528809697138839 0.26487904756596597 0 -0.44312445018356422 0.26205988847702572 0 -0.41856953337744579 0.24589556632882531 0 -0.42968481154267812 0.26341695307764279 0 -0.41742101205199222 0.27391550678287341 0 -0.43993218093340919 0.2473559455409233 0 -0.41856953337744579 0.24589556632882531 0 -0.42968481154267812 0.26341695307764279 0 -0.41856953337744579 0.24589556632882531 0 -0.41742101205199222 0.27391550678287341 0 -0.40193477290694568 0.25922280667758157 0 -0.41856953337744579 0.24589556632882531 0 -0.40193477290694568 0.25922280667758157 0 -0.41856953337744579 0.24589556632882531 0 -0.41742101205199222 0.27391550678287341 0 -0.41742101205199222 0.27391550678287341 0 -0.40404661630203892 0.29201098174057483 0 -0.40232637785469122 0.26530280844851478 0 -0.41742101205199222 0.27391550678287341 0 -0.40232637785469122 0.26530280844851478 0 -0.40193477290694568 0.25922280667758157 0 -0.41742101205199222 0.27391550678287341 0 -0.40232637785469122 0.26530280844851478 0 -0.41742101205199222 0.27391550678287341 0 -0.42566941733084862 0.27862188293468482 0 -0.41742101205199222 0.27391550678287341 0 -0.42566941733084862 0.27862188293468482 0 -0.42774419147061399 0.2878765469918258 0 -0.42968481154267812 0.26341695307764279 0 -0.41742101205199222 0.27391550678287341 0 -0.42566941733084862 0.27862188293468482 0 -0.44312445018356422 0.26205988847702572 0 -0.42968481154267812 0.26341695307764279 0 -0.43569684758007571 0.27294374587129361 0 -0.42968481154267812 0.26341695307764279 0 -0.42566941733084862 0.27862188293468482 0 -0.43569684758007571 0.27294374587129361 0 -0.42566941733084862 0.27862188293468482 0 -0.43569684758007571 0.27294374587129361 0 -0.43615192342467141 0.28259191558332342 0 -0.42566941733084862 0.27862188293468482 0 -0.43615192342467141 0.28259191558332342 0 -0.42774419147061399 0.2878765469918258 0 -0.43769054725682138 0.29127714208015509 0 -0.43615192342467141 0.28259191558332342 0 -0.42774419147061399 0.2878765469918258 0 -0.44070746512665637 0.30006120770947142 0 -0.43769054725682138 0.29127714208015509 0 -0.4315897234764563 0.29807934713247419 0 -0.43769054725682138 0.29127714208015509 0 -0.42774419147061399 0.2878765469918258 0 -0.4315897234764563 0.29807934713247419 0 -0.42774419147061399 0.2878765469918258 0 -0.4315897234764563 0.29807934713247419 0 -0.41634025711388301 0.30028218221164332 0 -0.43426104516554231 0.30970321383091598 0 -0.4315897234764563 0.29807934713247419 0 -0.41634025711388301 0.30028218221164332 0 -0.42687290991077342 0.31958500164778969 0 -0.43426104516554231 0.30970321383091598 0 -0.41634025711388301 0.30028218221164332 0 -0.44070746512665637 0.30006120770947142 0 -0.43426104516554231 0.30970321383091598 0 -0.4315897234764563 0.29807934713247419 0 -0.40576685474938518 0.31871915503263493 0 -0.41634025711388301 0.30028218221164332 0 -0.40404661630203892 0.29201098174057483 0 -0.41742101205199222 0.27391550678287341 0 -0.41634025711388301 0.30028218221164332 0 -0.40404661630203892 0.29201098174057483 0 -0.41742101205199222 0.27391550678287341 0 -0.42774419147061399 0.2878765469918258 0 -0.41634025711388301 0.30028218221164332 0 -0.41742101205199222 0.27391550678287341 0 -0.41634025711388301 0.30028218221164332 0 -0.40404661630203892 0.29201098174057483 0 -0.3859567052346366 0.28771383345292462 0 -0.39341610453055648 0.27736044604190951 0 -0.40404661630203892 0.29201098174057483 0 -0.38299498499016388 0.29969662665860097 0 -0.3859567052346366 0.28771383345292462 0 -0.38365658521709428 0.31817359109501742 0 -0.40576685474938518 0.31871915503263493 0 -0.38299498499016388 0.29969662665860097 0 -0.40576685474938518 0.31871915503263493 0 -0.38299498499016388 0.29969662665860097 0 -0.40576685474938518 0.31871915503263493 0 -0.40404661630203892 0.29201098174057483 0 -0.38299498499016388 0.29969662665860097 0 -0.40576685474938518 0.31871915503263493 0 -0.40404661630203892 0.29201098174057483 0 -0.38365658521709428 0.31817359109501742 0 -0.38299498499016388 0.29969662665860097 0 -0.37180362154590912 0.30310379964872008 0 -0.38299498499016388 0.29969662665860097 0 -0.37488310301848599 0.29322714788963339 0 -0.37180362154590912 0.30310379964872008 0 -0.3859567052346366 0.28771383345292462 0 -0.37708546321769743 0.27913128226499517 0 -0.39341610453055648 0.27736044604190951 0 -0.38299498499016388 0.29969662665860097 0 -0.3859567052346366 0.28771383345292462 0 -0.37488310301848599 0.29322714788963339 0 -0.3859567052346366 0.28771383345292462 0 -0.37708546321769743 0.27913128226499517 0 -0.37488310301848599 0.29322714788963339 0 -0.38003851218420059 0.26816052206037738 0 -0.38197479272916068 0.25369059837298019 0 -0.36342843274622688 0.27717688330099521 0 -0.37708546321769743 0.27913128226499517 0 -0.39766536004371661 0.26264332430253767 0 -0.39341610453055648 0.27736044604190951 0 -0.37708546321769743 0.27913128226499517 0 -0.39766536004371661 0.26264332430253767 0 -0.38003851218420059 0.26816052206037738 0 -0.37708546321769743 0.27913128226499517 0 -0.39766536004371661 0.26264332430253767 0 -0.38003851218420059 0.26816052206037738 0 -0.38197479272916068 0.25369059837298019 0 -0.39766536004371661 0.26264332430253767 0 -0.38197479272916068 0.25369059837298019 0 -0.39766536004371661 0.26264332430253767 0 -0.39766536004371661 0.26264332430253767 0 -0.39304946851050482 0.25250712154075899 0 -0.40193477290694568 0.25922280667758157 0 -0.38197479272916068 0.25369059837298019 0 -0.39766536004371661 0.26264332430253767 0 -0.39304946851050482 0.25250712154075899 0 -0.39766536004371661 0.26264332430253767 0 -0.40232637785469122 0.26530280844851478 0 -0.39766536004371661 0.26264332430253767 0 -0.40232637785469122 0.26530280844851478 0 -0.40193477290694568 0.25922280667758157 0 -0.40232637785469122 0.26530280844851478 0 -0.40193477290694568 0.25922280667758157 0 -0.39766536004371661 0.26264332430253767 0 -0.40193477290694568 0.25922280667758157 0 -0.40404661630203892 0.29201098174057483 0 -0.40232637785469122 0.26530280844851478 0 -0.39341610453055648 0.27736044604190951 0 -0.40404661630203892 0.29201098174057483 0 -0.40232637785469122 0.26530280844851478 0 -0.39766536004371661 0.26264332430253767 0 -0.40232637785469122 0.26530280844851478 0 -0.39341610453055648 0.27736044604190951 0 -0.34565778493243288 0.27390453894369182 0 -0.36342843274622688 0.27717688330099521 0 -0.34515062974460481 0.28485642188077148 0 -0.35464509060958649 0.26629596287652979 0 -0.34565778493243288 0.27390453894369182 0 -0.33615350022801288 0.26749045121963261 0 -0.35464509060958649 0.26629596287652979 0 -0.34565778493243288 0.27390453894369182 0 -0.36342843274622688 0.27717688330099521 0 -0.35464509060958649 0.26629596287652979 0 -0.34780936448502803 0.25083961099709462 0 -0.36449684552302269 0.25380190415558501 0 -0.34780936448502803 0.25083961099709462 0 -0.36449684552302269 0.25380190415558501 0 -0.35464509060958649 0.26629596287652979 0 -0.34780936448502803 0.25083961099709462 0 -0.32962093469929932 0.25004603531411429 0 -0.38197479272916068 0.25369059837298019 0 -0.36342843274622688 0.27717688330099521 0 -0.38197479272916068 0.25369059837298019 0 -0.36449684552302269 0.25380190415558501 0 -0.36342843274622688 0.27717688330099521 0 -0.36432988153602852 0.24362276266018659 0 -0.38197479272916068 0.25369059837298019 0 -0.36449684552302269 0.25380190415558501 0 -0.35464509060958649 0.26629596287652979 0 -0.36449684552302269 0.25380190415558501 0 -0.36342843274622688 0.27717688330099521 0 -0.38003851218420059 0.26816052206037738 0 -0.37708546321769743 0.27913128226499517 0 -0.36342843274622688 0.27717688330099521 0 -0.37708546321769743 0.27913128226499517 0 -0.35650556639167719 0.29561924022745112 0 -0.37708546321769743 0.27913128226499517 0 -0.36342843274622688 0.27717688330099521 0 -0.35650556639167719 0.29561924022745112 0 -0.37708546321769743 0.27913128226499517 0 -0.37488310301848599 0.29322714788963339 0 -0.35650556639167719 0.29561924022745112 0 -0.38365658521709428 0.31817359109501742 0 -0.37180362154590912 0.30310379964872008 0 -0.36097786811212418 0.30880239237289758 0 -0.37488310301848599 0.29322714788963339 0 -0.37180362154590912 0.30310379964872008 0 -0.35650556639167719 0.29561924022745112 0 -0.37180362154590912 0.30310379964872008 0 -0.36097786811212418 0.30880239237289758 0 -0.35650556639167719 0.29561924022745112 0 -0.36097786811212418 0.30880239237289758 0 -0.35650556639167719 0.29561924022745112 0 -0.35064734421178878 0.31577624333644622 0 -0.35650556639167719 0.29561924022745112 0 -0.33592566956565678 0.31210719818990712 0 -0.34488207276329302 0.30066316822901018 0 -0.35650556639167719 0.29561924022745112 0 -0.33592566956565678 0.31210719818990712 0 -0.35650556639167719 0.29561924022745112 0 -0.33592566956565678 0.31210719818990712 0 -0.35064734421178878 0.31577624333644622 0 -0.36342843274622688 0.27717688330099521 0 -0.34488207276329302 0.30066316822901018 0 -0.36342843274622688 0.27717688330099521 0 -0.34488207276329302 0.30066316822901018 0 -0.35650556639167719 0.29561924022745112 0 -0.36342843274622688 0.27717688330099521 0 -0.34488207276329302 0.30066316822901018 0 -0.34515062974460481 0.28485642188077148 0 -0.34488207276329302 0.30066316822901018 0 -0.34515062974460481 0.28485642188077148 0 -0.33708482402120632 0.29156583691509019 0 -0.34515062974460481 0.28485642188077148 0 -0.33708482402120632 0.29156583691509019 0 -0.3327937953417453 0.28088273489942961 0 -0.33708482402120632 0.29156583691509019 0 -0.3289112506259943 0.29219026288855038 0 -0.33368637163039427 0.29923659667768959 0 -0.33708482402120632 0.29156583691509019 0 -0.3289112506259943 0.29219026288855038 0 -0.3327937953417453 0.28088273489942961 0 -0.33592566956565678 0.31210719818990712 0 -0.3212293628758483 0.30028722303419741 0 -0.33527713924720021 0.32414509924265039 0 -0.3212293628758483 0.30028722303419741 0 -0.33527713924720021 0.32414509924265039 0 -0.34488207276329302 0.30066316822901018 0 -0.33368637163039427 0.29923659667768959 0 -0.33592566956565678 0.31210719818990712 0 -0.34488207276329302 0.30066316822901018 0 -0.33708482402120632 0.29156583691509019 0 -0.33368637163039427 0.29923659667768959 0 -0.33368637163039427 0.29923659667768959 0 -0.33592566956565678 0.31210719818990712 0 -0.3212293628758483 0.30028722303419741 0 -0.3212293628758483 0.30028722303419741 0 -0.31462210403689811 0.30174044347307272 0 -0.32738309180770608 0.3133247523071615 0 -0.31462210403689811 0.30174044347307272 0 -0.32738309180770608 0.3133247523071615 0 -0.3289112506259943 0.29219026288855038 0 -0.33368637163039427 0.29923659667768959 0 -0.3212293628758483 0.30028722303419741 0 -0.3212293628758483 0.30028722303419741 0 -0.31462210403689811 0.30174044347307272 0 -0.31785566034265739 0.28888997580070408 0 -0.31462210403689811 0.30174044347307272 0 -0.31011569050212467 0.31044088900292771 0 -0.31618123133228698 0.31284369594309003 0 -0.31462210403689811 0.30174044347307272 0 -0.31618123133228698 0.31284369594309003 0 -0.32738309180770608 0.3133247523071615 0 -0.3289112506259943 0.29219026288855038 0 -0.31785566034265739 0.28888997580070408 0 -0.3327937953417453 0.28088273489942961 0 -0.3289112506259943 0.29219026288855038 0 -0.3212293628758483 0.30028722303419741 0 -0.31785566034265739 0.28888997580070408 0 -0.31785566034265739 0.28888997580070408 0 -0.31574102548269412 0.27010108497654972 0 -0.3327937953417453 0.28088273489942961 0 -0.31574102548269412 0.27010108497654972 0 -0.3327937953417453 0.28088273489942961 0 -0.33615350022801288 0.26749045121963261 0 -0.34565778493243288 0.27390453894369182 0 -0.34515062974460481 0.28485642188077148 0 -0.3327937953417453 0.28088273489942961 0 -0.34565778493243288 0.27390453894369182 0 -0.3327937953417453 0.28088273489942961 0 -0.33615350022801288 0.26749045121963261 0 -0.35464509060958649 0.26629596287652979 0 -0.32962093469929932 0.25004603531411429 0 -0.35464509060958649 0.26629596287652979 0 -0.33615350022801288 0.26749045121963261 0 -0.32962093469929932 0.25004603531411429 0 -0.31574102548269412 0.27010108497654972 0 -0.32962093469929932 0.25004603531411429 0 -0.31242075832710492 0.25500699987347009 0 -0.32446009899550038 0.24669474519871951 0 -0.32962093469929932 0.25004603531411429 0 -0.31242075832710492 0.25500699987347009 0 -0.31574102548269412 0.27010108497654972 0 -0.32962093469929932 0.25004603531411429 0 -0.32446009899550038 0.24669474519871951 0 -0.30687159053626512 0.24968921777616279 0 -0.31242075832710492 0.25500699987347009 0 -0.31574102548269412 0.27010108497654972 0 -0.33615350022801288 0.26749045121963261 0 -0.32962093469929932 0.25004603531411429 0 -0.31574102548269412 0.27010108497654972 0 -0.31242075832710492 0.25500699987347009 0 -0.29844700524764789 0.26223762048386579 0 -0.30687159053626512 0.24968921777616279 0 -0.31242075832710492 0.25500699987347009 0 -0.29938389500122342 0.25127329549140842 0 -0.31242075832710492 0.25500699987347009 0 -0.29844700524764789 0.26223762048386579 0 -0.29938389500122342 0.25127329549140842 0 -0.31574102548269412 0.27010108497654972 0 -0.30186111626608891 0.29015613463898499 0 -0.31574102548269412 0.27010108497654972 0 -0.2995311032405264 0.27423276860130358 0 -0.30186111626608891 0.29015613463898499 0 -0.31574102548269412 0.27010108497654972 0 -0.29844700524764789 0.26223762048386579 0 -0.2995311032405264 0.27423276860130358 0 -0.2995311032405264 0.27423276860130358 0 -0.28330922286807492 0.2733148942554352 0 -0.30186111626608891 0.29015613463898499 0 -0.29844700524764789 0.26223762048386579 0 -0.2995311032405264 0.27423276860130358 0 -0.28330922286807492 0.2733148942554352 0 -0.280383934275375 0.24949377627904179 0 -0.28330922286807492 0.2733148942554352 0 -0.280383934275375 0.24949377627904179 0 -0.28330922286807492 0.2733148942554352 0 -0.29021474835759459 0.25685992604926972 0 -0.29844700524764789 0.26223762048386579 0 -0.28330922286807492 0.2733148942554352 0 -0.29021474835759459 0.25685992604926972 0 -0.29844700524764789 0.26223762048386579 0 -0.29938389500122342 0.25127329549140842 0 -0.29021474835759459 0.25685992604926972 0 -0.28954968439565232 0.24798004373659691 0 -0.29938389500122342 0.25127329549140842 0 -0.29021474835759459 0.25685992604926972 0 -0.28954968439565232 0.24798004373659691 0 -0.280383934275375 0.24949377627904179 0 -0.29021474835759459 0.25685992604926972 0 -0.280383934275375 0.24949377627904179 0 -0.28330922286807492 0.2733148942554352 0 -0.26725453684687822 0.25874059605499972 0 -0.27276097546744771 0.2441872763264186 0 -0.280383934275375 0.24949377627904179 0 -0.26725453684687822 0.25874059605499972 0 -0.28330922286807492 0.2733148942554352 0 -0.26725453684687822 0.25874059605499972 0 -0.28330922286807492 0.2733148942554352 0 -0.26235423544539149 0.27240564514430471 0 -0.27108230969440922 0.28604113688061111 0 -0.28330922286807492 0.2733148942554352 0 -0.26725453684687822 0.25874059605499972 0 -0.26235423544539149 0.27240564514430471 0 -0.26235423544539149 0.27240564514430471 0 -0.25255416139143072 0.25802888911799787 0 -0.242275375749923 0.27007117361348432 0 -0.26235423544539149 0.27240564514430471 0 -0.25721842444609833 0.28592600036443888 0 -0.242275375749923 0.27007117361348432 0 -0.26127899367985208 0.24348335632562881 0 -0.26725453684687822 0.25874059605499972 0 -0.25255416139143072 0.25802888911799787 0 -0.26725453684687822 0.25874059605499972 0 -0.26235423544539149 0.27240564514430471 0 -0.25255416139143072 0.25802888911799787 0 -0.26608157770936769 0.30208720883299689 0 -0.24901650899611599 0.3190066423215453 0 -0.24121136021138551 0.29689417836050058 0 -0.25721842444609833 0.28592600036443888 0 -0.26608157770936769 0.30208720883299689 0 -0.24121136021138551 0.29689417836050058 0 -0.25721842444609833 0.28592600036443888 0 -0.27108230969440922 0.28604113688061111 0 -0.26608157770936769 0.30208720883299689 0 -0.26235423544539149 0.27240564514430471 0 -0.25721842444609833 0.28592600036443888 0 -0.27108230969440922 0.28604113688061111 0 -0.27108230969440922 0.28604113688061111 0 -0.26608157770936769 0.30208720883299689 0 -0.28558532465204273 0.29184957464815808 0 -0.28330922286807492 0.2733148942554352 0 -0.27108230969440922 0.28604113688061111 0 -0.28558532465204273 0.29184957464815808 0 -0.26608157770936769 0.30208720883299689 0 -0.28786142643601098 0.31038425504088091 0 -0.28558532465204273 0.29184957464815808 0 -0.26608157770936769 0.30208720883299689 0 -0.28786142643601098 0.31038425504088091 0 -0.26553749756148493 0.31766102008395791 0 -0.28786142643601098 0.31038425504088091 0 -0.30186111626608891 0.29015613463898499 0 -0.28786142643601098 0.31038425504088091 0 -0.28558532465204273 0.29184957464815808 0 -0.28786142643601098 0.31038425504088091 0 -0.28558532465204273 0.29184957464815808 0 -0.30186111626608891 0.29015613463898499 0 -0.28330922286807492 0.2733148942554352 0 -0.28558532465204273 0.29184957464815808 0 -0.30186111626608891 0.29015613463898499 0 -0.28330922286807492 0.2733148942554352 0 -0.30186111626608891 0.29015613463898499 0 -0.28330922286807492 0.2733148942554352 0 -0.28558532465204273 0.29184957464815808 0 -0.31462210403689811 0.30174044347307272 0 -0.31785566034265739 0.28888997580070408 0 -0.30186111626608891 0.29015613463898499 0 -0.31785566034265739 0.28888997580070408 0 -0.31574102548269412 0.27010108497654972 0 -0.30186111626608891 0.29015613463898499 0 -0.31462210403689811 0.30174044347307272 0 -0.30186111626608891 0.29015613463898499 0 -0.28786142643601098 0.31038425504088091 0 -0.30186111626608891 0.29015613463898499 0 -0.30202360759991659 0.30848288228910131 0 -0.31462210403689811 0.30174044347307272 0 -0.30186111626608891 0.29015613463898499 0 -0.30202360759991659 0.30848288228910131 0 -0.31462210403689811 0.30174044347307272 0 -0.30202360759991659 0.30848288228910131 0 -0.31011569050212467 0.31044088900292771 0 -0.30202360759991659 0.30848288228910131 0 -0.31011569050212467 0.31044088900292771 0 -0.30763581903939752 0.31869653430644679 0 -0.31011569050212467 0.31044088900292771 0 -0.30763581903939752 0.31869653430644679 0 -0.31618123133228698 0.31284369594309003 0 -0.30763581903939752 0.31869653430644679 0 -0.30175046006313477 0.32808246573857291 0 -0.31137123575521508 0.33152465302783701 0 -0.30763581903939752 0.31869653430644679 0 -0.31137123575521508 0.33152465302783701 0 -0.31773452830459459 0.32158371586399859 0 -0.30763581903939752 0.31869653430644679 0 -0.30175046006313477 0.32808246573857291 0 -0.29787720673062967 0.31924014214594271 0 -0.30202360759991659 0.30848288228910131 0 -0.30763581903939752 0.31869653430644679 0 -0.29787720673062967 0.31924014214594271 0 -0.30175046006313477 0.32808246573857291 0 -0.31137123575521508 0.33152465302783701 0 -0.30149953803510471 0.34015121550047839 0 -0.30175046006313477 0.32808246573857291 0 -0.30149953803510471 0.34015121550047839 0 -0.29036850075532722 0.33079978371215929 0 -0.29036850075532722 0.33079978371215929 0 -0.28110590338034602 0.33880373587107898 0 -0.29287557507464468 0.35121531238343773 0 -0.29036850075532722 0.33079978371215929 0 -0.29287557507464468 0.35121531238343773 0 -0.30149953803510471 0.34015121550047839 0 -0.29036850075532722 0.33079978371215929 0 -0.29287557507464468 0.35121531238343773 0 -0.29036850075532722 0.33079978371215929 0 -0.27540608455167359 0.32838095056351257 0 -0.28110590338034602 0.33880373587107898 0 -0.28786142643601098 0.31038425504088091 0 -0.27540608455167359 0.32838095056351257 0 -0.28786142643601098 0.31038425504088091 0 -0.29787720673062967 0.31924014214594271 0 -0.29036850075532722 0.33079978371215929 0 -0.28786142643601098 0.31038425504088091 0 -0.29036850075532722 0.33079978371215929 0 -0.27540608455167359 0.32838095056351257 0 -0.28786142643601098 0.31038425504088091 0 -0.29036850075532722 0.33079978371215929 0 -0.28786142643601098 0.31038425504088091 0 -0.30202360759991659 0.30848288228910131 0 -0.29787720673062967 0.31924014214594271 0 -0.30175046006313477 0.32808246573857291 0 -0.29787720673062967 0.31924014214594271 0 -0.29036850075532722 0.33079978371215929 0 -0.28786142643601098 0.31038425504088091 0 -0.27540608455167359 0.32838095056351257 0 -0.26553749756148493 0.31766102008395791 0 -0.27540608455167359 0.32838095056351257 0 -0.25980824927381518 0.33151348557750632 0 -0.26553749756148493 0.31766102008395791 0 -0.27540608455167359 0.32838095056351257 0 -0.28110590338034602 0.33880373587107898 0 -0.2629507426673362 0.34637764608614408 0 -0.27540608455167359 0.32838095056351257 0 -0.2629507426673362 0.34637764608614408 0 -0.27540608455167359 0.32838095056351257 0 -0.25980824927381518 0.33151348557750632 0 -0.2629507426673362 0.34637764608614408 0 -0.25980824927381518 0.33151348557750632 0 -0.25317539052509291 0.34479735681471207 0 -0.2629507426673362 0.34637764608614408 0 -0.25980824927381518 0.33151348557750632 0 -0.25317539052509291 0.34479735681471207 0 -0.24949894950189069 0.33416461961161198 0 -0.25980824927381518 0.33151348557750632 0 -0.24901650899611599 0.3190066423215453 0 -0.24949894950189069 0.33416461961161198 0 -0.26608157770936769 0.30208720883299689 0 -0.26553749756148493 0.31766102008395791 0 -0.24901650899611599 0.3190066423215453 0 -0.25980824927381518 0.33151348557750632 0 -0.26553749756148493 0.31766102008395791 0 -0.24901650899611599 0.3190066423215453 0 -0.2629709254550166 0.36391166300609951 0 -0.2629507426673362 0.34637764608614408 0 -0.24622818643367181 0.37054003004091562 0 -0.2629709254550166 0.36391166300609951 0 -0.26147323245794851 0.37548267651517869 0 -0.24622818643367181 0.37054003004091562 0 -0.2629709254550166 0.36391166300609951 0 -0.27203638373087802 0.36825754500563601 0 -0.26147323245794851 0.37548267651517869 0 -0.2629507426673362 0.34637764608614408 0 -0.24604337220648159 0.35416929868502178 0 -0.24622818643367181 0.37054003004091562 0 -0.2629507426673362 0.34637764608614408 0 -0.24622818643367181 0.37054003004091562 0 -0.25317539052509291 0.34479735681471207 0 -0.2629507426673362 0.34637764608614408 0 -0.24604337220648159 0.35416929868502178 0 -0.25317539052509291 0.34479735681471207 0 -0.2629507426673362 0.34637764608614408 0 -0.28110590338034602 0.33880373587107898 0 -0.2629507426673362 0.34637764608614408 0 -0.27791315887099072 0.34879647923478951 0 -0.2629709254550166 0.36391166300609951 0 -0.2629507426673362 0.34637764608614408 0 -0.27135309056098311 0.35643098010594848 0 -0.2629507426673362 0.34637764608614408 0 -0.27791315887099072 0.34879647923478951 0 -0.2629507426673362 0.34637764608614408 0 -0.27135309056098311 0.35643098010594848 0 -0.27791315887099072 0.34879647923478951 0 -0.27135309056098311 0.35643098010594848 0 -0.28050308350430109 0.36365555594037058 0 -0.28431905101245281 0.3553351867967669 0 -0.27135309056098311 0.35643098010594848 0 -0.27791315887099072 0.34879647923478951 0 -0.28431905101245281 0.3553351867967669 0 -0.27135309056098311 0.35643098010594848 0 -0.28050308350430109 0.36365555594037058 0 -0.27203638373087802 0.36825754500563601 0 -0.2629709254550166 0.36391166300609951 0 -0.27135309056098311 0.35643098010594848 0 -0.27203638373087802 0.36825754500563601 0 -0.27203638373087802 0.36825754500563601 0 -0.27378722955857981 0.3784494738402312 0 -0.26147323245794851 0.37548267651517869 0 -0.28050308350430109 0.36365555594037058 0 -0.27203638373087802 0.36825754500563601 0 -0.28350375661999622 0.37332862699214547 0 -0.27203638373087802 0.36825754500563601 0 -0.28350375661999622 0.37332862699214547 0 -0.27378722955857981 0.3784494738402312 0 -0.28050308350430109 0.36365555594037058 0 -0.28350375661999622 0.37332862699214547 0 -0.289629825720363 0.36692184058959942 0 -0.28050308350430109 0.36365555594037058 0 -0.28858120981856072 0.36036557357553611 0 -0.289629825720363 0.36692184058959942 0 -0.28050308350430109 0.36365555594037058 0 -0.28858120981856072 0.36036557357553611 0 -0.28431905101245281 0.3553351867967669 0 -0.28858120981856072 0.36036557357553611 0 -0.289629825720363 0.36692184058959942 0 -0.29813565408275883 0.36378255444808749 0 -0.28858120981856072 0.36036557357553611 0 -0.29345379762478502 0.35592387605058962 0 -0.29813565408275883 0.36378255444808749 0 -0.28350375661999622 0.37332862699214547 0 -0.289629825720363 0.36692184058959942 0 -0.29519471356690702 0.37561435222003869 0 -0.289629825720363 0.36692184058959942 0 -0.29813565408275883 0.36378255444808749 0 -0.29519471356690702 0.37561435222003869 0 -0.27791315887099072 0.34879647923478951 0 -0.29287557507464468 0.35121531238343773 0 -0.28110590338034602 0.33880373587107898 0 -0.27791315887099072 0.34879647923478951 0 -0.29287557507464468 0.35121531238343773 0 -0.28858120981856072 0.36036557357553611 0 -0.28431905101245281 0.3553351867967669 0 -0.29345379762478502 0.35592387605058962 0 -0.27791315887099072 0.34879647923478951 0 -0.28431905101245281 0.3553351867967669 0 -0.29287557507464468 0.35121531238343773 0 -0.28431905101245281 0.3553351867967669 0 -0.29345379762478502 0.35592387605058962 0 -0.29287557507464468 0.35121531238343773 0 -0.29345379762478502 0.35592387605058962 0 -0.29287557507464468 0.35121531238343773 0 -0.29345379762478502 0.35592387605058962 0 -0.29813565408275883 0.36378255444808749 0 -0.31516882293884602 0.35481925216100368 0 -0.29345379762478502 0.35592387605058962 0 -0.29287557507464468 0.35121531238343773 0 -0.31516882293884602 0.35481925216100368 0 -0.30149953803510471 0.34015121550047839 0 -0.29287557507464468 0.35121531238343773 0 -0.31516882293884602 0.35481925216100368 0 -0.29287557507464468 0.35121531238343773 0 -0.31516882293884602 0.35481925216100368 0 -0.29813565408275883 0.36378255444808749 0 -0.30678555482709158 0.36905043209175731 0 -0.31516882293884602 0.35481925216100368 0 -0.29813565408275883 0.36378255444808749 0 -0.30678555482709158 0.36905043209175731 0 -0.29519471356690702 0.37561435222003869 0 -0.31927284705706999 0.36913973431394881 0 -0.33746207080304691 0.35842319193857258 0 -0.31516882293884602 0.35481925216100368 0 -0.30678555482709158 0.36905043209175731 0 -0.31927284705706999 0.36913973431394881 0 -0.31516882293884602 0.35481925216100368 0 -0.33314024697968758 0.37458164964239488 0 -0.33746207080304691 0.35842319193857258 0 -0.35572327860675829 0.35886956017413169 0 -0.31927284705706999 0.36913973431394881 0 -0.33314024697968758 0.37458164964239488 0 -0.33746207080304691 0.35842319193857258 0 -0.32541222682682758 0.34407709547579179 0 -0.34932491561855078 0.34800297545110431 0 -0.33746207080304691 0.35842319193857258 0 -0.32541222682682758 0.34407709547579179 0 -0.34932491561855078 0.34800297545110431 0 -0.30149953803510471 0.34015121550047839 0 -0.32541222682682758 0.34407709547579179 0 -0.31516882293884602 0.35481925216100368 0 -0.33746207080304691 0.35842319193857258 0 -0.32541222682682758 0.34407709547579179 0 -0.31516882293884602 0.35481925216100368 0 -0.33746207080304691 0.35842319193857258 0 -0.31516882293884602 0.35481925216100368 0 -0.31137123575521508 0.33152465302783701 0 -0.30149953803510471 0.34015121550047839 0 -0.32541222682682758 0.34407709547579179 0 -0.30149953803510471 0.34015121550047839 0 -0.32541222682682758 0.34407709547579179 0 -0.31137123575521508 0.33152465302783701 0 -0.32541222682682758 0.34407709547579179 0 -0.32211353102671869 0.33099604353189171 0 -0.32211353102671869 0.33099604353189171 0 -0.32642683776500098 0.3222688391669899 0 -0.33118156916839031 0.33452529613265469 0 -0.32541222682682758 0.34407709547579179 0 -0.32211353102671869 0.33099604353189171 0 -0.33118156916839031 0.33452529613265469 0 -0.3212293628758483 0.30028722303419741 0 -0.32738309180770608 0.3133247523071615 0 -0.33527713924720021 0.32414509924265039 0 -0.30763581903939752 0.31869653430644679 0 -0.31618123133228698 0.31284369594309003 0 -0.31773452830459459 0.32158371586399859 0 -0.31137123575521508 0.33152465302783701 0 -0.32211353102671869 0.33099604353189171 0 -0.31773452830459459 0.32158371586399859 0 -0.32211353102671869 0.33099604353189171 0 -0.31773452830459459 0.32158371586399859 0 -0.32642683776500098 0.3222688391669899 0 -0.31773452830459459 0.32158371586399859 0 -0.32642683776500098 0.3222688391669899 0 -0.32738309180770608 0.3133247523071615 0 -0.31618123133228698 0.31284369594309003 0 -0.31773452830459459 0.32158371586399859 0 -0.32738309180770608 0.3133247523071615 0 -0.32642683776500098 0.3222688391669899 0 -0.32738309180770608 0.3133247523071615 0 -0.33527713924720021 0.32414509924265039 0 -0.32642683776500098 0.3222688391669899 0 -0.33527713924720021 0.32414509924265039 0 -0.33118156916839031 0.33452529613265469 0 -0.33592566956565678 0.31210719818990712 0 -0.33527713924720021 0.32414509924265039 0 -0.34496387680440821 0.32496473423708511 0 -0.33527713924720021 0.32414509924265039 0 -0.33118156916839031 0.33452529613265469 0 -0.34932491561855078 0.34800297545110431 0 -0.33527713924720021 0.32414509924265039 0 -0.34496387680440821 0.32496473423708511 0 -0.34932491561855078 0.34800297545110431 0 -0.32541222682682758 0.34407709547579179 0 -0.33118156916839031 0.33452529613265469 0 -0.34932491561855078 0.34800297545110431 0 -0.33527713924720021 0.32414509924265039 0 -0.34932491561855078 0.34800297545110431 0 -0.35394866734464858 0.33058551658575802 0 -0.34496387680440821 0.32496473423708511 0 -0.34932491561855078 0.34800297545110431 0 -0.35394866734464858 0.33058551658575802 0 -0.35785966883942821 0.33932559407779328 0 -0.34932491561855078 0.34800297545110431 0 -0.35785966883942821 0.33932559407779328 0 -0.36655120466231539 0.34342244746945699 0 -0.34932491561855078 0.34800297545110431 0 -0.35394866734464858 0.33058551658575802 0 -0.35785966883942821 0.33932559407779328 0 -0.36381527652386209 0.33259634509309127 0 -0.33592566956565678 0.31210719818990712 0 -0.35064734421178878 0.31577624333644622 0 -0.34496387680440821 0.32496473423708511 0 -0.35394866734464858 0.33058551658575802 0 -0.35064734421178878 0.31577624333644622 0 -0.34496387680440821 0.32496473423708511 0 -0.35394866734464858 0.33058551658575802 0 -0.35064734421178878 0.31577624333644622 0 -0.35991183961945977 0.32076748841770059 0 -0.35394866734464858 0.33058551658575802 0 -0.35991183961945977 0.32076748841770059 0 -0.36381527652386209 0.33259634509309127 0 -0.36097786811212418 0.30880239237289758 0 -0.35064734421178878 0.31577624333644622 0 -0.35991183961945977 0.32076748841770059 0 -0.38365658521709428 0.31817359109501742 0 -0.36097786811212418 0.30880239237289758 0 -0.37119583518251048 0.32486854935313869 0 -0.36097786811212418 0.30880239237289758 0 -0.35991183961945977 0.32076748841770059 0 -0.37119583518251048 0.32486854935313869 0 -0.38365658521709428 0.31817359109501742 0 -0.36097786811212418 0.30880239237289758 0 -0.35991183961945977 0.32076748841770059 0 -0.37119583518251048 0.32486854935313869 0 -0.36381527652386209 0.33259634509309127 0 -0.35785966883942821 0.33932559407779328 0 -0.36655120466231539 0.34342244746945699 0 -0.36381527652386209 0.33259634509309127 0 -0.37119583518251048 0.32486854935313869 0 -0.36381527652386209 0.33259634509309127 0 -0.37338648306743499 0.33577570995908618 0 -0.37988562128689429 0.34284984480764552 0 -0.36655120466231539 0.34342244746945699 0 -0.37338648306743499 0.33577570995908618 0 -0.36655120466231539 0.34342244746945699 0 -0.36381527652386209 0.33259634509309127 0 -0.37338648306743499 0.33577570995908618 0 -0.37988562128689429 0.34284984480764552 0 -0.36655120466231539 0.34342244746945699 0 -0.36906102285349263 0.35124316265293481 0 -0.36655120466231539 0.34342244746945699 0 -0.36906102285349263 0.35124316265293481 0 -0.36906102285349263 0.35124316265293481 0 -0.36617858297136058 0.35159530752695201 0 -0.34932491561855078 0.34800297545110431 0 -0.36655120466231539 0.34342244746945699 0 -0.36906102285349263 0.35124316265293481 0 -0.34932491561855078 0.34800297545110431 0 -0.36617858297136058 0.35159530752695201 0 -0.36419441603508951 0.35938827712580362 0 -0.35572327860675829 0.35886956017413169 0 -0.36617858297136058 0.35159530752695201 0 -0.35572327860675829 0.35886956017413169 0 -0.36617858297136058 0.35159530752695201 0 -0.36716334166045472 0.35463116866617039 0 -0.36419441603508951 0.35938827712580362 0 -0.36716334166045472 0.35463116866617039 0 -0.36796741348078432 0.3571675813271693 0 -0.36419441603508951 0.35938827712580362 0 -0.36796741348078432 0.3571675813271693 0 -0.36419441603508951 0.35938827712580362 0 -0.36684872559287479 0.3608908569971504 0 -0.36906102285349263 0.35124316265293481 0 -0.36796741348078432 0.3571675813271693 0 -0.37020096705990052 0.36264717769365312 0 -0.36906102285349263 0.35124316265293481 0 -0.36716334166045472 0.35463116866617039 0 -0.36796741348078432 0.3571675813271693 0 -0.36906102285349263 0.35124316265293481 0 -0.36617858297136058 0.35159530752695201 0 -0.36716334166045472 0.35463116866617039 0 -0.35572327860675829 0.35886956017413169 0 -0.36643014112218558 0.37705343452700368 0 -0.36518226299081369 0.36699930286453381 0 -0.35572327860675829 0.35886956017413169 0 -0.36643014112218558 0.37705343452700368 0 -0.37729908560740633 0.37691336565344752 0 -0.36906102285349263 0.35124316265293481 0 -0.37020096705990052 0.36264717769365312 0 -0.37729908560740633 0.37691336565344752 0 -0.37829348991336081 0.36396687089532348 0 -0.36906102285349263 0.35124316265293481 0 -0.37729908560740633 0.37691336565344752 0 -0.36906102285349263 0.35124316265293481 0 -0.36982858776494398 0.36702092183756357 0 -0.36684872559287479 0.3608908569971504 0 -0.36668250927143708 0.36420847276224139 0 -0.36982858776494398 0.36702092183756357 0 -0.37020096705990052 0.36264717769365312 0 -0.36684872559287479 0.3608908569971504 0 -0.36982858776494398 0.36702092183756357 0 -0.36735855397346329 0.36674300498615592 0 -0.36668250927143708 0.36420847276224139 0 -0.36796741348078432 0.3571675813271693 0 -0.37020096705990052 0.36264717769365312 0 -0.36684872559287479 0.3608908569971504 0 -0.37729908560740633 0.37691336565344752 0 -0.36982858776494398 0.36702092183756357 0 -0.37020096705990052 0.36264717769365312 0 -0.37729908560740633 0.37691336565344752 0 -0.36982858776494398 0.36702092183756357 0 -0.37258056692249741 0.37364031847443729 0 -0.36982858776494398 0.36702092183756357 0 -0.37258056692249741 0.37364031847443729 0 -0.36844745257549588 0.36951393901383273 0 -0.36982858776494398 0.36702092183756357 0 -0.36735855397346329 0.36674300498615592 0 -0.36844745257549588 0.36951393901383273 0 -0.37258056692249741 0.37364031847443729 0 -0.36785189263078788 0.37469891498170749 0 -0.36986898171804689 0.3763185319464446 0 -0.37258056692249741 0.37364031847443729 0 -0.36844745257549588 0.36951393901383273 0 -0.36785189263078788 0.37469891498170749 0 -0.36785189263078788 0.37469891498170749 0 -0.36518226299081369 0.36699930286453381 0 -0.36643014112218558 0.37705343452700368 0 -0.36844745257549588 0.36951393901383273 0 -0.36785189263078788 0.37469891498170749 0 -0.36518226299081369 0.36699930286453381 0 -0.36735855397346329 0.36674300498615592 0 -0.36844745257549588 0.36951393901383273 0 -0.36518226299081369 0.36699930286453381 0 -0.36419441603508951 0.35938827712580362 0 -0.36518226299081369 0.36699930286453381 0 -0.35572327860675829 0.35886956017413169 0 -0.36419441603508951 0.35938827712580362 0 -0.36684872559287479 0.3608908569971504 0 -0.36668250927143708 0.36420847276224139 0 -0.36419441603508951 0.35938827712580362 0 -0.36668250927143708 0.36420847276224139 0 -0.36518226299081369 0.36699930286453381 0 -0.36735855397346329 0.36674300498615592 0 -0.36668250927143708 0.36420847276224139 0 -0.36518226299081369 0.36699930286453381 0 -0.33314024697968758 0.37458164964239488 0 -0.35572327860675829 0.35886956017413169 0 -0.34993955002859811 0.37569980416944349 0 -0.35572327860675829 0.35886956017413169 0 -0.34993955002859811 0.37569980416944349 0 -0.36643014112218558 0.37705343452700368 0 -0.33314024697968758 0.37458164964239488 0 -0.35572327860675829 0.35886956017413169 0 -0.33746207080304691 0.35842319193857258 0 -0.34932491561855078 0.34800297545110431 0 -0.35572327860675829 0.35886956017413169 0 -0.36906102285349263 0.35124316265293481 0 -0.34932491561855078 0.34800297545110431 0 -0.36617858297136058 0.35159530752695201 0 -0.34932491561855078 0.34800297545110431 0 -0.35572327860675829 0.35886956017413169 0 -0.34932491561855078 0.34800297545110431 0 -0.35572327860675829 0.35886956017413169 0 -0.35373691621525072 0.39807429925294008 0 -0.34993955002859811 0.37569980416944349 0 -0.34152819329970358 0.38618743377456499 0 -0.35373691621525072 0.39807429925294008 0 -0.34993955002859811 0.37569980416944349 0 -0.36643014112218558 0.37705343452700368 0 -0.37684719813873402 0.39474512111051518 0 -0.36643014112218558 0.37705343452700368 0 -0.37684719813873402 0.39474512111051518 0 -0.35373691621525072 0.39807429925294008 0 -0.36643014112218558 0.37705343452700368 0 -0.35373691621525072 0.39807429925294008 0 -0.36643014112218558 0.37705343452700368 0 -0.37684719813873402 0.39474512111051518 0 -0.36643014112218558 0.37705343452700368 0 -0.37261332619671661 0.37988145980262988 0 -0.36785189263078788 0.37469891498170749 0 -0.36643014112218558 0.37705343452700368 0 -0.36643014112218558 0.37705343452700368 0 -0.36986898171804689 0.3763185319464446 0 -0.37261332619671661 0.37988145980262988 0 -0.36785189263078788 0.37469891498170749 0 -0.36643014112218558 0.37705343452700368 0 -0.36986898171804689 0.3763185319464446 0 -0.37729908560740633 0.37691336565344752 0 -0.37258056692249741 0.37364031847443729 0 -0.37261332619671661 0.37988145980262988 0 -0.37258056692249741 0.37364031847443729 0 -0.36986898171804689 0.3763185319464446 0 -0.37261332619671661 0.37988145980262988 0 -0.37684719813873402 0.39474512111051518 0 -0.35373691621525072 0.39807429925294008 0 -0.36417286906282609 0.40746008020869801 0 -0.38553714836131731 0.40258356865396122 0 -0.36369939129051299 0.42280224804719713 0 -0.38553714836131731 0.40258356865396122 0 -0.36417286906282609 0.40746008020869801 0 -0.36369939129051299 0.42280224804719713 0 -0.37751695372585831 0.42895811772820769 0 -0.36369939129051299 0.42280224804719713 0 -0.36132286732678359 0.43906449030007522 0 -0.36369939129051299 0.42280224804719713 0 -0.34186163421970889 0.44302092744043309 0 -0.36369939129051299 0.42280224804719713 0 -0.34186163421970889 0.44302092744043309 0 -0.36132286732678359 0.43906449030007522 0 -0.36369939129051299 0.42280224804719713 0 -0.34104369130831552 0.41909516397887642 0 -0.34186163421970889 0.44302092744043309 0 -0.36417286906282609 0.40746008020869801 0 -0.36369939129051299 0.42280224804719713 0 -0.34104369130831552 0.41909516397887642 0 -0.35373691621525072 0.39807429925294008 0 -0.34104369130831552 0.41909516397887642 0 -0.35373691621525072 0.39807429925294008 0 -0.36417286906282609 0.40746008020869801 0 -0.34104369130831552 0.41909516397887642 0 -0.34104369130831552 0.41909516397887642 0 -0.31780417731359539 0.41330512483424992 0 -0.33170975303146949 0.39661096961846731 0 -0.34104369130831552 0.41909516397887642 0 -0.32835046640138038 0.44011602870481259 0 -0.34104369130831552 0.41909516397887642 0 -0.32014747249144959 0.42835791649848592 0 -0.32835046640138038 0.44011602870481259 0 -0.34104369130831552 0.41909516397887642 0 -0.32835046640138038 0.44011602870481259 0 -0.34186163421970889 0.44302092744043309 0 -0.32014747249144959 0.42835791649848592 0 -0.30948871801468408 0.43991343587385268 0 -0.32835046640138038 0.44011602870481259 0 -0.32014747249144959 0.42835791649848592 0 -0.31780417731359539 0.41330512483424992 0 -0.30547704677849552 0.42730290892678191 0 -0.34104369130831552 0.41909516397887642 0 -0.32014747249144959 0.42835791649848592 0 -0.31780417731359539 0.41330512483424992 0 -0.31780417731359539 0.41330512483424992 0 -0.33170975303146949 0.39661096961846731 0 -0.31055721535261699 0.3902937391106584 0 -0.35373691621525072 0.39807429925294008 0 -0.33170975303146949 0.39661096961846731 0 -0.34152819329970358 0.38618743377456499 0 -0.35373691621525072 0.39807429925294008 0 -0.34104369130831552 0.41909516397887642 0 -0.33170975303146949 0.39661096961846731 0 -0.33314024697968758 0.37458164964239488 0 -0.34993955002859811 0.37569980416944349 0 -0.34152819329970358 0.38618743377456499 0 -0.33314024697968758 0.37458164964239488 0 -0.33170975303146949 0.39661096961846731 0 -0.34152819329970358 0.38618743377456499 0 -0.31927284705706999 0.36913973431394881 0 -0.33314024697968758 0.37458164964239488 0 -0.31055721535261699 0.3902937391106584 0 -0.33314024697968758 0.37458164964239488 0 -0.31055721535261699 0.3902937391106584 0 -0.33314024697968758 0.37458164964239488 0 -0.33170975303146949 0.39661096961846731 0 -0.31055721535261699 0.3902937391106584 0 -0.30678555482709158 0.36905043209175731 0 -0.31055721535261699 0.3902937391106584 0 -0.29519471356690702 0.37561435222003869 0 -0.30678555482709158 0.36905043209175731 0 -0.31927284705706999 0.36913973431394881 0 -0.31055721535261699 0.3902937391106584 0 -0.31780417731359539 0.41330512483424992 0 -0.31055721535261699 0.3902937391106584 0 -0.30243055291742849 0.41248477687500351 0 -0.31055721535261699 0.3902937391106584 0 -0.2879741837255464 0.40600582857892192 0 -0.30243055291742849 0.41248477687500351 0 -0.31055721535261699 0.3902937391106584 0 -0.2879741837255464 0.40600582857892192 0 -0.31055721535261699 0.3902937391106584 0 -0.2879741837255464 0.40600582857892192 0 -0.28439353869394662 0.3885775604422893 0 -0.31055721535261699 0.3902937391106584 0 -0.29519471356690702 0.37561435222003869 0 -0.28439353869394662 0.3885775604422893 0 -0.28350375661999622 0.37332862699214547 0 -0.29519471356690702 0.37561435222003869 0 -0.28439353869394662 0.3885775604422893 0 -0.28439353869394662 0.3885775604422893 0 -0.27378722955857981 0.3784494738402312 0 -0.26332489113807478 0.38751420145278798 0 -0.28350375661999622 0.37332862699214547 0 -0.28439353869394662 0.3885775604422893 0 -0.27378722955857981 0.3784494738402312 0 -0.27378722955857981 0.3784494738402312 0 -0.26147323245794851 0.37548267651517869 0 -0.26332489113807478 0.38751420145278798 0 -0.28439353869394662 0.3885775604422893 0 -0.2679254969803373 0.40041805158499832 0 -0.26332489113807478 0.38751420145278798 0 -0.2879741837255464 0.40600582857892192 0 -0.28439353869394662 0.3885775604422893 0 -0.2679254969803373 0.40041805158499832 0 -0.2879741837255464 0.40600582857892192 0 -0.2679254969803373 0.40041805158499832 0 -0.26914626285620669 0.4095476284304328 0 -0.2679254969803373 0.40041805158499832 0 -0.26332489113807478 0.38751420145278798 0 -0.24575691865879951 0.39791783495974531 0 -0.2679254969803373 0.40041805158499832 0 -0.25529421862046742 0.41004871551062588 0 -0.24575691865879951 0.39791783495974531 0 -0.26332489113807478 0.38751420145278798 0 -0.2487141560412986 0.38228942533176707 0 -0.24575691865879951 0.39791783495974531 0 -0.26147323245794851 0.37548267651517869 0 -0.2487141560412986 0.38228942533176707 0 -0.24622818643367181 0.37054003004091562 0 -0.26147323245794851 0.37548267651517869 0 -0.26332489113807478 0.38751420145278798 0 -0.2487141560412986 0.38228942533176707 0 -0.26052177175476449 0.42510577760824098 0 -0.26539115209847569 0.42171791804718523 0 -0.24014987127485199 0.42005137458722042 0 -0.26052177175476449 0.42510577760824098 0 -0.2501569201673457 0.43334249458297541 0 -0.24014987127485199 0.42005137458722042 0 -0.26052177175476449 0.42510577760824098 0 -0.26539115209847569 0.42171791804718523 0 -0.26690170543607278 0.43040464410392398 0 -0.26052177175476449 0.42510577760824098 0 -0.26539115209847569 0.42171791804718523 0 -0.26052177175476449 0.42510577760824098 0 -0.26053298509334938 0.43536898616536801 0 -0.26690170543607278 0.43040464410392398 0 -0.26052177175476449 0.42510577760824098 0 -0.26053298509334938 0.43536898616536801 0 -0.2501569201673457 0.43334249458297541 0 -0.25529421862046742 0.41004871551062588 0 -0.26539115209847569 0.42171791804718523 0 -0.24014987127485199 0.42005137458722042 0 -0.26539115209847569 0.42171791804718523 0 -0.24014987127485199 0.42005137458722042 0 -0.25529421862046742 0.41004871551062588 0 -0.26539115209847569 0.42171791804718523 0 -0.26914626285620669 0.4095476284304328 0 -0.2679254969803373 0.40041805158499832 0 -0.25529421862046742 0.41004871551062588 0 -0.26914626285620669 0.4095476284304328 0 -0.2879741837255464 0.40600582857892192 0 -0.26539115209847569 0.42171791804718523 0 -0.26914626285620669 0.4095476284304328 0 -0.2879741837255464 0.40600582857892192 0 -0.26539115209847569 0.42171791804718523 0 -0.26539115209847569 0.42171791804718523 0 -0.29176687877611118 0.42345936275054941 0 -0.26539115209847569 0.42171791804718523 0 -0.27776648920046659 0.4325819773722766 0 -0.29176687877611118 0.42345936275054941 0 -0.26539115209847569 0.42171791804718523 0 -0.26690170543607278 0.43040464410392398 0 -0.27776648920046659 0.4325819773722766 0 -0.26053298509334938 0.43536898616536801 0 -0.27029612903330752 0.43724856132654888 0 -0.26690170543607278 0.43040464410392398 0 -0.27029612903330752 0.43724856132654888 0 -0.26690170543607278 0.43040464410392398 0 -0.27776648920046659 0.4325819773722766 0 -0.27776648920046659 0.4325819773722766 0 -0.29176687877611118 0.42345936275054941 0 -0.29464865081983938 0.44136022831129468 0 -0.2879741837255464 0.40600582857892192 0 -0.26539115209847569 0.42171791804718523 0 -0.29176687877611118 0.42345936275054941 0 -0.2879741837255464 0.40600582857892192 0 -0.29176687877611118 0.42345936275054941 0 -0.30243055291742849 0.41248477687500351 0 -0.29176687877611118 0.42345936275054941 0 -0.30243055291742849 0.41248477687500351 0 -0.30547704677849552 0.42730290892678191 0 -0.31780417731359539 0.41330512483424992 0 -0.30243055291742849 0.41248477687500351 0 -0.30547704677849552 0.42730290892678191 0 -0.29176687877611118 0.42345936275054941 0 -0.30547704677849552 0.42730290892678191 0 -0.29464865081983938 0.44136022831129468 0 -0.30547704677849552 0.42730290892678191 0 -0.30948871801468408 0.43991343587385268 0 -0.29464865081983938 0.44136022831129468 0 -0.32014747249144959 0.42835791649848592 0 -0.30547704677849552 0.42730290892678191 0 -0.30948871801468408 0.43991343587385268 0 -0.30870859825516311 0.45099110985935759 0 -0.29661717006410032 0.45885820231859831 0 -0.29464865081983938 0.44136022831129468 0 -0.30948871801468408 0.43991343587385268 0 -0.30870859825516311 0.45099110985935759 0 -0.29464865081983938 0.44136022831129468 0 -0.30748934273652878 0.46456187051683889 0 -0.29661717006410032 0.45885820231859831 0 -0.29731257676469819 0.47452306330589672 0 -0.30748934273652878 0.46456187051683889 0 -0.31191156580915169 0.47290897399135529 0 -0.31546710624329288 0.46653382830483903 0 -0.30870859825516311 0.45099110985935759 0 -0.30748934273652878 0.46456187051683889 0 -0.31565724149444541 0.46113689343074871 0 -0.30870859825516311 0.45099110985935759 0 -0.30748934273652878 0.46456187051683889 0 -0.29661717006410032 0.45885820231859831 0 -0.29661717006410032 0.45885820231859831 0 -0.28740801894269952 0.45070583267072373 0 -0.28008589351425578 0.45899555708752893 0 -0.29661717006410032 0.45885820231859831 0 -0.28008589351425578 0.45899555708752893 0 -0.28509789472236702 0.47942910115929999 0 -0.29661717006410032 0.45885820231859831 0 -0.29464865081983938 0.44136022831129468 0 -0.28740801894269952 0.45070583267072373 0 -0.29464865081983938 0.44136022831129468 0 -0.28740801894269952 0.45070583267072373 0 -0.27828036137260242 0.44360934296547322 0 -0.27776648920046659 0.4325819773722766 0 -0.29464865081983938 0.44136022831129468 0 -0.27828036137260242 0.44360934296547322 0 -0.28740801894269952 0.45070583267072373 0 -0.27828036137260242 0.44360934296547322 0 -0.28008589351425578 0.45899555708752893 0 -0.27029612903330752 0.43724856132654888 0 -0.27776648920046659 0.4325819773722766 0 -0.27828036137260242 0.44360934296547322 0 -0.27029612903330752 0.43724856132654888 0 -0.27828036137260242 0.44360934296547322 0 -0.26674835765945543 0.44736750249833618 0 -0.26053298509334938 0.43536898616536801 0 -0.27029612903330752 0.43724856132654888 0 -0.26674835765945543 0.44736750249833618 0 -0.27828036137260242 0.44360934296547322 0 -0.26674835765945543 0.44736750249833618 0 -0.28008589351425578 0.45899555708752893 0 -0.28008589351425578 0.45899555708752893 0 -0.2628489194948283 0.46419016188370699 0 -0.28509789472236702 0.47942910115929999 0 -0.26674835765945543 0.44736750249833618 0 -0.28008589351425578 0.45899555708752893 0 -0.2628489194948283 0.46419016188370699 0 -0.2628489194948283 0.46419016188370699 0 -0.24816764046116879 0.4753940396428773 0 -0.24076767868418061 0.45730089210680158 0 -0.2628489194948283 0.46419016188370699 0 -0.25260519507498769 0.44555699038200808 0 -0.24076767868418061 0.45730089210680158 0 -0.26674835765945543 0.44736750249833618 0 -0.2628489194948283 0.46419016188370699 0 -0.25260519507498769 0.44555699038200808 0 -0.26053298509334938 0.43536898616536801 0 -0.2501569201673457 0.43334249458297541 0 -0.25260519507498769 0.44555699038200808 0 -0.26053298509334938 0.43536898616536801 0 -0.26674835765945543 0.44736750249833618 0 -0.25260519507498769 0.44555699038200808 0 -0.264202811631502 0.48323637863549579 0 -0.2735786193806331 0.50000000000000144 0 -0.24556489473879459 0.5 0 -0.264202811631502 0.48323637863549579 0 -0.24816764046116879 0.4753940396428773 0 -0.24556489473879459 0.5 0 -0.2628489194948283 0.46419016188370699 0 -0.264202811631502 0.48323637863549579 0 -0.24816764046116879 0.4753940396428773 0 -0.2628489194948283 0.46419016188370699 0 -0.264202811631502 0.48323637863549579 0 -0.28509789472236702 0.47942910115929999 0 -0.264202811631502 0.48323637863549579 0 -0.2735786193806331 0.50000000000000144 0 -0.28509789472236702 0.47942910115929999 0 -0.2735786193806331 0.50000000000000144 0 -0.28509789472236702 0.47942910115929999 0 -0.2735786193806331 0.50000000000000144 0 -0.28509789472236702 0.47942910115929999 0 -0.30049368311382368 0.5 0 -0.28509789472236702 0.47942910115929999 0 -0.29731257676469819 0.47452306330589672 0 -0.30049368311382368 0.5 0 -0.29661717006410032 0.45885820231859831 0 -0.28509789472236702 0.47942910115929999 0 -0.29661717006410032 0.45885820231859831 0 -0.28509789472236702 0.47942910115929999 0 -0.29731257676469819 0.47452306330589672 0 -0.29731257676469819 0.47452306330589672 0 -0.30762900228263612 0.48195934984614969 0 -0.31191156580915169 0.47290897399135529 0 -0.30748934273652878 0.46456187051683889 0 -0.29731257676469819 0.47452306330589672 0 -0.31191156580915169 0.47290897399135529 0 -0.30762900228263612 0.48195934984614969 0 -0.30049368311382368 0.5 0 -0.31930546353090411 0.48191342270374421 0 -0.29731257676469819 0.47452306330589672 0 -0.30762900228263612 0.48195934984614969 0 -0.30049368311382368 0.5 0 -0.32740874684701432 0.5 0 -0.32971057684362171 0.48041560343396522 0 -0.31930546353090411 0.48191342270374421 0 -0.30049368311382368 0.5 0 -0.32740874684701432 0.5 0 -0.31930546353090411 0.48191342270374421 0 -0.32740874684701432 0.5 0 -0.32971057684362171 0.48041560343396522 0 -0.34770029009144893 0.48210466655821371 0 -0.32740874684701432 0.5 0 -0.35432381058020501 0.5 0 -0.34770029009144893 0.48210466655821371 0 -0.33951968685092693 0.47400776065004419 0 -0.32971057684362171 0.48041560343396522 0 -0.34770029009144893 0.48210466655821371 0 -0.33951968685092693 0.47400776065004419 0 -0.33185609963488849 0.46858780414500922 0 -0.33977252625112769 0.46408630080646612 0 -0.33951968685092693 0.47400776065004419 0 -0.32971057684362171 0.48041560343396522 0 -0.33185609963488849 0.46858780414500922 0 -0.32971057684362171 0.48041560343396522 0 -0.32225350402743391 0.47082179675158298 0 -0.33185609963488849 0.46858780414500922 0 -0.32971057684362171 0.48041560343396522 0 -0.32225350402743391 0.47082179675158298 0 -0.31930546353090411 0.48191342270374421 0 -0.30762900228263612 0.48195934984614969 0 -0.31191156580915169 0.47290897399135529 0 -0.31930546353090411 0.48191342270374421 0 -0.31191156580915169 0.47290897399135529 0 -0.32225350402743391 0.47082179675158298 0 -0.31546710624329288 0.46653382830483903 0 -0.31191156580915169 0.47290897399135529 0 -0.32225350402743391 0.47082179675158298 0 -0.31930546353090411 0.48191342270374421 0 -0.30748934273652878 0.46456187051683889 0 -0.31546710624329288 0.46653382830483903 0 -0.31565724149444541 0.46113689343074871 0 -0.32002387714890468 0.46323960683366922 0 -0.31565724149444541 0.46113689343074871 0 -0.32835046640138038 0.44011602870481259 0 -0.32225350402743391 0.47082179675158298 0 -0.31546710624329288 0.46653382830483903 0 -0.32002387714890468 0.46323960683366922 0 -0.31546710624329288 0.46653382830483903 0 -0.32002387714890468 0.46323960683366922 0 -0.31565724149444541 0.46113689343074871 0 -0.32225350402743391 0.47082179675158298 0 -0.3268136014798535 0.46513516871364557 0 -0.33185609963488849 0.46858780414500922 0 -0.32002387714890468 0.46323960683366922 0 -0.3268136014798535 0.46513516871364557 0 -0.33312092510818708 0.45789146712432133 0 -0.32225350402743391 0.47082179675158298 0 -0.32002387714890468 0.46323960683366922 0 -0.3268136014798535 0.46513516871364557 0 -0.31565724149444541 0.46113689343074871 0 -0.32835046640138038 0.44011602870481259 0 -0.30870859825516311 0.45099110985935759 0 -0.31565724149444541 0.46113689343074871 0 -0.32835046640138038 0.44011602870481259 0 -0.30948871801468408 0.43991343587385268 0 -0.30870859825516311 0.45099110985935759 0 -0.32835046640138038 0.44011602870481259 0 -0.32002387714890468 0.46323960683366922 0 -0.32835046640138038 0.44011602870481259 0 -0.34186163421970889 0.44302092744043309 0 -0.34186163421970889 0.44302092744043309 0 -0.33312092510818708 0.45789146712432133 0 -0.34433041760875388 0.4559406775033672 0 -0.32002387714890468 0.46323960683366922 0 -0.34186163421970889 0.44302092744043309 0 -0.33312092510818708 0.45789146712432133 0 -0.32002387714890468 0.46323960683366922 0 -0.34186163421970889 0.44302092744043309 0 -0.3268136014798535 0.46513516871364557 0 -0.33185609963488849 0.46858780414500922 0 -0.33312092510818708 0.45789146712432133 0 -0.33185609963488849 0.46858780414500922 0 -0.33312092510818708 0.45789146712432133 0 -0.33977252625112769 0.46408630080646612 0 -0.33312092510818708 0.45789146712432133 0 -0.33977252625112769 0.46408630080646612 0 -0.34433041760875388 0.4559406775033672 0 -0.33951968685092693 0.47400776065004419 0 -0.33977252625112769 0.46408630080646612 0 -0.34842742892834139 0.46635903274208401 0 -0.33977252625112769 0.46408630080646612 0 -0.34842742892834139 0.46635903274208401 0 -0.34433041760875388 0.4559406775033672 0 -0.34842742892834139 0.46635903274208401 0 -0.34433041760875388 0.4559406775033672 0 -0.35599478614216828 0.45390865901294219 0 -0.34842742892834139 0.46635903274208401 0 -0.35599478614216828 0.45390865901294219 0 -0.3632468666256225 0.4681061319214706 0 -0.34186163421970889 0.44302092744043309 0 -0.35599478614216828 0.45390865901294219 0 -0.36132286732678359 0.43906449030007522 0 -0.34186163421970889 0.44302092744043309 0 -0.34433041760875388 0.4559406775033672 0 -0.35599478614216828 0.45390865901294219 0 -0.37544029859325118 0.44747915153378331 0 -0.37751695372585831 0.42895811772820769 0 -0.36132286732678359 0.43906449030007522 0 -0.37544029859325118 0.44747915153378331 0 -0.35599478614216828 0.45390865901294219 0 -0.36132286732678359 0.43906449030007522 0 -0.37988262705014297 0.47102523020825299 0 -0.3632468666256225 0.4681061319214706 0 -0.37205691663698409 0.45999325085252107 0 -0.37544029859325118 0.44747915153378331 0 -0.35599478614216828 0.45390865901294219 0 -0.37205691663698409 0.45999325085252107 0 -0.35599478614216828 0.45390865901294219 0 -0.3632468666256225 0.4681061319214706 0 -0.37205691663698409 0.45999325085252107 0 -0.37988262705014297 0.47102523020825299 0 -0.3632468666256225 0.4681061319214706 0 -0.37526499686547798 0.47949172834642351 0 -0.3632468666256225 0.4681061319214706 0 -0.36743429158012608 0.48620629452141523 0 -0.37526499686547798 0.47949172834642351 0 -0.37988262705014297 0.47102523020825299 0 -0.3632468666256225 0.4681061319214706 0 -0.3632468666256225 0.4681061319214706 0 -0.36743429158012608 0.48620629452141523 0 -0.34770029009144893 0.48210466655821371 0 -0.38118635390301531 0.49826738227632439 0 -0.36743429158012608 0.48620629452141523 0 -0.35432381058020501 0.5 0 -0.37758615809245688 0.48856506227096308 0 -0.37526499686547798 0.47949172834642351 0 -0.36743429158012608 0.48620629452141523 0 -0.38118635390301531 0.49826738227632439 0 -0.38123887431339581 0.5 0 -0.35432381058020501 0.5 0 -0.36743429158012608 0.48620629452141523 0 -0.35432381058020501 0.5 0 -0.34770029009144893 0.48210466655821371 0 -0.34842742892834139 0.46635903274208401 0 -0.3632468666256225 0.4681061319214706 0 -0.34770029009144893 0.48210466655821371 0 -0.33951968685092693 0.47400776065004419 0 -0.34842742892834139 0.46635903274208401 0 -0.34770029009144893 0.48210466655821371 0 -0.14038621312092769 0.48116932997435841 0 -0.15557728127250731 0.46802323410495539 0 -0.15666176937894391 0.49426043789608159 0 -0.15557728127250731 0.46802323410495539 0 -0.15666176937894391 0.49426043789608159 0 -0.13350999617144099 0.5 0 -0.1615237208132794 0.5 0 -0.15666176937894391 0.49426043789608159 0 -0.13350999617144099 0.5 0 -0.14038621312092769 0.48116932997435841 0 -0.15666176937894391 0.49426043789608159 0 -0.13350999617144099 0.5 0 -0.14038621312092769 0.48116932997435841 0 -0.1205660090392484 0.48645168961490171 0 -0.14038621312092769 0.48116932997435841 0 -0.1234171675559782 0.47140926387654353 0 -0.1205660090392484 0.48645168961490171 0 -0.14038621312092769 0.48116932997435841 0 -0.13767312995109809 0.45511345397706371 0 -0.1234171675559782 0.47140926387654353 0 -0.13767312995109809 0.45511345397706371 0 -0.1157289500858367 0.45438826977914037 0 -0.1234171675559782 0.47140926387654353 0 -0.13767312995109809 0.45511345397706371 0 -0.12678985416440561 0.43800831601110579 0 -0.1157289500858367 0.45438826977914037 0 -0.13767312995109809 0.45511345397706371 0 -0.12678985416440561 0.43800831601110579 0 -0.14184699308922549 0.43013926704248101 0 -0.13767312995109809 0.45511345397706371 0 -0.1544927931660707 0.44178603031382929 0 -0.14184699308922549 0.43013926704248101 0 -0.13767312995109809 0.45511345397706371 0 -0.1544927931660707 0.44178603031382929 0 -0.15557728127250731 0.46802323410495539 0 -0.14038621312092769 0.48116932997435841 0 -0.13767312995109809 0.45511345397706371 0 -0.15557728127250731 0.46802323410495539 0 -0.1544927931660707 0.44178603031382929 0 -0.15557728127250731 0.46802323410495539 0 -0.1544927931660707 0.44178603031382929 0 -0.15557728127250731 0.46802323410495539 0 -0.1769202584268092 0.45857592485831922 0 -0.1544927931660707 0.44178603031382929 0 -0.1769202584268092 0.45857592485831922 0 -0.17354765596827021 0.43749429840914572 0 -0.1769202584268092 0.45857592485831922 0 -0.18757818126725331 0.44354166482468332 0 -0.17354765596827021 0.43749429840914572 0 -0.1769202584268092 0.45857592485831922 0 -0.17300546694213589 0.48325061733244562 0 -0.19830580962783401 0.47948249360530421 0 -0.15557728127250731 0.46802323410495539 0 -0.1769202584268092 0.45857592485831922 0 -0.17300546694213589 0.48325061733244562 0 -0.15557728127250731 0.46802323410495539 0 -0.17300546694213589 0.48325061733244562 0 -0.15666176937894391 0.49426043789608159 0 -0.17300546694213589 0.48325061733244562 0 -0.1615237208132794 0.5 0 -0.15666176937894391 0.49426043789608159 0 -0.17300546694213589 0.48325061733244562 0 -0.18953744545511789 0.5 0 -0.19830580962783401 0.47948249360530421 0 -0.17300546694213589 0.48325061733244562 0 -0.1615237208132794 0.5 0 -0.18953744545511789 0.5 0 -0.18953744545511789 0.5 0 -0.19830580962783401 0.47948249360530421 0 -0.21755117009695621 0.5 0 -0.19830580962783401 0.47948249360530421 0 -0.22457585307667979 0.47365847034258463 0 -0.19962572047354649 0.45646470724997018 0 -0.19830580962783401 0.47948249360530421 0 -0.21755117009695621 0.5 0 -0.22457585307667979 0.47365847034258463 0 -0.21755117009695621 0.5 0 -0.22457585307667979 0.47365847034258463 0 -0.24556489473879459 0.5 0 -0.22457585307667979 0.47365847034258463 0 -0.24816764046116879 0.4753940396428773 0 -0.24556489473879459 0.5 0 -0.22457585307667979 0.47365847034258463 0 -0.24816764046116879 0.4753940396428773 0 -0.24076767868418061 0.45730089210680158 0 -0.25260519507498769 0.44555699038200808 0 -0.23757028192509899 0.43969177895903278 0 -0.24076767868418061 0.45730089210680158 0 -0.2501569201673457 0.43334249458297541 0 -0.25260519507498769 0.44555699038200808 0 -0.23757028192509899 0.43969177895903278 0 -0.22457585307667979 0.47365847034258463 0 -0.24076767868418061 0.45730089210680158 0 -0.22105982447147751 0.44354523558931391 0 -0.23757028192509899 0.43969177895903278 0 -0.24076767868418061 0.45730089210680158 0 -0.22105982447147751 0.44354523558931391 0 -0.22105982447147751 0.44354523558931391 0 -0.19962572047354649 0.45646470724997018 0 -0.20091857207034969 0.43634375871644249 0 -0.22457585307667979 0.47365847034258463 0 -0.22105982447147751 0.44354523558931391 0 -0.19962572047354649 0.45646470724997018 0 -0.1769202584268092 0.45857592485831922 0 -0.19830580962783401 0.47948249360530421 0 -0.19962572047354649 0.45646470724997018 0 -0.19962572047354649 0.45646470724997018 0 -0.18757818126725331 0.44354166482468332 0 -0.20091857207034969 0.43634375871644249 0 -0.1769202584268092 0.45857592485831922 0 -0.19962572047354649 0.45646470724997018 0 -0.18757818126725331 0.44354166482468332 0 -0.18757818126725331 0.44354166482468332 0 -0.187587186804406 0.43006081645718741 0 -0.20091857207034969 0.43634375871644249 0 -0.187587186804406 0.43006081645718741 0 -0.1982704147383971 0.42537692349204409 0 -0.18966730962760439 0.41671828766729102 0 -0.187587186804406 0.43006081645718741 0 -0.1982704147383971 0.42537692349204409 0 -0.20091857207034969 0.43634375871644249 0 -0.18966730962760439 0.41671828766729102 0 -0.1960768560642577 0.40626334382386903 0 -0.2149085904512282 0.41838483112725577 0 -0.18966730962760439 0.41671828766729102 0 -0.2149085904512282 0.41838483112725577 0 -0.1982704147383971 0.42537692349204409 0 -0.18966730962760439 0.41671828766729102 0 -0.2149085904512282 0.41838483112725577 0 -0.18966730962760439 0.41671828766729102 0 -0.1960768560642577 0.40626334382386903 0 -0.18132509544133249 0.40625813740159827 0 -0.1960768560642577 0.40626334382386903 0 -0.2149085904512282 0.41838483112725577 0 -0.21059127630073449 0.40126436277754818 0 -0.2149085904512282 0.41838483112725577 0 -0.22857651626226561 0.40432463787077261 0 -0.21059127630073449 0.40126436277754818 0 -0.22105982447147751 0.44354523558931391 0 -0.20091857207034969 0.43634375871644249 0 -0.2149085904512282 0.41838483112725577 0 -0.1982704147383971 0.42537692349204409 0 -0.20091857207034969 0.43634375871644249 0 -0.2149085904512282 0.41838483112725577 0 -0.2149085904512282 0.41838483112725577 0 -0.22730625534084581 0.42903116034062011 0 -0.24014987127485199 0.42005137458722042 0 -0.23757028192509899 0.43969177895903278 0 -0.22105982447147751 0.44354523558931391 0 -0.22730625534084581 0.42903116034062011 0 -0.22105982447147751 0.44354523558931391 0 -0.2149085904512282 0.41838483112725577 0 -0.22730625534084581 0.42903116034062011 0 -0.2149085904512282 0.41838483112725577 0 -0.24014987127485199 0.42005137458722042 0 -0.2149085904512282 0.41838483112725577 0 -0.24014987127485199 0.42005137458722042 0 -0.22857651626226561 0.40432463787077261 0 -0.25529421862046742 0.41004871551062588 0 -0.24014987127485199 0.42005137458722042 0 -0.24575691865879951 0.39791783495974531 0 -0.24014987127485199 0.42005137458722042 0 -0.24575691865879951 0.39791783495974531 0 -0.22857651626226561 0.40432463787077261 0 -0.23757028192509899 0.43969177895903278 0 -0.22730625534084581 0.42903116034062011 0 -0.24014987127485199 0.42005137458722042 0 -0.2501569201673457 0.43334249458297541 0 -0.23757028192509899 0.43969177895903278 0 -0.24014987127485199 0.42005137458722042 0 -0.2487141560412986 0.38228942533176707 0 -0.23099000264292111 0.37609201160517269 0 -0.24622818643367181 0.37054003004091562 0 -0.24575691865879951 0.39791783495974531 0 -0.23099000264292111 0.37609201160517269 0 -0.2487141560412986 0.38228942533176707 0 -0.24575691865879951 0.39791783495974531 0 -0.23099000264292111 0.37609201160517269 0 -0.24575691865879951 0.39791783495974531 0 -0.22857651626226561 0.40432463787077261 0 -0.23099000264292111 0.37609201160517269 0 -0.22857651626226561 0.40432463787077261 0 -0.21869087831930559 0.38966347414013008 0 -0.21059127630073449 0.40126436277754818 0 -0.22857651626226561 0.40432463787077261 0 -0.23099000264292111 0.37609201160517269 0 -0.21869087831930559 0.38966347414013008 0 -0.23099000264292111 0.37609201160517269 0 -0.21869087831930559 0.38966347414013008 0 -0.2129266591948466 0.37430277290853298 0 -0.21869087831930559 0.38966347414013008 0 -0.2048185324318251 0.38904954855924673 0 -0.2129266591948466 0.37430277290853298 0 -0.2048185324318251 0.38904954855924673 0 -0.19824024098588211 0.37826551785413942 0 -0.2129266591948466 0.37430277290853298 0 -0.21869087831930559 0.38966347414013008 0 -0.2048185324318251 0.38904954855924673 0 -0.21059127630073449 0.40126436277754818 0 -0.2048185324318251 0.38904954855924673 0 -0.21059127630073449 0.40126436277754818 0 -0.19920156510048209 0.3980829410393123 0 -0.1960768560642577 0.40626334382386903 0 -0.21059127630073449 0.40126436277754818 0 -0.19920156510048209 0.3980829410393123 0 -0.2048185324318251 0.38904954855924673 0 -0.19920156510048209 0.3980829410393123 0 -0.1892605746896999 0.39271822263581763 0 -0.1960768560642577 0.40626334382386903 0 -0.1892605746896999 0.39271822263581763 0 -0.18132509544133249 0.40625813740159827 0 -0.1960768560642577 0.40626334382386903 0 -0.19920156510048209 0.3980829410393123 0 -0.1892605746896999 0.39271822263581763 0 -0.2048185324318251 0.38904954855924673 0 -0.1892605746896999 0.39271822263581763 0 -0.19824024098588211 0.37826551785413942 0 -0.1892605746896999 0.39271822263581763 0 -0.19824024098588211 0.37826551785413942 0 -0.18272573540904991 0.37787600145237782 0 -0.1892605746896999 0.39271822263581763 0 -0.18272573540904991 0.37787600145237782 0 -0.16569149185454959 0.39101516665980929 0 -0.18272573540904991 0.37787600145237782 0 -0.1688139898749724 0.37636680118101679 0 -0.16569149185454959 0.39101516665980929 0 -0.1688139898749724 0.37636680118101679 0 -0.16569149185454959 0.39101516665980929 0 -0.1500578882677667 0.37577219591802019 0 -0.16569149185454959 0.39101516665980929 0 -0.1500578882677667 0.37577219591802019 0 -0.16569149185454959 0.39101516665980929 0 -0.1646137498904641 0.40301002679584652 0 -0.18132509544133249 0.40625813740159827 0 -0.16569149185454959 0.39101516665980929 0 -0.1646137498904641 0.40301002679584652 0 -0.15333443692293111 0.40239811193175817 0 -0.1892605746896999 0.39271822263581763 0 -0.16569149185454959 0.39101516665980929 0 -0.18132509544133249 0.40625813740159827 0 -0.16569149185454959 0.39101516665980929 0 -0.18132509544133249 0.40625813740159827 0 -0.1646137498904641 0.40301002679584652 0 -0.18132509544133249 0.40625813740159827 0 -0.1750080459408454 0.41025954901801548 0 -0.18966730962760439 0.41671828766729102 0 -0.16442602880398061 0.41505174420732638 0 -0.18966730962760439 0.41671828766729102 0 -0.18132509544133249 0.40625813740159827 0 -0.1750080459408454 0.41025954901801548 0 -0.18966730962760439 0.41671828766729102 0 -0.1750080459408454 0.41025954901801548 0 -0.16442602880398061 0.41505174420732638 0 -0.18966730962760439 0.41671828766729102 0 -0.17592229312486629 0.42511251815797169 0 -0.16442602880398061 0.41505174420732638 0 -0.18757818126725331 0.44354166482468332 0 -0.187587186804406 0.43006081645718741 0 -0.17354765596827021 0.43749429840914572 0 -0.187587186804406 0.43006081645718741 0 -0.18966730962760439 0.41671828766729102 0 -0.17592229312486629 0.42511251815797169 0 -0.187587186804406 0.43006081645718741 0 -0.17592229312486629 0.42511251815797169 0 -0.17354765596827021 0.43749429840914572 0 -0.1544927931660707 0.44178603031382929 0 -0.16438328442007041 0.42623744404890779 0 -0.1534083050596341 0.41554882652270342 0 -0.1544927931660707 0.44178603031382929 0 -0.17354765596827021 0.43749429840914572 0 -0.16438328442007041 0.42623744404890779 0 -0.17592229312486629 0.42511251815797169 0 -0.17354765596827021 0.43749429840914572 0 -0.16438328442007041 0.42623744404890779 0 -0.17592229312486629 0.42511251815797169 0 -0.16438328442007041 0.42623744404890779 0 -0.16442602880398061 0.41505174420732638 0 -0.1646137498904641 0.40301002679584652 0 -0.1750080459408454 0.41025954901801548 0 -0.16442602880398061 0.41505174420732638 0 -0.16438328442007041 0.42623744404890779 0 -0.16442602880398061 0.41505174420732638 0 -0.1534083050596341 0.41554882652270342 0 -0.1646137498904641 0.40301002679584652 0 -0.16442602880398061 0.41505174420732638 0 -0.15333443692293111 0.40239811193175817 0 -0.16442602880398061 0.41505174420732638 0 -0.1534083050596341 0.41554882652270342 0 -0.13918474798035679 0.41338520074736168 0 -0.16442602880398061 0.41505174420732638 0 -0.13918474798035679 0.41338520074736168 0 -0.15333443692293111 0.40239811193175817 0 -0.1534083050596341 0.41554882652270342 0 -0.14184699308922549 0.43013926704248101 0 -0.13918474798035679 0.41338520074736168 0 -0.16442602880398061 0.41505174420732638 0 -0.13918474798035679 0.41338520074736168 0 -0.1544927931660707 0.44178603031382929 0 -0.1534083050596341 0.41554882652270342 0 -0.14184699308922549 0.43013926704248101 0 -0.1544927931660707 0.44178603031382929 0 -0.1534083050596341 0.41554882652270342 0 -0.14184699308922549 0.43013926704248101 0 -0.12633179495603161 0.42423482944829732 0 -0.13918474798035679 0.41338520074736168 0 -0.12678985416440561 0.43800831601110579 0 -0.14184699308922549 0.43013926704248101 0 -0.12633179495603161 0.42423482944829732 0 -0.13918474798035679 0.41338520074736168 0 -0.12625787884841591 0.400519378092273 0 -0.1139434671567329 0.41171865728739698 0 -0.13918474798035679 0.41338520074736168 0 -0.1139434671567329 0.41171865728739698 0 -0.12633179495603161 0.42423482944829732 0 -0.13918474798035679 0.41338520074736168 0 -0.1139434671567329 0.41171865728739698 0 -0.12625787884841591 0.400519378092273 0 -0.1428638123084256 0.39087145787405858 0 -0.1247661673848293 0.38541787619901491 0 -0.13918474798035679 0.41338520074736168 0 -0.12625787884841591 0.400519378092273 0 -0.1428638123084256 0.39087145787405858 0 -0.1428638123084256 0.39087145787405858 0 -0.1373353432272629 0.37458855373172478 0 -0.1247661673848293 0.38541787619901491 0 -0.1373353432272629 0.37458855373172478 0 -0.1242316477344786 0.37309488013705372 0 -0.1247661673848293 0.38541787619901491 0 -0.16569149185454959 0.39101516665980929 0 -0.1500578882677667 0.37577219591802019 0 -0.1428638123084256 0.39087145787405858 0 -0.1500578882677667 0.37577219591802019 0 -0.1428638123084256 0.39087145787405858 0 -0.1373353432272629 0.37458855373172478 0 -0.13918474798035679 0.41338520074736168 0 -0.1428638123084256 0.39087145787405858 0 -0.15333443692293111 0.40239811193175817 0 -0.16569149185454959 0.39101516665980929 0 -0.1428638123084256 0.39087145787405858 0 -0.15333443692293111 0.40239811193175817 0 -0.14293804898681689 0.34666258926654808 0 -0.15112606999059131 0.35781617243032909 0 -0.1344242846809835 0.36052922517623143 0 -0.14293804898681689 0.34666258926654808 0 -0.15488340664003 0.34772596857058191 0 -0.15112606999059131 0.35781617243032909 0 -0.15488340664003 0.34772596857058191 0 -0.15112606999059131 0.35781617243032909 0 -0.1621938813535187 0.35463741206135052 0 -0.1500578882677667 0.37577219591802019 0 -0.1344242846809835 0.36052922517623143 0 -0.1500578882677667 0.37577219591802019 0 -0.15112606999059131 0.35781617243032909 0 -0.16355461015382089 0.36473138354314588 0 -0.1500578882677667 0.37577219591802019 0 -0.15112606999059131 0.35781617243032909 0 -0.1344242846809835 0.36052922517623143 0 -0.13321902482448969 0.36249226984204119 0 -0.1344242846809835 0.36052922517623143 0 -0.1373353432272629 0.37458855373172478 0 -0.1500578882677667 0.37577219591802019 0 -0.1344242846809835 0.36052922517623143 0 -0.1373353432272629 0.37458855373172478 0 -0.13321902482448969 0.36249226984204119 0 -0.1344242846809835 0.36052922517623143 0 -0.13321902482448969 0.36249226984204119 0 -0.1373353432272629 0.37458855373172478 0 -0.1305249728658229 0.36910027417308811 0 -0.1305249728658229 0.36910027417308811 0 -0.1253683679779104 0.36484971974922642 0 -0.1242316477344786 0.37309488013705372 0 -0.1373353432272629 0.37458855373172478 0 -0.1305249728658229 0.36910027417308811 0 -0.1242316477344786 0.37309488013705372 0 -0.13321902482448969 0.36249226984204119 0 -0.1253683679779104 0.36484971974922642 0 -0.12665307458637279 0.35842354741748822 0 -0.13321902482448969 0.36249226984204119 0 -0.1305249728658229 0.36910027417308811 0 -0.1253683679779104 0.36484971974922642 0 -0.13321902482448969 0.36249226984204119 0 -0.1344242846809835 0.36052922517623143 0 -0.12665307458637279 0.35842354741748822 0 -0.1344242846809835 0.36052922517623143 0 -0.11953087891258 0.34600795711969062 0 -0.1344242846809835 0.36052922517623143 0 -0.12665307458637279 0.35842354741748822 0 -0.11953087891258 0.34600795711969062 0 -0.14293804898681689 0.34666258926654808 0 -0.1344242846809835 0.36052922517623143 0 -0.14293804898681689 0.34666258926654808 0 -0.13180069250540649 0.34675642143103441 0 -0.13651457723840629 0.33975126770174668 0 -0.14293804898681689 0.34666258926654808 0 -0.1344242846809835 0.36052922517623143 0 -0.13180069250540649 0.34675642143103441 0 -0.1344242846809835 0.36052922517623143 0 -0.13180069250540649 0.34675642143103441 0 -0.11953087891258 0.34600795711969062 0 -0.13180069250540649 0.34675642143103441 0 -0.12657337260617571 0.34045341031246568 0 -0.11953087891258 0.34600795711969062 0 -0.13180069250540649 0.34675642143103441 0 -0.12657337260617571 0.34045341031246568 0 -0.13651457723840629 0.33975126770174668 0 -0.1298089588009812 0.33208796414181979 0 -0.13651457723840629 0.33975126770174668 0 -0.15145181329265131 0.33279595335686551 0 -0.12657337260617571 0.34045341031246568 0 -0.1298089588009812 0.33208796414181979 0 -0.13651457723840629 0.33975126770174668 0 -0.12715113671433551 0.32746284011979038 0 -0.15145181329265131 0.33279595335686551 0 -0.1298089588009812 0.33208796414181979 0 -0.12715113671433551 0.32746284011979038 0 -0.15145181329265131 0.33279595335686551 0 -0.1298089588009812 0.33208796414181979 0 -0.12715113671433551 0.32746284011979038 0 -0.1203708723491147 0.33471443379057081 0 -0.12657337260617571 0.34045341031246568 0 -0.1298089588009812 0.33208796414181979 0 -0.1203708723491147 0.33471443379057081 0 -0.1298089588009812 0.33208796414181979 0 -0.12715113671433551 0.32746284011979038 0 -0.12715113671433551 0.32746284011979038 0 -0.14260983032083019 0.31505466102601559 0 -0.1299041673376716 0.31167221980575449 0 -0.12715113671433551 0.32746284011979038 0 -0.14260983032083019 0.31505466102601559 0 -0.15145181329265131 0.33279595335686551 0 -0.14260983032083019 0.31505466102601559 0 -0.15145181329265131 0.33279595335686551 0 -0.16469947076503441 0.31121907663973353 0 -0.14293804898681689 0.34666258926654808 0 -0.15145181329265131 0.33279595335686551 0 -0.14293804898681689 0.34666258926654808 0 -0.13651457723840629 0.33975126770174668 0 -0.15145181329265131 0.33279595335686551 0 -0.14293804898681689 0.34666258926654808 0 -0.15488340664003 0.34772596857058191 0 -0.15145181329265131 0.33279595335686551 0 -0.15488340664003 0.34772596857058191 0 -0.15145181329265131 0.33279595335686551 0 -0.16670721957657161 0.34671771573781618 0 -0.15145181329265131 0.33279595335686551 0 -0.16914650491130939 0.33667929355084347 0 -0.16788395026881811 0.32352714258325999 0 -0.15145181329265131 0.33279595335686551 0 -0.16914650491130939 0.33667929355084347 0 -0.15145181329265131 0.33279595335686551 0 -0.16914650491130939 0.33667929355084347 0 -0.16670721957657161 0.34671771573781618 0 -0.16914650491130939 0.33667929355084347 0 -0.1796280885278565 0.33897961931135351 0 -0.16670721957657161 0.34671771573781618 0 -0.15145181329265131 0.33279595335686551 0 -0.16788395026881811 0.32352714258325999 0 -0.16469947076503441 0.31121907663973353 0 -0.15145181329265131 0.33279595335686551 0 -0.16469947076503441 0.31121907663973353 0 -0.16788395026881811 0.32352714258325999 0 -0.17870155206158489 0.31568268615954298 0 -0.16469947076503441 0.31121907663973353 0 -0.16914650491130939 0.33667929355084347 0 -0.16788395026881811 0.32352714258325999 0 -0.17870155206158489 0.31568268615954298 0 -0.16914650491130939 0.33667929355084347 0 -0.17870155206158489 0.31568268615954298 0 -0.18689963436761581 0.32824769746707172 0 -0.17870155206158489 0.31568268615954298 0 -0.18689963436761581 0.32824769746707172 0 -0.18848748626879569 0.3117909856078428 0 -0.16914650491130939 0.33667929355084347 0 -0.17870155206158489 0.31568268615954298 0 -0.16914650491130939 0.33667929355084347 0 -0.1796280885278565 0.33897961931135351 0 -0.18689963436761581 0.32824769746707172 0 -0.16914650491130939 0.33667929355084347 0 -0.1796280885278565 0.33897961931135351 0 -0.1796280885278565 0.33897961931135351 0 -0.18689963436761581 0.32824769746707172 0 -0.1905745395608674 0.34197503641842592 0 -0.1796280885278565 0.33897961931135351 0 -0.18130910391305599 0.35309607154499101 0 -0.1905745395608674 0.34197503641842592 0 -0.18130910391305599 0.35309607154499101 0 -0.16670721957657161 0.34671771573781618 0 -0.17084085439707791 0.35696024779985708 0 -0.18130910391305599 0.35309607154499101 0 -0.17084085439707791 0.35696024779985708 0 -0.17700061477607459 0.36626067155670727 0 -0.1796280885278565 0.33897961931135351 0 -0.18130910391305599 0.35309607154499101 0 -0.16670721957657161 0.34671771573781618 0 -0.17084085439707791 0.35696024779985708 0 -0.1621938813535187 0.35463741206135052 0 -0.16355461015382089 0.36473138354314588 0 -0.16670721957657161 0.34671771573781618 0 -0.17084085439707791 0.35696024779985708 0 -0.1621938813535187 0.35463741206135052 0 -0.15112606999059131 0.35781617243032909 0 -0.1621938813535187 0.35463741206135052 0 -0.16355461015382089 0.36473138354314588 0 -0.15488340664003 0.34772596857058191 0 -0.16670721957657161 0.34671771573781618 0 -0.1621938813535187 0.35463741206135052 0 -0.1688139898749724 0.37636680118101679 0 -0.1500578882677667 0.37577219591802019 0 -0.16355461015382089 0.36473138354314588 0 -0.17084085439707791 0.35696024779985708 0 -0.16355461015382089 0.36473138354314588 0 -0.17700061477607459 0.36626067155670727 0 -0.1688139898749724 0.37636680118101679 0 -0.16355461015382089 0.36473138354314588 0 -0.17700061477607459 0.36626067155670727 0 -0.18272573540904991 0.37787600145237782 0 -0.1688139898749724 0.37636680118101679 0 -0.17700061477607459 0.36626067155670727 0 -0.18130910391305599 0.35309607154499101 0 -0.17700061477607459 0.36626067155670727 0 -0.18969521549045609 0.36560372983428618 0 -0.18272573540904991 0.37787600145237782 0 -0.17700061477607459 0.36626067155670727 0 -0.18969521549045609 0.36560372983428618 0 -0.19824024098588211 0.37826551785413942 0 -0.18272573540904991 0.37787600145237782 0 -0.18969521549045609 0.36560372983428618 0 -0.18969521549045609 0.36560372983428618 0 -0.19500193290450599 0.35458683968012478 0 -0.20389366495416811 0.36353727691737742 0 -0.19824024098588211 0.37826551785413942 0 -0.18969521549045609 0.36560372983428618 0 -0.20389366495416811 0.36353727691737742 0 -0.18130910391305599 0.35309607154499101 0 -0.19500193290450599 0.35458683968012478 0 -0.1905745395608674 0.34197503641842592 0 -0.19500193290450599 0.35458683968012478 0 -0.1999585710628887 0.34559239410989517 0 -0.1905745395608674 0.34197503641842592 0 -0.18130910391305599 0.35309607154499101 0 -0.18969521549045609 0.36560372983428618 0 -0.19500193290450599 0.35458683968012478 0 -0.19500193290450599 0.35458683968012478 0 -0.20356774788168069 0.35422248261477252 0 -0.20389366495416811 0.36353727691737742 0 -0.19500193290450599 0.35458683968012478 0 -0.1999585710628887 0.34559239410989517 0 -0.20356774788168069 0.35422248261477252 0 -0.1999585710628887 0.34559239410989517 0 -0.20356774788168069 0.35422248261477252 0 -0.2162230866270427 0.35426618825060008 0 -0.1999585710628887 0.34559239410989517 0 -0.2162230866270427 0.35426618825060008 0 -0.20145617061116419 0.33244036489602741 0 -0.20356774788168069 0.35422248261477252 0 -0.2162230866270427 0.35426618825060008 0 -0.20389366495416811 0.36353727691737742 0 -0.2162230866270427 0.35426618825060008 0 -0.20389366495416811 0.36353727691737742 0 -0.2129266591948466 0.37430277290853298 0 -0.19824024098588211 0.37826551785413942 0 -0.20389366495416811 0.36353727691737742 0 -0.2129266591948466 0.37430277290853298 0 -0.23099000264292111 0.37609201160517269 0 -0.2162230866270427 0.35426618825060008 0 -0.2129266591948466 0.37430277290853298 0 -0.23099000264292111 0.37609201160517269 0 -0.2162230866270427 0.35426618825060008 0 -0.23405071846006761 0.3611042522435603 0 -0.23099000264292111 0.37609201160517269 0 -0.2162230866270427 0.35426618825060008 0 -0.22560595780418141 0.34934267345457343 0 -0.23557268243244631 0.35294040463655652 0 -0.2375251672300325 0.33599165072021031 0 -0.2162230866270427 0.35426618825060008 0 -0.23405071846006761 0.3611042522435603 0 -0.22560595780418141 0.34934267345457343 0 -0.2162230866270427 0.35426618825060008 0 -0.22560595780418141 0.34934267345457343 0 -0.22153117583532769 0.33956129209099362 0 -0.23405071846006761 0.3611042522435603 0 -0.22560595780418141 0.34934267345457343 0 -0.23557268243244631 0.35294040463655652 0 -0.23557268243244631 0.35294040463655652 0 -0.24436311237918881 0.34441266609362259 0 -0.2375251672300325 0.33599165072021031 0 -0.23405071846006761 0.3611042522435603 0 -0.23557268243244631 0.35294040463655652 0 -0.24604337220648159 0.35416929868502178 0 -0.23557268243244631 0.35294040463655652 0 -0.24436311237918881 0.34441266609362259 0 -0.24604337220648159 0.35416929868502178 0 -0.25317539052509291 0.34479735681471207 0 -0.24436311237918881 0.34441266609362259 0 -0.24604337220648159 0.35416929868502178 0 -0.23405071846006761 0.3611042522435603 0 -0.24604337220648159 0.35416929868502178 0 -0.24622818643367181 0.37054003004091562 0 -0.23099000264292111 0.37609201160517269 0 -0.23405071846006761 0.3611042522435603 0 -0.24622818643367181 0.37054003004091562 0 -0.24901650899611599 0.3190066423215453 0 -0.2375251672300325 0.33599165072021031 0 -0.22152985005449191 0.31279696700924992 0 -0.24901650899611599 0.3190066423215453 0 -0.24949894950189069 0.33416461961161198 0 -0.2375251672300325 0.33599165072021031 0 -0.24436311237918881 0.34441266609362259 0 -0.24949894950189069 0.33416461961161198 0 -0.2375251672300325 0.33599165072021031 0 -0.25317539052509291 0.34479735681471207 0 -0.24436311237918881 0.34441266609362259 0 -0.24949894950189069 0.33416461961161198 0 -0.2375251672300325 0.33599165072021031 0 -0.22153117583532769 0.33956129209099362 0 -0.22152985005449191 0.31279696700924992 0 -0.22560595780418141 0.34934267345457343 0 -0.2375251672300325 0.33599165072021031 0 -0.22153117583532769 0.33956129209099362 0 -0.22153117583532769 0.33956129209099362 0 -0.22152985005449191 0.31279696700924992 0 -0.22152985005449191 0.31279696700924992 0 -0.20145617061116419 0.33244036489602741 0 -0.20000511459240439 0.31516283901235459 0 -0.2162230866270427 0.35426618825060008 0 -0.22153117583532769 0.33956129209099362 0 -0.20145617061116419 0.33244036489602741 0 -0.22153117583532769 0.33956129209099362 0 -0.22152985005449191 0.31279696700924992 0 -0.20145617061116419 0.33244036489602741 0 -0.2162230866270427 0.35426618825060008 0 -0.20145617061116419 0.33244036489602741 0 -0.1999585710628887 0.34559239410989517 0 -0.20145617061116419 0.33244036489602741 0 -0.1905745395608674 0.34197503641842592 0 -0.18689963436761581 0.32824769746707172 0 -0.20145617061116419 0.33244036489602741 0 -0.1905745395608674 0.34197503641842592 0 -0.18689963436761581 0.32824769746707172 0 -0.20000511459240439 0.31516283901235459 0 -0.18848748626879569 0.3117909856078428 0 -0.18689963436761581 0.32824769746707172 0 -0.20145617061116419 0.33244036489602741 0 -0.20000511459240439 0.31516283901235459 0 -0.18848748626879569 0.3117909856078428 0 -0.18813088587782981 0.29525889973341679 0 -0.18848748626879569 0.3117909856078428 0 -0.19659338139743179 0.30289575885913722 0 -0.18813088587782981 0.29525889973341679 0 -0.20000511459240439 0.31516283901235459 0 -0.18848748626879569 0.3117909856078428 0 -0.19659338139743179 0.30289575885913722 0 -0.19659338139743179 0.30289575885913722 0 -0.20308692956918331 0.28897132574920831 0 -0.20687183903090839 0.30231577627673523 0 -0.20000511459240439 0.31516283901235459 0 -0.19659338139743179 0.30289575885913722 0 -0.20687183903090839 0.30231577627673523 0 -0.18813088587782981 0.29525889973341679 0 -0.19877585526220121 0.27220206608473713 0 -0.18813088587782981 0.29525889973341679 0 -0.20308692956918331 0.28897132574920831 0 -0.19877585526220121 0.27220206608473713 0 -0.19659338139743179 0.30289575885913722 0 -0.18813088587782981 0.29525889973341679 0 -0.20308692956918331 0.28897132574920831 0 -0.20308692956918331 0.28897132574920831 0 -0.20687183903090839 0.30231577627673523 0 -0.22152852427365621 0.28603264192750621 0 -0.20308692956918331 0.28897132574920831 0 -0.22152852427365621 0.28603264192750621 0 -0.21094452026065111 0.27593976746677679 0 -0.22152985005449191 0.31279696700924992 0 -0.20000511459240439 0.31516283901235459 0 -0.20687183903090839 0.30231577627673523 0 -0.22152985005449191 0.31279696700924992 0 -0.20687183903090839 0.30231577627673523 0 -0.22152852427365621 0.28603264192750621 0 -0.22152985005449191 0.31279696700924992 0 -0.22152852427365621 0.28603264192750621 0 -0.22152985005449191 0.31279696700924992 0 -0.22152852427365621 0.28603264192750621 0 -0.24121136021138551 0.29689417836050058 0 -0.22152852427365621 0.28603264192750621 0 -0.24121136021138551 0.29689417836050058 0 -0.242275375749923 0.27007117361348432 0 -0.25721842444609833 0.28592600036443888 0 -0.24121136021138551 0.29689417836050058 0 -0.242275375749923 0.27007117361348432 0 -0.24901650899611599 0.3190066423215453 0 -0.22152985005449191 0.31279696700924992 0 -0.24121136021138551 0.29689417836050058 0 -0.25255416139143072 0.25802888911799787 0 -0.23889150449097959 0.25498249709027682 0 -0.24581323106551739 0.2437480082967432 0 -0.25255416139143072 0.25802888911799787 0 -0.23889150449097959 0.25498249709027682 0 -0.242275375749923 0.27007117361348432 0 -0.22152852427365621 0.28603264192750621 0 -0.22152719849282049 0.25926831684576251 0 -0.22152852427365621 0.28603264192750621 0 -0.242275375749923 0.27007117361348432 0 -0.22152719849282049 0.25926831684576251 0 -0.23889150449097959 0.25498249709027682 0 -0.242275375749923 0.27007117361348432 0 -0.22152719849282049 0.25926831684576251 0 -0.23889150449097959 0.25498249709027682 0 -0.22152719849282049 0.25926831684576251 0 -0.23228755575520629 0.24379609757739629 0 -0.22152719849282049 0.25926831684576251 0 -0.21016709966556121 0.26413884570833351 0 -0.20942082464657211 0.2491452324360573 0 -0.21016709966556121 0.26413884570833351 0 -0.19877585526220121 0.27220206608473713 0 -0.20942082464657211 0.2491452324360573 0 -0.19877585526220121 0.27220206608473713 0 -0.20942082464657211 0.2491452324360573 0 -0.22152852427365621 0.28603264192750621 0 -0.22152719849282049 0.25926831684576251 0 -0.21094452026065111 0.27593976746677679 0 -0.22152719849282049 0.25926831684576251 0 -0.21016709966556121 0.26413884570833351 0 -0.21094452026065111 0.27593976746677679 0 -0.20308692956918331 0.28897132574920831 0 -0.21094452026065111 0.27593976746677679 0 -0.19877585526220121 0.27220206608473713 0 -0.21016709966556121 0.26413884570833351 0 -0.21094452026065111 0.27593976746677679 0 -0.19877585526220121 0.27220206608473713 0 -0.18813088587782981 0.29525889973341679 0 -0.1875233694006703 0.26709427954522719 0 -0.18813088587782981 0.29525889973341679 0 -0.19877585526220121 0.27220206608473713 0 -0.1875233694006703 0.26709427954522719 0 -0.19877585526220121 0.27220206608473713 0 -0.1875233694006703 0.26709427954522719 0 -0.19769723670812309 0.25773540751683072 0 -0.1875233694006703 0.26709427954522719 0 -0.19769723670812309 0.25773540751683072 0 -0.18691585292351109 0.23892965935703739 0 -0.19877585526220121 0.27220206608473713 0 -0.19769723670812309 0.25773540751683072 0 -0.20942082464657211 0.2491452324360573 0 -0.1875233694006703 0.26709427954522719 0 -0.18691585292351109 0.23892965935703739 0 -0.1875233694006703 0.26709427954522719 0 -0.174316020694669 0.2538330797790006 0 -0.18691585292351109 0.23892965935703739 0 -0.1875233694006703 0.26709427954522719 0 -0.174316020694669 0.2538330797790006 0 -0.17527662008579689 0.26606591210291197 0 -0.174316020694669 0.2538330797790006 0 -0.16099710570328291 0.25737886554585598 0 -0.16101759986546491 0.24100108213828941 0 -0.174316020694669 0.2538330797790006 0 -0.16099710570328291 0.25737886554585598 0 -0.17527662008579689 0.26606591210291197 0 -0.16099710570328291 0.25737886554585598 0 -0.16433756497727009 0.27288847880046257 0 -0.17527662008579689 0.26606591210291197 0 -0.16099710570328291 0.25737886554585598 0 -0.16433756497727009 0.27288847880046257 0 -0.14945364167820241 0.26753234332760711 0 -0.16433756497727009 0.27288847880046257 0 -0.1780582780790472 0.27808809039549759 0 -0.16731661525216651 0.28453283323440143 0 -0.18813088587782981 0.29525889973341679 0 -0.1875233694006703 0.26709427954522719 0 -0.1780582780790472 0.27808809039549759 0 -0.16433756497727009 0.27288847880046257 0 -0.1780582780790472 0.27808809039549759 0 -0.17527662008579689 0.26606591210291197 0 -0.1875233694006703 0.26709427954522719 0 -0.1780582780790472 0.27808809039549759 0 -0.17527662008579689 0.26606591210291197 0 -0.18813088587782981 0.29525889973341679 0 -0.1780582780790472 0.27808809039549759 0 -0.17794712823741729 0.28964219992260132 0 -0.18813088587782981 0.29525889973341679 0 -0.17794712823741729 0.28964219992260132 0 -0.17736975923546661 0.30295071561382358 0 -0.1780582780790472 0.27808809039549759 0 -0.17794712823741729 0.28964219992260132 0 -0.16731661525216651 0.28453283323440143 0 -0.17870155206158489 0.31568268615954298 0 -0.18813088587782981 0.29525889973341679 0 -0.17736975923546661 0.30295071561382358 0 -0.17794712823741729 0.28964219992260132 0 -0.17736975923546661 0.30295071561382358 0 -0.16469947076503441 0.31121907663973353 0 -0.17870155206158489 0.31568268615954298 0 -0.18848748626879569 0.3117909856078428 0 -0.18813088587782981 0.29525889973341679 0 -0.17870155206158489 0.31568268615954298 0 -0.18813088587782981 0.29525889973341679 0 -0.17870155206158489 0.31568268615954298 0 -0.17736975923546661 0.30295071561382358 0 -0.16469947076503441 0.31121907663973353 0 -0.16469947076503441 0.31121907663973353 0 -0.16296236633614319 0.29515003931705408 0 -0.1518036273164021 0.30239915297838238 0 -0.17794712823741729 0.28964219992260132 0 -0.16469947076503441 0.31121907663973353 0 -0.17794712823741729 0.28964219992260132 0 -0.16469947076503441 0.31121907663973353 0 -0.16296236633614319 0.29515003931705408 0 -0.17794712823741729 0.28964219992260132 0 -0.16731661525216651 0.28453283323440143 0 -0.16296236633614319 0.29515003931705408 0 -0.16433756497727009 0.27288847880046257 0 -0.16731661525216651 0.28453283323440143 0 -0.1532777386309547 0.28689535773639158 0 -0.16731661525216651 0.28453283323440143 0 -0.16296236633614319 0.29515003931705408 0 -0.1532777386309547 0.28689535773639158 0 -0.1532777386309547 0.28689535773639158 0 -0.1518036273164021 0.30239915297838238 0 -0.13437781364882509 0.29702224527120152 0 -0.1532777386309547 0.28689535773639158 0 -0.13437781364882509 0.29702224527120152 0 -0.1532777386309547 0.28689535773639158 0 -0.13437781364882509 0.29702224527120152 0 -0.13944806614201019 0.28159278303635898 0 -0.16296236633614319 0.29515003931705408 0 -0.1532777386309547 0.28689535773639158 0 -0.1518036273164021 0.30239915297838238 0 -0.14260983032083019 0.31505466102601559 0 -0.16469947076503441 0.31121907663973353 0 -0.1518036273164021 0.30239915297838238 0 -0.14260983032083019 0.31505466102601559 0 -0.1518036273164021 0.30239915297838238 0 -0.13437781364882509 0.29702224527120152 0 -0.14260983032083019 0.31505466102601559 0 -0.13437781364882509 0.29702224527120152 0 -0.1299041673376716 0.31167221980575449 0 -0.13437781364882509 0.29702224527120152 0 -0.1299041673376716 0.31167221980575449 0 -0.115477888666696 0.30714913280601203 0 -0.13437781364882509 0.29702224527120152 0 -0.1262305231028156 0.28105009734860431 0 -0.11808478651262511 0.29071546923494762 0 -0.13437781364882509 0.29702224527120152 0 -0.13944806614201019 0.28159278303635898 0 -0.1262305231028156 0.28105009734860431 0 -0.13315913918660061 0.27060380173185578 0 -0.13723471015575431 0.25931252110694908 0 -0.14945364167820241 0.26753234332760711 0 -0.1262305231028156 0.28105009734860431 0 -0.13315913918660061 0.27060380173185578 0 -0.12163234179999 0.27005726859627699 0 -0.13944806614201019 0.28159278303635898 0 -0.1262305231028156 0.28105009734860431 0 -0.13315913918660061 0.27060380173185578 0 -0.13315913918660061 0.27060380173185578 0 -0.124981498793077 0.2600681980122832 0 -0.12163234179999 0.27005726859627699 0 -0.13723471015575431 0.25931252110694908 0 -0.12728764798146339 0.24524691096988241 0 -0.1454555820460561 0.2468137891439566 0 -0.13315913918660061 0.27060380173185578 0 -0.13723471015575431 0.25931252110694908 0 -0.124981498793077 0.2600681980122832 0 -0.13723471015575431 0.25931252110694908 0 -0.124981498793077 0.2600681980122832 0 -0.12728764798146339 0.24524691096988241 0 -0.16099710570328291 0.25737886554585598 0 -0.14945364167820241 0.26753234332760711 0 -0.1454555820460561 0.2468137891439566 0 -0.13723471015575431 0.25931252110694908 0 -0.14945364167820241 0.26753234332760711 0 -0.1454555820460561 0.2468137891439566 0 -0.13944806614201019 0.28159278303635898 0 -0.13315913918660061 0.27060380173185578 0 -0.14945364167820241 0.26753234332760711 0 -0.16433756497727009 0.27288847880046257 0 -0.1532777386309547 0.28689535773639158 0 -0.14945364167820241 0.26753234332760711 0 -0.1532777386309547 0.28689535773639158 0 -0.13944806614201019 0.28159278303635898 0 -0.14945364167820241 0.26753234332760711 0 -0.1032626993800549 0.28589234301292371 0 -0.091047510093413164 0.26463555321983567 0 -0.1024111954679784 0.26823223861283402 0 -0.1032626993800549 0.28589234301292371 0 -0.091047510093413164 0.26463555321983567 0 -0.1032626993800549 0.28589234301292371 0 -0.087094421966077168 0.27978082767541679 0 -0.091047510093413164 0.26463555321983567 0 -0.1024111954679784 0.26823223861283402 0 -0.1131559368419056 0.27632230647801659 0 -0.1032626993800549 0.28589234301292371 0 -0.1024111954679784 0.26823223861283402 0 -0.1106346110755513 0.26224193941062501 0 -0.1131559368419056 0.27632230647801659 0 -0.1024111954679784 0.26823223861283402 0 -0.091047510093413164 0.26463555321983567 0 -0.1008185580289889 0.26124084993915608 0 -0.091047510093413164 0.26463555321983567 0 -0.099180915479012727 0.24985366851332999 0 -0.1024111954679784 0.26823223861283402 0 -0.1008185580289889 0.26124084993915608 0 -0.091047510093413164 0.26463555321983567 0 -0.1008185580289889 0.26124084993915608 0 -0.1106346110755513 0.26224193941062501 0 -0.099180915479012727 0.24985366851332999 0 -0.1024111954679784 0.26823223861283402 0 -0.1008185580289889 0.26124084993915608 0 -0.1106346110755513 0.26224193941062501 0 -0.1106346110755513 0.26224193941062501 0 -0.11900118128919 0.25213836647620358 0 -0.115032390782949 0.24279923079125729 0 -0.11900118128919 0.25213836647620358 0 -0.124981498793077 0.2600681980122832 0 -0.12728764798146339 0.24524691096988241 0 -0.1106346110755513 0.26224193941062501 0 -0.124981498793077 0.2600681980122832 0 -0.12163234179999 0.27005726859627699 0 -0.1106346110755513 0.26224193941062501 0 -0.11900118128919 0.25213836647620358 0 -0.124981498793077 0.2600681980122832 0 -0.1106346110755513 0.26224193941062501 0 -0.12163234179999 0.27005726859627699 0 -0.1131559368419056 0.27632230647801659 0 -0.1262305231028156 0.28105009734860431 0 -0.12163234179999 0.27005726859627699 0 -0.1131559368419056 0.27632230647801659 0 -0.11808478651262511 0.29071546923494762 0 -0.115477888666696 0.30714913280601203 0 -0.1032626993800549 0.28589234301292371 0 -0.1262305231028156 0.28105009734860431 0 -0.1131559368419056 0.27632230647801659 0 -0.11808478651262511 0.29071546923494762 0 -0.1131559368419056 0.27632230647801659 0 -0.11808478651262511 0.29071546923494762 0 -0.1032626993800549 0.28589234301292371 0 -0.13437781364882509 0.29702224527120152 0 -0.11808478651262511 0.29071546923494762 0 -0.115477888666696 0.30714913280601203 0 -0.13437781364882509 0.29702224527120152 0 -0.115477888666696 0.30714913280601203 0 -0.115477888666696 0.30714913280601203 0 -0.097982231935119762 0.29908207692130939 0 -0.1032626993800549 0.28589234301292371 0 -0.115477888666696 0.30714913280601203 0 -0.095252221124988795 0.30770385023044883 0 -0.091974210429875275 0.31974278629319303 0 -0.115477888666696 0.30714913280601203 0 -0.097982231935119762 0.29908207692130939 0 -0.095252221124988795 0.30770385023044883 0 -0.115477888666696 0.30714913280601203 0 -0.1032626993800549 0.28589234301292371 0 -0.097982231935119762 0.29908207692130939 0 -0.1032626993800549 0.28589234301292371 0 -0.089041451822600426 0.29191828085606503 0 -0.1032626993800549 0.28589234301292371 0 -0.089041451822600426 0.29191828085606503 0 -0.087094421966077168 0.27978082767541679 0 -0.089041451822600426 0.29191828085606503 0 -0.086711344254866818 0.30172931126268893 0 -0.080257108106924768 0.29693123016795592 0 -0.089041451822600426 0.29191828085606503 0 -0.078940905292559205 0.28809389609609531 0 -0.080257108106924768 0.29693123016795592 0 -0.089041451822600426 0.29191828085606503 0 -0.078940905292559205 0.28809389609609531 0 -0.087094421966077168 0.27978082767541679 0 -0.078940905292559205 0.28809389609609531 0 -0.076260745952361653 0.2788389282116196 0 -0.087094421966077168 0.27978082767541679 0 -0.095252221124988795 0.30770385023044883 0 -0.086711344254866818 0.30172931126268893 0 -0.084115430338387281 0.31081594386904282 0 -0.097982231935119762 0.29908207692130939 0 -0.089041451822600426 0.29191828085606503 0 -0.086711344254866818 0.30172931126268893 0 -0.097982231935119762 0.29908207692130939 0 -0.095252221124988795 0.30770385023044883 0 -0.086711344254866818 0.30172931126268893 0 -0.086711344254866818 0.30172931126268893 0 -0.080257108106924768 0.29693123016795592 0 -0.079505829890287927 0.30580496959808329 0 -0.080257108106924768 0.29693123016795592 0 -0.079505829890287927 0.30580496959808329 0 -0.074916699499369327 0.3006485633170578 0 -0.086711344254866818 0.30172931126268893 0 -0.079505829890287927 0.30580496959808329 0 -0.084115430338387281 0.31081594386904282 0 -0.079505829890287927 0.30580496959808329 0 -0.084115430338387281 0.31081594386904282 0 -0.076353180048127467 0.31141093891006733 0 -0.07115133945864538 0.31187826985784062 0 -0.07354698999523776 0.30744109918403129 0 -0.069373793632907674 0.30820472963869722 0 -0.07115133945864538 0.31187826985784062 0 -0.076353180048127467 0.31141093891006733 0 -0.07354698999523776 0.30744109918403129 0 -0.079505829890287927 0.30580496959808329 0 -0.076353180048127467 0.31141093891006733 0 -0.07354698999523776 0.30744109918403129 0 -0.07354698999523776 0.30744109918403129 0 -0.070446943376925489 0.30377389850846021 0 -0.069373793632907674 0.30820472963869722 0 -0.080257108106924768 0.29693123016795592 0 -0.074916699499369327 0.3006485633170578 0 -0.072038944136619126 0.29434513792271982 0 -0.070446943376925489 0.30377389850846021 0 -0.074916699499369327 0.3006485633170578 0 -0.070697614188691582 0.29880367616387782 0 -0.07354698999523776 0.30744109918403129 0 -0.070446943376925489 0.30377389850846021 0 -0.074916699499369327 0.3006485633170578 0 -0.079505829890287927 0.30580496959808329 0 -0.07354698999523776 0.30744109918403129 0 -0.074916699499369327 0.3006485633170578 0 -0.074916699499369327 0.3006485633170578 0 -0.070697614188691582 0.29880367616387782 0 -0.072038944136619126 0.29434513792271982 0 -0.070697614188691582 0.29880367616387782 0 -0.067311289099554958 0.30106101048739659 0 -0.06647244071725486 0.29542086959800079 0 -0.063137393964392219 0.29955341669270308 0 -0.067311289099554958 0.30106101048739659 0 -0.06647244071725486 0.29542086959800079 0 -0.063137393964392219 0.29955341669270308 0 -0.067311289099554958 0.30106101048739659 0 -0.065126660638281056 0.3054775731537151 0 -0.070446943376925489 0.30377389850846021 0 -0.067311289099554958 0.30106101048739659 0 -0.065126660638281056 0.3054775731537151 0 -0.070446943376925489 0.30377389850846021 0 -0.070697614188691582 0.29880367616387782 0 -0.067311289099554958 0.30106101048739659 0 -0.070446943376925489 0.30377389850846021 0 -0.069373793632907674 0.30820472963869722 0 -0.065126660638281056 0.3054775731537151 0 -0.069373793632907674 0.30820472963869722 0 -0.065126660638281056 0.3054775731537151 0 -0.066201236618737669 0.31091696503817029 0 -0.065126660638281056 0.3054775731537151 0 -0.066201236618737669 0.31091696503817029 0 -0.061442787693869023 0.30809561796270818 0 -0.07115133945864538 0.31187826985784062 0 -0.069373793632907674 0.30820472963869722 0 -0.066201236618737669 0.31091696503817029 0 -0.078940905292559205 0.28809389609609531 0 -0.069765560993430592 0.28743077860297311 0 -0.076260745952361653 0.2788389282116196 0 -0.069765560993430592 0.28743077860297311 0 -0.066890788708594412 0.2790287147768693 0 -0.076260745952361653 0.2788389282116196 0 -0.078940905292559205 0.28809389609609531 0 -0.080257108106924768 0.29693123016795592 0 -0.072038944136619126 0.29434513792271982 0 -0.078940905292559205 0.28809389609609531 0 -0.072038944136619126 0.29434513792271982 0 -0.069765560993430592 0.28743077860297311 0 -0.072038944136619126 0.29434513792271982 0 -0.06647244071725486 0.29542086959800079 0 -0.069765560993430592 0.28743077860297311 0 -0.06647244071725486 0.29542086959800079 0 -0.069765560993430592 0.28743077860297311 0 -0.058969271056571758 0.2918070210128918 0 -0.070697614188691582 0.29880367616387782 0 -0.072038944136619126 0.29434513792271982 0 -0.06647244071725486 0.29542086959800079 0 -0.063137393964392219 0.29955341669270308 0 -0.06647244071725486 0.29542086959800079 0 -0.058969271056571758 0.2918070210128918 0 -0.069765560993430592 0.28743077860297311 0 -0.066890788708594412 0.2790287147768693 0 -0.058969271056571758 0.2918070210128918 0 -0.073976886622059548 0.26991920124063512 0 -0.063924079521458746 0.25605079894949512 0 -0.057757269251953867 0.27341766189042988 0 -0.066890788708594412 0.2790287147768693 0 -0.073976886622059548 0.26991920124063512 0 -0.057757269251953867 0.27341766189042988 0 -0.066890788708594412 0.2790287147768693 0 -0.073976886622059548 0.26991920124063512 0 -0.076260745952361653 0.2788389282116196 0 -0.073976886622059548 0.26991920124063512 0 -0.076260745952361653 0.2788389282116196 0 -0.082094891158477873 0.27329362758687681 0 -0.073976886622059548 0.26991920124063512 0 -0.082094891158477873 0.27329362758687681 0 -0.091047510093413164 0.26463555321983567 0 -0.076260745952361653 0.2788389282116196 0 -0.082094891158477873 0.27329362758687681 0 -0.087094421966077168 0.27978082767541679 0 -0.082094891158477873 0.27329362758687681 0 -0.087094421966077168 0.27978082767541679 0 -0.091047510093413164 0.26463555321983567 0 -0.091047510093413164 0.26463555321983567 0 -0.099180915479012727 0.24985366851332999 0 -0.082014430572127012 0.24891624932184009 0 -0.091047510093413164 0.26463555321983567 0 -0.063924079521458746 0.25605079894949512 0 -0.082014430572127012 0.24891624932184009 0 -0.091047510093413164 0.26463555321983567 0 -0.082014430572127012 0.24891624932184009 0 -0.073976886622059548 0.26991920124063512 0 -0.091047510093413164 0.26463555321983567 0 -0.063924079521458746 0.25605079894949512 0 -0.091047510093413164 0.26463555321983567 0 -0.063924079521458746 0.25605079894949512 0 -0.063924079521458746 0.25605079894949512 0 -0.045818407576524951 0.26350657525185739 0 -0.036800648949504702 0.2474660446791534 0 -0.063924079521458746 0.25605079894949512 0 -0.036800648949504702 0.2474660446791534 0 -0.063924079521458746 0.25605079894949512 0 -0.057757269251953867 0.27341766189042988 0 -0.045818407576524951 0.26350657525185739 0 -0.057757269251953867 0.27341766189042988 0 -0.041377270037540131 0.27665731524134279 0 -0.045818407576524951 0.26350657525185739 0 -0.057757269251953867 0.27341766189042988 0 -0.041377270037540131 0.27665731524134279 0 -0.058969271056571758 0.2918070210128918 0 -0.041377270037540131 0.27665731524134279 0 -0.045818407576524951 0.26350657525185739 0 -0.029232770122167299 0.26394105549886582 0 -0.045818407576524951 0.26350657525185739 0 -0.029232770122167299 0.26394105549886582 0 -0.036800648949504702 0.2474660446791534 0 -0.01643822884861559 0.25451209075143338 0 -0.029232770122167299 0.26394105549886582 0 -0.036800648949504702 0.2474660446791534 0 -0.01643822884861559 0.25451209075143338 0 -0.029232770122167299 0.26394105549886582 0 -0.015020965212152069 0.26784108731645451 0 -0.041377270037540131 0.27665731524134279 0 -0.029232770122167299 0.26394105549886582 0 -0.019359790022258631 0.27497348223022799 0 -0.019359790022258631 0.27497348223022799 0 -0.016113009588791461 0.27956721937935941 0 -0.027420395481664701 0.28822394148977032 0 -0.019359790022258631 0.27497348223022799 0 -0.017999207726402851 0.2735547798764385 0 -0.016113009588791461 0.27956721937935941 0 -0.019359790022258631 0.27497348223022799 0 -0.017999207726402851 0.2735547798764385 0 -0.029232770122167299 0.26394105549886582 0 -0.019359790022258631 0.27497348223022799 0 -0.015020965212152069 0.26784108731645451 0 -0.019359790022258631 0.27497348223022799 0 -0.017999207726402851 0.2735547798764385 0 -0.015020965212152069 0.26784108731645451 0 -0.019359790022258631 0.27497348223022799 0 -0.015020965212152069 0.26784108731645451 0 -0.017999207726402851 0.2735547798764385 0 -0.015020965212152069 0.26784108731645451 0 -0.0079326361761932179 0.27509341229048712 0 -0.015020965212152069 0.26784108731645451 0 -0.0079326361761932179 0.27509341229048712 0 -0.009941447205854919 0.26281122039368221 0 -0.016113009588791461 0.27956721937935941 0 -0.0079326361761932179 0.27509341229048712 0 -0.01270228618597562 0.28702335467627449 0 -0.017999207726402851 0.2735547798764385 0 -0.016113009588791461 0.27956721937935941 0 -0.0079326361761932179 0.27509341229048712 0 -0.0079326361761932179 0.27509341229048712 0 0.003418825425693368 0.28802223045540559 0 0.0034999489172099232 0.27686119250556901 0 -0.0079326361761932179 0.27509341229048712 0 0.004384506867510414 0.26784045360980691 0 0.0034999489172099232 0.27686119250556901 0 -0.0079326361761932179 0.27509341229048712 0 -0.00037395858645878841 0.25379829121635378 0 0.004384506867510414 0.26784045360980691 0 -0.0079326361761932179 0.27509341229048712 0 -0.00037395858645878841 0.25379829121635378 0 -0.009941447205854919 0.26281122039368221 0 -0.0079326361761932179 0.27509341229048712 0 -0.00037395858645878841 0.25379829121635378 0 -0.01643822884861559 0.25451209075143338 0 -0.00037395858645878841 0.25379829121635378 0 -0.009941447205854919 0.26281122039368221 0 -0.01643822884861559 0.25451209075143338 0 -0.015020965212152069 0.26784108731645451 0 -0.009941447205854919 0.26281122039368221 0 -0.01273264788541861 0.30269330139964962 0 -0.0067135867535773053 0.31333455985446251 0 0.0041928905666781249 0.31313637437673192 0 -0.01273264788541861 0.30269330139964962 0 0.010015705170234699 0.30391220204998992 0 -0.01273264788541861 0.30269330139964962 0 -0.017313544658417081 0.31492763365972543 0 -0.0067135867535773053 0.31333455985446251 0 -0.0079326361761932179 0.27509341229048712 0 -0.01270228618597562 0.28702335467627449 0 0.003418825425693368 0.28802223045540559 0 -0.01273264788541861 0.30269330139964962 0 -0.01270228618597562 0.28702335467627449 0 0.003418825425693368 0.28802223045540559 0 -0.01273264788541861 0.30269330139964962 0 -0.01270228618597562 0.28702335467627449 0 -0.027420395481664701 0.28822394148977032 0 -0.019359790022258631 0.27497348223022799 0 -0.037029629758258187 0.29339812534141352 0 -0.019359790022258631 0.27497348223022799 0 -0.027420395481664701 0.28822394148977032 0 -0.037029629758258187 0.29339812534141352 0 -0.016113009588791461 0.27956721937935941 0 -0.01270228618597562 0.28702335467627449 0 -0.027420395481664701 0.28822394148977032 0 -0.019359790022258631 0.27497348223022799 0 -0.027420395481664701 0.28822394148977032 0 -0.01273264788541861 0.30269330139964962 0 -0.027420395481664701 0.28822394148977032 0 -0.035481000941072073 0.30147440074931192 0 -0.01273264788541861 0.30269330139964962 0 -0.035481000941072073 0.30147440074931192 0 -0.029635317542125721 0.31528328732488692 0 -0.01273264788541861 0.30269330139964962 0 -0.035481000941072073 0.30147440074931192 0 -0.01273264788541861 0.30269330139964962 0 -0.029635317542125721 0.31528328732488692 0 -0.017313544658417081 0.31492763365972543 0 -0.035481000941072073 0.30147440074931192 0 -0.037029629758258187 0.29339812534141352 0 -0.05469946949425758 0.31182276845259899 0 -0.037029629758258187 0.29339812534141352 0 -0.05469946949425758 0.31182276845259899 0 -0.041377270037540131 0.27665731524134279 0 -0.037029629758258187 0.29339812534141352 0 -0.058969271056571758 0.2918070210128918 0 -0.041377270037540131 0.27665731524134279 0 -0.019359790022258631 0.27497348223022799 0 -0.037029629758258187 0.29339812534141352 0 -0.027420395481664701 0.28822394148977032 0 -0.035481000941072073 0.30147440074931192 0 -0.037029629758258187 0.29339812534141352 0 -0.027420395481664701 0.28822394148977032 0 -0.035481000941072073 0.30147440074931192 0 -0.066890788708594412 0.2790287147768693 0 -0.057757269251953867 0.27341766189042988 0 -0.058969271056571758 0.2918070210128918 0 -0.037029629758258187 0.29339812534141352 0 -0.058969271056571758 0.2918070210128918 0 -0.057807308310298497 0.30400060921151101 0 -0.037029629758258187 0.29339812534141352 0 -0.057807308310298497 0.30400060921151101 0 -0.05469946949425758 0.31182276845259899 0 -0.063137393964392219 0.29955341669270308 0 -0.058969271056571758 0.2918070210128918 0 -0.057807308310298497 0.30400060921151101 0 -0.063137393964392219 0.29955341669270308 0 -0.065126660638281056 0.3054775731537151 0 -0.057807308310298497 0.30400060921151101 0 -0.057807308310298497 0.30400060921151101 0 -0.056635945208158872 0.31198732444743649 0 -0.05469946949425758 0.31182276845259899 0 -0.066201236618737669 0.31091696503817029 0 -0.061442787693869023 0.30809561796270818 0 -0.056635945208158872 0.31198732444743649 0 -0.057807308310298497 0.30400060921151101 0 -0.061442787693869023 0.30809561796270818 0 -0.056635945208158872 0.31198732444743649 0 -0.065126660638281056 0.3054775731537151 0 -0.057807308310298497 0.30400060921151101 0 -0.061442787693869023 0.30809561796270818 0 -0.056635945208158872 0.31198732444743649 0 -0.05469946949425758 0.31182276845259899 0 -0.072369309230256945 0.33024741156378462 0 -0.05469946949425758 0.31182276845259899 0 -0.050237392532560189 0.32573175543384281 0 -0.072369309230256945 0.33024741156378462 0 -0.050237392532560189 0.32573175543384281 0 -0.057777053459140512 0.33812585789196897 0 -0.050079938050161511 0.35098351792950611 0 -0.050237392532560189 0.32573175543384281 0 -0.057777053459140512 0.33812585789196897 0 -0.072369309230256945 0.33024741156378462 0 -0.050237392532560189 0.32573175543384281 0 -0.057777053459140512 0.33812585789196897 0 -0.050237392532560189 0.32573175543384281 0 -0.036421910421057663 0.3297852589322654 0 -0.050079938050161511 0.35098351792950611 0 -0.036421910421057663 0.3297852589322654 0 -0.028494174643260189 0.3418039710938241 0 -0.050079938050161511 0.35098351792950611 0 -0.035481000941072073 0.30147440074931192 0 -0.050237392532560189 0.32573175543384281 0 -0.029635317542125721 0.31528328732488692 0 -0.050237392532560189 0.32573175543384281 0 -0.036421910421057663 0.3297852589322654 0 -0.029635317542125721 0.31528328732488692 0 -0.035481000941072073 0.30147440074931192 0 -0.050237392532560189 0.32573175543384281 0 -0.035481000941072073 0.30147440074931192 0 -0.05469946949425758 0.31182276845259899 0 -0.050237392532560189 0.32573175543384281 0 -0.029635317542125721 0.31528328732488692 0 -0.017313544658417081 0.31492763365972543 0 -0.023872625237727822 0.32369641433266361 0 -0.017313544658417081 0.31492763365972543 0 -0.023872625237727822 0.32369641433266361 0 -0.01455827666446669 0.32336124425739921 0 -0.023872625237727822 0.32369641433266361 0 -0.020245560687063791 0.33078811065833191 0 -0.01455827666446669 0.32336124425739921 0 -0.036421910421057663 0.3297852589322654 0 -0.029635317542125721 0.31528328732488692 0 -0.023872625237727822 0.32369641433266361 0 -0.027394315653505381 0.33245449934963028 0 -0.028494174643260189 0.3418039710938241 0 -0.020245560687063791 0.33078811065833191 0 -0.036421910421057663 0.3297852589322654 0 -0.023872625237727822 0.32369641433266361 0 -0.027394315653505381 0.33245449934963028 0 -0.028494174643260189 0.3418039710938241 0 -0.020245560687063791 0.33078811065833191 0 -0.006908411236358286 0.33262442425814348 0 -0.036421910421057663 0.3297852589322654 0 -0.027394315653505381 0.33245449934963028 0 -0.028494174643260189 0.3418039710938241 0 -0.023872625237727822 0.32369641433266361 0 -0.027394315653505381 0.33245449934963028 0 -0.020245560687063791 0.33078811065833191 0 -0.028494174643260189 0.3418039710938241 0 -0.006908411236358286 0.33262442425814348 0 -0.020245560687063791 0.33078811065833191 0 -0.006908411236358286 0.33262442425814348 0 -0.01455827666446669 0.32336124425739921 0 -0.0069916639183323411 0.34086739723380732 0 -0.006908411236358286 0.33262442425814348 0 0.010308129113141081 0.33144981796402972 0 -0.028494174643260189 0.3418039710938241 0 -0.0069916639183323411 0.34086739723380732 0 -0.006908411236358286 0.33262442425814348 0 -0.0069916639183323411 0.34086739723380732 0 -0.006908411236358286 0.33262442425814348 0 -0.006908411236358286 0.33262442425814348 0 -0.0067135867535773053 0.31333455985446251 0 -0.01455827666446669 0.32336124425739921 0 -0.006908411236358286 0.33262442425814348 0 -0.0067135867535773053 0.31333455985446251 0 -0.006908411236358286 0.33262442425814348 0 -0.00016705615095490101 0.32251728058293411 0 -0.0067135867535773053 0.31333455985446251 0 -0.00016705615095490101 0.32251728058293411 0 -0.0067135867535773053 0.31333455985446251 0 0.0041928905666781249 0.31313637437673192 0 -0.017313544658417081 0.31492763365972543 0 -0.0067135867535773053 0.31333455985446251 0 -0.01455827666446669 0.32336124425739921 0 -0.0072230737709234787 0.36377963400418423 0 -0.0074464104376092063 0.38589253252320838 0 -0.0069916639183323411 0.34086739723380732 0 -0.0072230737709234787 0.36377963400418423 0 -0.021656374644107058 0.34885050289739372 0 -0.0069916639183323411 0.34086739723380732 0 -0.0072230737709234787 0.36377963400418423 0 -0.0069916639183323411 0.34086739723380732 0 -0.0072230737709234787 0.36377963400418423 0 0.0057351278555285209 0.35245322274004398 0 -0.0069916639183323411 0.34086739723380732 0 -0.021656374644107058 0.34885050289739372 0 -0.028494174643260189 0.3418039710938241 0 -0.0069916639183323411 0.34086739723380732 0 -0.021656374644107058 0.34885050289739372 0 -0.0072230737709234787 0.36377963400418423 0 -0.021656374644107058 0.34885050289739372 0 -0.036321085369883599 0.3568336085609769 0 -0.028494174643260189 0.3418039710938241 0 -0.021656374644107058 0.34885050289739372 0 -0.036321085369883599 0.3568336085609769 0 -0.021656374644107058 0.34885050289739372 0 -0.036321085369883599 0.3568336085609769 0 -0.0072230737709234787 0.36377963400418423 0 -0.036321085369883599 0.3568336085609769 0 -0.0072230737709234787 0.36377963400418423 0 -0.036321085369883599 0.3568336085609769 0 -0.02683817468472097 0.3763644952813503 0 -0.036321085369883599 0.3568336085609769 0 -0.044267780952487491 0.37537681973427728 0 -0.02683817468472097 0.3763644952813503 0 -0.028494174643260189 0.3418039710938241 0 -0.050079938050161511 0.35098351792950611 0 -0.028494174643260189 0.3418039710938241 0 -0.036321085369883599 0.3568336085609769 0 -0.050079938050161511 0.35098351792950611 0 -0.036321085369883599 0.3568336085609769 0 -0.050079938050161511 0.35098351792950611 0 -0.064993784124049561 0.34998911011837291 0 -0.036321085369883599 0.3568336085609769 0 -0.060328291870555641 0.36990253775884469 0 -0.064993784124049561 0.34998911011837291 0 -0.036321085369883599 0.3568336085609769 0 -0.064993784124049561 0.34998911011837291 0 -0.057777053459140512 0.33812585789196897 0 -0.050079938050161511 0.35098351792950611 0 -0.064993784124049561 0.34998911011837291 0 -0.057777053459140512 0.33812585789196897 0 -0.064993784124049561 0.34998911011837291 0 -0.036321085369883599 0.3568336085609769 0 -0.060328291870555641 0.36990253775884469 0 -0.044267780952487491 0.37537681973427728 0 -0.036321085369883599 0.3568336085609769 0 -0.060328291870555641 0.36990253775884469 0 -0.060328291870555641 0.36990253775884469 0 -0.074249426999914492 0.36520403652373462 0 -0.084335498371228265 0.38297146695671119 0 -0.060328291870555641 0.36990253775884469 0 -0.074249426999914492 0.36520403652373462 0 -0.064993784124049561 0.34998911011837291 0 -0.083694087253839089 0.36354542451787641 0 -0.095771433150516408 0.36922281295602022 0 -0.084335498371228265 0.38297146695671119 0 -0.074249426999914492 0.36520403652373462 0 -0.083694087253839089 0.36354542451787641 0 -0.084335498371228265 0.38297146695671119 0 -0.074249426999914492 0.36520403652373462 0 -0.083694087253839089 0.36354542451787641 0 -0.077886143180953618 0.35540852861566841 0 -0.083694087253839089 0.36354542451787641 0 -0.086227934566583703 0.34492027753724708 0 -0.077886143180953618 0.35540852861566841 0 -0.086227934566583703 0.34492027753724708 0 -0.095771433150516408 0.36922281295602022 0 -0.098809022963249185 0.35205313308781222 0 -0.083694087253839089 0.36354542451787641 0 -0.086227934566583703 0.34492027753724708 0 -0.095771433150516408 0.36922281295602022 0 -0.086227934566583703 0.34492027753724708 0 -0.095771433150516408 0.36922281295602022 0 -0.086227934566583703 0.34492027753724708 0 -0.094887111964292559 0.34285323366666492 0 -0.086227934566583703 0.34492027753724708 0 -0.094887111964292559 0.34285323366666492 0 -0.098809022963249185 0.35205313308781222 0 -0.086227934566583703 0.34492027753724708 0 -0.064993784124049561 0.34998911011837291 0 -0.070105654714641502 0.33997110785361961 0 -0.086227934566583703 0.34492027753724708 0 -0.064993784124049561 0.34998911011837291 0 -0.086227934566583703 0.34492027753724708 0 -0.077886143180953618 0.35540852861566841 0 -0.064993784124049561 0.34998911011837291 0 -0.074249426999914492 0.36520403652373462 0 -0.077886143180953618 0.35540852861566841 0 -0.064993784124049561 0.34998911011837291 0 -0.074249426999914492 0.36520403652373462 0 -0.064993784124049561 0.34998911011837291 0 -0.057777053459140512 0.33812585789196897 0 -0.070105654714641502 0.33997110785361961 0 -0.072369309230256945 0.33024741156378462 0 -0.057777053459140512 0.33812585789196897 0 -0.064993784124049561 0.34998911011837291 0 -0.070105654714641502 0.33997110785361961 0 -0.086227934566583703 0.34492027753724708 0 -0.070105654714641502 0.33997110785361961 0 -0.076826136344440674 0.33489462117145258 0 -0.057777053459140512 0.33812585789196897 0 -0.072369309230256945 0.33024741156378462 0 -0.070105654714641502 0.33997110785361961 0 -0.072369309230256945 0.33024741156378462 0 -0.076826136344440674 0.33489462117145258 0 -0.072369309230256945 0.33024741156378462 0 -0.076826136344440674 0.33489462117145258 0 -0.079058478603262289 0.32666324570038519 0 -0.072369309230256945 0.33024741156378462 0 -0.079058478603262289 0.32666324570038519 0 -0.072369309230256945 0.33024741156378462 0 -0.076826136344440674 0.33489462117145258 0 -0.056635945208158872 0.31198732444743649 0 -0.07486645790700075 0.31598825784859191 0 -0.056635945208158872 0.31198732444743649 0 -0.072369309230256945 0.33024741156378462 0 -0.07486645790700075 0.31598825784859191 0 -0.066201236618737669 0.31091696503817029 0 -0.056635945208158872 0.31198732444743649 0 -0.07486645790700075 0.31598825784859191 0 -0.05469946949425758 0.31182276845259899 0 -0.072369309230256945 0.33024741156378462 0 -0.072369309230256945 0.33024741156378462 0 -0.07486645790700075 0.31598825784859191 0 -0.079058478603262289 0.32666324570038519 0 -0.07486645790700075 0.31598825784859191 0 -0.079058478603262289 0.32666324570038519 0 -0.07115133945864538 0.31187826985784062 0 -0.066201236618737669 0.31091696503817029 0 -0.07486645790700075 0.31598825784859191 0 -0.07115133945864538 0.31187826985784062 0 -0.076353180048127467 0.31141093891006733 0 -0.07486645790700075 0.31598825784859191 0 -0.07486645790700075 0.31598825784859191 0 -0.091974210429875275 0.31974278629319303 0 -0.07486645790700075 0.31598825784859191 0 -0.079058478603262289 0.32666324570038519 0 -0.091974210429875275 0.31974278629319303 0 -0.084115430338387281 0.31081594386904282 0 -0.07486645790700075 0.31598825784859191 0 -0.091974210429875275 0.31974278629319303 0 -0.084115430338387281 0.31081594386904282 0 -0.076353180048127467 0.31141093891006733 0 -0.07486645790700075 0.31598825784859191 0 -0.079058478603262289 0.32666324570038519 0 -0.091974210429875275 0.31974278629319303 0 -0.079058478603262289 0.32666324570038519 0 -0.091974210429875275 0.31974278629319303 0 -0.089594135650513024 0.33347942303985972 0 -0.095252221124988795 0.30770385023044883 0 -0.084115430338387281 0.31081594386904282 0 -0.091974210429875275 0.31974278629319303 0 -0.086227934566583703 0.34492027753724708 0 -0.079058478603262289 0.32666324570038519 0 -0.089594135650513024 0.33347942303985972 0 -0.086227934566583703 0.34492027753724708 0 -0.079058478603262289 0.32666324570038519 0 -0.086227934566583703 0.34492027753724708 0 -0.076826136344440674 0.33489462117145258 0 -0.079058478603262289 0.32666324570038519 0 -0.086227934566583703 0.34492027753724708 0 -0.089594135650513024 0.33347942303985972 0 -0.094887111964292559 0.34285323366666492 0 -0.089594135650513024 0.33347942303985972 0 -0.094887111964292559 0.34285323366666492 0 -0.099742156256920594 0.33383741280419349 0 -0.094887111964292559 0.34285323366666492 0 -0.099742156256920594 0.33383741280419349 0 -0.1022914841901363 0.34402160887072752 0 -0.091974210429875275 0.31974278629319303 0 -0.089594135650513024 0.33347942303985972 0 -0.099742156256920594 0.33383741280419349 0 -0.099742156256920594 0.33383741280419349 0 -0.10956267357210531 0.32360281320649192 0 -0.1095982134885104 0.33867161784316691 0 -0.099742156256920594 0.33383741280419349 0 -0.1095982134885104 0.33867161784316691 0 -0.1022914841901363 0.34402160887072752 0 -0.091974210429875275 0.31974278629319303 0 -0.10956267357210531 0.32360281320649192 0 -0.091974210429875275 0.31974278629319303 0 -0.099742156256920594 0.33383741280419349 0 -0.10956267357210531 0.32360281320649192 0 -0.115477888666696 0.30714913280601203 0 -0.091974210429875275 0.31974278629319303 0 -0.115477888666696 0.30714913280601203 0 -0.091974210429875275 0.31974278629319303 0 -0.10956267357210531 0.32360281320649192 0 -0.12715113671433551 0.32746284011979038 0 -0.115477888666696 0.30714913280601203 0 -0.12715113671433551 0.32746284011979038 0 -0.10956267357210531 0.32360281320649192 0 -0.12715113671433551 0.32746284011979038 0 -0.115477888666696 0.30714913280601203 0 -0.10956267357210531 0.32360281320649192 0 -0.12715113671433551 0.32746284011979038 0 -0.1299041673376716 0.31167221980575449 0 -0.115477888666696 0.30714913280601203 0 -0.12715113671433551 0.32746284011979038 0 -0.10956267357210531 0.32360281320649192 0 -0.1203708723491147 0.33471443379057081 0 -0.1095982134885104 0.33867161784316691 0 -0.1203708723491147 0.33471443379057081 0 -0.11953087891258 0.34600795711969062 0 -0.10956267357210531 0.32360281320649192 0 -0.1095982134885104 0.33867161784316691 0 -0.1203708723491147 0.33471443379057081 0 -0.12657337260617571 0.34045341031246568 0 -0.1203708723491147 0.33471443379057081 0 -0.11953087891258 0.34600795711969062 0 -0.1095982134885104 0.33867161784316691 0 -0.11953087891258 0.34600795711969062 0 -0.1075974315359579 0.3497911007705149 0 -0.11953087891258 0.34600795711969062 0 -0.1135786604030647 0.35629358514713583 0 -0.1075974315359579 0.3497911007705149 0 -0.12665307458637279 0.35842354741748822 0 -0.11953087891258 0.34600795711969062 0 -0.12072281653590031 0.3582385652002511 0 -0.11953087891258 0.34600795711969062 0 -0.1135786604030647 0.35629358514713583 0 -0.12072281653590031 0.3582385652002511 0 -0.1253683679779104 0.36484971974922642 0 -0.12665307458637279 0.35842354741748822 0 -0.12072281653590031 0.3582385652002511 0 -0.1253683679779104 0.36484971974922642 0 -0.12072281653590031 0.3582385652002511 0 -0.1162078737155277 0.36504312864512251 0 -0.1253683679779104 0.36484971974922642 0 -0.1242316477344786 0.37309488013705372 0 -0.1162078737155277 0.36504312864512251 0 -0.1242316477344786 0.37309488013705372 0 -0.1116877258391932 0.37478187005201741 0 -0.1162078737155277 0.36504312864512251 0 -0.1135786604030647 0.35629358514713583 0 -0.12072281653590031 0.3582385652002511 0 -0.1162078737155277 0.36504312864512251 0 -0.1116877258391932 0.37478187005201741 0 -0.1162078737155277 0.36504312864512251 0 -0.1060787423720093 0.36150976472569801 0 -0.1135786604030647 0.35629358514713583 0 -0.1162078737155277 0.36504312864512251 0 -0.1060787423720093 0.36150976472569801 0 -0.1060787423720093 0.36150976472569801 0 -0.095771433150516408 0.36922281295602022 0 -0.098809022963249185 0.35205313308781222 0 -0.1116877258391932 0.37478187005201741 0 -0.1060787423720093 0.36150976472569801 0 -0.095771433150516408 0.36922281295602022 0 -0.094887111964292559 0.34285323366666492 0 -0.098809022963249185 0.35205313308781222 0 -0.1022914841901363 0.34402160887072752 0 -0.1095982134885104 0.33867161784316691 0 -0.1075974315359579 0.3497911007705149 0 -0.1022914841901363 0.34402160887072752 0 -0.098809022963249185 0.35205313308781222 0 -0.1075974315359579 0.3497911007705149 0 -0.1022914841901363 0.34402160887072752 0 -0.1135786604030647 0.35629358514713583 0 -0.1060787423720093 0.36150976472569801 0 -0.1075974315359579 0.3497911007705149 0 -0.1060787423720093 0.36150976472569801 0 -0.098809022963249185 0.35205313308781222 0 -0.1075974315359579 0.3497911007705149 0 -0.1053149317344502 0.39352534837479292 0 -0.097211217005070807 0.41507613621684469 0 -0.085411345130849914 0.40291442383299197 0 -0.095771433150516408 0.36922281295602022 0 -0.1053149317344502 0.39352534837479292 0 -0.084335498371228265 0.38297146695671119 0 -0.1116877258391932 0.37478187005201741 0 -0.095771433150516408 0.36922281295602022 0 -0.1053149317344502 0.39352534837479292 0 -0.095771433150516408 0.36922281295602022 0 -0.1053149317344502 0.39352534837479292 0 -0.1116877258391932 0.37478187005201741 0 -0.1053149317344502 0.39352534837479292 0 -0.1247661673848293 0.38541787619901491 0 -0.1242316477344786 0.37309488013705372 0 -0.1116877258391932 0.37478187005201741 0 -0.1247661673848293 0.38541787619901491 0 -0.12625787884841591 0.400519378092273 0 -0.1053149317344502 0.39352534837479292 0 -0.1247661673848293 0.38541787619901491 0 -0.12625787884841591 0.400519378092273 0 -0.1053149317344502 0.39352534837479292 0 -0.1139434671567329 0.41171865728739698 0 -0.12678985416440561 0.43800831601110579 0 -0.12633179495603161 0.42423482944829732 0 -0.109707010476376 0.43070197871066879 0 -0.12633179495603161 0.42423482944829732 0 -0.1139434671567329 0.41171865728739698 0 -0.109707010476376 0.43070197871066879 0 -0.109707010476376 0.43070197871066879 0 -0.090878847021848147 0.43054670383668542 0 -0.095945760322007481 0.4504042358636231 0 -0.109707010476376 0.43070197871066879 0 -0.097211217005070807 0.41507613621684469 0 -0.090878847021848147 0.43054670383668542 0 -0.1139434671567329 0.41171865728739698 0 -0.109707010476376 0.43070197871066879 0 -0.097211217005070807 0.41507613621684469 0 -0.1053149317344502 0.39352534837479292 0 -0.1139434671567329 0.41171865728739698 0 -0.097211217005070807 0.41507613621684469 0 -0.097211217005070807 0.41507613621684469 0 -0.078011700510167759 0.42104970525853219 0 -0.085411345130849914 0.40291442383299197 0 -0.097211217005070807 0.41507613621684469 0 -0.090878847021848147 0.43054670383668542 0 -0.078011700510167759 0.42104970525853219 0 -0.090878847021848147 0.43054670383668542 0 -0.078011700510167759 0.42104970525853219 0 -0.075693516139508699 0.44380330978886362 0 -0.078011700510167759 0.42104970525853219 0 -0.05674119915813057 0.43417497017890272 0 -0.075693516139508699 0.44380330978886362 0 -0.078011700510167759 0.42104970525853219 0 -0.060548556420980712 0.40454259510521828 0 -0.05674119915813057 0.43417497017890272 0 -0.078011700510167759 0.42104970525853219 0 -0.085411345130849914 0.40291442383299197 0 -0.060548556420980712 0.40454259510521828 0 -0.085411345130849914 0.40291442383299197 0 -0.060548556420980712 0.40454259510521828 0 -0.074080778081776044 0.39576953446579272 0 -0.085411345130849914 0.40291442383299197 0 -0.060548556420980712 0.40454259510521828 0 -0.068787451150583642 0.39156310064657252 0 -0.062552140333023976 0.38894885228721898 0 -0.060548556420980712 0.40454259510521828 0 -0.068787451150583642 0.39156310064657252 0 -0.074080778081776044 0.39576953446579272 0 -0.060548556420980712 0.40454259510521828 0 -0.068787451150583642 0.39156310064657252 0 -0.074080778081776044 0.39576953446579272 0 -0.072588455885733094 0.38553879712266831 0 -0.1053149317344502 0.39352534837479292 0 -0.085411345130849914 0.40291442383299197 0 -0.084335498371228265 0.38297146695671119 0 -0.074080778081776044 0.39576953446579272 0 -0.085411345130849914 0.40291442383299197 0 -0.084335498371228265 0.38297146695671119 0 -0.060328291870555641 0.36990253775884469 0 -0.084335498371228265 0.38297146695671119 0 -0.072588455885733094 0.38553879712266831 0 -0.060328291870555641 0.36990253775884469 0 -0.084335498371228265 0.38297146695671119 0 -0.060328291870555641 0.36990253775884469 0 -0.072588455885733094 0.38553879712266831 0 -0.06483239937526232 0.38607940108054017 0 -0.060328291870555641 0.36990253775884469 0 -0.062996540066110121 0.38549012260562793 0 -0.06483239937526232 0.38607940108054017 0 -0.074080778081776044 0.39576953446579272 0 -0.084335498371228265 0.38297146695671119 0 -0.072588455885733094 0.38553879712266831 0 -0.068787451150583642 0.39156310064657252 0 -0.072588455885733094 0.38553879712266831 0 -0.06483239937526232 0.38607940108054017 0 -0.068787451150583642 0.39156310064657252 0 -0.06483239937526232 0.38607940108054017 0 -0.062552140333023976 0.38894885228721898 0 -0.062996540066110121 0.38549012260562793 0 -0.06483239937526232 0.38607940108054017 0 -0.062552140333023976 0.38894885228721898 0 -0.062996540066110121 0.38549012260562793 0 -0.062552140333023976 0.38894885228721898 0 -0.06483239937526232 0.38607940108054017 0 -0.062552140333023976 0.38894885228721898 0 -0.060328291870555641 0.36990253775884469 0 -0.055215340751468042 0.38048771702715711 0 -0.044267780952487491 0.37537681973427728 0 -0.060328291870555641 0.36990253775884469 0 -0.062996540066110121 0.38549012260562793 0 -0.055215340751468042 0.38048771702715711 0 -0.062996540066110121 0.38549012260562793 0 -0.062552140333023976 0.38894885228721898 0 -0.054765261647439507 0.3888615966698602 0 -0.062996540066110121 0.38549012260562793 0 -0.055215340751468042 0.38048771702715711 0 -0.054765261647439507 0.3888615966698602 0 -0.055215340751468042 0.38048771702715711 0 -0.054765261647439507 0.3888615966698602 0 -0.04872936568234415 0.38416329169719943 0 -0.054765261647439507 0.3888615966698602 0 -0.04872936568234415 0.38416329169719943 0 -0.043592344454904348 0.39447006655080752 0 -0.055215340751468042 0.38048771702715711 0 -0.04872936568234415 0.38416329169719943 0 -0.044267780952487491 0.37537681973427728 0 -0.062552140333023976 0.38894885228721898 0 -0.049590022982871379 0.4052602285749734 0 -0.062552140333023976 0.38894885228721898 0 -0.054765261647439507 0.3888615966698602 0 -0.049590022982871379 0.4052602285749734 0 -0.054765261647439507 0.3888615966698602 0 -0.049590022982871379 0.4052602285749734 0 -0.043592344454904348 0.39447006655080752 0 -0.062552140333023976 0.38894885228721898 0 -0.060548556420980712 0.40454259510521828 0 -0.049590022982871379 0.4052602285749734 0 -0.060548556420980712 0.40454259510521828 0 -0.049590022982871379 0.4052602285749734 0 -0.062552140333023976 0.38894885228721898 0 -0.060548556420980712 0.40454259510521828 0 -0.049590022982871379 0.4052602285749734 0 -0.043592344454904348 0.39447006655080752 0 -0.0286298850435832 0.40663282980860238 0 -0.043592344454904348 0.39447006655080752 0 -0.025304351769351321 0.39177971285173668 0 -0.0286298850435832 0.40663282980860238 0 -0.049590022982871379 0.4052602285749734 0 -0.0286298850435832 0.40663282980860238 0 -0.044267780952487491 0.37537681973427728 0 -0.038174427355952813 0.38450926808013708 0 -0.02683817468472097 0.3763644952813503 0 -0.043592344454904348 0.39447006655080752 0 -0.038174427355952813 0.38450926808013708 0 -0.025304351769351321 0.39177971285173668 0 -0.04872936568234415 0.38416329169719943 0 -0.044267780952487491 0.37537681973427728 0 -0.038174427355952813 0.38450926808013708 0 -0.04872936568234415 0.38416329169719943 0 -0.043592344454904348 0.39447006655080752 0 -0.038174427355952813 0.38450926808013708 0 -0.02683817468472097 0.3763644952813503 0 -0.025304351769351321 0.39177971285173668 0 -0.0074464104376092063 0.38589253252320838 0 -0.038174427355952813 0.38450926808013708 0 -0.02683817468472097 0.3763644952813503 0 -0.025304351769351321 0.39177971285173668 0 -0.025304351769351321 0.39177971285173668 0 -0.0076697471042952159 0.40800543104223258 0 -0.0286298850435832 0.40663282980860238 0 -0.0074464104376092063 0.38589253252320838 0 -0.0076697471042952159 0.40800543104223258 0 0.010524097550141651 0.39767975197429611 0 -0.0074464104376092063 0.38589253252320838 0 -0.0076697471042952159 0.40800543104223258 0 -0.025304351769351321 0.39177971285173668 0 -0.0074464104376092063 0.38589253252320838 0 -0.0076697471042952159 0.40800543104223258 0 -0.0072230737709234787 0.36377963400418423 0 -0.02683817468472097 0.3763644952813503 0 -0.0074464104376092063 0.38589253252320838 0 -0.0072230737709234787 0.36377963400418423 0 -0.0074464104376092063 0.38589253252320838 0 0.0081315263000381558 0.38186996285958641 0 -0.0078464032927949325 0.42549642536490889 0 -0.020615844166594659 0.44172099501722722 0 -0.0080230594812946143 0.44298741968758532 0 -0.0078464032927949325 0.42549642536490889 0 -0.0080230594812946143 0.44298741968758532 0 0.0082093921443377529 0.43440497553953528 0 -0.0078464032927949325 0.42549642536490889 0 -0.0080230594812946143 0.44298741968758532 0 -0.0078464032927949325 0.42549642536490889 0 -0.0076697471042952159 0.40800543104223258 0 0.0045028998126316654 0.41938585600695022 0 -0.0078464032927949325 0.42549642536490889 0 -0.0076697471042952159 0.40800543104223258 0 -0.0078464032927949325 0.42549642536490889 0 -0.0076697471042952159 0.40800543104223258 0 -0.018995204139637761 0.41581332120328102 0 -0.0286298850435832 0.40663282980860238 0 -0.018995204139637761 0.41581332120328102 0 -0.03510293357473316 0.42349061179610042 0 -0.0076697471042952159 0.40800543104223258 0 -0.0286298850435832 0.40663282980860238 0 -0.0076697471042952159 0.40800543104223258 0 -0.0286298850435832 0.40663282980860238 0 -0.018995204139637761 0.41581332120328102 0 -0.018995204139637761 0.41581332120328102 0 -0.020555142554841119 0.42643686361960792 0 -0.03510293357473316 0.42349061179610042 0 -0.020555142554841119 0.42643686361960792 0 -0.03510293357473316 0.42349061179610042 0 -0.020615844166594659 0.44172099501722722 0 -0.03510293357473316 0.42349061179610042 0 -0.020615844166594659 0.44172099501722722 0 -0.0078464032927949325 0.42549642536490889 0 -0.020555142554841119 0.42643686361960792 0 -0.020615844166594659 0.44172099501722722 0 -0.0078464032927949325 0.42549642536490889 0 -0.018995204139637761 0.41581332120328102 0 -0.020555142554841119 0.42643686361960792 0 -0.03510293357473316 0.42349061179610042 0 -0.040905745658475143 0.43891945568673513 0 -0.020615844166594659 0.44172099501722722 0 -0.03510293357473316 0.42349061179610042 0 -0.048577691559038239 0.42127757226838591 0 -0.040905745658475143 0.43891945568673513 0 -0.049590022982871379 0.4052602285749734 0 -0.03510293357473316 0.42349061179610042 0 -0.049590022982871379 0.4052602285749734 0 -0.03510293357473316 0.42349061179610042 0 -0.048577691559038239 0.42127757226838591 0 -0.049590022982871379 0.4052602285749734 0 -0.0286298850435832 0.40663282980860238 0 -0.03510293357473316 0.42349061179610042 0 -0.060548556420980712 0.40454259510521828 0 -0.049590022982871379 0.4052602285749734 0 -0.048577691559038239 0.42127757226838591 0 -0.060548556420980712 0.40454259510521828 0 -0.048577691559038239 0.42127757226838591 0 -0.05674119915813057 0.43417497017890272 0 -0.060548556420980712 0.40454259510521828 0 -0.05674119915813057 0.43417497017890272 0 -0.048577691559038239 0.42127757226838591 0 -0.05674119915813057 0.43417497017890272 0 -0.040905745658475143 0.43891945568673513 0 -0.05674119915813057 0.43417497017890272 0 -0.052933841895277382 0.46380734525258671 0 -0.075693516139508699 0.44380330978886362 0 -0.05674119915813057 0.43417497017890272 0 -0.052933841895277382 0.46380734525258671 0 -0.05674119915813057 0.43417497017890272 0 -0.052933841895277382 0.46380734525258671 0 -0.040905745658475143 0.43891945568673513 0 -0.052933841895277382 0.46380734525258671 0 -0.031523181623508631 0.45186807460599909 0 -0.030500291656147441 0.46641792395394732 0 -0.052933841895277382 0.46380734525258671 0 -0.040905745658475143 0.43891945568673513 0 -0.031523181623508631 0.45186807460599909 0 -0.040905745658475143 0.43891945568673513 0 -0.031523181623508631 0.45186807460599909 0 -0.020615844166594659 0.44172099501722722 0 -0.031523181623508631 0.45186807460599909 0 -0.020615844166594659 0.44172099501722722 0 -0.019974822151672591 0.4582452973251071 0 -0.031523181623508631 0.45186807460599909 0 -0.030500291656147441 0.46641792395394732 0 -0.019974822151672591 0.4582452973251071 0 -0.030500291656147441 0.46641792395394732 0 -0.019974822151672591 0.4582452973251071 0 -0.015001421759608139 0.47951282315554439 0 -0.019974822151672591 0.4582452973251071 0 -0.0061287547584561904 0.45995137823835391 0 -0.015001421759608139 0.47951282315554439 0 -0.020615844166594659 0.44172099501722722 0 -0.019974822151672591 0.4582452973251071 0 -0.0061287547584561904 0.45995137823835391 0 -0.020615844166594659 0.44172099501722722 0 -0.0061287547584561904 0.45995137823835391 0 -0.0080230594812946143 0.44298741968758532 0 -0.020615844166594659 0.44172099501722722 0 -0.0061287547584561904 0.45995137823835391 0 -0.0061287547584561904 0.45995137823835391 0 -0.0080230594812946143 0.44298741968758532 0 0.0054480129722310382 0.45626610830630021 0 -0.015001421759608139 0.47951282315554439 0 -0.021455097604087259 0.5 0 0.0065586270377511746 0.5 0 -0.015001421759608139 0.47951282315554439 0 0.0011845186115123339 0.47425500949493909 0 0.0065586270377511746 0.5 0 -0.0061287547584561904 0.45995137823835391 0 -0.015001421759608139 0.47951282315554439 0 0.0011845186115123339 0.47425500949493909 0 -0.030500291656147441 0.46641792395394732 0 -0.015001421759608139 0.47951282315554439 0 -0.038280746650414817 0.48208587483249732 0 -0.015001421759608139 0.47951282315554439 0 -0.021455097604087259 0.5 0 -0.038280746650414817 0.48208587483249732 0 -0.021455097604087259 0.5 0 -0.038280746650414817 0.48208587483249732 0 -0.049468822245925748 0.5 0 -0.052933841895277382 0.46380734525258671 0 -0.030500291656147441 0.46641792395394732 0 -0.038280746650414817 0.48208587483249732 0 -0.052933841895277382 0.46380734525258671 0 -0.038280746650414817 0.48208587483249732 0 -0.060325004741442992 0.48277715663290588 0 -0.060325004741442992 0.48277715663290588 0 -0.049468822245925748 0.5 0 -0.077482546887764125 0.5 0 -0.038280746650414817 0.48208587483249732 0 -0.060325004741442992 0.48277715663290588 0 -0.049468822245925748 0.5 0 -0.077482546887764125 0.5 0 -0.077573948719414365 0.4692143502749489 0 -0.1021461471957457 0.47628387173114212 0 -0.060325004741442992 0.48277715663290588 0 -0.077482546887764125 0.5 0 -0.077573948719414365 0.4692143502749489 0 -0.052933841895277382 0.46380734525258671 0 -0.060325004741442992 0.48277715663290588 0 -0.077573948719414365 0.4692143502749489 0 -0.052933841895277382 0.46380734525258671 0 -0.077573948719414365 0.4692143502749489 0 -0.075693516139508699 0.44380330978886362 0 -0.090878847021848147 0.43054670383668542 0 -0.075693516139508699 0.44380330978886362 0 -0.095945760322007481 0.4504042358636231 0 -0.077573948719414365 0.4692143502749489 0 -0.075693516139508699 0.44380330978886362 0 -0.095945760322007481 0.4504042358636231 0 -0.077573948719414365 0.4692143502749489 0 -0.095945760322007481 0.4504042358636231 0 -0.1021461471957457 0.47628387173114212 0 -0.095945760322007481 0.4504042358636231 0 -0.1157289500858367 0.45438826977914037 0 -0.1021461471957457 0.47628387173114212 0 -0.109707010476376 0.43070197871066879 0 -0.095945760322007481 0.4504042358636231 0 -0.1157289500858367 0.45438826977914037 0 -0.12678985416440561 0.43800831601110579 0 -0.109707010476376 0.43070197871066879 0 -0.1157289500858367 0.45438826977914037 0 -0.1157289500858367 0.45438826977914037 0 -0.1234171675559782 0.47140926387654353 0 -0.1021461471957457 0.47628387173114212 0 -0.1234171675559782 0.47140926387654353 0 -0.1205660090392484 0.48645168961490171 0 -0.1021461471957457 0.47628387173114212 0 -0.13350999617144099 0.5 0 -0.1205660090392484 0.48645168961490171 0 -0.1054962715296025 0.5 0 -0.1205660090392484 0.48645168961490171 0 -0.1054962715296025 0.5 0 -0.1021461471957457 0.47628387173114212 0 -0.077482546887764125 0.5 0 -0.1054962715296025 0.5 0 -0.1021461471957457 0.47628387173114212 0 -0.15833009967279221 0.079111178689612149 0 -0.16512499346377491 0.099020951620081815 0 -0.14790550827909879 0.091630894357586409 0 -0.15833009967279221 0.079111178689612149 0 -0.17356168492386809 0.084891680127339803 0 -0.16512499346377491 0.099020951620081815 0 -0.17356168492386809 0.084891680127339803 0 -0.16512499346377491 0.099020951620081815 0 -0.15833009967279221 0.079111178689612149 0 -0.167773084006968 0.065835432646662265 0 -0.17356168492386809 0.084891680127339803 0 -0.167773084006968 0.065835432646662265 0 -0.17356168492386809 0.084891680127339803 0 -0.15833009967279221 0.079111178689612149 0 -0.167773084006968 0.065835432646662265 0 -0.1528595483906037 0.064031509821355539 0 -0.167773084006968 0.065835432646662265 0 -0.1785084550474135 0.076607122321907528 0 -0.17356168492386809 0.084891680127339803 0 -0.167773084006968 0.065835432646662265 0 -0.18525843948344939 0.068951664431391405 0 -0.18554448915065261 0.058342101221515147 0 -0.167773084006968 0.065835432646662265 0 -0.1785084550474135 0.076607122321907528 0 -0.18525843948344939 0.068951664431391405 0 -0.1785084550474135 0.076607122321907528 0 -0.18525843948344939 0.068951664431391405 0 -0.18956071359031371 0.077709563553099048 0 -0.1785084550474135 0.076607122321907528 0 -0.18006328772630181 0.083154679531399212 0 -0.18956071359031371 0.077709563553099048 0 -0.18006328772630181 0.083154679531399212 0 -0.18451772636619279 0.086642341519678895 0 -0.18956071359031371 0.077709563553099048 0 -0.18006328772630181 0.083154679531399212 0 -0.17789011416794781 0.086585461009668685 0 -0.18451772636619279 0.086642341519678895 0 -0.1785084550474135 0.076607122321907528 0 -0.18006328772630181 0.083154679531399212 0 -0.17356168492386809 0.084891680127339803 0 -0.1785084550474135 0.076607122321907528 0 -0.17356168492386809 0.084891680127339803 0 -0.18006328772630181 0.083154679531399212 0 -0.17356168492386809 0.084891680127339803 0 -0.17789011416794781 0.086585461009668685 0 -0.17356168492386809 0.084891680127339803 0 -0.17825076508352561 0.091807104107848911 0 -0.16512499346377491 0.099020951620081815 0 -0.17356168492386809 0.084891680127339803 0 -0.17789011416794781 0.086585461009668685 0 -0.17825076508352561 0.091807104107848911 0 -0.17825076508352561 0.091807104107848911 0 -0.18451772636619279 0.086642341519678895 0 -0.1803111303546622 0.10028726756404829 0 -0.17789011416794781 0.086585461009668685 0 -0.17825076508352561 0.091807104107848911 0 -0.18451772636619279 0.086642341519678895 0 -0.1803111303546622 0.10028726756404829 0 -0.18345436580931751 0.1112499707274371 0 -0.19458530311875641 0.099202181728965194 0 -0.17825076508352561 0.091807104107848911 0 -0.1803111303546622 0.10028726756404829 0 -0.16512499346377491 0.099020951620081815 0 -0.1803111303546622 0.10028726756404829 0 -0.18345436580931751 0.1112499707274371 0 -0.16948793822197411 0.11850767992985629 0 -0.18689696952623919 0.1210103316906808 0 -0.18345436580931751 0.1112499707274371 0 -0.1792767538497701 0.11936392733334759 0 -0.18689696952623919 0.1210103316906808 0 -0.1792767538497701 0.11936392733334759 0 -0.18242002501098861 0.13008418652611761 0 -0.18345436580931751 0.1112499707274371 0 -0.1792767538497701 0.11936392733334759 0 -0.16948793822197411 0.11850767992985629 0 -0.1792767538497701 0.11936392733334759 0 -0.16948793822197411 0.11850767992985629 0 -0.17144897819361229 0.12719895235424031 0 -0.1803111303546622 0.10028726756404829 0 -0.16948793822197411 0.11850767992985629 0 -0.15959191343491849 0.12026456177608701 0 -0.1803111303546622 0.10028726756404829 0 -0.15959191343491849 0.12026456177608701 0 -0.15668830200368061 0.11315022311282311 0 -0.15959191343491849 0.12026456177608701 0 -0.16512499346377491 0.099020951620081815 0 -0.16948793822197411 0.11850767992985629 0 -0.16625286677992651 0.1246860251990317 0 -0.16038486804215729 0.1222074345585179 0 -0.16948793822197411 0.11850767992985629 0 -0.16625286677992651 0.1246860251990317 0 -0.17144897819361229 0.12719895235424031 0 -0.15668830200368061 0.11315022311282311 0 -0.15959191343491849 0.12026456177608701 0 -0.16948793822197411 0.11850767992985629 0 -0.15959191343491849 0.12026456177608701 0 -0.16038486804215729 0.1222074345585179 0 -0.15959191343491849 0.12026456177608701 0 -0.16038486804215729 0.1222074345585179 0 -0.1803111303546622 0.10028726756404829 0 -0.15959191343491849 0.12026456177608701 0 -0.16512499346377491 0.099020951620081815 0 -0.15668830200368061 0.11315022311282311 0 -0.16512499346377491 0.099020951620081815 0 -0.14790550827909879 0.091630894357586409 0 -0.15668830200368061 0.11315022311282311 0 -0.16512499346377491 0.099020951620081815 0 -0.15668830200368061 0.11315022311282311 0 -0.13880017962859639 0.10554379251693261 0 -0.14790550827909879 0.091630894357586409 0 -0.15668830200368061 0.11315022311282311 0 -0.14790550827909879 0.091630894357586409 0 -0.15668830200368061 0.11315022311282311 0 -0.1391953302979117 0.1197185678623847 0 -0.13880017962859639 0.10554379251693261 0 -0.15668830200368061 0.11315022311282311 0 -0.1427357485418467 0.13651713380426411 0 -0.15668830200368061 0.11315022311282311 0 -0.1391953302979117 0.1197185678623847 0 -0.1427357485418467 0.13651713380426411 0 -0.15668830200368061 0.11315022311282311 0 -0.15959191343491849 0.12026456177608701 0 -0.1427357485418467 0.13651713380426411 0 -0.1391953302979117 0.1197185678623847 0 -0.1213557320053943 0.12542833274362999 0 -0.1241607077707938 0.1118393050748215 0 -0.1391953302979117 0.1197185678623847 0 -0.13880017962859639 0.10554379251693261 0 -0.1241607077707938 0.1118393050748215 0 -0.13880017962859639 0.10554379251693261 0 -0.1260510497914982 0.091379972177046881 0 -0.14790550827909879 0.091630894357586409 0 -0.13880017962859639 0.10554379251693261 0 -0.1260510497914982 0.091379972177046881 0 -0.1241607077707938 0.1118393050748215 0 -0.1260510497914982 0.091379972177046881 0 -0.14790550827909879 0.091630894357586409 0 -0.13912271455451791 0.07011156560234931 0 -0.14790550827909879 0.091630894357586409 0 -0.13912271455451791 0.07011156560234931 0 -0.15833009967279221 0.079111178689612149 0 -0.14790550827909879 0.091630894357586409 0 -0.13912271455451791 0.07011156560234931 0 -0.15833009967279221 0.079111178689612149 0 -0.1528595483906037 0.064031509821355539 0 -0.13912271455451791 0.07011156560234931 0 -0.13912271455451791 0.07011156560234931 0 -0.13033992082993981 0.04859223684711108 0 -0.1154297034130323 0.068929940500303669 0 -0.1260510497914982 0.091379972177046881 0 -0.13912271455451791 0.07011156560234931 0 -0.1154297034130323 0.068929940500303669 0 -0.13912271455451791 0.07011156560234931 0 -0.13033992082993981 0.04859223684711108 0 -0.13912271455451791 0.07011156560234931 0 -0.13033992082993981 0.04859223684711108 0 -0.14576826236894991 0.051440285839808773 0 -0.13033992082993981 0.04859223684711108 0 -0.12459276851492911 0.034510742512690623 0 -0.13033992082993981 0.04859223684711108 0 -0.13067644815673679 0.032673744552762979 0 -0.12459276851492911 0.034510742512690623 0 -0.13033992082993981 0.04859223684711108 0 -0.13067644815673679 0.032673744552762979 0 -0.13678866493132341 0.034413435786685299 0 -0.13067644815673679 0.032673744552762979 0 -0.1267132747369637 0.028152339213395949 0 -0.12459276851492911 0.034510742512690623 0 -0.13067644815673679 0.032673744552762979 0 -0.13678866493132341 0.034413435786685299 0 -0.13787639888250411 0.02900328520538769 0 -0.13969067623572731 0.035837701681132109 0 -0.13678866493132341 0.034413435786685299 0 -0.13787639888250411 0.02900328520538769 0 -0.13969067623572731 0.035837701681132109 0 -0.13678866493132341 0.034413435786685299 0 -0.13033992082993981 0.04859223684711108 0 -0.13969067623572731 0.035837701681132109 0 -0.13033992082993981 0.04859223684711108 0 -0.13969067623572731 0.035837701681132109 0 -0.13678866493132341 0.034413435786685299 0 -0.13033992082993981 0.04859223684711108 0 -0.13969067623572731 0.035837701681132109 0 -0.14576826236894991 0.051440285839808773 0 -0.13969067623572731 0.035837701681132109 0 -0.14576826236894991 0.051440285839808773 0 -0.16198448309006841 0.046779185165984602 0 -0.13969067623572731 0.035837701681132109 0 -0.16198448309006841 0.046779185165984602 0 -0.157543963274236 0.032160861020277681 0 -0.13969067623572731 0.035837701681132109 0 -0.16198448309006841 0.046779185165984602 0 -0.1528595483906037 0.064031509821355539 0 -0.14576826236894991 0.051440285839808773 0 -0.16198448309006841 0.046779185165984602 0 -0.1528595483906037 0.064031509821355539 0 -0.13912271455451791 0.07011156560234931 0 -0.14576826236894991 0.051440285839808773 0 -0.12612838864056239 0.0097957033594232891 0 -0.15098633850986809 0.01277266571303476 0 -0.12612838864056239 0.0097957033594232891 0 -0.13727025031622769 0.017595178636069402 0 -0.15098633850986809 0.01277266571303476 0 -0.13099125421154301 0.0079857334658157524 0 -0.12612838864056239 0.0097957033594232891 0 -0.15098633850986809 0.01277266571303476 0 -0.134616995474622 0.0019197331515740941 0 -0.13099125421154301 0.0079857334658157524 0 -0.14165522932184821 0.003825106739535645 0 -0.13597633252852689 -0.003855884808756756 0 -0.134616995474622 0.0019197331515740941 0 -0.14165522932184821 0.003825106739535645 0 -0.121953472101768 -0.00080781569352938066 0 -0.12984516583656999 -0.00027602279029826222 0 -0.13099125421154301 0.0079857334658157524 0 -0.12984516583656999 -0.00027602279029826222 0 -0.134616995474622 0.0019197331515740941 0 -0.13099125421154301 0.0079857334658157524 0 -0.12612838864056239 0.0097957033594232891 0 -0.13727025031622769 0.017595178636069402 0 -0.12861115904932219 0.017269305758574879 0 -0.12612838864056239 0.0097957033594232891 0 -0.12861115904932219 0.017269305758574879 0 -0.12488296353486041 0.01535073514020893 0 -0.13786253796420639 0.021039292889473898 0 -0.13622829951647961 0.02373672437875923 0 -0.14219110558281961 0.023263070879460331 0 -0.13786253796420639 0.021039292889473898 0 -0.14219110558281961 0.023263070879460331 0 -0.14065560521870371 0.02001237850022676 0 -0.13727025031622769 0.017595178636069402 0 -0.13786253796420639 0.021039292889473898 0 -0.13595649169307791 0.02091457969218782 0 -0.13727025031622769 0.017595178636069402 0 -0.13786253796420639 0.021039292889473898 0 -0.14065560521870371 0.02001237850022676 0 -0.13727025031622769 0.017595178636069402 0 -0.13595649169307791 0.02091457969218782 0 -0.13246487897539791 0.021287122864448751 0 -0.13595649169307791 0.02091457969218782 0 -0.13246487897539791 0.021287122864448751 0 -0.13622829951647961 0.02373672437875923 0 -0.13786253796420639 0.021039292889473898 0 -0.13595649169307791 0.02091457969218782 0 -0.13622829951647961 0.02373672437875923 0 -0.13727025031622769 0.017595178636069402 0 -0.12861115904932219 0.017269305758574879 0 -0.13246487897539791 0.021287122864448751 0 -0.12861115904932219 0.017269305758574879 0 -0.12549645175296051 0.0221616651473397 0 -0.12488296353486041 0.01535073514020893 0 -0.12861115904932219 0.017269305758574879 0 -0.12549645175296051 0.0221616651473397 0 -0.13246487897539791 0.021287122864448751 0 -0.12549645175296051 0.0221616651473397 0 -0.13246487897539791 0.021287122864448751 0 -0.13162513948220159 0.026135248896194469 0 -0.12549645175296051 0.0221616651473397 0 -0.13162513948220159 0.026135248896194469 0 -0.1267132747369637 0.028152339213395949 0 -0.13067644815673679 0.032673744552762979 0 -0.13162513948220159 0.026135248896194469 0 -0.1267132747369637 0.028152339213395949 0 -0.13067644815673679 0.032673744552762979 0 -0.13162513948220159 0.026135248896194469 0 -0.13787639888250411 0.02900328520538769 0 -0.13969067623572731 0.035837701681132109 0 -0.13787639888250411 0.02900328520538769 0 -0.14219110558281961 0.023263070879460331 0 -0.13162513948220159 0.026135248896194469 0 -0.13622829951647961 0.02373672437875923 0 -0.13787639888250411 0.02900328520538769 0 -0.13246487897539791 0.021287122864448751 0 -0.13162513948220159 0.026135248896194469 0 -0.13622829951647961 0.02373672437875923 0 -0.13622829951647961 0.02373672437875923 0 -0.13787639888250411 0.02900328520538769 0 -0.14219110558281961 0.023263070879460331 0 -0.13969067623572731 0.035837701681132109 0 -0.15310344345840271 0.017542536874571042 0 -0.14219110558281961 0.023263070879460331 0 -0.13969067623572731 0.035837701681132109 0 -0.15310344345840271 0.017542536874571042 0 -0.13969067623572731 0.035837701681132109 0 -0.15310344345840271 0.017542536874571042 0 -0.157543963274236 0.032160861020277681 0 -0.15310344345840271 0.017542536874571042 0 -0.157543963274236 0.032160861020277681 0 -0.15310344345840271 0.017542536874571042 0 -0.1452985270115611 0.018151971595903409 0 -0.15098633850986809 0.01277266571303476 0 -0.13727025031622769 0.017595178636069402 0 -0.1452985270115611 0.018151971595903409 0 -0.14065560521870371 0.02001237850022676 0 -0.15310344345840271 0.017542536874571042 0 -0.1452985270115611 0.018151971595903409 0 -0.14219110558281961 0.023263070879460331 0 -0.13727025031622769 0.017595178636069402 0 -0.1452985270115611 0.018151971595903409 0 -0.15098633850986809 0.01277266571303476 0 -0.1452985270115611 0.018151971595903409 0 -0.14219110558281961 0.023263070879460331 0 -0.14065560521870371 0.02001237850022676 0 -0.1434229348759079 -0.014325987132379659 0 -0.15098633850986809 0.01277266571303476 0 -0.14165522932184821 0.003825106739535645 0 -0.13099125421154301 0.0079857334658157524 0 -0.15098633850986809 0.01277266571303476 0 -0.13099125421154301 0.0079857334658157524 0 -0.15098633850986809 0.01277266571303476 0 -0.14165522932184821 0.003825106739535645 0 -0.15310344345840271 0.017542536874571042 0 -0.15098633850986809 0.01277266571303476 0 -0.15098633850986809 0.01277266571303476 0 -0.15614726314739691 0.01339073270715851 0 -0.1554354557495416 0.00049390380166218755 0 -0.15310344345840271 0.017542536874571042 0 -0.15098633850986809 0.01277266571303476 0 -0.15614726314739691 0.01339073270715851 0 -0.15310344345840271 0.017542536874571042 0 -0.15614726314739691 0.01339073270715851 0 -0.15098633850986809 0.01277266571303476 0 -0.15614726314739691 0.01339073270715851 0 -0.15614726314739691 0.01339073270715851 0 -0.16465333589747991 0.01604461943632568 0 -0.18449821016543569 0.016786012784784431 0 -0.16794901456258729 -0.0027069884835841519 0 -0.15614726314739691 0.01339073270715851 0 -0.1554354557495416 0.00049390380166218755 0 -0.16794901456258729 -0.0027069884835841519 0 -0.15614726314739691 0.01339073270715851 0 -0.15614726314739691 0.01339073270715851 0 -0.18449821016543569 0.016786012784784431 0 -0.16794901456258729 -0.0027069884835841519 0 -0.15614726314739691 0.01339073270715851 0 -0.18449821016543569 0.016786012784784431 0 -0.15614726314739691 0.01339073270715851 0 -0.16465333589747991 0.01604461943632568 0 -0.16465333589747991 0.01604461943632568 0 -0.15986452161011941 0.02155957984806238 0 -0.16825970898300141 0.028133859333815198 0 -0.15310344345840271 0.017542536874571042 0 -0.15614726314739691 0.01339073270715851 0 -0.15986452161011941 0.02155957984806238 0 -0.15614726314739691 0.01339073270715851 0 -0.16465333589747991 0.01604461943632568 0 -0.15986452161011941 0.02155957984806238 0 -0.15986452161011941 0.02155957984806238 0 -0.16825970898300141 0.028133859333815198 0 -0.157543963274236 0.032160861020277681 0 -0.15310344345840271 0.017542536874571042 0 -0.15986452161011941 0.02155957984806238 0 -0.157543963274236 0.032160861020277681 0 -0.16465333589747991 0.01604461943632568 0 -0.16825970898300141 0.028133859333815198 0 -0.18449821016543569 0.016786012784784431 0 -0.16825970898300141 0.028133859333815198 0 -0.18449821016543569 0.016786012784784431 0 -0.18168530292814911 0.037813374201380021 0 -0.16794901456258729 -0.0027069884835841519 0 -0.19297088616264779 -0.0039345570842879724 0 -0.18449821016543569 0.016786012784784431 0 -0.167773084006968 0.065835432646662265 0 -0.1528595483906037 0.064031509821355539 0 -0.16198448309006841 0.046779185165984602 0 -0.167773084006968 0.065835432646662265 0 -0.16198448309006841 0.046779185165984602 0 -0.167773084006968 0.065835432646662265 0 -0.16198448309006841 0.046779185165984602 0 -0.18554448915065261 0.058342101221515147 0 -0.16825970898300141 0.028133859333815198 0 -0.16198448309006841 0.046779185165984602 0 -0.157543963274236 0.032160861020277681 0 -0.16825970898300141 0.028133859333815198 0 -0.16198448309006841 0.046779185165984602 0 -0.18168530292814911 0.037813374201380021 0 -0.16198448309006841 0.046779185165984602 0 -0.157543963274236 0.032160861020277681 0 -0.18168530292814911 0.037813374201380021 0 -0.18554448915065261 0.058342101221515147 0 -0.19386727435668399 0.044679184348095147 0 -0.16198448309006841 0.046779185165984602 0 -0.18168530292814911 0.037813374201380021 0 -0.18554448915065261 0.058342101221515147 0 -0.16198448309006841 0.046779185165984602 0 -0.18554448915065261 0.058342101221515147 0 -0.18554448915065261 0.058342101221515147 0 -0.20085368076898499 0.053897088276620299 0 -0.20910449521123711 0.069905017277045373 0 -0.20085368076898499 0.053897088276620299 0 -0.19386727435668399 0.044679184348095147 0 -0.2045790270541675 0.04238595941804859 0 -0.18554448915065261 0.058342101221515147 0 -0.20085368076898499 0.053897088276620299 0 -0.19386727435668399 0.044679184348095147 0 -0.18168530292814911 0.037813374201380021 0 -0.19386727435668399 0.044679184348095147 0 -0.19667387188146609 0.030957398622911681 0 -0.19386727435668399 0.044679184348095147 0 -0.2045790270541675 0.04238595941804859 0 -0.19667387188146609 0.030957398622911681 0 -0.2045790270541675 0.04238595941804859 0 -0.2133361361600333 0.031831465977890917 0 -0.22071860049945449 0.044833614862248933 0 -0.2045790270541675 0.04238595941804859 0 -0.2133361361600333 0.031831465977890917 0 -0.19667387188146609 0.030957398622911681 0 -0.2045790270541675 0.04238595941804859 0 -0.21273200773447831 0.0517729110317042 0 -0.22071860049945449 0.044833614862248933 0 -0.20085368076898499 0.053897088276620299 0 -0.21273200773447831 0.0517729110317042 0 -0.20910449521123711 0.069905017277045373 0 -0.21273200773447831 0.0517729110317042 0 -0.22174956419414901 0.060332679139969911 0 -0.22071860049945449 0.044833614862248933 0 -0.21273200773447831 0.0517729110317042 0 -0.22174956419414901 0.060332679139969911 0 -0.20910449521123711 0.069905017277045373 0 -0.20085368076898499 0.053897088276620299 0 -0.2045790270541675 0.04238595941804859 0 -0.21273200773447831 0.0517729110317042 0 -0.19297088616264779 -0.0039345570842879724 0 -0.18449821016543569 0.016786012784784431 0 -0.20779050682152961 0.013354343640782749 0 -0.18449821016543569 0.016786012784784431 0 -0.18168530292814911 0.037813374201380021 0 -0.19667387188146609 0.030957398622911681 0 -0.18449821016543569 0.016786012784784431 0 -0.19667387188146609 0.030957398622911681 0 -0.20779050682152961 0.013354343640782749 0 -0.2133361361600333 0.031831465977890917 0 -0.20779050682152961 0.013354343640782749 0 -0.22149310916914799 0.02074794072659188 0 -0.2133361361600333 0.031831465977890917 0 -0.19667387188146609 0.030957398622911681 0 -0.20779050682152961 0.013354343640782749 0 -0.19297088616264779 -0.0039345570842879724 0 -0.21838306712775379 -0.0071018941947125838 0 -0.20779050682152961 0.013354343640782749 0 -0.21838306712775379 -0.0071018941947125838 0 -0.20779050682152961 0.013354343640782749 0 -0.2250815591409874 0.0085466114715490107 0 -0.20779050682152961 0.013354343640782749 0 -0.2250815591409874 0.0085466114715490107 0 -0.22149310916914799 0.02074794072659188 0 -0.2250815591409874 0.0085466114715490107 0 -0.2342068494095102 0.018201741531223951 0 -0.24136320450534329 0.0045979420509364606 0 -0.21838306712775379 -0.0071018941947125838 0 -0.2250815591409874 0.0085466114715490107 0 -0.24136320450534329 0.0045979420509364606 0 -0.2250815591409874 0.0085466114715490107 0 -0.2342068494095102 0.018201741531223951 0 -0.22149310916914799 0.02074794072659188 0 -0.2133361361600333 0.031831465977890917 0 -0.22149310916914799 0.02074794072659188 0 -0.22705049431367971 0.031805541011512783 0 -0.2342068494095102 0.018201741531223951 0 -0.22705049431367971 0.031805541011512783 0 -0.2342068494095102 0.018201741531223951 0 -0.23842891125381371 0.030595639602449261 0 -0.22705049431367971 0.031805541011512783 0 -0.2342068494095102 0.018201741531223951 0 -0.22149310916914799 0.02074794072659188 0 -0.22705049431367971 0.031805541011512783 0 -0.25310400399909361 0.032761766137688372 0 -0.24515758499851401 0.020795330057302979 0 -0.249215314840568 0.0085956729432886559 0 -0.25310400399909361 0.032761766137688372 0 -0.24515758499851401 0.020795330057302979 0 -0.24703104510379709 0.033270281400205652 0 -0.23842891125381371 0.030595639602449261 0 -0.24515758499851401 0.020795330057302979 0 -0.24703104510379709 0.033270281400205652 0 -0.2342068494095102 0.018201741531223951 0 -0.23842891125381371 0.030595639602449261 0 -0.24515758499851401 0.020795330057302979 0 -0.2342068494095102 0.018201741531223951 0 -0.24515758499851401 0.020795330057302979 0 -0.24136320450534329 0.0045979420509364606 0 -0.24515758499851401 0.020795330057302979 0 -0.249215314840568 0.0085956729432886559 0 -0.24136320450534329 0.0045979420509364606 0 -0.2342068494095102 0.018201741531223951 0 -0.24136320450534329 0.0045979420509364606 0 -0.249215314840568 0.0085956729432886559 0 -0.24136320450534329 0.0045979420509364606 0 -0.24688343645483499 -0.0058956859929485059 0 -0.249215314840568 0.0085956729432886559 0 -0.24688343645483499 -0.0058956859929485059 0 -0.249215314840568 0.0085956729432886559 0 -0.24136320450534329 0.0045979420509364606 0 -0.23006039757595151 0.054720088398807563 0 -0.22071860049945449 0.044833614862248933 0 -0.2342732760525639 0.04139937930176258 0 -0.23006039757595151 0.054720088398807563 0 -0.22174956419414901 0.060332679139969911 0 -0.22071860049945449 0.044833614862248933 0 -0.2133361361600333 0.031831465977890917 0 -0.22071860049945449 0.044833614862248933 0 -0.22705049431367971 0.031805541011512783 0 -0.23842891125381371 0.030595639602449261 0 -0.22705049431367971 0.031805541011512783 0 -0.2342732760525639 0.04139937930176258 0 -0.22071860049945449 0.044833614862248933 0 -0.22705049431367971 0.031805541011512783 0 -0.2342732760525639 0.04139937930176258 0 -0.2342732760525639 0.04139937930176258 0 -0.24285421764481729 0.038101564312687637 0 -0.24206161247209459 0.050829313308499782 0 -0.23842891125381371 0.030595639602449261 0 -0.2342732760525639 0.04139937930176258 0 -0.24285421764481729 0.038101564312687637 0 -0.23842891125381371 0.030595639602449261 0 -0.24285421764481729 0.038101564312687637 0 -0.24703104510379709 0.033270281400205652 0 -0.24285421764481729 0.038101564312687637 0 -0.24899661748336491 0.037806905356309962 0 -0.24703104510379709 0.033270281400205652 0 -0.2534531874534216 0.034931751846300332 0 -0.24899661748336491 0.037806905356309962 0 -0.24703104510379709 0.033270281400205652 0 -0.24285421764481729 0.038101564312687637 0 -0.2479374015173661 0.043009514699025683 0 -0.24206161247209459 0.050829313308499782 0 -0.25183647733317932 0.039748921217354911 0 -0.24899661748336491 0.037806905356309962 0 -0.2479374015173661 0.043009514699025683 0 -0.24285421764481729 0.038101564312687637 0 -0.24899661748336491 0.037806905356309962 0 -0.2479374015173661 0.043009514699025683 0 -0.2479374015173661 0.043009514699025683 0 -0.24837463598186221 0.061507587765831193 0 -0.24206161247209459 0.050829313308499782 0 -0.23006039757595151 0.054720088398807563 0 -0.24206161247209459 0.050829313308499782 0 -0.2314989346614954 0.076205455381556625 0 -0.23006039757595151 0.054720088398807563 0 -0.2342732760525639 0.04139937930176258 0 -0.24206161247209459 0.050829313308499782 0 -0.24837463598186221 0.061507587765831193 0 -0.24206161247209459 0.050829313308499782 0 -0.2314989346614954 0.076205455381556625 0 -0.24837463598186221 0.061507587765831193 0 -0.24991547091353811 0.081767159184359894 0 -0.2314989346614954 0.076205455381556625 0 -0.24837463598186221 0.061507587765831193 0 -0.2314989346614954 0.076205455381556625 0 -0.24206161247209459 0.050829313308499782 0 -0.2314989346614954 0.076205455381556625 0 -0.24991547091353811 0.081767159184359894 0 -0.2376480473549864 0.091485580356038473 0 -0.2314989346614954 0.076205455381556625 0 -0.24991547091353811 0.081767159184359894 0 -0.2376480473549864 0.091485580356038473 0 -0.24902246101515019 0.1053005087708679 0 -0.2376480473549864 0.091485580356038473 0 -0.2314989346614954 0.076205455381556625 0 -0.22134082630340771 0.1006096458255452 0 -0.2314989346614954 0.076205455381556625 0 -0.22134082630340771 0.1006096458255452 0 -0.2314989346614954 0.076205455381556625 0 -0.21746443993556441 0.08842877823015248 0 -0.22134082630340771 0.1006096458255452 0 -0.2314989346614954 0.076205455381556625 0 -0.21706007475406519 0.074880638949631817 0 -0.21746443993556441 0.08842877823015248 0 -0.2314989346614954 0.076205455381556625 0 -0.21746443993556441 0.08842877823015248 0 -0.22174956419414901 0.060332679139969911 0 -0.2314989346614954 0.076205455381556625 0 -0.21706007475406519 0.074880638949631817 0 -0.23006039757595151 0.054720088398807563 0 -0.22174956419414901 0.060332679139969911 0 -0.2314989346614954 0.076205455381556625 0 -0.22174956419414901 0.060332679139969911 0 -0.20103034727440561 0.080309973352009179 0 -0.22174956419414901 0.060332679139969911 0 -0.20910449521123711 0.069905017277045373 0 -0.20103034727440561 0.080309973352009179 0 -0.22174956419414901 0.060332679139969911 0 -0.21706007475406519 0.074880638949631817 0 -0.20103034727440561 0.080309973352009179 0 -0.21706007475406519 0.074880638949631817 0 -0.21746443993556441 0.08842877823015248 0 -0.21011880531056659 0.083445771213734365 0 -0.21706007475406519 0.074880638949631817 0 -0.21011880531056659 0.083445771213734365 0 -0.20103034727440561 0.080309973352009179 0 -0.21746443993556441 0.08842877823015248 0 -0.20532576816978529 0.090407761120721963 0 -0.21011880531056659 0.083445771213734365 0 -0.21746443993556441 0.08842877823015248 0 -0.20532576816978529 0.090407761120721963 0 -0.20342994520963351 0.1006521010787486 0 -0.20532576816978529 0.090407761120721963 0 -0.21011880531056659 0.083445771213734365 0 -0.20103034727440561 0.080309973352009179 0 -0.1803111303546622 0.10028726756404829 0 -0.20103034727440561 0.080309973352009179 0 -0.18451772636619279 0.086642341519678895 0 -0.1803111303546622 0.10028726756404829 0 -0.20103034727440561 0.080309973352009179 0 -0.1803111303546622 0.10028726756404829 0 -0.20103034727440561 0.080309973352009179 0 -0.19458530311875641 0.099202181728965194 0 -0.20532576816978529 0.090407761120721963 0 -0.20103034727440561 0.080309973352009179 0 -0.19458530311875641 0.099202181728965194 0 -0.18451772636619279 0.086642341519678895 0 -0.20103034727440561 0.080309973352009179 0 -0.18956071359031371 0.077709563553099048 0 -0.18525843948344939 0.068951664431391405 0 -0.18554448915065261 0.058342101221515147 0 -0.20910449521123711 0.069905017277045373 0 -0.20910449521123711 0.069905017277045373 0 -0.20103034727440561 0.080309973352009179 0 -0.18956071359031371 0.077709563553099048 0 -0.18525843948344939 0.068951664431391405 0 -0.20910449521123711 0.069905017277045373 0 -0.18956071359031371 0.077709563553099048 0 -0.18554448915065261 0.058342101221515147 0 -0.20910449521123711 0.069905017277045373 0 -0.1943656707862883 0.1125500833284041 0 -0.20503399119138591 0.11324995845592439 0 -0.1948507957122799 0.12742412577739071 0 -0.18689696952623919 0.1210103316906808 0 -0.1943656707862883 0.1125500833284041 0 -0.1948507957122799 0.12742412577739071 0 -0.18689696952623919 0.1210103316906808 0 -0.18345436580931751 0.1112499707274371 0 -0.1943656707862883 0.1125500833284041 0 -0.18345436580931751 0.1112499707274371 0 -0.1943656707862883 0.1125500833284041 0 -0.19458530311875641 0.099202181728965194 0 -0.20532576816978529 0.090407761120721963 0 -0.19458530311875641 0.099202181728965194 0 -0.20342994520963351 0.1006521010787486 0 -0.1943656707862883 0.1125500833284041 0 -0.19458530311875641 0.099202181728965194 0 -0.20342994520963351 0.1006521010787486 0 -0.1943656707862883 0.1125500833284041 0 -0.20342994520963351 0.1006521010787486 0 -0.20503399119138591 0.11324995845592439 0 -0.21746443993556441 0.08842877823015248 0 -0.20342994520963351 0.1006521010787486 0 -0.22134082630340771 0.1006096458255452 0 -0.20342994520963351 0.1006521010787486 0 -0.20503399119138591 0.11324995845592439 0 -0.22134082630340771 0.1006096458255452 0 -0.21746443993556441 0.08842877823015248 0 -0.20342994520963351 0.1006521010787486 0 -0.22134082630340771 0.1006096458255452 0 -0.2111827179453197 0.12501383626953369 0 -0.20503399119138591 0.11324995845592439 0 -0.1948507957122799 0.12742412577739071 0 -0.2111827179453197 0.12501383626953369 0 -0.20503399119138591 0.11324995845592439 0 -0.22134082630340771 0.1006096458255452 0 -0.2111827179453197 0.12501383626953369 0 -0.22760077708209739 0.1249313414803392 0 -0.22134082630340771 0.1006096458255452 0 -0.2111827179453197 0.12501383626953369 0 -0.22760077708209739 0.1249313414803392 0 -0.22134082630340771 0.1006096458255452 0 -0.24902246101515019 0.1053005087708679 0 -0.2376480473549864 0.091485580356038473 0 -0.22134082630340771 0.1006096458255452 0 -0.24902246101515019 0.1053005087708679 0 -0.22760077708209739 0.1249313414803392 0 -0.24902246101515019 0.1053005087708679 0 -0.22760077708209739 0.1249313414803392 0 -0.24902246101515019 0.1053005087708679 0 -0.24166171629040539 0.13581120266282659 0 -0.25876795588782892 0.13024720116186519 0 -0.24902246101515019 0.1053005087708679 0 -0.24166171629040539 0.13581120266282659 0 -0.22760077708209739 0.1249313414803392 0 -0.24166171629040539 0.13581120266282659 0 -0.22545335992326149 0.14414410402647779 0 -0.22760077708209739 0.1249313414803392 0 -0.22545335992326149 0.14414410402647779 0 -0.2061790931490447 0.14456217418981049 0 -0.24166171629040539 0.13581120266282659 0 -0.22545335992326149 0.14414410402647779 0 -0.2352635223939521 0.15744544223813239 0 -0.22545335992326149 0.14414410402647779 0 -0.2352635223939521 0.15744544223813239 0 -0.21916308255886979 0.15685088522838611 0 -0.25421078616032078 0.15192607385175011 0 -0.24166171629040539 0.13581120266282659 0 -0.2352635223939521 0.15744544223813239 0 -0.25421078616032078 0.15192607385175011 0 -0.2352635223939521 0.15744544223813239 0 -0.247705706256448 0.17530712345902891 0 -0.2352635223939521 0.15744544223813239 0 -0.247705706256448 0.17530712345902891 0 -0.22586466557272519 0.1755186938452318 0 -0.247705706256448 0.17530712345902891 0 -0.22586466557272519 0.1755186938452318 0 -0.2338181723720815 0.2019576276995047 0 -0.2352635223939521 0.15744544223813239 0 -0.22586466557272519 0.1755186938452318 0 -0.21916308255886979 0.15685088522838611 0 -0.20898849141104581 0.16952263407359469 0 -0.1967544404560492 0.16594424033109639 0 -0.2061790931490447 0.14456217418981049 0 -0.22586466557272519 0.1755186938452318 0 -0.21916308255886979 0.15685088522838611 0 -0.20898849141104581 0.16952263407359469 0 -0.21916308255886979 0.15685088522838611 0 -0.20898849141104581 0.16952263407359469 0 -0.2061790931490447 0.14456217418981049 0 -0.22586466557272519 0.1755186938452318 0 -0.20898849141104581 0.16952263407359469 0 -0.2102490184439543 0.19202845037274441 0 -0.20898849141104581 0.16952263407359469 0 -0.19831273975581029 0.1765550529105388 0 -0.2102490184439543 0.19202845037274441 0 -0.2102490184439543 0.19202845037274441 0 -0.1866798645158271 0.18209927304598419 0 -0.19831273975581029 0.1765550529105388 0 -0.2102490184439543 0.19202845037274441 0 -0.1866798645158271 0.18209927304598419 0 -0.19831273975581029 0.1765550529105388 0 -0.1866798645158271 0.18209927304598419 0 -0.18553446874835311 0.17488833358225611 0 -0.19831273975581029 0.1765550529105388 0 -0.1967544404560492 0.16594424033109639 0 -0.18553446874835311 0.17488833358225611 0 -0.1967544404560492 0.16594424033109639 0 -0.2061790931490447 0.14456217418981049 0 -0.1847574092159919 0.1641930068992819 0 -0.20898849141104581 0.16952263407359469 0 -0.19831273975581029 0.1765550529105388 0 -0.1967544404560492 0.16594424033109639 0 -0.1967544404560492 0.16594424033109639 0 -0.1847574092159919 0.1641930068992819 0 -0.18553446874835311 0.17488833358225611 0 -0.2061790931490447 0.14456217418981049 0 -0.1847574092159919 0.1641930068992819 0 -0.18987994598366131 0.1500412591942856 0 -0.19055845950937941 0.1391375428894118 0 -0.2061790931490447 0.14456217418981049 0 -0.18987994598366131 0.1500412591942856 0 -0.2061790931490447 0.14456217418981049 0 -0.1847574092159919 0.1641930068992819 0 -0.19055845950937941 0.1391375428894118 0 -0.1948507957122799 0.12742412577739071 0 -0.2061790931490447 0.14456217418981049 0 -0.19055845950937941 0.1391375428894118 0 -0.1948507957122799 0.12742412577739071 0 -0.18242002501098861 0.13008418652611761 0 -0.18689696952623919 0.1210103316906808 0 -0.1948507957122799 0.12742412577739071 0 -0.18242002501098861 0.13008418652611761 0 -0.22760077708209739 0.1249313414803392 0 -0.2061790931490447 0.14456217418981049 0 -0.1948507957122799 0.12742412577739071 0 -0.2111827179453197 0.12501383626953369 0 -0.2061790931490447 0.14456217418981049 0 -0.22760077708209739 0.1249313414803392 0 -0.2111827179453197 0.12501383626953369 0 -0.2061790931490447 0.14456217418981049 0 -0.22545335992326149 0.14414410402647779 0 -0.21916308255886979 0.15685088522838611 0 -0.2061790931490447 0.14456217418981049 0 -0.22152719849282049 0.25926831684576251 0 -0.22152587271198479 0.23250399176401881 0 -0.22152719849282049 0.25926831684576251 0 -0.23228755575520629 0.24379609757739629 0 -0.22152587271198479 0.23250399176401881 0 -0.23228755575520629 0.24379609757739629 0 -0.24581323106551739 0.2437480082967432 0 -0.23788164023497829 0.22564485439493009 0 -0.23889150449097959 0.25498249709027682 0 -0.23228755575520629 0.24379609757739629 0 -0.24581323106551739 0.2437480082967432 0 -0.25689469164723111 0.22866214397666371 0 -0.24581323106551739 0.2437480082967432 0 -0.23788164023497829 0.22564485439493009 0 -0.23788164023497829 0.22564485439493009 0 -0.22152587271198479 0.23250399176401881 0 -0.2206583647730942 0.2150686818945976 0 -0.23228755575520629 0.24379609757739629 0 -0.23788164023497829 0.22564485439493009 0 -0.22152587271198479 0.23250399176401881 0 -0.23788164023497829 0.22564485439493009 0 -0.2206583647730942 0.2150686818945976 0 -0.2338181723720815 0.2019576276995047 0 -0.25738732630020861 0.21188680502626489 0 -0.2338181723720815 0.2019576276995047 0 -0.25738732630020861 0.21188680502626489 0 -0.23788164023497829 0.22564485439493009 0 -0.2338181723720815 0.2019576276995047 0 -0.26149968301133297 0.19228987572774389 0 -0.247705706256448 0.17530712345902891 0 -0.2338181723720815 0.2019576276995047 0 -0.2338181723720815 0.2019576276995047 0 -0.2102490184439543 0.19202845037274441 0 -0.2206583647730942 0.2150686818945976 0 -0.2338181723720815 0.2019576276995047 0 -0.2102490184439543 0.19202845037274441 0 -0.22586466557272519 0.1755186938452318 0 -0.2338181723720815 0.2019576276995047 0 -0.2102490184439543 0.19202845037274441 0 -0.2102490184439543 0.19202845037274441 0 -0.1965342535463232 0.20231055253696489 0 -0.20365825669763371 0.21362203423071571 0 -0.2102490184439543 0.19202845037274441 0 -0.1965342535463232 0.20231055253696489 0 -0.18592140259735249 0.19282668637555181 0 -0.2102490184439543 0.19202845037274441 0 -0.18592140259735249 0.19282668637555181 0 -0.1866798645158271 0.18209927304598419 0 -0.1965342535463232 0.20231055253696489 0 -0.18630833644635239 0.21076503916884759 0 -0.18592140259735249 0.19282668637555181 0 -0.20365825669763371 0.21362203423071571 0 -0.18630833644635239 0.21076503916884759 0 -0.1965342535463232 0.20231055253696489 0 -0.20365825669763371 0.21362203423071571 0 -0.18630833644635239 0.21076503916884759 0 -0.20365825669763371 0.21362203423071571 0 -0.2039023130055784 0.23071531828931879 0 -0.18630833644635239 0.21076503916884759 0 -0.2206583647730942 0.2150686818945976 0 -0.2102490184439543 0.19202845037274441 0 -0.20365825669763371 0.21362203423071571 0 -0.22152587271198479 0.23250399176401881 0 -0.2206583647730942 0.2150686818945976 0 -0.2039023130055784 0.23071531828931879 0 -0.2206583647730942 0.2150686818945976 0 -0.20365825669763371 0.21362203423071571 0 -0.2039023130055784 0.23071531828931879 0 -0.2039023130055784 0.23071531828931879 0 -0.18691585292351109 0.23892965935703739 0 -0.18630833644635239 0.21076503916884759 0 -0.2039023130055784 0.23071531828931879 0 -0.20942082464657211 0.2491452324360573 0 -0.18691585292351109 0.23892965935703739 0 -0.19769723670812309 0.25773540751683072 0 -0.20942082464657211 0.2491452324360573 0 -0.18691585292351109 0.23892965935703739 0 -0.22152719849282049 0.25926831684576251 0 -0.22152587271198479 0.23250399176401881 0 -0.20942082464657211 0.2491452324360573 0 -0.22152587271198479 0.23250399176401881 0 -0.2039023130055784 0.23071531828931879 0 -0.20942082464657211 0.2491452324360573 0 -0.174316020694669 0.2538330797790006 0 -0.16101759986546491 0.24100108213828941 0 -0.18691585292351109 0.23892965935703739 0 -0.16101759986546491 0.24100108213828941 0 -0.18691585292351109 0.23892965935703739 0 -0.17174402809393891 0.22515432707576899 0 -0.18691585292351109 0.23892965935703739 0 -0.17174402809393891 0.22515432707576899 0 -0.18630833644635239 0.21076503916884759 0 -0.18691585292351109 0.23892965935703739 0 -0.18630833644635239 0.21076503916884759 0 -0.16101759986546491 0.24100108213828941 0 -0.17174402809393891 0.22515432707576899 0 -0.15342706795441069 0.22799597825819989 0 -0.17174402809393891 0.22515432707576899 0 -0.16411118889812021 0.2071098557435361 0 -0.15342706795441069 0.22799597825819989 0 -0.16411118889812021 0.2071098557435361 0 -0.18630833644635239 0.21076503916884759 0 -0.1743675820539323 0.19631009423861609 0 -0.16411118889812021 0.2071098557435361 0 -0.18630833644635239 0.21076503916884759 0 -0.17174402809393891 0.22515432707576899 0 -0.16411118889812021 0.2071098557435361 0 -0.18630833644635239 0.21076503916884759 0 -0.18630833644635239 0.21076503916884759 0 -0.18592140259735249 0.19282668637555181 0 -0.18630833644635239 0.21076503916884759 0 -0.1743675820539323 0.19631009423861609 0 -0.18592140259735249 0.19282668637555181 0 -0.1743675820539323 0.19631009423861609 0 -0.18592140259735249 0.19282668637555181 0 -0.17791086004130649 0.18300014184527719 0 -0.1743675820539323 0.19631009423861609 0 -0.17791086004130649 0.18300014184527719 0 -0.16333572528293919 0.1838238396087532 0 -0.16411118889812021 0.2071098557435361 0 -0.1743675820539323 0.19631009423861609 0 -0.16333572528293919 0.1838238396087532 0 -0.16411118889812021 0.2071098557435361 0 -0.14191404134988769 0.203454672318226 0 -0.16333572528293919 0.1838238396087532 0 -0.14191404134988769 0.203454672318226 0 -0.16333572528293919 0.1838238396087532 0 -0.14698878376912511 0.18633162366124689 0 -0.14191404134988769 0.203454672318226 0 -0.16333572528293919 0.1838238396087532 0 -0.13223022304116011 0.18885466754944419 0 -0.14191404134988769 0.203454672318226 0 -0.1155555265743696 0.19911424046256271 0 -0.13223022304116011 0.18885466754944419 0 -0.14191404134988769 0.203454672318226 0 -0.14698878376912511 0.18633162366124689 0 -0.14191404134988769 0.203454672318226 0 -0.1155555265743696 0.19911424046256271 0 -0.130423436624543 0.21398466332167829 0 -0.14191404134988769 0.203454672318226 0 -0.1155555265743696 0.19911424046256271 0 -0.130423436624543 0.21398466332167829 0 -0.14191404134988769 0.203454672318226 0 -0.130423436624543 0.21398466332167829 0 -0.14526300743307541 0.21633734493990739 0 -0.14191404134988769 0.203454672318226 0 -0.16411118889812021 0.2071098557435361 0 -0.14191404134988769 0.203454672318226 0 -0.16411118889812021 0.2071098557435361 0 -0.14526300743307541 0.21633734493990739 0 -0.15342706795441069 0.22799597825819989 0 -0.16411118889812021 0.2071098557435361 0 -0.14526300743307541 0.21633734493990739 0 -0.14191404134988769 0.203454672318226 0 -0.14526300743307541 0.21633734493990739 0 -0.15342706795441069 0.22799597825819989 0 -0.1364393023384152 0.22914155505789649 0 -0.130423436624543 0.21398466332167829 0 -0.1364393023384152 0.22914155505789649 0 -0.1189328318991997 0.2245146543251321 0 -0.1364393023384152 0.22914155505789649 0 -0.12728764798146339 0.24524691096988241 0 -0.1189328318991997 0.2245146543251321 0 -0.130423436624543 0.21398466332167829 0 -0.14526300743307541 0.21633734493990739 0 -0.1364393023384152 0.22914155505789649 0 -0.1364393023384152 0.22914155505789649 0 -0.12728764798146339 0.24524691096988241 0 -0.1454555820460561 0.2468137891439566 0 -0.16099710570328291 0.25737886554585598 0 -0.16101759986546491 0.24100108213828941 0 -0.1454555820460561 0.2468137891439566 0 -0.16101759986546491 0.24100108213828941 0 -0.15342706795441069 0.22799597825819989 0 -0.1454555820460561 0.2468137891439566 0 -0.15342706795441069 0.22799597825819989 0 -0.1364393023384152 0.22914155505789649 0 -0.1454555820460561 0.2468137891439566 0 -0.16093503813505919 0.1511685098471181 0 -0.16435243387291051 0.13858028924009319 0 -0.1726553220187457 0.14391324071102529 0 -0.16093503813505919 0.1511685098471181 0 -0.1726553220187457 0.14391324071102529 0 -0.17449036308202159 0.15397658000343031 0 -0.16093503813505919 0.1511685098471181 0 -0.16435243387291051 0.13858028924009319 0 -0.15361312777346661 0.13591611478221469 0 -0.15959191343491849 0.12026456177608701 0 -0.16038486804215729 0.1222074345585179 0 -0.15361312777346661 0.13591611478221469 0 -0.16429848387438889 0.13055731603137621 0 -0.16435243387291051 0.13858028924009319 0 -0.15361312777346661 0.13591611478221469 0 -0.16625286677992651 0.1246860251990317 0 -0.16038486804215729 0.1222074345585179 0 -0.16429848387438889 0.13055731603137621 0 -0.16038486804215729 0.1222074345585179 0 -0.16429848387438889 0.13055731603137621 0 -0.15361312777346661 0.13591611478221469 0 -0.16429848387438889 0.13055731603137621 0 -0.17144897819361229 0.12719895235424031 0 -0.17331739738223459 0.13537157329655619 0 -0.16625286677992651 0.1246860251990317 0 -0.16429848387438889 0.13055731603137621 0 -0.17144897819361229 0.12719895235424031 0 -0.16435243387291051 0.13858028924009319 0 -0.17331739738223459 0.13537157329655619 0 -0.1726553220187457 0.14391324071102529 0 -0.16429848387438889 0.13055731603137621 0 -0.16435243387291051 0.13858028924009319 0 -0.17331739738223459 0.13537157329655619 0 -0.17331739738223459 0.13537157329655619 0 -0.18027070465033171 0.1387061070461503 0 -0.1726553220187457 0.14391324071102529 0 -0.17331739738223459 0.13537157329655619 0 -0.18242002501098861 0.13008418652611761 0 -0.18027070465033171 0.1387061070461503 0 -0.1792767538497701 0.11936392733334759 0 -0.17144897819361229 0.12719895235424031 0 -0.18242002501098861 0.13008418652611761 0 -0.17144897819361229 0.12719895235424031 0 -0.17331739738223459 0.13537157329655619 0 -0.18242002501098861 0.13008418652611761 0 -0.19055845950937941 0.1391375428894118 0 -0.18242002501098861 0.13008418652611761 0 -0.18027070465033171 0.1387061070461503 0 -0.19055845950937941 0.1391375428894118 0 -0.18027070465033171 0.1387061070461503 0 -0.18192539594680709 0.1468965964730988 0 -0.18987994598366131 0.1500412591942856 0 -0.19055845950937941 0.1391375428894118 0 -0.18192539594680709 0.1468965964730988 0 -0.18027070465033171 0.1387061070461503 0 -0.18192539594680709 0.1468965964730988 0 -0.1726553220187457 0.14391324071102529 0 -0.18192539594680709 0.1468965964730988 0 -0.1726553220187457 0.14391324071102529 0 -0.17449036308202159 0.15397658000343031 0 -0.18192539594680709 0.1468965964730988 0 -0.17449036308202159 0.15397658000343031 0 -0.18160151509956621 0.15518078105612959 0 -0.18987994598366131 0.1500412591942856 0 -0.18192539594680709 0.1468965964730988 0 -0.18160151509956621 0.15518078105612959 0 -0.18987994598366131 0.1500412591942856 0 -0.18160151509956621 0.15518078105612959 0 -0.1847574092159919 0.1641930068992819 0 -0.1847574092159919 0.1641930068992819 0 -0.16333572528293919 0.1838238396087532 0 -0.1697364299936987 0.16543943599799241 0 -0.18160151509956621 0.15518078105612959 0 -0.1847574092159919 0.1641930068992819 0 -0.1776464293478196 0.15969745098920851 0 -0.17449036308202159 0.15397658000343031 0 -0.1776464293478196 0.15969745098920851 0 -0.1697364299936987 0.16543943599799241 0 -0.1847574092159919 0.1641930068992819 0 -0.1776464293478196 0.15969745098920851 0 -0.1697364299936987 0.16543943599799241 0 -0.17449036308202159 0.15397658000343031 0 -0.18160151509956621 0.15518078105612959 0 -0.1776464293478196 0.15969745098920851 0 -0.1847574092159919 0.1641930068992819 0 -0.18553446874835311 0.17488833358225611 0 -0.17791086004130649 0.18300014184527719 0 -0.18592140259735249 0.19282668637555181 0 -0.18553446874835311 0.17488833358225611 0 -0.18592140259735249 0.19282668637555181 0 -0.18553446874835311 0.17488833358225611 0 -0.17791086004130649 0.18300014184527719 0 -0.18592140259735249 0.19282668637555181 0 -0.1866798645158271 0.18209927304598419 0 -0.18553446874835311 0.17488833358225611 0 -0.1847574092159919 0.1641930068992819 0 -0.16333572528293919 0.1838238396087532 0 -0.1847574092159919 0.1641930068992819 0 -0.17791086004130649 0.18300014184527719 0 -0.16333572528293919 0.1838238396087532 0 -0.16333572528293919 0.1838238396087532 0 -0.1697364299936987 0.16543943599799241 0 -0.1500268774733074 0.1691867985142427 0 -0.16093503813505919 0.1511685098471181 0 -0.1697364299936987 0.16543943599799241 0 -0.1500268774733074 0.1691867985142427 0 -0.16093503813505919 0.1511685098471181 0 -0.17449036308202159 0.15397658000343031 0 -0.1697364299936987 0.16543943599799241 0 -0.16093503813505919 0.1511685098471181 0 -0.1500268774733074 0.1691867985142427 0 -0.143518416084287 0.15302554102295851 0 -0.1500268774733074 0.1691867985142427 0 -0.13885734495782681 0.16252451521661471 0 -0.143518416084287 0.15302554102295851 0 -0.1500268774733074 0.1691867985142427 0 -0.13885734495782681 0.16252451521661471 0 -0.13461076923544019 0.1709135767042089 0 -0.1500268774733074 0.1691867985142427 0 -0.14698878376912511 0.18633162366124689 0 -0.1395952011361711 0.1796088060365208 0 -0.16333572528293919 0.1838238396087532 0 -0.1500268774733074 0.1691867985142427 0 -0.14698878376912511 0.18633162366124689 0 -0.1500268774733074 0.1691867985142427 0 -0.1395952011361711 0.1796088060365208 0 -0.13461076923544019 0.1709135767042089 0 -0.13223022304116011 0.18885466754944419 0 -0.14698878376912511 0.18633162366124689 0 -0.1395952011361711 0.1796088060365208 0 -0.13223022304116011 0.18885466754944419 0 -0.1395952011361711 0.1796088060365208 0 -0.12922427578714479 0.17858277009328119 0 -0.1395952011361711 0.1796088060365208 0 -0.12922427578714479 0.17858277009328119 0 -0.13461076923544019 0.1709135767042089 0 -0.12922427578714479 0.17858277009328119 0 -0.13461076923544019 0.1709135767042089 0 -0.12540548408060731 0.16834891676913821 0 -0.13223022304116011 0.18885466754944419 0 -0.12922427578714479 0.17858277009328119 0 -0.1201035096302622 0.18603589272482771 0 -0.13885734495782681 0.16252451521661471 0 -0.12861414378195091 0.1601671616036143 0 -0.143518416084287 0.15302554102295851 0 -0.13885734495782681 0.16252451521661471 0 -0.13461076923544019 0.1709135767042089 0 -0.12861414378195091 0.1601671616036143 0 -0.13461076923544019 0.1709135767042089 0 -0.12540548408060731 0.16834891676913821 0 -0.12861414378195091 0.1601671616036143 0 -0.12861414378195091 0.1601671616036143 0 -0.143518416084287 0.15302554102295851 0 -0.1427357485418467 0.13651713380426411 0 -0.12861414378195091 0.1601671616036143 0 -0.12686865926302521 0.15181604746685831 0 -0.1427357485418467 0.13651713380426411 0 -0.12686865926302521 0.15181604746685831 0 -0.1427357485418467 0.13651713380426411 0 -0.1275821300124487 0.13667837548913439 0 -0.12686865926302521 0.15181604746685831 0 -0.1427357485418467 0.13651713380426411 0 -0.12861414378195091 0.1601671616036143 0 -0.1427357485418467 0.13651713380426411 0 -0.16093503813505919 0.1511685098471181 0 -0.143518416084287 0.15302554102295851 0 -0.15361312777346661 0.13591611478221469 0 -0.143518416084287 0.15302554102295851 0 -0.1427357485418467 0.13651713380426411 0 -0.15361312777346661 0.13591611478221469 0 -0.15959191343491849 0.12026456177608701 0 -0.1427357485418467 0.13651713380426411 0 -0.15361312777346661 0.13591611478221469 0 -0.15959191343491849 0.12026456177608701 0 -0.1427357485418467 0.13651713380426411 0 -0.1391953302979117 0.1197185678623847 0 -0.1275821300124487 0.13667837548913439 0 -0.1213557320053943 0.12542833274362999 0 -0.1391953302979117 0.1197185678623847 0 -0.1427357485418467 0.13651713380426411 0 -0.1275821300124487 0.13667837548913439 0 -0.1213557320053943 0.12542833274362999 0 -0.1125154074461944 0.13376983179015181 0 -0.1033250844996229 0.12513558350165771 0 -0.1275821300124487 0.13667837548913439 0 -0.1213557320053943 0.12542833274362999 0 -0.1125154074461944 0.13376983179015181 0 -0.1275821300124487 0.13667837548913439 0 -0.1125154074461944 0.13376983179015181 0 -0.12026388751507 0.14503936500245401 0 -0.1125154074461944 0.13376983179015181 0 -0.1033250844996229 0.12513558350165771 0 -0.093345234863568979 0.13299475095852231 0 -0.1125154074461944 0.13376983179015181 0 -0.098193122772838148 0.14980158361610499 0 -0.093345234863568979 0.13299475095852231 0 -0.1033250844996229 0.12513558350165771 0 -0.093345234863568979 0.13299475095852231 0 -0.088885411843329848 0.12369183390828301 0 -0.1125154074461944 0.13376983179015181 0 -0.098193122772838148 0.14980158361610499 0 -0.11086159648756599 0.1496405042256542 0 -0.098193122772838148 0.14980158361610499 0 -0.11086159648756599 0.1496405042256542 0 -0.106039219689716 0.16464914507716141 0 -0.11086159648756599 0.1496405042256542 0 -0.12026388751507 0.14503936500245401 0 -0.1177819310802474 0.15840022321813471 0 -0.1125154074461944 0.13376983179015181 0 -0.11086159648756599 0.1496405042256542 0 -0.12026388751507 0.14503936500245401 0 -0.12686865926302521 0.15181604746685831 0 -0.1275821300124487 0.13667837548913439 0 -0.12026388751507 0.14503936500245401 0 -0.12686865926302521 0.15181604746685831 0 -0.12026388751507 0.14503936500245401 0 -0.1177819310802474 0.15840022321813471 0 -0.12540548408060731 0.16834891676913821 0 -0.12861414378195091 0.1601671616036143 0 -0.1177819310802474 0.15840022321813471 0 -0.12861414378195091 0.1601671616036143 0 -0.12686865926302521 0.15181604746685831 0 -0.1177819310802474 0.15840022321813471 0 -0.12540548408060731 0.16834891676913821 0 -0.1177819310802474 0.15840022321813471 0 -0.116796300518253 0.1736808522264518 0 -0.1177819310802474 0.15840022321813471 0 -0.116796300518253 0.1736808522264518 0 -0.106039219689716 0.16464914507716141 0 -0.11086159648756599 0.1496405042256542 0 -0.1177819310802474 0.15840022321813471 0 -0.106039219689716 0.16464914507716141 0 -0.116796300518253 0.1736808522264518 0 -0.10689584912999681 0.1840681497471775 0 -0.106039219689716 0.16464914507716141 0 -0.12922427578714479 0.17858277009328119 0 -0.1201035096302622 0.18603589272482771 0 -0.116796300518253 0.1736808522264518 0 -0.12922427578714479 0.17858277009328119 0 -0.12540548408060731 0.16834891676913821 0 -0.116796300518253 0.1736808522264518 0 -0.1201035096302622 0.18603589272482771 0 -0.116796300518253 0.1736808522264518 0 -0.10689584912999681 0.1840681497471775 0 -0.10689584912999681 0.1840681497471775 0 -0.106039219689716 0.16464914507716141 0 -0.088236363714604457 0.1758958491774818 0 -0.098193122772838148 0.14980158361610499 0 -0.106039219689716 0.16464914507716141 0 -0.088236363714604457 0.1758958491774818 0 -0.098193122772838148 0.14980158361610499 0 -0.088236363714604457 0.1758958491774818 0 -0.080770281260955507 0.14711381909976751 0 -0.088236363714604457 0.1758958491774818 0 -0.066609493125932381 0.1770290303669074 0 -0.080770281260955507 0.14711381909976751 0 -0.088236363714604457 0.1758958491774818 0 -0.080770281260955507 0.14711381909976751 0 -0.088236363714604457 0.1758958491774818 0 -0.066609493125932381 0.1770290303669074 0 -0.075724626668884479 0.20068386725373411 0 -0.066609493125932381 0.1770290303669074 0 -0.080770281260955507 0.14711381909976751 0 -0.053149305520095343 0.15882357476428069 0 -0.080770281260955507 0.14711381909976751 0 -0.060056601277946417 0.14051884223492311 0 -0.053149305520095343 0.15882357476428069 0 -0.075778253925563824 0.13077487826876991 0 -0.060056601277946417 0.14051884223492311 0 -0.06134196471208065 0.12713518900250281 0 -0.075778253925563824 0.13077487826876991 0 -0.080770281260955507 0.14711381909976751 0 -0.060056601277946417 0.14051884223492311 0 -0.075778253925563824 0.13077487826876991 0 -0.093345234863568979 0.13299475095852231 0 -0.080770281260955507 0.14711381909976751 0 -0.075778253925563824 0.13077487826876991 0 -0.093345234863568979 0.13299475095852231 0 -0.088885411843329848 0.12369183390828301 0 -0.098193122772838148 0.14980158361610499 0 -0.093345234863568979 0.13299475095852231 0 -0.080770281260955507 0.14711381909976751 0 -0.1106346110755513 0.26224193941062501 0 -0.099180915479012727 0.24985366851332999 0 -0.1031685286219024 0.23345990933291061 0 -0.099180915479012727 0.24985366851332999 0 -0.1031685286219024 0.23345990933291061 0 -0.088768273387471022 0.2375237071605992 0 -0.1106346110755513 0.26224193941062501 0 -0.1031685286219024 0.23345990933291061 0 -0.12728764798146339 0.24524691096988241 0 -0.115032390782949 0.24279923079125729 0 -0.1189328318991997 0.2245146543251321 0 -0.1106346110755513 0.26224193941062501 0 -0.115032390782949 0.24279923079125729 0 -0.1031685286219024 0.23345990933291061 0 -0.11900118128919 0.25213836647620358 0 -0.12728764798146339 0.24524691096988241 0 -0.115032390782949 0.24279923079125729 0 -0.115032390782949 0.24279923079125729 0 -0.1189328318991997 0.2245146543251321 0 -0.1031685286219024 0.23345990933291061 0 -0.1189328318991997 0.2245146543251321 0 -0.1031685286219024 0.23345990933291061 0 -0.1116049454648696 0.21452078004801781 0 -0.130423436624543 0.21398466332167829 0 -0.1189328318991997 0.2245146543251321 0 -0.1031685286219024 0.23345990933291061 0 -0.095702446168253408 0.2046778792551962 0 -0.086496141213472807 0.22219176321107051 0 -0.1031685286219024 0.23345990933291061 0 -0.095702446168253408 0.2046778792551962 0 -0.1031685286219024 0.23345990933291061 0 -0.095702446168253408 0.2046778792551962 0 -0.1116049454648696 0.21452078004801781 0 -0.095702446168253408 0.2046778792551962 0 -0.1116049454648696 0.21452078004801781 0 -0.1155555265743696 0.19911424046256271 0 -0.130423436624543 0.21398466332167829 0 -0.1116049454648696 0.21452078004801781 0 -0.1155555265743696 0.19911424046256271 0 -0.130423436624543 0.21398466332167829 0 -0.1189328318991997 0.2245146543251321 0 -0.1116049454648696 0.21452078004801781 0 -0.13223022304116011 0.18885466754944419 0 -0.1201035096302622 0.18603589272482771 0 -0.1155555265743696 0.19911424046256271 0 -0.1201035096302622 0.18603589272482771 0 -0.10689584912999681 0.1840681497471775 0 -0.1155555265743696 0.19911424046256271 0 -0.10689584912999681 0.1840681497471775 0 -0.088236363714604457 0.1758958491774818 0 -0.095702446168253408 0.2046778792551962 0 -0.10689584912999681 0.1840681497471775 0 -0.095702446168253408 0.2046778792551962 0 -0.1155555265743696 0.19911424046256271 0 -0.088236363714604457 0.1758958491774818 0 -0.095702446168253408 0.2046778792551962 0 -0.075724626668884479 0.20068386725373411 0 -0.088236363714604457 0.1758958491774818 0 -0.095702446168253408 0.2046778792551962 0 -0.066609493125932381 0.1770290303669074 0 -0.075724626668884479 0.20068386725373411 0 -0.053499888579901483 0.20540313083601369 0 -0.075724626668884479 0.20068386725373411 0 -0.064842054038181579 0.2186526918301453 0 -0.086496141213472807 0.22219176321107051 0 -0.075724626668884479 0.20068386725373411 0 -0.064842054038181579 0.2186526918301453 0 -0.053499888579901483 0.20540313083601369 0 -0.095702446168253408 0.2046778792551962 0 -0.075724626668884479 0.20068386725373411 0 -0.086496141213472807 0.22219176321107051 0 -0.1031685286219024 0.23345990933291061 0 -0.086496141213472807 0.22219176321107051 0 -0.088768273387471022 0.2375237071605992 0 -0.086496141213472807 0.22219176321107051 0 -0.072981351050840138 0.23319694542384481 0 -0.088768273387471022 0.2375237071605992 0 -0.064842054038181579 0.2186526918301453 0 -0.072981351050840138 0.23319694542384481 0 -0.050265072636381913 0.22819513394792021 0 -0.064842054038181579 0.2186526918301453 0 -0.086496141213472807 0.22219176321107051 0 -0.072981351050840138 0.23319694542384481 0 -0.072981351050840138 0.23319694542384481 0 -0.082014430572127012 0.24891624932184009 0 -0.060292455263080039 0.24138985781371769 0 -0.072981351050840138 0.23319694542384481 0 -0.082014430572127012 0.24891624932184009 0 -0.063924079521458746 0.25605079894949512 0 -0.082014430572127012 0.24891624932184009 0 -0.060292455263080039 0.24138985781371769 0 -0.072981351050840138 0.23319694542384481 0 -0.082014430572127012 0.24891624932184009 0 -0.088768273387471022 0.2375237071605992 0 -0.099180915479012727 0.24985366851332999 0 -0.082014430572127012 0.24891624932184009 0 -0.088768273387471022 0.2375237071605992 0 -0.063924079521458746 0.25605079894949512 0 -0.036800648949504702 0.2474660446791534 0 -0.060292455263080039 0.24138985781371769 0 -0.036800648949504702 0.2474660446791534 0 -0.060292455263080039 0.24138985781371769 0 -0.050265072636381913 0.22819513394792021 0 -0.072981351050840138 0.23319694542384481 0 -0.060292455263080039 0.24138985781371769 0 -0.050265072636381913 0.22819513394792021 0 -0.050265072636381913 0.22819513394792021 0 -0.03253870771806807 0.20802296455605279 0 -0.025544809402416019 0.22624063169150649 0 -0.036800648949504702 0.2474660446791534 0 -0.050265072636381913 0.22819513394792021 0 -0.025544809402416019 0.22624063169150649 0 -0.050265072636381913 0.22819513394792021 0 -0.03253870771806807 0.20802296455605279 0 -0.053499888579901483 0.20540313083601369 0 -0.064842054038181579 0.2186526918301453 0 -0.050265072636381913 0.22819513394792021 0 -0.053499888579901483 0.20540313083601369 0 -0.03253870771806807 0.20802296455605279 0 -0.053499888579901483 0.20540313083601369 0 -0.03014077610363022 0.1865038839416894 0 -0.053499888579901483 0.20540313083601369 0 -0.03014077610363022 0.1865038839416894 0 -0.053499888579901483 0.20540313083601369 0 -0.04571014579301351 0.17628297112579999 0 -0.03014077610363022 0.1865038839416894 0 -0.03253870771806807 0.20802296455605279 0 -0.015759257727181699 0.19595723164496101 0 -0.03014077610363022 0.1865038839416894 0 -0.015759257727181699 0.19595723164496101 0 -0.03014077610363022 0.1865038839416894 0 -0.010157569052797411 0.1835951483869685 0 -0.015759257727181699 0.19595723164496101 0 -0.0012892371693995321 0.1905567105685308 0 -0.010157569052797411 0.1835951483869685 0 -0.015759257727181699 0.19595723164496101 0 -0.0012892371693995321 0.1905567105685308 0 0.00048536495298609559 0.20572812513306071 0 -0.015759257727181699 0.19595723164496101 0 -0.016748728585254599 0.2115039661668795 0 0.00048536495298609559 0.20572812513306071 0 -0.016748728585254599 0.2115039661668795 0 -0.0049262126359916267 0.22101087210176121 0 0.00048536495298609559 0.20572812513306071 0 -0.03253870771806807 0.20802296455605279 0 -0.016748728585254599 0.2115039661668795 0 -0.025544809402416019 0.22624063169150649 0 -0.03253870771806807 0.20802296455605279 0 -0.015759257727181699 0.19595723164496101 0 -0.016748728585254599 0.2115039661668795 0 -0.016748728585254599 0.2115039661668795 0 -0.025544809402416019 0.22624063169150649 0 -0.0049262126359916267 0.22101087210176121 0 -0.025544809402416019 0.22624063169150649 0 -0.0049262126359916267 0.22101087210176121 0 -0.0096772183775507836 0.2388812904088117 0 -0.0049262126359916267 0.22101087210176121 0 -0.0096772183775507836 0.2388812904088117 0 0.0071847190032755933 0.2325031701422208 0 -0.00037395858645878841 0.25379829121635378 0 -0.0096772183775507836 0.2388812904088117 0 0.0071847190032755933 0.2325031701422208 0 -0.01643822884861559 0.25451209075143338 0 -0.00037395858645878841 0.25379829121635378 0 -0.0096772183775507836 0.2388812904088117 0 -0.01643822884861559 0.25451209075143338 0 -0.036800648949504702 0.2474660446791534 0 -0.0096772183775507836 0.2388812904088117 0 -0.036800648949504702 0.2474660446791534 0 -0.0096772183775507836 0.2388812904088117 0 -0.036800648949504702 0.2474660446791534 0 -0.025544809402416019 0.22624063169150649 0 -0.0096772183775507836 0.2388812904088117 0 -0.042963845223426111 0.1459121131045977 0 -0.053149305520095343 0.15882357476428069 0 -0.036543882924141888 0.15797069075102391 0 -0.042963845223426111 0.1459121131045977 0 -0.034589011228880848 0.14919164474102889 0 -0.036543882924141888 0.15797069075102391 0 -0.034589011228880848 0.14919164474102889 0 -0.036543882924141888 0.15797069075102391 0 -0.02563482181748437 0.14911749539938521 0 -0.042963845223426111 0.1459121131045977 0 -0.034589011228880848 0.14919164474102889 0 -0.031834966816950659 0.1382098979067585 0 -0.031834966816950659 0.1382098979067585 0 -0.044397548523339728 0.13152729910194619 0 -0.02237013495253495 0.1196731006252512 0 -0.042963845223426111 0.1459121131045977 0 -0.031834966816950659 0.1382098979067585 0 -0.044397548523339728 0.13152729910194619 0 -0.044397548523339728 0.13152729910194619 0 -0.06134196471208065 0.12713518900250281 0 -0.04781777815709963 0.1177146517376438 0 -0.042963845223426111 0.1459121131045977 0 -0.044397548523339728 0.13152729910194619 0 -0.060056601277946417 0.14051884223492311 0 -0.044397548523339728 0.13152729910194619 0 -0.060056601277946417 0.14051884223492311 0 -0.06134196471208065 0.12713518900250281 0 -0.042963845223426111 0.1459121131045977 0 -0.060056601277946417 0.14051884223492311 0 -0.053149305520095343 0.15882357476428069 0 -0.066609493125932381 0.1770290303669074 0 -0.053149305520095343 0.15882357476428069 0 -0.04571014579301351 0.17628297112579999 0 -0.066609493125932381 0.1770290303669074 0 -0.053499888579901483 0.20540313083601369 0 -0.04571014579301351 0.17628297112579999 0 -0.04571014579301351 0.17628297112579999 0 -0.03903951771387737 0.16762041771990169 0 -0.030659327105267229 0.1742650002017409 0 -0.04571014579301351 0.17628297112579999 0 -0.03014077610363022 0.1865038839416894 0 -0.030659327105267229 0.1742650002017409 0 -0.053149305520095343 0.15882357476428069 0 -0.04571014579301351 0.17628297112579999 0 -0.03903951771387737 0.16762041771990169 0 -0.053149305520095343 0.15882357476428069 0 -0.03903951771387737 0.16762041771990169 0 -0.036543882924141888 0.15797069075102391 0 -0.03903951771387737 0.16762041771990169 0 -0.02969097695712275 0.1641635102440033 0 -0.030659327105267229 0.1742650002017409 0 -0.03903951771387737 0.16762041771990169 0 -0.036543882924141888 0.15797069075102391 0 -0.02969097695712275 0.1641635102440033 0 -0.02969097695712275 0.1641635102440033 0 -0.0067816636273592924 0.1676046370473645 0 -0.012442982758613131 0.15307472864430099 0 -0.02969097695712275 0.1641635102440033 0 -0.030659327105267229 0.1742650002017409 0 -0.0067816636273592924 0.1676046370473645 0 -0.02969097695712275 0.1641635102440033 0 -0.0067816636273592924 0.1676046370473645 0 -0.036543882924141888 0.15797069075102391 0 -0.02969097695712275 0.1641635102440033 0 -0.012442982758613131 0.15307472864430099 0 -0.03014077610363022 0.1865038839416894 0 -0.010157569052797411 0.1835951483869685 0 -0.0067816636273592924 0.1676046370473645 0 -0.03014077610363022 0.1865038839416894 0 -0.030659327105267229 0.1742650002017409 0 -0.0067816636273592924 0.1676046370473645 0 -0.03014077610363022 0.1865038839416894 0 -0.0067816636273592924 0.1676046370473645 0 -0.010157569052797411 0.1835951483869685 0 -0.0067816636273592924 0.1676046370473645 0 0.0031830893635836801 0.1773532787322967 0 -0.0012892371693995321 0.1905567105685308 0 -0.010157569052797411 0.1835951483869685 0 0.0031830893635836801 0.1773532787322967 0 -0.0067816636273592924 0.1676046370473645 0 -0.012442982758613131 0.15307472864430099 0 0.011657917406915739 0.148178766537578 0 -0.012442982758613131 0.15307472864430099 0 0.011657917406915739 0.148178766537578 0 -0.01191207605031765 0.14290665515095541 0 -0.012442982758613131 0.15307472864430099 0 0.0021868618734685011 0.13847039075472189 0 -0.01191207605031765 0.14290665515095541 0 -0.012442982758613131 0.15307472864430099 0 -0.01750176091870875 0.1456815617863407 0 -0.036543882924141888 0.15797069075102391 0 -0.012442982758613131 0.15307472864430099 0 -0.012442982758613131 0.15307472864430099 0 -0.01750176091870875 0.1456815617863407 0 -0.02563482181748437 0.14911749539938521 0 -0.036543882924141888 0.15797069075102391 0 -0.012442982758613131 0.15307472864430099 0 -0.02563482181748437 0.14911749539938521 0 -0.01750176091870875 0.1456815617863407 0 -0.02563482181748437 0.14911749539938521 0 -0.020017163048419859 0.1376273679507212 0 -0.01191207605031765 0.14290665515095541 0 -0.01750176091870875 0.1456815617863407 0 -0.020017163048419859 0.1376273679507212 0 -0.031834966816950659 0.1382098979067585 0 -0.02563482181748437 0.14911749539938521 0 -0.020017163048419859 0.1376273679507212 0 -0.034589011228880848 0.14919164474102889 0 -0.031834966816950659 0.1382098979067585 0 -0.02563482181748437 0.14911749539938521 0 -0.020017163048419859 0.1376273679507212 0 -0.01022540662632688 0.12817693250965201 0 -0.02237013495253495 0.1196731006252512 0 -0.031834966816950659 0.1382098979067585 0 -0.020017163048419859 0.1376273679507212 0 -0.02237013495253495 0.1196731006252512 0 -0.01191207605031765 0.14290665515095541 0 0.003077508252029936 0.12163154951285619 0 0.0021868618734685011 0.13847039075472189 0 -0.01191207605031765 0.14290665515095541 0 0.003077508252029936 0.12163154951285619 0 -0.01191207605031765 0.14290665515095541 0 -0.01022540662632688 0.12817693250965201 0 0.003077508252029936 0.12163154951285619 0 -0.01191207605031765 0.14290665515095541 0 -0.020017163048419859 0.1376273679507212 0 -0.01022540662632688 0.12817693250965201 0 -0.01022540662632688 0.12817693250965201 0 -0.02237013495253495 0.1196731006252512 0 0.003077508252029936 0.12163154951285619 0 -0.013175408841365329 0.10993819060071131 0 -0.0027146186244262562 0.10157856564007441 0 0.003077508252029936 0.12163154951285619 0 -0.013175408841365329 0.10993819060071131 0 -0.02237013495253495 0.1196731006252512 0 0.003077508252029936 0.12163154951285619 0 -0.02237013495253495 0.1196731006252512 0 0.003077508252029936 0.12163154951285619 0 -0.0027146186244262562 0.10157856564007441 0 -0.02074036829280677 0.098889079779321279 0 -0.013175408841365329 0.10993819060071131 0 -0.0027146186244262562 0.10157856564007441 0 -0.02074036829280677 0.098889079779321279 0 -0.0027146186244262562 0.10157856564007441 0 -0.02074036829280677 0.098889079779321279 0 -0.012075102288355189 0.091550494685821049 0 -0.02074036829280677 0.098889079779321279 0 -0.038659063760913118 0.09343700542596553 0 -0.032957758368109803 0.10707685736786279 0 -0.013175408841365329 0.10993819060071131 0 -0.02074036829280677 0.098889079779321279 0 -0.032957758368109803 0.10707685736786279 0 -0.013175408841365329 0.10993819060071131 0 -0.02237013495253495 0.1196731006252512 0 -0.032957758368109803 0.10707685736786279 0 -0.01409943073219362 0.069310794872571552 0 -0.0001528516961069627 0.085706985754704201 0 0.00050783491433465235 0.069866523210352902 0 -0.01409943073219362 0.069310794872571552 0 -0.006332816526535192 0.057739399198378123 0 0.00050783491433465235 0.069866523210352902 0 -0.0027146186244262562 0.10157856564007441 0 -0.012075102288355189 0.091550494685821049 0 -0.0001528516961069627 0.085706985754704201 0 -0.0001528516961069627 0.085706985754704201 0 -0.02469257054008079 0.080027347569184379 0 -0.01409943073219362 0.069310794872571552 0 -0.0001528516961069627 0.085706985754704201 0 -0.02469257054008079 0.080027347569184379 0 -0.012075102288355189 0.091550494685821049 0 -0.0001528516961069627 0.085706985754704201 0 -0.02469257054008079 0.080027347569184379 0 -0.02074036829280677 0.098889079779321279 0 -0.02469257054008079 0.080027347569184379 0 -0.038659063760913118 0.09343700542596553 0 -0.02074036829280677 0.098889079779321279 0 -0.012075102288355189 0.091550494685821049 0 -0.02469257054008079 0.080027347569184379 0 -0.01409943073219362 0.069310794872571552 0 -0.02469257054008079 0.080027347569184379 0 -0.042163271719200063 0.067173422764949517 0 -0.01409943073219362 0.069310794872571552 0 -0.042163271719200063 0.067173422764949517 0 -0.0303019825158162 0.058121885158385463 0 -0.01409943073219362 0.069310794872571552 0 -0.042163271719200063 0.067173422764949517 0 -0.02469257054008079 0.080027347569184379 0 -0.042163271719200063 0.067173422764949517 0 -0.049232289384054599 0.074347709383664556 0 -0.02469257054008079 0.080027347569184379 0 -0.049232289384054599 0.074347709383664556 0 -0.02469257054008079 0.080027347569184379 0 -0.043875302265199333 0.083295614311755056 0 -0.049232289384054599 0.074347709383664556 0 -0.02469257054008079 0.080027347569184379 0 -0.043875302265199333 0.083295614311755056 0 -0.038659063760913118 0.09343700542596553 0 -0.043875302265199333 0.083295614311755056 0 -0.038659063760913118 0.09343700542596553 0 -0.054129496654779383 0.089457637401507431 0 -0.054129496654779383 0.089457637401507431 0 -0.064220895818407495 0.093646090886456743 0 -0.066718072933479006 0.084133272329675379 0 -0.054129496654779383 0.089457637401507431 0 -0.055323263126468583 0.081107168802903806 0 -0.066718072933479006 0.084133272329675379 0 -0.055323263126468583 0.081107168802903806 0 -0.066718072933479006 0.084133272329675379 0 -0.062861927620308608 0.077383016258819173 0 -0.043875302265199333 0.083295614311755056 0 -0.054129496654779383 0.089457637401507431 0 -0.055323263126468583 0.081107168802903806 0 -0.043875302265199333 0.083295614311755056 0 -0.055323263126468583 0.081107168802903806 0 -0.049232289384054599 0.074347709383664556 0 -0.042163271719200063 0.067173422764949517 0 -0.07022711270620674 0.065036050657327454 0 -0.058475021355029577 0.060612321646891128 0 -0.049232289384054599 0.074347709383664556 0 -0.073772008228028457 0.06866807119814472 0 -0.049232289384054599 0.074347709383664556 0 -0.062861927620308608 0.077383016258819173 0 -0.073772008228028457 0.06866807119814472 0 -0.042163271719200063 0.067173422764949517 0 -0.049232289384054599 0.074347709383664556 0 -0.07022711270620674 0.065036050657327454 0 -0.042163271719200063 0.067173422764949517 0 -0.07022711270620674 0.065036050657327454 0 -0.055323263126468583 0.081107168802903806 0 -0.049232289384054599 0.074347709383664556 0 -0.062861927620308608 0.077383016258819173 0 -0.02237013495253495 0.1196731006252512 0 -0.04781777815709963 0.1177146517376438 0 -0.02237013495253495 0.1196731006252512 0 -0.032957758368109803 0.10707685736786279 0 -0.04781777815709963 0.1177146517376438 0 -0.044397548523339728 0.13152729910194619 0 -0.02237013495253495 0.1196731006252512 0 -0.04781777815709963 0.1177146517376438 0 -0.032957758368109803 0.10707685736786279 0 -0.054983796203939027 0.1028091160382836 0 -0.04781777815709963 0.1177146517376438 0 -0.038659063760913118 0.09343700542596553 0 -0.032957758368109803 0.10707685736786279 0 -0.054983796203939027 0.1028091160382836 0 -0.038659063760913118 0.09343700542596553 0 -0.054129496654779383 0.089457637401507431 0 -0.054983796203939027 0.1028091160382836 0 -0.054129496654779383 0.089457637401507431 0 -0.054983796203939027 0.1028091160382836 0 -0.064220895818407495 0.093646090886456743 0 -0.06134196471208065 0.12713518900250281 0 -0.04781777815709963 0.1177146517376438 0 -0.073265421361664418 0.1157562028500364 0 -0.054983796203939027 0.1028091160382836 0 -0.04781777815709963 0.1177146517376438 0 -0.073265421361664418 0.1157562028500364 0 -0.04781777815709963 0.1177146517376438 0 -0.073265421361664418 0.1157562028500364 0 -0.075778253925563824 0.13077487826876991 0 -0.06134196471208065 0.12713518900250281 0 -0.073265421361664418 0.1157562028500364 0 -0.075778253925563824 0.13077487826876991 0 -0.073265421361664418 0.1157562028500364 0 -0.088885411843329848 0.12369183390828301 0 -0.073265421361664418 0.1157562028500364 0 -0.098713064566229081 0.113797753962429 0 -0.073265421361664418 0.1157562028500364 0 -0.088885411843329848 0.12369183390828301 0 -0.098713064566229081 0.113797753962429 0 -0.073265421361664418 0.1157562028500364 0 -0.085609268579214942 0.109605347806687 0 -0.098713064566229081 0.113797753962429 0 -0.085609268579214942 0.109605347806687 0 -0.10051948599612361 0.089267644153495321 0 -0.085609268579214942 0.109605347806687 0 -0.083258221305447522 0.095990487490734897 0 -0.10051948599612361 0.089267644153495321 0 -0.085609268579214942 0.109605347806687 0 -0.083258221305447522 0.095990487490734897 0 -0.072607656501333578 0.1013615868817531 0 -0.072607656501333578 0.1013615868817531 0 -0.064220895818407495 0.093646090886456743 0 -0.074569939009362055 0.09046448978467754 0 -0.054983796203939027 0.1028091160382836 0 -0.072607656501333578 0.1013615868817531 0 -0.064220895818407495 0.093646090886456743 0 -0.054983796203939027 0.1028091160382836 0 -0.073265421361664418 0.1157562028500364 0 -0.072607656501333578 0.1013615868817531 0 -0.083258221305447522 0.095990487490734897 0 -0.072607656501333578 0.1013615868817531 0 -0.074569939009362055 0.09046448978467754 0 -0.073265421361664418 0.1157562028500364 0 -0.085609268579214942 0.109605347806687 0 -0.072607656501333578 0.1013615868817531 0 -0.064220895818407495 0.093646090886456743 0 -0.066718072933479006 0.084133272329675379 0 -0.074569939009362055 0.09046448978467754 0 -0.066718072933479006 0.084133272329675379 0 -0.062861927620308608 0.077383016258819173 0 -0.072823650324517888 0.077093921875450611 0 -0.075935102076726879 0.082289362751839373 0 -0.072823650324517888 0.077093921875450611 0 -0.08294249104954432 0.075834689795633015 0 -0.066718072933479006 0.084133272329675379 0 -0.075935102076726879 0.082289362751839373 0 -0.072823650324517888 0.077093921875450611 0 -0.066718072933479006 0.084133272329675379 0 -0.075935102076726879 0.082289362751839373 0 -0.074569939009362055 0.09046448978467754 0 -0.049232289384054599 0.074347709383664556 0 -0.07022711270620674 0.065036050657327454 0 -0.073772008228028457 0.06866807119814472 0 -0.062861927620308608 0.077383016258819173 0 -0.072823650324517888 0.077093921875450611 0 -0.073772008228028457 0.06866807119814472 0 -0.072823650324517888 0.077093921875450611 0 -0.073772008228028457 0.06866807119814472 0 -0.08294249104954432 0.075834689795633015 0 -0.07022711270620674 0.065036050657327454 0 -0.098290953693213431 0.062898678549705406 0 -0.084041389607981368 0.06110968945732418 0 -0.07022711270620674 0.065036050657327454 0 -0.098290953693213431 0.062898678549705406 0 -0.073772008228028457 0.06866807119814472 0 -0.08294249104954432 0.075834689795633015 0 -0.098290953693213431 0.062898678549705406 0 -0.073772008228028457 0.06866807119814472 0 -0.098290953693213431 0.062898678549705406 0 -0.07022711270620674 0.065036050657327454 0 -0.073772008228028457 0.06866807119814472 0 -0.098290953693213431 0.062898678549705406 0 -0.08294249104954432 0.075834689795633015 0 -0.091094713269837174 0.078441148105517167 0 -0.098290953693213431 0.062898678549705406 0 -0.083258221305447522 0.095990487490734897 0 -0.084679685420777973 0.085366138367605884 0 -0.10051948599612361 0.089267644153495321 0 -0.084679685420777973 0.085366138367605884 0 -0.091094713269837174 0.078441148105517167 0 -0.10051948599612361 0.089267644153495321 0 -0.083258221305447522 0.095990487490734897 0 -0.074569939009362055 0.09046448978467754 0 -0.084679685420777973 0.085366138367605884 0 -0.075935102076726879 0.082289362751839373 0 -0.074569939009362055 0.09046448978467754 0 -0.084679685420777973 0.085366138367605884 0 -0.075935102076726879 0.082289362751839373 0 -0.08294249104954432 0.075834689795633015 0 -0.084679685420777973 0.085366138367605884 0 -0.08294249104954432 0.075834689795633015 0 -0.084679685420777973 0.085366138367605884 0 -0.091094713269837174 0.078441148105517167 0 -0.10051948599612361 0.089267644153495321 0 -0.1154297034130323 0.068929940500303669 0 -0.098290953693213431 0.062898678549705406 0 -0.1154297034130323 0.068929940500303669 0 -0.10364333057812419 0.061754450705983378 0 -0.10051948599612361 0.089267644153495321 0 -0.098290953693213431 0.062898678549705406 0 -0.1154297034130323 0.068929940500303669 0 -0.091094713269837174 0.078441148105517167 0 -0.10051948599612361 0.089267644153495321 0 -0.098290953693213431 0.062898678549705406 0 -0.1260510497914982 0.091379972177046881 0 -0.10051948599612361 0.089267644153495321 0 -0.1154297034130323 0.068929940500303669 0 -0.1260510497914982 0.091379972177046881 0 -0.10051948599612361 0.089267644153495321 0 -0.11063075293217051 0.102343816033093 0 -0.1260510497914982 0.091379972177046881 0 -0.11063075293217051 0.102343816033093 0 -0.1241607077707938 0.1118393050748215 0 -0.11063075293217051 0.102343816033093 0 -0.1241607077707938 0.1118393050748215 0 -0.098713064566229081 0.113797753962429 0 -0.1241607077707938 0.1118393050748215 0 -0.098713064566229081 0.113797753962429 0 -0.1213557320053943 0.12542833274362999 0 -0.1033250844996229 0.12513558350165771 0 -0.1241607077707938 0.1118393050748215 0 -0.1033250844996229 0.12513558350165771 0 -0.1241607077707938 0.1118393050748215 0 -0.098713064566229081 0.113797753962429 0 -0.1033250844996229 0.12513558350165771 0 -0.088885411843329848 0.12369183390828301 0 -0.098713064566229081 0.113797753962429 0 -0.085609268579214942 0.109605347806687 0 -0.10051948599612361 0.089267644153495321 0 -0.098713064566229081 0.113797753962429 0 -0.10051948599612361 0.089267644153495321 0 -0.11063075293217051 0.102343816033093 0 -0.098713064566229081 0.113797753962429 0 -0.10386221328878351 0.01863109770382072 0 -0.1012704387712567 0.0068187410058119131 0 -0.091499318483198533 0.023782693214160759 0 -0.10386221328878351 0.01863109770382072 0 -0.1042689579685649 0.02716150096755986 0 -0.11176737023876079 0.021781012992377329 0 -0.10386221328878351 0.01863109770382072 0 -0.11228274013128101 0.01455887858913615 0 -0.11176737023876079 0.021781012992377329 0 -0.1042689579685649 0.02716150096755986 0 -0.099773217839626005 0.035945358098913839 0 -0.091499318483198533 0.023782693214160759 0 -0.10386221328878351 0.01863109770382072 0 -0.1042689579685649 0.02716150096755986 0 -0.091499318483198533 0.023782693214160759 0 -0.091001085614892702 -0.0015881310286221899 0 -0.1012704387712567 0.0068187410058119131 0 -0.091499318483198533 0.023782693214160759 0 -0.091001085614892702 -0.0015881310286221899 0 -0.1109961699132179 0.0031988012185966432 0 -0.091001085614892702 -0.0015881310286221899 0 -0.1012704387712567 0.0068187410058119131 0 -0.1109961699132179 0.0031988012185966432 0 -0.10386221328878351 0.01863109770382072 0 -0.1012704387712567 0.0068187410058119131 0 -0.11228274013128101 0.01455887858913615 0 -0.12612838864056239 0.0097957033594232891 0 -0.1012704387712567 0.0068187410058119131 0 -0.1109961699132179 0.0031988012185966432 0 -0.12612838864056239 0.0097957033594232891 0 -0.1012704387712567 0.0068187410058119131 0 -0.11228274013128101 0.01455887858913615 0 -0.13099125421154301 0.0079857334658157524 0 -0.12612838864056239 0.0097957033594232891 0 -0.1109961699132179 0.0031988012185966432 0 -0.121953472101768 -0.00080781569352938066 0 -0.13099125421154301 0.0079857334658157524 0 -0.1109961699132179 0.0031988012185966432 0 -0.13099125421154301 0.0079857334658157524 0 -0.1109961699132179 0.0031988012185966432 0 -0.12612838864056239 0.0097957033594232891 0 -0.1012704387712567 0.0068187410058119131 0 -0.12612838864056239 0.0097957033594232891 0 -0.11228274013128101 0.01455887858913615 0 -0.1192741692916139 0.016241507009218739 0 -0.12612838864056239 0.0097957033594232891 0 -0.12488296353486041 0.01535073514020893 0 -0.1192741692916139 0.016241507009218739 0 -0.12549645175296051 0.0221616651473397 0 -0.1192741692916139 0.016241507009218739 0 -0.1193598420840714 0.026558624479848341 0 -0.12549645175296051 0.0221616651473397 0 -0.12488296353486041 0.01535073514020893 0 -0.1192741692916139 0.016241507009218739 0 -0.1192741692916139 0.016241507009218739 0 -0.11176737023876079 0.021781012992377329 0 -0.1193598420840714 0.026558624479848341 0 -0.11228274013128101 0.01455887858913615 0 -0.1192741692916139 0.016241507009218739 0 -0.11176737023876079 0.021781012992377329 0 -0.1042689579685649 0.02716150096755986 0 -0.11176737023876079 0.021781012992377329 0 -0.11267773638354089 0.033652049053411973 0 -0.11176737023876079 0.021781012992377329 0 -0.1193598420840714 0.026558624479848341 0 -0.11267773638354089 0.033652049053411973 0 -0.1267132747369637 0.028152339213395949 0 -0.1193598420840714 0.026558624479848341 0 -0.12459276851492911 0.034510742512690623 0 -0.12549645175296051 0.0221616651473397 0 -0.1267132747369637 0.028152339213395949 0 -0.1193598420840714 0.026558624479848341 0 -0.12459276851492911 0.034510742512690623 0 -0.11935056930147769 0.043847305741379961 0 -0.11267773638354089 0.033652049053411973 0 -0.1193598420840714 0.026558624479848341 0 -0.12459276851492911 0.034510742512690623 0 -0.11267773638354089 0.033652049053411973 0 -0.13033992082993981 0.04859223684711108 0 -0.12459276851492911 0.034510742512690623 0 -0.11935056930147769 0.043847305741379961 0 -0.11935056930147769 0.043847305741379961 0 -0.109546219451031 0.044617022658696159 0 -0.11267773638354089 0.033652049053411973 0 -0.13033992082993981 0.04859223684711108 0 -0.1154297034130323 0.068929940500303669 0 -0.13033992082993981 0.04859223684711108 0 -0.1154297034130323 0.068929940500303669 0 -0.1147789029647857 0.054951305349469043 0 -0.13033992082993981 0.04859223684711108 0 -0.11935056930147769 0.043847305741379961 0 -0.1147789029647857 0.054951305349469043 0 -0.109546219451031 0.044617022658696159 0 -0.1147789029647857 0.054951305349469043 0 -0.1059433206566804 0.052938912344995641 0 -0.11935056930147769 0.043847305741379961 0 -0.109546219451031 0.044617022658696159 0 -0.1147789029647857 0.054951305349469043 0 -0.1154297034130323 0.068929940500303669 0 -0.1147789029647857 0.054951305349469043 0 -0.10364333057812419 0.061754450705983378 0 -0.10364333057812419 0.061754450705983378 0 -0.1059433206566804 0.052938912344995641 0 -0.098858435838576536 0.05518098007371209 0 -0.1147789029647857 0.054951305349469043 0 -0.10364333057812419 0.061754450705983378 0 -0.1059433206566804 0.052938912344995641 0 -0.109546219451031 0.044617022658696159 0 -0.1059433206566804 0.052938912344995641 0 -0.10122374902748391 0.047567158126652312 0 -0.1059433206566804 0.052938912344995641 0 -0.10122374902748391 0.047567158126652312 0 -0.098858435838576536 0.05518098007371209 0 -0.10122374902748391 0.047567158126652312 0 -0.098858435838576536 0.05518098007371209 0 -0.09199755135150546 0.04915351745694381 0 -0.098858435838576536 0.05518098007371209 0 -0.091269218062123014 0.056047854656951418 0 -0.09199755135150546 0.04915351745694381 0 -0.098290953693213431 0.062898678549705406 0 -0.098858435838576536 0.05518098007371209 0 -0.091269218062123014 0.056047854656951418 0 -0.098290953693213431 0.062898678549705406 0 -0.10364333057812419 0.061754450705983378 0 -0.098858435838576536 0.05518098007371209 0 -0.098290953693213431 0.062898678549705406 0 -0.10364333057812419 0.061754450705983378 0 -0.099773217839626005 0.035945358098913839 0 -0.09199755135150546 0.04915351745694381 0 -0.091499318483198533 0.023782693214160759 0 -0.1042689579685649 0.02716150096755986 0 -0.11267773638354089 0.033652049053411973 0 -0.099773217839626005 0.035945358098913839 0 -0.109546219451031 0.044617022658696159 0 -0.11267773638354089 0.033652049053411973 0 -0.099773217839626005 0.035945358098913839 0 -0.109546219451031 0.044617022658696159 0 -0.10122374902748391 0.047567158126652312 0 -0.099773217839626005 0.035945358098913839 0 -0.10122374902748391 0.047567158126652312 0 -0.099773217839626005 0.035945358098913839 0 -0.09199755135150546 0.04915351745694381 0 -0.081587993482389015 0.039466858383102932 0 -0.09199755135150546 0.04915351745694381 0 -0.091499318483198533 0.023782693214160759 0 -0.09199755135150546 0.04915351745694381 0 -0.091499318483198533 0.023782693214160759 0 -0.081587993482389015 0.039466858383102932 0 -0.082661485298362078 0.051235203716527122 0 -0.071685486953883673 0.045691998867424408 0 -0.081587993482389015 0.039466858383102932 0 -0.09199755135150546 0.04915351745694381 0 -0.082661485298362078 0.051235203716527122 0 -0.091269218062123014 0.056047854656951418 0 -0.082661485298362078 0.051235203716527122 0 -0.084041389607981368 0.06110968945732418 0 -0.098290953693213431 0.062898678549705406 0 -0.091269218062123014 0.056047854656951418 0 -0.084041389607981368 0.06110968945732418 0 -0.091269218062123014 0.056047854656951418 0 -0.09199755135150546 0.04915351745694381 0 -0.082661485298362078 0.051235203716527122 0 -0.082661485298362078 0.051235203716527122 0 -0.084041389607981368 0.06110968945732418 0 -0.075387272332289923 0.055941303477416021 0 -0.084041389607981368 0.06110968945732418 0 -0.075104143767702511 0.06039214455082946 0 -0.075387272332289923 0.055941303477416021 0 -0.07022711270620674 0.065036050657327454 0 -0.084041389607981368 0.06110968945732418 0 -0.075104143767702511 0.06039214455082946 0 -0.070760800424332013 0.059481534611250178 0 -0.075387272332289923 0.055941303477416021 0 -0.067407205039054119 0.054724128659916778 0 -0.07022711270620674 0.065036050657327454 0 -0.070760800424332013 0.059481534611250178 0 -0.075104143767702511 0.06039214455082946 0 -0.070760800424332013 0.059481534611250178 0 -0.075104143767702511 0.06039214455082946 0 -0.075387272332289923 0.055941303477416021 0 -0.075387272332289923 0.055941303477416021 0 -0.067407205039054119 0.054724128659916778 0 -0.071685486953883673 0.045691998867424408 0 -0.082661485298362078 0.051235203716527122 0 -0.075387272332289923 0.055941303477416021 0 -0.071685486953883673 0.045691998867424408 0 -0.067407205039054119 0.054724128659916778 0 -0.071685486953883673 0.045691998867424408 0 -0.062161280247597227 0.049537050850417409 0 -0.067407205039054119 0.054724128659916778 0 -0.061708979867518637 0.055263931933965248 0 -0.062161280247597227 0.049537050850417409 0 -0.07022711270620674 0.065036050657327454 0 -0.065350797329162089 0.059057049359162027 0 -0.058475021355029577 0.060612321646891128 0 -0.070760800424332013 0.059481534611250178 0 -0.067407205039054119 0.054724128659916778 0 -0.065350797329162089 0.059057049359162027 0 -0.067407205039054119 0.054724128659916778 0 -0.065350797329162089 0.059057049359162027 0 -0.061708979867518637 0.055263931933965248 0 -0.07022711270620674 0.065036050657327454 0 -0.070760800424332013 0.059481534611250178 0 -0.065350797329162089 0.059057049359162027 0 -0.074123377537113511 0.037153478088749747 0 -0.065630571538946747 0.034280571213952581 0 -0.076189481042728158 0.029037339980514349 0 -0.081587993482389015 0.039466858383102932 0 -0.074123377537113511 0.037153478088749747 0 -0.076189481042728158 0.029037339980514349 0 -0.074123377537113511 0.037153478088749747 0 -0.071685486953883673 0.045691998867424408 0 -0.065630571538946747 0.034280571213952581 0 -0.081587993482389015 0.039466858383102932 0 -0.074123377537113511 0.037153478088749747 0 -0.071685486953883673 0.045691998867424408 0 -0.071685486953883673 0.045691998867424408 0 -0.062161280247597227 0.049537050850417409 0 -0.062488479636151173 0.043002653508900861 0 -0.071685486953883673 0.045691998867424408 0 -0.065630571538946747 0.034280571213952581 0 -0.062488479636151173 0.043002653508900861 0 -0.065630571538946747 0.034280571213952581 0 -0.067652911528978982 0.0227471004623724 0 -0.059175502209967132 0.024306213828214331 0 -0.065630571538946747 0.034280571213952581 0 -0.067652911528978982 0.0227471004623724 0 -0.076189481042728158 0.029037339980514349 0 -0.067652911528978982 0.0227471004623724 0 -0.061044182753304588 0.015674254100921211 0 -0.059175502209967132 0.024306213828214331 0 -0.067652911528978982 0.0227471004623724 0 -0.069589740537307321 0.01332641366200752 0 -0.061044182753304588 0.015674254100921211 0 -0.067652911528978982 0.0227471004623724 0 -0.073571216075524692 0.019903257979110162 0 -0.069589740537307321 0.01332641366200752 0 -0.067652911528978982 0.0227471004623724 0 -0.073571216075524692 0.019903257979110162 0 -0.076189481042728158 0.029037339980514349 0 -0.073571216075524692 0.019903257979110162 0 -0.091499318483198533 0.023782693214160759 0 -0.079071253673138553 0.013321392971560981 0 -0.073571216075524692 0.019903257979110162 0 -0.076189481042728158 0.029037339980514349 0 -0.091499318483198533 0.023782693214160759 0 -0.081587993482389015 0.039466858383102932 0 -0.076189481042728158 0.029037339980514349 0 -0.091499318483198533 0.023782693214160759 0 -0.091499318483198533 0.023782693214160759 0 -0.086266166598850599 0.0098453996621272691 0 -0.079071253673138553 0.013321392971560981 0 -0.091001085614892702 -0.0015881310286221899 0 -0.091499318483198533 0.023782693214160759 0 -0.091001085614892702 -0.0015881310286221899 0 -0.091499318483198533 0.023782693214160759 0 -0.086266166598850599 0.0098453996621272691 0 -0.091001085614892702 -0.0015881310286221899 0 -0.086251528825368684 0.0014283631031671801 0 -0.086266166598850599 0.0098453996621272691 0 -0.086266166598850599 0.0098453996621272691 0 -0.079071253673138553 0.013321392971560981 0 -0.079468610793284961 0.0059789837096865753 0 -0.086251528825368684 0.0014283631031671801 0 -0.086266166598850599 0.0098453996621272691 0 -0.083775824261924703 0.0031836361205655221 0 -0.086266166598850599 0.0098453996621272691 0 -0.079468610793284961 0.0059789837096865753 0 -0.083775824261924703 0.0031836361205655221 0 -0.083340597420130835 -0.00130003528545795 0 -0.086251528825368684 0.0014283631031671801 0 -0.083775824261924703 0.0031836361205655221 0 -0.079218927322204161 -0.0002374005262589096 0 -0.083340597420130835 -0.00130003528545795 0 -0.083775824261924703 0.0031836361205655221 0 -0.079218927322204161 -0.0002374005262589096 0 -0.079468610793284961 0.0059789837096865753 0 -0.083775824261924703 0.0031836361205655221 0 -0.079218927322204161 -0.0002374005262589096 0 -0.079468610793284961 0.0059789837096865753 0 -0.074548929746931183 0.0024723005308605688 0 -0.079468610793284961 0.0059789837096865753 0 -0.074548929746931183 0.0024723005308605688 0 -0.074227851473118181 0.008091772443612243 0 -0.074548929746931183 0.0024723005308605688 0 -0.074227851473118181 0.008091772443612243 0 -0.069396525567621381 0.0054714863446466916 0 -0.069768921651302607 -0.0011527341750063929 0 -0.074548929746931183 0.0024723005308605688 0 -0.069396525567621381 0.0054714863446466916 0 -0.073571216075524692 0.019903257979110162 0 -0.079071253673138553 0.013321392971560981 0 -0.069589740537307321 0.01332641366200752 0 -0.074227851473118181 0.008091772443612243 0 -0.069589740537307321 0.01332641366200752 0 -0.069396525567621381 0.0054714863446466916 0 -0.079071253673138553 0.013321392971560981 0 -0.074227851473118181 0.008091772443612243 0 -0.069589740537307321 0.01332641366200752 0 -0.079071253673138553 0.013321392971560981 0 -0.079468610793284961 0.0059789837096865753 0 -0.074227851473118181 0.008091772443612243 0 -0.069589740537307321 0.01332641366200752 0 -0.063618554363109842 0.008420801099736662 0 -0.069396525567621381 0.0054714863446466916 0 -0.069589740537307321 0.01332641366200752 0 -0.063618554363109842 0.008420801099736662 0 -0.061044182753304588 0.015674254100921211 0 -0.069768921651302607 -0.0011527341750063929 0 -0.069396525567621381 0.0054714863446466916 0 -0.064599017022157201 0.0016192626074422851 0 -0.063618554363109842 0.008420801099736662 0 -0.069396525567621381 0.0054714863446466916 0 -0.064599017022157201 0.0016192626074422851 0 -0.060391079500532692 -0.002438102107370714 0 -0.064599017022157201 0.0016192626074422851 0 -0.058975951789039971 0.003787175465746881 0 -0.063618554363109842 0.008420801099736662 0 -0.064599017022157201 0.0016192626074422851 0 -0.058975951789039971 0.003787175465746881 0 -0.063618554363109842 0.008420801099736662 0 -0.058975951789039971 0.003787175465746881 0 -0.057888929872327938 0.01005469462072112 0 -0.058975951789039971 0.003787175465746881 0 -0.05341677758570746 0.0061081959299096739 0 -0.057888929872327938 0.01005469462072112 0 -0.053892082868607201 -0.0012325787593098711 0 -0.060391079500532692 -0.002438102107370714 0 -0.058975951789039971 0.003787175465746881 0 -0.053892082868607201 -0.0012325787593098711 0 -0.058975951789039971 0.003787175465746881 0 -0.05341677758570746 0.0061081959299096739 0 -0.053892082868607201 -0.0012325787593098711 0 -0.05341677758570746 0.0061081959299096739 0 -0.048385971650348983 0.002685452562897673 0 -0.05341677758570746 0.0061081959299096739 0 -0.048385971650348983 0.002685452562897673 0 -0.04830904191250656 0.0083271048823096577 0 -0.05341677758570746 0.0061081959299096739 0 -0.052060538901262117 0.014298508528685239 0 -0.04830904191250656 0.0083271048823096577 0 -0.052060538901262117 0.014298508528685239 0 -0.04830904191250656 0.0083271048823096577 0 -0.043793275966851571 0.011939710047750371 0 -0.05341677758570746 0.0061081959299096739 0 -0.052060538901262117 0.014298508528685239 0 -0.057888929872327938 0.01005469462072112 0 -0.052060538901262117 0.014298508528685239 0 -0.057888929872327938 0.01005469462072112 0 -0.061044182753304588 0.015674254100921211 0 -0.063618554363109842 0.008420801099736662 0 -0.057888929872327938 0.01005469462072112 0 -0.061044182753304588 0.015674254100921211 0 -0.061044182753304588 0.015674254100921211 0 -0.056238335679604637 0.019152114966922391 0 -0.059175502209967132 0.024306213828214331 0 -0.052060538901262117 0.014298508528685239 0 -0.061044182753304588 0.015674254100921211 0 -0.056238335679604637 0.019152114966922391 0 -0.059175502209967132 0.024306213828214331 0 -0.053839815438431679 0.02731858321965195 0 -0.056038649773479603 0.03299929903237471 0 -0.065630571538946747 0.034280571213952581 0 -0.059175502209967132 0.024306213828214331 0 -0.056038649773479603 0.03299929903237471 0 -0.056238335679604637 0.019152114966922391 0 -0.059175502209967132 0.024306213828214331 0 -0.053839815438431679 0.02731858321965195 0 -0.053839815438431679 0.02731858321965195 0 -0.056038649773479603 0.03299929903237471 0 -0.045378547142816708 0.031654163882494972 0 -0.053839815438431679 0.02731858321965195 0 -0.050216345429122677 0.022571820559431039 0 -0.045378547142816708 0.031654163882494972 0 -0.056238335679604637 0.019152114966922391 0 -0.053839815438431679 0.02731858321965195 0 -0.050216345429122677 0.022571820559431039 0 -0.052060538901262117 0.014298508528685239 0 -0.050216345429122677 0.022571820559431039 0 -0.042946670640341481 0.020048827597478249 0 -0.052060538901262117 0.014298508528685239 0 -0.056238335679604637 0.019152114966922391 0 -0.050216345429122677 0.022571820559431039 0 -0.042946670640341481 0.020048827597478249 0 -0.038474858266114062 0.01533712980236465 0 -0.043793275966851571 0.011939710047750371 0 -0.050216345429122677 0.022571820559431039 0 -0.042946670640341481 0.020048827597478249 0 -0.045378547142816708 0.031654163882494972 0 -0.042946670640341481 0.020048827597478249 0 -0.034087888304706847 0.02303183257724924 0 -0.045378547142816708 0.031654163882494972 0 -0.034087888304706847 0.02303183257724924 0 -0.045378547142816708 0.031654163882494972 0 -0.032848462731386238 0.038020690740863047 0 -0.042946670640341481 0.020048827597478249 0 -0.034087888304706847 0.02303183257724924 0 -0.038474858266114062 0.01533712980236465 0 -0.034087888304706847 0.02303183257724924 0 -0.032940019403191523 0.01300914277912716 0 -0.038474858266114062 0.01533712980236465 0 -0.032940019403191523 0.01300914277912716 0 -0.038474858266114062 0.01533712980236465 0 -0.038356661955597962 0.0090140735326725754 0 -0.032940019403191523 0.01300914277912716 0 -0.038356661955597962 0.0090140735326725754 0 -0.033155386299680137 0.0072027756998508056 0 -0.033155386299680137 0.0072027756998508056 0 -0.033842561342824082 0.00042381946667268148 0 -0.038944704498370841 0.002115424966585071 0 -0.038356661955597962 0.0090140735326725754 0 -0.033155386299680137 0.0072027756998508056 0 -0.038944704498370841 0.002115424966585071 0 -0.038356661955597962 0.0090140735326725754 0 -0.038944704498370841 0.002115424966585071 0 -0.043621042982136288 0.0054963563475814783 0 -0.043297820407160528 -0.0001124206318419891 0 -0.038944704498370841 0.002115424966585071 0 -0.043621042982136288 0.0054963563475814783 0 -0.043297820407160528 -0.0001124206318419891 0 -0.048385971650348983 0.002685452562897673 0 -0.043621042982136288 0.0054963563475814783 0 -0.048385971650348983 0.002685452562897673 0 -0.04830904191250656 0.0083271048823096577 0 -0.043621042982136288 0.0054963563475814783 0 -0.04830904191250656 0.0083271048823096577 0 -0.043621042982136288 0.0054963563475814783 0 -0.043793275966851571 0.011939710047750371 0 -0.052060538901262117 0.014298508528685239 0 -0.042946670640341481 0.020048827597478249 0 -0.043793275966851571 0.011939710047750371 0 -0.038474858266114062 0.01533712980236465 0 -0.038356661955597962 0.0090140735326725754 0 -0.043793275966851571 0.011939710047750371 0 -0.038356661955597962 0.0090140735326725754 0 -0.043621042982136288 0.0054963563475814783 0 -0.043793275966851571 0.011939710047750371 0 -0.042163271719200063 0.067173422764949517 0 -0.04911329284594429 0.056928199423126977 0 -0.058475021355029577 0.060612321646891128 0 -0.04911329284594429 0.056928199423126977 0 -0.058475021355029577 0.060612321646891128 0 -0.055150595366750203 0.052389109153438911 0 -0.058475021355029577 0.060612321646891128 0 -0.061708979867518637 0.055263931933965248 0 -0.055150595366750203 0.052389109153438911 0 -0.065350797329162089 0.059057049359162027 0 -0.058475021355029577 0.060612321646891128 0 -0.061708979867518637 0.055263931933965248 0 -0.061708979867518637 0.055263931933965248 0 -0.055150595366750203 0.052389109153438911 0 -0.062161280247597227 0.049537050850417409 0 -0.055150595366750203 0.052389109153438911 0 -0.062161280247597227 0.049537050850417409 0 -0.056062940635239561 0.045624001539344247 0 -0.04911329284594429 0.056928199423126977 0 -0.055150595366750203 0.052389109153438911 0 -0.049018075138017023 0.049059630002409052 0 -0.055150595366750203 0.052389109153438911 0 -0.049018075138017023 0.049059630002409052 0 -0.056062940635239561 0.045624001539344247 0 -0.049018075138017023 0.049059630002409052 0 -0.050743515500216552 0.040534794721582418 0 -0.041793229372613552 0.043586008451924042 0 -0.049018075138017023 0.049059630002409052 0 -0.050743515500216552 0.040534794721582418 0 -0.056062940635239561 0.045624001539344247 0 -0.062161280247597227 0.049537050850417409 0 -0.056062940635239561 0.045624001539344247 0 -0.062488479636151173 0.043002653508900861 0 -0.056062940635239561 0.045624001539344247 0 -0.062488479636151173 0.043002653508900861 0 -0.057518317052348833 0.039255206205395507 0 -0.050743515500216552 0.040534794721582418 0 -0.056062940635239561 0.045624001539344247 0 -0.057518317052348833 0.039255206205395507 0 -0.065630571538946747 0.034280571213952581 0 -0.057518317052348833 0.039255206205395507 0 -0.056038649773479603 0.03299929903237471 0 -0.050743515500216552 0.040534794721582418 0 -0.057518317052348833 0.039255206205395507 0 -0.056038649773479603 0.03299929903237471 0 -0.065630571538946747 0.034280571213952581 0 -0.062488479636151173 0.043002653508900861 0 -0.057518317052348833 0.039255206205395507 0 -0.050743515500216552 0.040534794721582418 0 -0.056038649773479603 0.03299929903237471 0 -0.045378547142816708 0.031654163882494972 0 -0.045378547142816708 0.031654163882494972 0 -0.032848462731386238 0.038020690740863047 0 -0.041793229372613552 0.043586008451924042 0 -0.050743515500216552 0.040534794721582418 0 -0.045378547142816708 0.031654163882494972 0 -0.041793229372613552 0.043586008451924042 0 -0.032848462731386238 0.038020690740863047 0 -0.041793229372613552 0.043586008451924042 0 -0.032999930725002062 0.049217009327958063 0 -0.04911329284594429 0.056928199423126977 0 -0.049018075138017023 0.049059630002409052 0 -0.041116372939818249 0.054841543952902742 0 -0.049018075138017023 0.049059630002409052 0 -0.041793229372613552 0.043586008451924042 0 -0.041116372939818249 0.054841543952902742 0 -0.041793229372613552 0.043586008451924042 0 -0.032999930725002062 0.049217009327958063 0 -0.041116372939818249 0.054841543952902742 0 -0.032999930725002062 0.049217009327958063 0 -0.041116372939818249 0.054841543952902742 0 -0.0303019825158162 0.058121885158385463 0 -0.042163271719200063 0.067173422764949517 0 -0.041116372939818249 0.054841543952902742 0 -0.0303019825158162 0.058121885158385463 0 -0.042163271719200063 0.067173422764949517 0 -0.04911329284594429 0.056928199423126977 0 -0.041116372939818249 0.054841543952902742 0 -0.01409943073219362 0.069310794872571552 0 -0.0303019825158162 0.058121885158385463 0 -0.021707564462206719 0.049685532909816608 0 -0.032999930725002062 0.049217009327958063 0 -0.0303019825158162 0.058121885158385463 0 -0.021707564462206719 0.049685532909816608 0 -0.021707564462206719 0.049685532909816608 0 -0.021700274380311319 0.030568475332006569 0 -0.021707564462206719 0.049685532909816608 0 -0.0058181976571424756 0.036541156051692787 0 -0.021700274380311319 0.030568475332006569 0 -0.032848462731386238 0.038020690740863047 0 -0.021707564462206719 0.049685532909816608 0 -0.021700274380311319 0.030568475332006569 0 -0.032848462731386238 0.038020690740863047 0 -0.032999930725002062 0.049217009327958063 0 -0.021707564462206719 0.049685532909816608 0 -0.0058181976571424756 0.036541156051692787 0 -0.006332816526535192 0.057739399198378123 0 0.010056588984131519 0.061630894349188822 0 -0.01409943073219362 0.069310794872571552 0 -0.021707564462206719 0.049685532909816608 0 -0.006332816526535192 0.057739399198378123 0 -0.021707564462206719 0.049685532909816608 0 -0.0058181976571424756 0.036541156051692787 0 -0.006332816526535192 0.057739399198378123 0 -0.021692984298416269 0.01145141775419654 0 -0.021689137663402049 0.0013642412178396289 0 -0.0048042033978200442 0.017083458158567159 0 -0.033888019611149948 -0.007822557477047673 0 -0.033842561342824082 0.00042381946667268148 0 -0.021692984298416269 0.01145141775419654 0 -0.033888019611149948 -0.007822557477047673 0 -0.021692984298416269 0.01145141775419654 0 -0.021689137663402049 0.0013642412178396289 0 -0.033888019611149948 -0.007822557477047673 0 -0.021692984298416269 0.01145141775419654 0 -0.021692984298416269 0.01145141775419654 0 -0.021689137663402049 0.0013642412178396289 0 -0.033155386299680137 0.0072027756998508056 0 -0.033842561342824082 0.00042381946667268148 0 -0.021692984298416269 0.01145141775419654 0 -0.032940019403191523 0.01300914277912716 0 -0.033155386299680137 0.0072027756998508056 0 -0.021692984298416269 0.01145141775419654 0 -0.021692984298416269 0.01145141775419654 0 -0.021700274380311319 0.030568475332006569 0 -0.0058181976571424756 0.036541156051692787 0 -0.021692984298416269 0.01145141775419654 0 -0.021700274380311319 0.030568475332006569 0 -0.034087888304706847 0.02303183257724924 0 -0.032940019403191523 0.01300914277912716 0 -0.021692984298416269 0.01145141775419654 0 -0.034087888304706847 0.02303183257724924 0 -0.021692984298416269 0.01145141775419654 0 -0.021700274380311319 0.030568475332006569 0 -0.034087888304706847 0.02303183257724924 0 -0.032848462731386238 0.038020690740863047 0 -0.021700274380311319 0.030568475332006569 0 -0.0058181976571424756 0.036541156051692787 0 -0.021692984298416269 0.01145141775419654 0 -0.0058181976571424756 0.036541156051692787 0 -0.021692984298416269 0.01145141775419654 0 -0.0048042033978200442 0.017083458158567159 0 -0.0080677037023437516 -0.0064395274798075171 0 0.0023733117805303811 0.0093799890591231283 0 0.0034751517980762502 -0.001935438989210144 0 -0.021689137663402049 0.0013642412178396289 0 -0.0048042033978200442 0.017083458158567159 0 0.0023733117805303811 0.0093799890591231283 0 -0.021685614829348158 -0.0078738198102682073 0 -0.021689137663402049 0.0013642412178396289 0 0.0023733117805303811 0.0093799890591231283 0 -0.021689137663402049 0.0013642412178396289 0 -0.0048042033978200442 0.017083458158567159 0 -0.021685614829348158 -0.0078738198102682073 0 0.0023733117805303811 0.0093799890591231283 0 0.011939739658363899 0.00194372347938152 0 0.0023733117805303811 0.0093799890591231283 0 0.019340932351194811 0.0098683074428181708 0 0.011939739658363899 0.00194372347938152 0 0.0023733117805303811 0.0093799890591231283 0 0.0034751517980762502 -0.001935438989210144 0 0.0023733117805303811 0.0093799890591231283 0 0.023478951852303299 0.016509336499249461 0 0.019340932351194811 0.0098683074428181708 0 0.0023733117805303811 0.0093799890591231283 0 0.0072222301826585043 0.02109331774465513 0 0.026432238390409011 0.02663379792851428 0 -0.0058181976571424756 0.036541156051692787 0 -0.0048042033978200442 0.017083458158567159 0 0.012080730867762089 0.032802675099294687 0 -0.0048042033978200442 0.017083458158567159 0 0.0072222301826585043 0.02109331774465513 0 0.012080730867762089 0.032802675099294687 0 0.0023733117805303811 0.0093799890591231283 0 0.026432238390409011 0.02663379792851428 0 -0.0048042033978200442 0.017083458158567159 0 0.0023733117805303811 0.0093799890591231283 0 0.0072222301826585043 0.02109331774465513 0 -0.0048042033978200442 0.017083458158567159 0 0.012080730867762089 0.032802675099294687 0 0.0072222301826585043 0.02109331774465513 0 0.026432238390409011 0.02663379792851428 0 0.012080730867762089 0.032802675099294687 0 0.0023733117805303811 0.0093799890591231283 0 0.026432238390409011 0.02663379792851428 0 0.023478951852303299 0.016509336499249461 0 0.026432238390409011 0.02663379792851428 0 0.023478951852303299 0.016509336499249461 0 0.032166182039935813 0.022489281523882149 0 0.023478951852303299 0.016509336499249461 0 0.019340932351194811 0.0098683074428181708 0 0.031706031824554559 0.0067381481283544653 0 0.023478951852303299 0.016509336499249461 0 0.031706031824554559 0.0067381481283544653 0 0.032166182039935813 0.022489281523882149 0 0.019340932351194811 0.0098683074428181708 0 0.031706031824554559 0.0067381481283544653 0 0.022686691925409831 -0.0010303452364502849 0 0.011939739658363899 0.00194372347938152 0 0.019340932351194811 0.0098683074428181708 0 0.022686691925409831 -0.0010303452364502849 0 -0.0058181976571424756 0.036541156051692787 0 0.010056588984131519 0.061630894349188822 0 -0.0058181976571424756 0.036541156051692787 0 0.01421551384965274 0.047437737630608462 0 0.010056588984131519 0.061630894349188822 0 -0.0058181976571424756 0.036541156051692787 0 0.01421551384965274 0.047437737630608462 0 0.012080730867762089 0.032802675099294687 0 0.012080730867762089 0.032802675099294687 0 0.028965665133344139 0.048521892040022163 0 0.026432238390409011 0.02663379792851428 0 0.028965665133344139 0.048521892040022163 0 0.036524435140297358 0.032302276769810769 0 0.026432238390409011 0.02663379792851428 0 0.012080730867762089 0.032802675099294687 0 0.028965665133344139 0.048521892040022163 0 0.01421551384965274 0.047437737630608462 0 0.012080730867762089 0.032802675099294687 0 0.028965665133344139 0.048521892040022163 0 0.01421551384965274 0.047437737630608462 0 0.028965665133344139 0.048521892040022163 0 0.023755452705823851 0.064293539274979272 0 0.01421551384965274 0.047437737630608462 0 0.010056588984131519 0.061630894349188822 0 0.023755452705823851 0.064293539274979272 0 0.028965665133344139 0.048521892040022163 0 0.042810398498590647 0.058202893968263787 0 0.023755452705823851 0.064293539274979272 0 0.028965665133344139 0.048521892040022163 0 0.042810398498590647 0.058202893968263787 0 0.04979643943939973 0.039579648189713157 0 0.028965665133344139 0.048521892040022163 0 0.036524435140297358 0.032302276769810769 0 0.04979643943939973 0.039579648189713157 0 0.036524435140297358 0.032302276769810769 0 0.04979643943939973 0.039579648189713157 0 0.046383870333996637 0.024045724948901 0 0.04979643943939973 0.039579648189713157 0 0.06182755822521422 0.02421473347533077 0 0.068233882041616359 0.038241275711722332 0 0.04979643943939973 0.039579648189713157 0 0.061330138863656583 0.053806255243461533 0 0.068233882041616359 0.038241275711722332 0 0.042810398498590647 0.058202893968263787 0 0.061330138863656583 0.053806255243461533 0 0.05533173020425159 0.067095027076747152 0 0.042810398498590647 0.058202893968263787 0 0.04979643943939973 0.039579648189713157 0 0.061330138863656583 0.053806255243461533 0 0.031706031824554559 0.0067381481283544653 0 0.032166182039935813 0.022489281523882149 0 0.051604736825136097 0.001642684785768136 0 0.032166182039935813 0.022489281523882149 0 0.051604736825136097 0.001642684785768136 0 0.032166182039935813 0.022489281523882149 0 0.046383870333996637 0.024045724948901 0 0.051604736825136097 0.001642684785768136 0 0.026432238390409011 0.02663379792851428 0 0.036524435140297358 0.032302276769810769 0 0.032166182039935813 0.022489281523882149 0 0.036524435140297358 0.032302276769810769 0 0.032166182039935813 0.022489281523882149 0 0.046383870333996637 0.024045724948901 0 0.046383870333996637 0.024045724948901 0 0.06182755822521422 0.02421473347533077 0 0.051604736825136097 0.001642684785768136 0 0.04979643943939973 0.039579648189713157 0 0.046383870333996637 0.024045724948901 0 0.06182755822521422 0.02421473347533077 0 0.06182755822521422 0.02421473347533077 0 0.051604736825136097 0.001642684785768136 0 0.076689579952353384 0.01439185719801222 0 0.076689579952353384 0.01439185719801222 0 0.099849699400217512 0.0093157104962309223 0 0.089108002996883734 -0.0060390249898637236 0 0.076689579952353384 0.01439185719801222 0 0.084813626825008231 0.039028004319948198 0 0.094522412482389087 0.025245550067952989 0 0.076689579952353384 0.01439185719801222 0 0.099849699400217512 0.0093157104962309223 0 0.094522412482389087 0.025245550067952989 0 0.06182755822521422 0.02421473347533077 0 0.076689579952353384 0.01439185719801222 0 0.068233882041616359 0.038241275711722332 0 0.076689579952353384 0.01439185719801222 0 0.068233882041616359 0.038241275711722332 0 0.084813626825008231 0.039028004319948198 0 0.068233882041616359 0.038241275711722332 0 0.080750953382818708 0.05415997700776394 0 0.084813626825008231 0.039028004319948198 0 0.061330138863656583 0.053806255243461533 0 0.071057429615262471 0.065558709506558885 0 0.05533173020425159 0.067095027076747152 0 0.061330138863656583 0.053806255243461533 0 0.068233882041616359 0.038241275711722332 0 0.080750953382818708 0.05415997700776394 0 0.061330138863656583 0.053806255243461533 0 0.080750953382818708 0.05415997700776394 0 0.071057429615262471 0.065558709506558885 0 0.080750953382818708 0.05415997700776394 0 0.082366114713451843 0.065364862294459938 0 0.071057429615262471 0.065558709506558885 0 0.080750953382818708 0.05415997700776394 0 0.095988719610333617 0.048795944769505738 0 0.1010120552415857 0.064084768981458415 0 0.080750953382818708 0.05415997700776394 0 0.1010120552415857 0.064084768981458415 0 0.082366114713451843 0.065364862294459938 0 0.080750953382818708 0.05415997700776394 0 0.084813626825008231 0.039028004319948198 0 0.095988719610333617 0.048795944769505738 0 0.084813626825008231 0.039028004319948198 0 0.1021501006323441 0.038024957089848467 0 0.094522412482389087 0.025245550067952989 0 0.084813626825008231 0.039028004319948198 0 0.1021501006323441 0.038024957089848467 0 0.095988719610333617 0.048795944769505738 0 0.1021501006323441 0.038024957089848467 0 0.095988719610333617 0.048795944769505738 0 0.1112168619699113 0.048682016448509648 0 0.095988719610333617 0.048795944769505738 0 0.1112168619699113 0.048682016448509648 0 0.1010120552415857 0.064084768981458415 0 0.1010120552415857 0.064084768981458415 0 0.12538008986903079 0.050513544280858427 0 0.1010120552415857 0.064084768981458415 0 0.12538008986903079 0.050513544280858427 0 0.12647924912686309 0.053585492473219247 0 0.1193220938219573 0.068173263495368383 0 0.1010120552415857 0.064084768981458415 0 0.12647924912686309 0.053585492473219247 0 0.1112168619699113 0.048682016448509648 0 0.1010120552415857 0.064084768981458415 0 0.12538008986903079 0.050513544280858427 0 0.1112168619699113 0.048682016448509648 0 0.1196400268561947 0.044639784200004307 0 0.12538008986903079 0.050513544280858427 0 0.1193220938219573 0.068173263495368383 0 0.12647924912686309 0.053585492473219247 0 0.12754569165980911 0.060500634317190771 0 0.1021501006323441 0.038024957089848467 0 0.1112168619699113 0.048682016448509648 0 0.1181203805069737 0.036826612053207572 0 0.1021501006323441 0.038024957089848467 0 0.1181203805069737 0.036826612053207572 0 0.1094996911022266 0.024760591776828659 0 0.1112168619699113 0.048682016448509648 0 0.1196400268561947 0.044639784200004307 0 0.1181203805069737 0.036826612053207572 0 0.1238427750788631 0.042536964017441593 0 0.1196400268561947 0.044639784200004307 0 0.12538008986903079 0.050513544280858427 0 0.1238427750788631 0.042536964017441593 0 0.1196400268561947 0.044639784200004307 0 0.1181203805069737 0.036826612053207572 0 0.1238427750788631 0.042536964017441593 0 0.1181203805069737 0.036826612053207572 0 0.13294023283519829 0.036932220027843347 0 0.1094996911022266 0.024760591776828659 0 0.1210613403930125 0.004795896164540109 0 0.12795439222270669 0.02230707516679066 0 0.1181203805069737 0.036826612053207572 0 0.1094996911022266 0.024760591776828659 0 0.12795439222270669 0.02230707516679066 0 0.1094996911022266 0.024760591776828659 0 0.1210613403930125 0.004795896164540109 0 0.099849699400217512 0.0093157104962309223 0 0.1210613403930125 0.004795896164540109 0 0.099849699400217512 0.0093157104962309223 0 0.1078286228408124 -0.012684051989435551 0 0.1094996911022266 0.024760591776828659 0 0.099849699400217512 0.0093157104962309223 0 0.094522412482389087 0.025245550067952989 0 0.1021501006323441 0.038024957089848467 0 0.1094996911022266 0.024760591776828659 0 0.094522412482389087 0.025245550067952989 0 0.1005036326629799 0.098033008660104462 0 0.1136456691481698 0.1200459196328274 0 0.1136456691481698 0.1200459196328274 0 0.093051938771145815 0.11838611452453091 0 0.10010772290349811 0.13315456325047281 0 0.1005036326629799 0.098033008660104462 0 0.1136456691481698 0.1200459196328274 0 0.093051938771145815 0.11838611452453091 0 0.1136456691481698 0.1200459196328274 0 0.1198751958672022 0.095608922582459163 0 0.1353396383353048 0.105047755156587 0 0.1005036326629799 0.098033008660104462 0 0.1136456691481698 0.1200459196328274 0 0.1198751958672022 0.095608922582459163 0 0.1198751958672022 0.095608922582459163 0 0.1198165682318405 0.082529483207096493 0 0.13166497669982691 0.081068114085112775 0 0.1198751958672022 0.095608922582459163 0 0.1198165682318405 0.082529483207096493 0 0.1067385702471028 0.080964657241523907 0 0.1198165682318405 0.082529483207096493 0 0.1193220938219573 0.068173263495368383 0 0.12900118301339381 0.072609262641786493 0 0.1198165682318405 0.082529483207096493 0 0.1193220938219573 0.068173263495368383 0 0.1067385702471028 0.080964657241523907 0 0.1010120552415857 0.064084768981458415 0 0.1067385702471028 0.080964657241523907 0 0.087361596177789977 0.076020097687381494 0 0.1193220938219573 0.068173263495368383 0 0.1010120552415857 0.064084768981458415 0 0.1067385702471028 0.080964657241523907 0 0.1005036326629799 0.098033008660104462 0 0.1067385702471028 0.080964657241523907 0 0.087361596177789977 0.076020097687381494 0 0.1005036326629799 0.098033008660104462 0 0.087361596177789977 0.076020097687381494 0 0.1005036326629799 0.098033008660104462 0 0.1198751958672022 0.095608922582459163 0 0.1067385702471028 0.080964657241523907 0 0.1005036326629799 0.098033008660104462 0 0.084298898909244038 0.089525069043792496 0 0.087361596177789977 0.076020097687381494 0 0.084298898909244038 0.089525069043792496 0 0.087361596177789977 0.076020097687381494 0 0.076644020614140468 0.077655993682058527 0 0.1010120552415857 0.064084768981458415 0 0.087361596177789977 0.076020097687381494 0 0.076644020614140468 0.077655993682058527 0 0.1010120552415857 0.064084768981458415 0 0.082366114713451843 0.065364862294459938 0 0.076644020614140468 0.077655993682058527 0 0.1010120552415857 0.064084768981458415 0 0.076644020614140468 0.077655993682058527 0 0.071057429615262471 0.065558709506558885 0 0.063485031314201024 0.080003617647312966 0 0.05533173020425159 0.067095027076747152 0 0.082366114713451843 0.065364862294459938 0 0.071057429615262471 0.065558709506558885 0 0.076644020614140468 0.077655993682058527 0 0.071057429615262471 0.065558709506558885 0 0.076644020614140468 0.077655993682058527 0 0.063485031314201024 0.080003617647312966 0 0.084298898909244038 0.089525069043792496 0 0.076644020614140468 0.077655993682058527 0 0.073303918961917555 0.09280320141045563 0 0.076644020614140468 0.077655993682058527 0 0.073303918961917555 0.09280320141045563 0 0.063485031314201024 0.080003617647312966 0 0.073303918961917555 0.09280320141045563 0 0.063485031314201024 0.080003617647312966 0 0.062657988759913893 0.094732987338008084 0 0.073303918961917555 0.09280320141045563 0 0.062657988759913893 0.094732987338008084 0 0.070245594201242184 0.11246440752749259 0 0.073303918961917555 0.09280320141045563 0 0.083486483570496706 0.1047405861437332 0 0.070245594201242184 0.11246440752749259 0 0.1005036326629799 0.098033008660104462 0 0.083486483570496706 0.1047405861437332 0 0.093051938771145815 0.11838611452453091 0 0.084298898909244038 0.089525069043792496 0 0.073303918961917555 0.09280320141045563 0 0.083486483570496706 0.1047405861437332 0 0.1005036326629799 0.098033008660104462 0 0.084298898909244038 0.089525069043792496 0 0.083486483570496706 0.1047405861437332 0 0.083486483570496706 0.1047405861437332 0 0.093051938771145815 0.11838611452453091 0 0.079047295775101445 0.1211378173714735 0 0.093051938771145815 0.11838611452453091 0 0.079047295775101445 0.1211378173714735 0 0.081283855754557086 0.1340346493695958 0 0.079047295775101445 0.1211378173714735 0 0.070245594201242184 0.11246440752749259 0 0.06637517738204092 0.12635736198688169 0 0.083486483570496706 0.1047405861437332 0 0.079047295775101445 0.1211378173714735 0 0.070245594201242184 0.11246440752749259 0 0.070245594201242184 0.11246440752749259 0 0.054978880696784679 0.12069060423006631 0 0.06637517738204092 0.12635736198688169 0 0.070245594201242184 0.11246440752749259 0 0.042778362622598202 0.1083662295141601 0 0.070245594201242184 0.11246440752749259 0 0.054978880696784679 0.12069060423006631 0 0.042778362622598202 0.1083662295141601 0 0.054978880696784679 0.12069060423006631 0 0.044674119804210273 0.1189624184542605 0 0.045605482030805007 0.1258142169656167 0 0.054978880696784679 0.12069060423006631 0 0.042778362622598202 0.1083662295141601 0 0.044674119804210273 0.1189624184542605 0 0.070245594201242184 0.11246440752749259 0 0.052106367755214218 0.099972321077682197 0 0.042778362622598202 0.1083662295141601 0 0.062657988759913893 0.094732987338008084 0 0.070245594201242184 0.11246440752749259 0 0.052106367755214218 0.099972321077682197 0 0.062657988759913893 0.094732987338008084 0 0.052106367755214218 0.099972321077682197 0 0.054149031566994507 0.088421389027097008 0 0.052106367755214218 0.099972321077682197 0 0.054149031566994507 0.088421389027097008 0 0.042887242866755243 0.092897915796820357 0 0.052106367755214218 0.099972321077682197 0 0.042778362622598202 0.1083662295141601 0 0.040892912019430433 0.1005140293161485 0 0.040892912019430433 0.1005140293161485 0 0.034912647500476207 0.094820566138074117 0 0.042887242866755243 0.092897915796820357 0 0.052106367755214218 0.099972321077682197 0 0.040892912019430433 0.1005140293161485 0 0.042887242866755243 0.092897915796820357 0 0.040892912019430433 0.1005140293161485 0 0.032668358903485982 0.10149450158441339 0 0.034912647500476207 0.094820566138074117 0 0.032668358903485982 0.10149450158441339 0 0.034912647500476207 0.094820566138074117 0 0.029889306860061571 0.096623346884603181 0 0.042778362622598202 0.1083662295141601 0 0.040892912019430433 0.1005140293161485 0 0.032668358903485982 0.10149450158441339 0 0.042778362622598202 0.1083662295141601 0 0.033496093076816051 0.1108757082102006 0 0.036750703241616417 0.1172643666261049 0 0.033496093076816051 0.1108757082102006 0 0.034415480372955658 0.1240433177126381 0 0.033496093076816051 0.1108757082102006 0 0.034415480372955658 0.1240433177126381 0 0.036750703241616417 0.1172643666261049 0 0.033496093076816051 0.1108757082102006 0 0.034415480372955658 0.1240433177126381 0 0.02700391835174059 0.1179449055048056 0 0.034415480372955658 0.1240433177126381 0 0.037611223190184291 0.1216030537864122 0 0.038021155080213198 0.12432081019250101 0 0.034415480372955658 0.1240433177126381 0 0.038021155080213198 0.12432081019250101 0 0.037611223190184291 0.1216030537864122 0 0.038021155080213198 0.12432081019250101 0 0.040887647230979422 0.1211966045891876 0 0.034415480372955658 0.1240433177126381 0 0.037611223190184291 0.1216030537864122 0 0.036750703241616417 0.1172643666261049 0 0.037611223190184291 0.1216030537864122 0 0.036750703241616417 0.1172643666261049 0 0.040887647230979422 0.1211966045891876 0 0.036750703241616417 0.1172643666261049 0 0.040887647230979422 0.1211966045891876 0 0.044674119804210273 0.1189624184542605 0 0.038021155080213198 0.12432081019250101 0 0.040887647230979422 0.1211966045891876 0 0.045605482030805007 0.1258142169656167 0 0.040887647230979422 0.1211966045891876 0 0.044674119804210273 0.1189624184542605 0 0.045605482030805007 0.1258142169656167 0 0.042778362622598202 0.1083662295141601 0 0.036750703241616417 0.1172643666261049 0 0.044674119804210273 0.1189624184542605 0 0.05533173020425159 0.067095027076747152 0 0.051544061333652177 0.077651513765662497 0 0.037005178905367711 0.073477126905455326 0 0.063485031314201024 0.080003617647312966 0 0.05533173020425159 0.067095027076747152 0 0.051544061333652177 0.077651513765662497 0 0.051544061333652177 0.077651513765662497 0 0.054149031566994507 0.088421389027097008 0 0.044364631837893451 0.083736066685420663 0 0.063485031314201024 0.080003617647312966 0 0.051544061333652177 0.077651513765662497 0 0.054149031566994507 0.088421389027097008 0 0.063485031314201024 0.080003617647312966 0 0.062657988759913893 0.094732987338008084 0 0.054149031566994507 0.088421389027097008 0 0.054149031566994507 0.088421389027097008 0 0.042887242866755243 0.092897915796820357 0 0.044364631837893451 0.083736066685420663 0 0.036237644516697573 0.086232387932068139 0 0.037005178905367711 0.073477126905455326 0 0.02438686714786667 0.091386623940224926 0 0.042887242866755243 0.092897915796820357 0 0.036237644516697573 0.086232387932068139 0 0.044364631837893451 0.083736066685420663 0 0.034912647500476207 0.094820566138074117 0 0.036237644516697573 0.086232387932068139 0 0.02688859608117625 0.091965640972561907 0 0.034912647500476207 0.094820566138074117 0 0.042887242866755243 0.092897915796820357 0 0.036237644516697573 0.086232387932068139 0 0.036237644516697573 0.086232387932068139 0 0.044364631837893451 0.083736066685420663 0 0.037005178905367711 0.073477126905455326 0 0.051544061333652177 0.077651513765662497 0 0.044364631837893451 0.083736066685420663 0 0.037005178905367711 0.073477126905455326 0 0.042810398498590647 0.058202893968263787 0 0.05533173020425159 0.067095027076747152 0 0.037005178905367711 0.073477126905455326 0 0.042810398498590647 0.058202893968263787 0 0.037005178905367711 0.073477126905455326 0 0.023755452705823851 0.064293539274979272 0 0.010056588984131519 0.061630894349188822 0 0.023755452705823851 0.064293539274979272 0 0.013067684542377511 0.074944541876921789 0 0.037005178905367711 0.073477126905455326 0 0.023755452705823851 0.064293539274979272 0 0.024230248148473962 0.07858896138168503 0 0.023755452705823851 0.064293539274979272 0 0.024230248148473962 0.07858896138168503 0 0.013067684542377511 0.074944541876921789 0 0.037005178905367711 0.073477126905455326 0 0.024230248148473962 0.07858896138168503 0 0.02438686714786667 0.091386623940224926 0 0.037005178905367711 0.073477126905455326 0 0.02438686714786667 0.091386623940224926 0 0.024230248148473962 0.07858896138168503 0 0.01538298703565279 0.082656778238383979 0 0.013067684542377511 0.074944541876921789 0 0.024230248148473962 0.07858896138168503 0 0.02438686714786667 0.091386623940224926 0 0.01538298703565279 0.082656778238383979 0 0.036237644516697573 0.086232387932068139 0 0.02688859608117625 0.091965640972561907 0 0.02438686714786667 0.091386623940224926 0 0.02688859608117625 0.091965640972561907 0 0.02438686714786667 0.091386623940224926 0 -0.0001528516961069627 0.085706985754704201 0 0.02438686714786667 0.091386623940224926 0 0.01303505631381527 0.09477415483710637 0 -0.0001528516961069627 0.085706985754704201 0 0.02438686714786667 0.091386623940224926 0 0.01538298703565279 0.082656778238383979 0 -0.0001528516961069627 0.085706985754704201 0 0.02438686714786667 0.091386623940224926 0 -0.0001528516961069627 0.085706985754704201 0 0.01303505631381527 0.09477415483710637 0 0.007210949462043926 0.096737752773649974 0 -0.0001528516961069627 0.085706985754704201 0 0.01538298703565279 0.082656778238383979 0 0.013067684542377511 0.074944541876921789 0 -0.0001528516961069627 0.085706985754704201 0 0.013067684542377511 0.074944541876921789 0 0.00050783491433465235 0.069866523210352902 0 -0.006332816526535192 0.057739399198378123 0 0.010056588984131519 0.061630894349188822 0 0.00050783491433465235 0.069866523210352902 0 0.010056588984131519 0.061630894349188822 0 0.013067684542377511 0.074944541876921789 0 0.00050783491433465235 0.069866523210352902 0 0.01874649431249268 0.12283743361274831 0 0.02700391835174059 0.1179449055048056 0 0.015311131043954001 0.1042680515008292 0 0.033496093076816051 0.1108757082102006 0 0.02700391835174059 0.1179449055048056 0 0.015311131043954001 0.1042680515008292 0 0.034415480372955658 0.1240433177126381 0 0.01874649431249268 0.12283743361274831 0 0.034415480372955658 0.1240433177126381 0 0.01874649431249268 0.12283743361274831 0 0.02700391835174059 0.1179449055048056 0 0.042778362622598202 0.1083662295141601 0 0.015311131043954001 0.1042680515008292 0 0.042778362622598202 0.1083662295141601 0 0.033496093076816051 0.1108757082102006 0 0.015311131043954001 0.1042680515008292 0 0.042778362622598202 0.1083662295141601 0 0.032668358903485982 0.10149450158441339 0 0.015311131043954001 0.1042680515008292 0 0.032668358903485982 0.10149450158441339 0 0.02508762495510785 0.098212678843363377 0 0.015311131043954001 0.1042680515008292 0 0.034912647500476207 0.094820566138074117 0 0.02688859608117625 0.091965640972561907 0 0.029889306860061571 0.096623346884603181 0 0.032668358903485982 0.10149450158441339 0 0.029889306860061571 0.096623346884603181 0 0.02508762495510785 0.098212678843363377 0 0.02688859608117625 0.091965640972561907 0 0.02438686714786667 0.091386623940224926 0 0.02508762495510785 0.098212678843363377 0 0.02688859608117625 0.091965640972561907 0 0.029889306860061571 0.096623346884603181 0 0.02508762495510785 0.098212678843363377 0 0.02438686714786667 0.091386623940224926 0 0.015311131043954001 0.1042680515008292 0 0.02438686714786667 0.091386623940224926 0 0.02508762495510785 0.098212678843363377 0 0.015311131043954001 0.1042680515008292 0 0.02438686714786667 0.091386623940224926 0 0.015311131043954001 0.1042680515008292 0 0.01303505631381527 0.09477415483710637 0 -0.0027146186244262562 0.10157856564007441 0 0.015311131043954001 0.1042680515008292 0 0.007210949462043926 0.096737752773649974 0 -0.0027146186244262562 0.10157856564007441 0 -0.0001528516961069627 0.085706985754704201 0 0.007210949462043926 0.096737752773649974 0 -0.0027146186244262562 0.10157856564007441 0 0.015311131043954001 0.1042680515008292 0 0.003077508252029936 0.12163154951285619 0 -0.0027146186244262562 0.10157856564007441 0 0.015311131043954001 0.1042680515008292 0 0.015311131043954001 0.1042680515008292 0 0.01303505631381527 0.09477415483710637 0 0.007210949462043926 0.096737752773649974 0 0.01874649431249268 0.12283743361274831 0 0.003077508252029936 0.12163154951285619 0 0.01874649431249268 0.12283743361274831 0 0.015311131043954001 0.1042680515008292 0 0.003077508252029936 0.12163154951285619 0 0.01874649431249268 0.12283743361274831 0 0.003077508252029936 0.12163154951285619 0 0.0090536080983525235 0.12952258491370361 0 0.015311131043954001 0.1042680515008292 0 0.003077508252029936 0.12163154951285619 0 0.003077508252029936 0.12163154951285619 0 0.0021868618734685011 0.13847039075472189 0 0.0090536080983525235 0.12952258491370361 0 0.0021868618734685011 0.13847039075472189 0 0.0142302342475817 0.1350398822414641 0 0.011657917406915739 0.148178766537578 0 0.0021868618734685011 0.13847039075472189 0 0.0142302342475817 0.1350398822414641 0 0.0090536080983525235 0.12952258491370361 0 0.01874649431249268 0.12283743361274831 0 0.0142302342475817 0.1350398822414641 0 0.0090536080983525235 0.12952258491370361 0 0.034415480372955658 0.1240433177126381 0 0.01874649431249268 0.12283743361274831 0 0.025086401274711932 0.13444641596366369 0 0.01874649431249268 0.12283743361274831 0 0.0142302342475817 0.1350398822414641 0 0.025086401274711932 0.13444641596366369 0 0.0142302342475817 0.1350398822414641 0 0.025086401274711932 0.13444641596366369 0 0.011657917406915739 0.148178766537578 0 0.025086401274711932 0.13444641596366369 0 0.011657917406915739 0.148178766537578 0 0.035758817572444507 0.14328280443085481 0 0.016701688641569259 0.14860487098657379 0 0.024301554967948221 0.15982651231473291 0 0.035758817572444507 0.14328280443085481 0 0.016701688641569259 0.14860487098657379 0 0.011657917406915739 0.148178766537578 0 0.035758817572444507 0.14328280443085481 0 0.011657917406915739 0.148178766537578 0 0.035758817572444507 0.14328280443085481 0 -0.012442982758613131 0.15307472864430099 0 0.0021868618734685011 0.13847039075472189 0 0.011657917406915739 0.148178766537578 0 -0.0067816636273592924 0.1676046370473645 0 0.016701688641569259 0.14860487098657379 0 0.011657917406915739 0.148178766537578 0 -0.0067816636273592924 0.1676046370473645 0 0.016701688641569259 0.14860487098657379 0 0.01244842367691144 0.16174958481459739 0 -0.0067816636273592924 0.1676046370473645 0 0.016701688641569259 0.14860487098657379 0 -0.0067816636273592924 0.1676046370473645 0 0.01557211472548756 0.17096231890971861 0 -0.0067816636273592924 0.1676046370473645 0 0.01557211472548756 0.17096231890971861 0 0.01244842367691144 0.16174958481459739 0 0.01557211472548756 0.17096231890971861 0 0.0031830893635836801 0.1773532787322967 0 0.022302074182744321 0.18991292799395471 0 -0.0067816636273592924 0.1676046370473645 0 0.01557211472548756 0.17096231890971861 0 0.0031830893635836801 0.1773532787322967 0 -0.0012892371693995321 0.1905567105685308 0 0.0031830893635836801 0.1773532787322967 0 0.022302074182744321 0.18991292799395471 0 0.01557211472548756 0.17096231890971861 0 0.037925893078334223 0.1743200007720736 0 0.01557211472548756 0.17096231890971861 0 0.037925893078334223 0.1743200007720736 0 0.022302074182744321 0.18991292799395471 0 0.01557211472548756 0.17096231890971861 0 0.024301554967948221 0.15982651231473291 0 0.037925893078334223 0.1743200007720736 0 0.016701688641569259 0.14860487098657379 0 0.01244842367691144 0.16174958481459739 0 0.024301554967948221 0.15982651231473291 0 0.01557211472548756 0.17096231890971861 0 0.01244842367691144 0.16174958481459739 0 0.024301554967948221 0.15982651231473291 0 0.036842355325388473 0.15880140260146419 0 0.053010707041311278 0.1622146653840375 0 0.048565879332436661 0.15097381415717981 0 0.036842355325388473 0.15880140260146419 0 0.037925893078334223 0.1743200007720736 0 0.053010707041311278 0.1622146653840375 0 0.036842355325388473 0.15880140260146419 0 0.037925893078334223 0.1743200007720736 0 0.024301554967948221 0.15982651231473291 0 0.036842355325388473 0.15880140260146419 0 0.037925893078334223 0.1743200007720736 0 0.037925893078334223 0.1743200007720736 0 0.022302074182744321 0.18991292799395471 0 0.039528804849867379 0.19727715534997031 0 0.037925893078334223 0.1743200007720736 0 0.039528804849867379 0.19727715534997031 0 0.037925893078334223 0.1743200007720736 0 0.059297080861993111 0.17753009118567201 0 0.055740868009125262 0.19284043787619159 0 0.037925893078334223 0.1743200007720736 0 0.059297080861993111 0.17753009118567201 0 0.059297080861993111 0.17753009118567201 0 0.055740868009125262 0.19284043787619159 0 0.068261271871674328 0.1864629429877698 0 0.037925893078334223 0.1743200007720736 0 0.059297080861993111 0.17753009118567201 0 0.053010707041311278 0.1622146653840375 0 0.059297080861993111 0.17753009118567201 0 0.053010707041311278 0.1622146653840375 0 0.065878223770475197 0.16773421249585821 0 0.053010707041311278 0.1622146653840375 0 0.061690277380359752 0.1595774540033226 0 0.065878223770475197 0.16773421249585821 0 0.053010707041311278 0.1622146653840375 0 0.061690277380359752 0.1595774540033226 0 0.058696180059538187 0.15191147146931699 0 0.058521336663500859 0.1386587269002254 0 0.035758817572444507 0.14328280443085481 0 0.048565879332436661 0.15097381415717981 0 0.058521336663500859 0.1386587269002254 0 0.035758817572444507 0.14328280443085481 0 0.053010707041311278 0.1622146653840375 0 0.058696180059538187 0.15191147146931699 0 0.048565879332436661 0.15097381415717981 0 0.058696180059538187 0.15191147146931699 0 0.058521336663500859 0.1386587269002254 0 0.067023556209664159 0.14641690877682581 0 0.058696180059538187 0.15191147146931699 0 0.048565879332436661 0.15097381415717981 0 0.058521336663500859 0.1386587269002254 0 0.058521336663500859 0.1386587269002254 0 0.046653808151204623 0.13416053432779701 0 0.035758817572444507 0.14328280443085481 0 0.058521336663500859 0.1386587269002254 0 0.054282463823895372 0.12973579544043751 0 0.06637517738204092 0.12635736198688169 0 0.054978880696784679 0.12069060423006631 0 0.054282463823895372 0.12973579544043751 0 0.06637517738204092 0.12635736198688169 0 0.054978880696784679 0.12069060423006631 0 0.054282463823895372 0.12973579544043751 0 0.045605482030805007 0.1258142169656167 0 0.054282463823895372 0.12973579544043751 0 0.046653808151204623 0.13416053432779701 0 0.045605482030805007 0.1258142169656167 0 0.058521336663500859 0.1386587269002254 0 0.054282463823895372 0.12973579544043751 0 0.046653808151204623 0.13416053432779701 0 0.034415480372955658 0.1240433177126381 0 0.035758817572444507 0.14328280443085481 0 0.034415480372955658 0.1240433177126381 0 0.040090948641524599 0.13032433672588151 0 0.035758817572444507 0.14328280443085481 0 0.034415480372955658 0.1240433177126381 0 0.025086401274711932 0.13444641596366369 0 0.035758817572444507 0.14328280443085481 0 0.046653808151204623 0.13416053432779701 0 0.040090948641524599 0.13032433672588151 0 0.035758817572444507 0.14328280443085481 0 0.046653808151204623 0.13416053432779701 0 0.045605482030805007 0.1258142169656167 0 0.040090948641524599 0.13032433672588151 0 0.038021155080213198 0.12432081019250101 0 0.045605482030805007 0.1258142169656167 0 0.040090948641524599 0.13032433672588151 0 0.034415480372955658 0.1240433177126381 0 0.038021155080213198 0.12432081019250101 0 0.040090948641524599 0.13032433672588151 0 0.024301554967948221 0.15982651231473291 0 0.036842355325388473 0.15880140260146419 0 0.035758817572444507 0.14328280443085481 0 0.036842355325388473 0.15880140260146419 0 0.035758817572444507 0.14328280443085481 0 0.036842355325388473 0.15880140260146419 0 0.048565879332436661 0.15097381415717981 0 0.035758817572444507 0.14328280443085481 0 0.023086518768083462 0.24489881756915879 0 0.036725159641776743 0.24288757640680189 0 0.028873894691308289 0.26091459238388948 0 0.023086518768083462 0.24489881756915879 0 0.0071847190032755933 0.2325031701422208 0 0.027537495441380119 0.22860466724517919 0 0.023086518768083462 0.24489881756915879 0 0.027537495441380119 0.22860466724517919 0 0.036725159641776743 0.24288757640680189 0 -0.00037395858645878841 0.25379829121635378 0 0.0071847190032755933 0.2325031701422208 0 -0.00037395858645878841 0.25379829121635378 0 0.0071847190032755933 0.2325031701422208 0 0.013218435639475289 0.25587298613601162 0 0.023086518768083462 0.24489881756915879 0 0.0071847190032755933 0.2325031701422208 0 0.013218435639475289 0.25587298613601162 0 0.0071847190032755933 0.2325031701422208 0 0.014743396593009959 0.21120804906808771 0 -0.0049262126359916267 0.22101087210176121 0 0.0071847190032755933 0.2325031701422208 0 0.014743396593009959 0.21120804906808771 0 0.0071847190032755933 0.2325031701422208 0 0.027537495441380119 0.22860466724517919 0 0.014743396593009959 0.21120804906808771 0 0.027283298682644039 0.20329190297345509 0 0.014743396593009959 0.21120804906808771 0 0.036646166827545852 0.2135823597572826 0 0.027537495441380119 0.22860466724517919 0 0.014743396593009959 0.21120804906808771 0 0.036646166827545852 0.2135823597572826 0 -0.0049262126359916267 0.22101087210176121 0 0.014743396593009959 0.21120804906808771 0 0.00048536495298609559 0.20572812513306071 0 0.014743396593009959 0.21120804906808771 0 0.00048536495298609559 0.20572812513306071 0 0.022302074182744321 0.18991292799395471 0 -0.0012892371693995321 0.1905567105685308 0 0.00048536495298609559 0.20572812513306071 0 0.022302074182744321 0.18991292799395471 0 0.027283298682644039 0.20329190297345509 0 0.022302074182744321 0.18991292799395471 0 0.039528804849867379 0.19727715534997031 0 0.027283298682644039 0.20329190297345509 0 0.014743396593009959 0.21120804906808771 0 0.022302074182744321 0.18991292799395471 0 0.014743396593009959 0.21120804906808771 0 0.022302074182744321 0.18991292799395471 0 0.037925893078334223 0.1743200007720736 0 0.039528804849867379 0.19727715534997031 0 0.055740868009125262 0.19284043787619159 0 0.039528804849867379 0.19727715534997031 0 0.055740868009125262 0.19284043787619159 0 0.051076278821001707 0.210571675283453 0 0.055740868009125262 0.19284043787619159 0 0.051076278821001707 0.210571675283453 0 0.065664189071282533 0.20820096863638179 0 0.051076278821001707 0.210571675283453 0 0.064999727726457512 0.22360073908188 0 0.065664189071282533 0.20820096863638179 0 0.051076278821001707 0.210571675283453 0 0.036646166827545852 0.2135823597572826 0 0.046000697084056102 0.22630986221696339 0 0.039528804849867379 0.19727715534997031 0 0.051076278821001707 0.210571675283453 0 0.036646166827545852 0.2135823597572826 0 0.027283298682644039 0.20329190297345509 0 0.039528804849867379 0.19727715534997031 0 0.036646166827545852 0.2135823597572826 0 0.027537495441380119 0.22860466724517919 0 0.046000697084056102 0.22630986221696339 0 0.036725159641776743 0.24288757640680189 0 0.027537495441380119 0.22860466724517919 0 0.036646166827545852 0.2135823597572826 0 0.046000697084056102 0.22630986221696339 0 0.046000697084056102 0.22630986221696339 0 0.052672305365792697 0.23987448669788219 0 0.064999727726457512 0.22360073908188 0 0.051076278821001707 0.210571675283453 0 0.046000697084056102 0.22630986221696339 0 0.064999727726457512 0.22360073908188 0 0.052672305365792697 0.23987448669788219 0 0.036725159641776743 0.24288757640680189 0 0.046036222985824438 0.26162669203203143 0 0.046000697084056102 0.22630986221696339 0 0.052672305365792697 0.23987448669788219 0 0.036725159641776743 0.24288757640680189 0 0.073235059357266305 0.24119894940454861 0 0.08651669795700194 0.22709715713988041 0 0.093921741091282901 0.25414558468183052 0 0.052672305365792697 0.23987448669788219 0 0.073235059357266305 0.24119894940454861 0 0.064999727726457512 0.22360073908188 0 0.052672305365792697 0.23987448669788219 0 0.073235059357266305 0.24119894940454861 0 0.067945532651693924 0.25923676326889211 0 0.073235059357266305 0.24119894940454861 0 0.064999727726457512 0.22360073908188 0 0.08651669795700194 0.22709715713988041 0 0.064999727726457512 0.22360073908188 0 0.08651669795700194 0.22709715713988041 0 0.079530327976527038 0.2127537209669195 0 0.08651669795700194 0.22709715713988041 0 0.079530327976527038 0.2127537209669195 0 0.096767181419878404 0.2126961083991438 0 0.079530327976527038 0.2127537209669195 0 0.086436253036751037 0.19876717026491009 0 0.096767181419878404 0.2126961083991438 0 0.079530327976527038 0.2127537209669195 0 0.07573464133277219 0.20191463993339751 0 0.086436253036751037 0.19876717026491009 0 0.064999727726457512 0.22360073908188 0 0.079530327976527038 0.2127537209669195 0 0.065664189071282533 0.20820096863638179 0 0.079530327976527038 0.2127537209669195 0 0.065664189071282533 0.20820096863638179 0 0.07573464133277219 0.20191463993339751 0 0.07573464133277219 0.20191463993339751 0 0.068432557509723629 0.19552023091802101 0 0.076014729702925124 0.19274703617027689 0 0.055740868009125262 0.19284043787619159 0 0.065664189071282533 0.20820096863638179 0 0.068432557509723629 0.19552023091802101 0 0.065664189071282533 0.20820096863638179 0 0.07573464133277219 0.20191463993339751 0 0.068432557509723629 0.19552023091802101 0 0.055740868009125262 0.19284043787619159 0 0.068432557509723629 0.19552023091802101 0 0.068261271871674328 0.1864629429877698 0 0.068432557509723629 0.19552023091802101 0 0.076014729702925124 0.19274703617027689 0 0.068261271871674328 0.1864629429877698 0 0.076014729702925124 0.19274703617027689 0 0.086436253036751037 0.19876717026491009 0 0.080668268645652075 0.18074018159926999 0 0.10527504046388669 0.19693904210685559 0 0.080668268645652075 0.18074018159926999 0 0.086436253036751037 0.19876717026491009 0 0.10527504046388669 0.19693904210685559 0 0.080668268645652075 0.18074018159926999 0 0.07573464133277219 0.20191463993339751 0 0.076014729702925124 0.19274703617027689 0 0.086436253036751037 0.19876717026491009 0 0.086436253036751037 0.19876717026491009 0 0.10527504046388669 0.19693904210685559 0 0.096767181419878404 0.2126961083991438 0 0.10527504046388669 0.19693904210685559 0 0.098027273203104448 0.18334761618285941 0 0.11094259040079719 0.18730395303160721 0 0.10527504046388669 0.19693904210685559 0 0.12294121813672899 0.1962131235235374 0 0.11094259040079719 0.18730395303160721 0 0.10527504046388669 0.19693904210685559 0 0.12294121813672899 0.1962131235235374 0 0.12988181228212109 0.2131379026144414 0 0.12294121813672899 0.1962131235235374 0 0.11094259040079719 0.18730395303160721 0 0.1228666290212994 0.18520041082350691 0 0.10527504046388669 0.19693904210685559 0 0.1170542400581254 0.20956560956550049 0 0.12988181228212109 0.2131379026144414 0 0.1170542400581254 0.20956560956550049 0 0.12251863696562371 0.22603725919028109 0 0.12988181228212109 0.2131379026144414 0 0.10527504046388669 0.19693904210685559 0 0.12988181228212109 0.2131379026144414 0 0.1170542400581254 0.20956560956550049 0 0.096767181419878404 0.2126961083991438 0 0.10548799057470409 0.23185559712366549 0 0.10527504046388669 0.19693904210685559 0 0.1170542400581254 0.20956560956550049 0 0.096767181419878404 0.2126961083991438 0 0.08651669795700194 0.22709715713988041 0 0.096767181419878404 0.2126961083991438 0 0.10548799057470409 0.23185559712366549 0 0.1170542400581254 0.20956560956550049 0 0.10548799057470409 0.23185559712366549 0 0.12251863696562371 0.22603725919028109 0 0.1170542400581254 0.20956560956550049 0 0.10548799057470409 0.23185559712366549 0 0.10548799057470409 0.23185559712366549 0 0.12251863696562371 0.22603725919028109 0 0.11714500643310689 0.24184084305890641 0 0.12251863696562371 0.22603725919028109 0 0.11714500643310689 0.24184084305890641 0 0.13214970077230281 0.23648168878787371 0 0.11714500643310689 0.24184084305890641 0 0.1277487384109664 0.24662733078467489 0 0.122692362420721 0.25460339326642423 0 0.10548799057470409 0.23185559712366549 0 0.11714500643310689 0.24184084305890641 0 0.093921741091282901 0.25414558468183052 0 0.10548799057470409 0.23185559712366549 0 0.093921741091282901 0.25414558468183052 0 0.08651669795700194 0.22709715713988041 0 0.10548799057470409 0.23185559712366549 0 0.093921741091282901 0.25414558468183052 0 0.091567706230813367 0.14995279652806251 0 0.072763864142217763 0.13576543767198759 0 0.091567706230813367 0.14995279652806251 0 0.072763864142217763 0.13576543767198759 0 0.076073046294597116 0.14910391006534771 0 0.091567706230813367 0.14995279652806251 0 0.076073046294597116 0.14910391006534771 0 0.079743709430968215 0.15740700482315931 0 0.093051938771145815 0.11838611452453091 0 0.081283855754557086 0.1340346493695958 0 0.10010772290349811 0.13315456325047281 0 0.091567706230813367 0.14995279652806251 0 0.081283855754557086 0.1340346493695958 0 0.10010772290349811 0.13315456325047281 0 0.091567706230813367 0.14995279652806251 0 0.081283855754557086 0.1340346493695958 0 0.072763864142217763 0.13576543767198759 0 0.081283855754557086 0.1340346493695958 0 0.072763864142217763 0.13576543767198759 0 0.081283855754557086 0.1340346493695958 0 0.072763864142217763 0.13576543767198759 0 0.06637517738204092 0.12635736198688169 0 0.079047295775101445 0.1211378173714735 0 0.081283855754557086 0.1340346493695958 0 0.06637517738204092 0.12635736198688169 0 0.058521336663500859 0.1386587269002254 0 0.072763864142217763 0.13576543767198759 0 0.058521336663500859 0.1386587269002254 0 0.072763864142217763 0.13576543767198759 0 0.067023556209664159 0.14641690877682581 0 0.058521336663500859 0.1386587269002254 0 0.072763864142217763 0.13576543767198759 0 0.06637517738204092 0.12635736198688169 0 0.072763864142217763 0.13576543767198759 0 0.067023556209664159 0.14641690877682581 0 0.076073046294597116 0.14910391006534771 0 0.076073046294597116 0.14910391006534771 0 0.06917599865011434 0.15644946666407769 0 0.079743709430968215 0.15740700482315931 0 0.067023556209664159 0.14641690877682581 0 0.076073046294597116 0.14910391006534771 0 0.06917599865011434 0.15644946666407769 0 0.058696180059538187 0.15191147146931699 0 0.067023556209664159 0.14641690877682581 0 0.06917599865011434 0.15644946666407769 0 0.061690277380359752 0.1595774540033226 0 0.058696180059538187 0.15191147146931699 0 0.06917599865011434 0.15644946666407769 0 0.06917599865011434 0.15644946666407769 0 0.065878223770475197 0.16773421249585821 0 0.075880476933204641 0.16621658461362929 0 0.061690277380359752 0.1595774540033226 0 0.06917599865011434 0.15644946666407769 0 0.065878223770475197 0.16773421249585821 0 0.075880476933204641 0.16621658461362929 0 0.073966184509112937 0.17632813897783761 0 0.081560030772704961 0.1725763502522879 0 0.065878223770475197 0.16773421249585821 0 0.075880476933204641 0.16621658461362929 0 0.073966184509112937 0.17632813897783761 0 0.06917599865011434 0.15644946666407769 0 0.075880476933204641 0.16621658461362929 0 0.079743709430968215 0.15740700482315931 0 0.059297080861993111 0.17753009118567201 0 0.068261271871674328 0.1864629429877698 0 0.080668268645652075 0.18074018159926999 0 0.059297080861993111 0.17753009118567201 0 0.080668268645652075 0.18074018159926999 0 0.059297080861993111 0.17753009118567201 0 0.073966184509112937 0.17632813897783761 0 0.080668268645652075 0.18074018159926999 0 0.059297080861993111 0.17753009118567201 0 0.065878223770475197 0.16773421249585821 0 0.073966184509112937 0.17632813897783761 0 0.073966184509112937 0.17632813897783761 0 0.080668268645652075 0.18074018159926999 0 0.076014729702925124 0.19274703617027689 0 0.068261271871674328 0.1864629429877698 0 0.080668268645652075 0.18074018159926999 0 0.080668268645652075 0.18074018159926999 0 0.098027273203104448 0.18334761618285941 0 0.080668268645652075 0.18074018159926999 0 0.091263904729443512 0.17428457982602349 0 0.098027273203104448 0.18334761618285941 0 0.073966184509112937 0.17632813897783761 0 0.080668268645652075 0.18074018159926999 0 0.081560030772704961 0.1725763502522879 0 0.080668268645652075 0.18074018159926999 0 0.081560030772704961 0.1725763502522879 0 0.091263904729443512 0.17428457982602349 0 0.091567706230813367 0.14995279652806251 0 0.086021319046111627 0.1653122662446791 0 0.096950212119913601 0.16562684479401801 0 0.091567706230813367 0.14995279652806251 0 0.079743709430968215 0.15740700482315931 0 0.086021319046111627 0.1653122662446791 0 0.075880476933204641 0.16621658461362929 0 0.079743709430968215 0.15740700482315931 0 0.086021319046111627 0.1653122662446791 0 0.075880476933204641 0.16621658461362929 0 0.081560030772704961 0.1725763502522879 0 0.086021319046111627 0.1653122662446791 0 0.091263904729443512 0.17428457982602349 0 0.086021319046111627 0.1653122662446791 0 0.096950212119913601 0.16562684479401801 0 0.081560030772704961 0.1725763502522879 0 0.091263904729443512 0.17428457982602349 0 0.086021319046111627 0.1653122662446791 0 0.091567706230813367 0.14995279652806251 0 0.096950212119913601 0.16562684479401801 0 0.1102953394142331 0.16376500885004849 0 0.091567706230813367 0.14995279652806251 0 0.1102953394142331 0.16376500885004849 0 0.096950212119913601 0.16562684479401801 0 0.1084812744980634 0.17672937638287109 0 0.1102953394142331 0.16376500885004849 0 0.10527504046388669 0.19693904210685559 0 0.080668268645652075 0.18074018159926999 0 0.098027273203104448 0.18334761618285941 0 0.091263904729443512 0.17428457982602349 0 0.098027273203104448 0.18334761618285941 0 0.1084812744980634 0.17672937638287109 0 0.091263904729443512 0.17428457982602349 0 0.096950212119913601 0.16562684479401801 0 0.1084812744980634 0.17672937638287109 0 0.098027273203104448 0.18334761618285941 0 0.1084812744980634 0.17672937638287109 0 0.11094259040079719 0.18730395303160721 0 0.1084812744980634 0.17672937638287109 0 0.1102953394142331 0.16376500885004849 0 0.1290229725976528 0.17757722117203459 0 0.1084812744980634 0.17672937638287109 0 0.1228666290212994 0.18520041082350691 0 0.1290229725976528 0.17757722117203459 0 0.1084812744980634 0.17672937638287109 0 0.11094259040079719 0.18730395303160721 0 0.1228666290212994 0.18520041082350691 0 0.1102953394142331 0.16376500885004849 0 0.1245045102512234 0.16216127062477029 0 0.1290229725976528 0.17757722117203459 0 0.1102953394142331 0.16376500885004849 0 0.1290229725976528 0.17757722117203459 0 0.1102953394142331 0.16376500885004849 0 0.1245045102512234 0.16216127062477029 0 0.10923200965366241 0.1489412926954379 0 0.1245045102512234 0.16216127062477029 0 0.10923200965366241 0.1489412926954379 0 0.1267877056333597 0.14205883060555041 0 0.10923200965366241 0.1489412926954379 0 0.10010772290349811 0.13315456325047281 0 0.1267877056333597 0.14205883060555041 0 0.091567706230813367 0.14995279652806251 0 0.1102953394142331 0.16376500885004849 0 0.10923200965366241 0.1489412926954379 0 0.091567706230813367 0.14995279652806251 0 0.10923200965366241 0.1489412926954379 0 0.10010772290349811 0.13315456325047281 0 0.1136456691481698 0.1200459196328274 0 0.1267877056333597 0.14205883060555041 0 0.1136456691481698 0.1200459196328274 0 0.10010772290349811 0.13315456325047281 0 0.1267877056333597 0.14205883060555041 0 0.1136456691481698 0.1200459196328274 0 0.1267877056333597 0.14205883060555041 0 0.1391258913616209 0.1229970163466349 0 0.1415288514098518 0.1379774115341891 0 0.1267877056333597 0.14205883060555041 0 0.1391258913616209 0.1229970163466349 0 0.1415288514098518 0.1379774115341891 0 0.15532541851061599 0.13137331457290979 0 0.1391258913616209 0.1229970163466349 0 0.1415288514098518 0.1379774115341891 0 0.15532541851061599 0.13137331457290979 0 0.15463650723619399 0.14586085742910221 0 0.1415288514098518 0.1379774115341891 0 0.15463650723619399 0.14586085742910221 0 0.13992974211854869 0.16407174157827389 0 0.15463650723619399 0.14586085742910221 0 0.13992974211854869 0.16407174157827389 0 0.1245045102512234 0.16216127062477029 0 0.1267877056333597 0.14205883060555041 0 0.13992974211854869 0.16407174157827389 0 0.1415288514098518 0.1379774115341891 0 0.1267877056333597 0.14205883060555041 0 0.13992974211854869 0.16407174157827389 0 0.1267877056333597 0.14205883060555041 0 0.13992974211854869 0.16407174157827389 0 0.1245045102512234 0.16216127062477029 0 0.13992974211854869 0.16407174157827389 0 0.1290229725976528 0.17757722117203459 0 0.13992974211854869 0.16407174157827389 0 0.1290229725976528 0.17757722117203459 0 0.13992974211854869 0.16407174157827389 0 0.1290229725976528 0.17757722117203459 0 0.13841700548580391 0.1845056127920571 0 0.1228666290212994 0.18520041082350691 0 0.1290229725976528 0.17757722117203459 0 0.13105459294251509 0.18987953336476279 0 0.1228666290212994 0.18520041082350691 0 0.1290229725976528 0.17757722117203459 0 0.1290229725976528 0.17757722117203459 0 0.13841700548580391 0.1845056127920571 0 0.13105459294251509 0.18987953336476279 0 0.1290229725976528 0.17757722117203459 0 0.13841700548580391 0.1845056127920571 0 0.13992974211854869 0.16407174157827389 0 0.15079032974836121 0.18226322574253609 0 0.13992974211854869 0.16407174157827389 0 0.15079032974836121 0.18226322574253609 0 0.1588759090169635 0.17520608877476929 0 0.13992974211854869 0.16407174157827389 0 0.13841700548580391 0.1845056127920571 0 0.15079032974836121 0.18226322574253609 0 0.13841700548580391 0.1845056127920571 0 0.15079032974836121 0.18226322574253609 0 0.14049058878319759 0.1922098017864797 0 0.15463650723619399 0.14586085742910221 0 0.13992974211854869 0.16407174157827389 0 0.16204015551192771 0.1628512520315038 0 0.13992974211854869 0.16407174157827389 0 0.16204015551192771 0.1628512520315038 0 0.1588759090169635 0.17520608877476929 0 0.16204015551192771 0.1628512520315038 0 0.1746147515803447 0.160670400103989 0 0.1683396191170338 0.14595698492495771 0 0.16204015551192771 0.1628512520315038 0 0.17641223907582809 0.17889510021295871 0 0.1746147515803447 0.160670400103989 0 0.16204015551192771 0.1628512520315038 0 0.1588759090169635 0.17520608877476929 0 0.17641223907582809 0.17889510021295871 0 0.1588759090169635 0.17520608877476929 0 0.17641223907582809 0.17889510021295871 0 0.16520707863015149 0.1879491243085743 0 0.15079032974836121 0.18226322574253609 0 0.1588759090169635 0.17520608877476929 0 0.16520707863015149 0.1879491243085743 0 0.17641223907582809 0.17889510021295871 0 0.16520707863015149 0.1879491243085743 0 0.17754131674634141 0.19478517958964289 0 0.17641223907582809 0.17889510021295871 0 0.1746147515803447 0.160670400103989 0 0.1849836775427835 0.16433890506381429 0 0.17641223907582809 0.17889510021295871 0 0.1849836775427835 0.16433890506381429 0 0.19994365511016249 0.17017716124308321 0 0.1849836775427835 0.16433890506381429 0 0.18129806665415041 0.1513097582867107 0 0.19438733729913291 0.15605653302140979 0 0.1746147515803447 0.160670400103989 0 0.1849836775427835 0.16433890506381429 0 0.18129806665415041 0.1513097582867107 0 0.1746147515803447 0.160670400103989 0 0.18129806665415041 0.1513097582867107 0 0.1683396191170338 0.14595698492495771 0 0.17898440200156659 0.13926035303968859 0 0.17273494486539001 0.13725676547406551 0 0.1683396191170338 0.14595698492495771 0 0.18129806665415041 0.1513097582867107 0 0.17898440200156659 0.13926035303968859 0 0.1683396191170338 0.14595698492495771 0 0.18129806665415041 0.1513097582867107 0 0.17898440200156659 0.13926035303968859 0 0.18874820394077271 0.14397556743764131 0 0.18602563941376099 0.12874727247605081 0 0.17528982946139671 0.13155618121260529 0 0.17898440200156659 0.13926035303968859 0 0.18602563941376099 0.12874727247605081 0 0.17898440200156659 0.13926035303968859 0 0.18874820394077271 0.14397556743764131 0 0.18602563941376099 0.12874727247605081 0 0.17826254093681809 0.12533394450169311 0 0.18773396281682739 0.12156842983955971 0 0.18602563941376099 0.12874727247605081 0 0.17826254093681809 0.12533394450169311 0 0.17528982946139671 0.13155618121260529 0 0.17826254093681809 0.12533394450169311 0 0.17528982946139671 0.13155618121260529 0 0.16934327235384211 0.12764997327993269 0 0.17528982946139671 0.13155618121260529 0 0.17898440200156659 0.13926035303968859 0 0.17273494486539001 0.13725676547406551 0 0.17528982946139671 0.13155618121260529 0 0.17273494486539001 0.13725676547406551 0 0.168325928881563 0.1322535427190108 0 0.15532541851061599 0.13137331457290979 0 0.15463650723619399 0.14586085742910221 0 0.16934327235384211 0.12764997327993269 0 0.15463650723619399 0.14586085742910221 0 0.16934327235384211 0.12764997327993269 0 0.15463650723619399 0.14586085742910221 0 0.16934327235384211 0.12764997327993269 0 0.168325928881563 0.1322535427190108 0 0.17273494486539001 0.13725676547406551 0 0.168325928881563 0.1322535427190108 0 0.1683396191170338 0.14595698492495771 0 0.16934327235384211 0.12764997327993269 0 0.168325928881563 0.1322535427190108 0 0.17528982946139671 0.13155618121260529 0 0.16934327235384211 0.12764997327993269 0 0.168325928881563 0.1322535427190108 0 0.15532541851061599 0.13137331457290979 0 0.16934327235384211 0.12764997327993269 0 0.16126582530658509 0.1241613196481799 0 0.15463650723619399 0.14586085742910221 0 0.168325928881563 0.1322535427190108 0 0.1683396191170338 0.14595698492495771 0 0.15463650723619399 0.14586085742910221 0 0.16204015551192771 0.1628512520315038 0 0.1683396191170338 0.14595698492495771 0 0.15418310496364851 0.2424786122894575 0 0.14633295819279951 0.24233203617085841 0 0.15164892151638559 0.25060092041291859 0 0.15418310496364851 0.2424786122894575 0 0.1622835199241997 0.24370231580499011 0 0.15164892151638559 0.25060092041291859 0 0.15418310496364851 0.2424786122894575 0 0.14633295819279951 0.24233203617085841 0 0.1544885841003556 0.2293367631220273 0 0.14633295819279951 0.24233203617085841 0 0.13874150805341201 0.24061860180520109 0 0.14270871937533591 0.23100071491116711 0 0.14633295819279951 0.24233203617085841 0 0.14297999583437759 0.24917477378247349 0 0.15164892151638559 0.25060092041291859 0 0.14633295819279951 0.24233203617085841 0 0.14297999583437759 0.24917477378247349 0 0.13874150805341201 0.24061860180520109 0 0.14297999583437759 0.24917477378247349 0 0.13561463509703611 0.24735013405300291 0 0.13874150805341201 0.24061860180520109 0 0.14297999583437759 0.24917477378247349 0 0.13561463509703611 0.24735013405300291 0 0.13860995558670339 0.25301499757288809 0 0.13561463509703611 0.24735013405300291 0 0.1277487384109664 0.24662733078467489 0 0.13214970077230281 0.23648168878787371 0 0.11714500643310689 0.24184084305890641 0 0.1277487384109664 0.24662733078467489 0 0.13214970077230281 0.23648168878787371 0 0.13561463509703611 0.24735013405300291 0 0.13214970077230281 0.23648168878787371 0 0.13874150805341201 0.24061860180520109 0 0.13214970077230281 0.23648168878787371 0 0.13874150805341201 0.24061860180520109 0 0.14270871937533591 0.23100071491116711 0 0.13214970077230281 0.23648168878787371 0 0.13181471734884589 0.2266643913759408 0 0.14270871937533591 0.23100071491116711 0 0.13181471734884589 0.2266643913759408 0 0.14270871937533591 0.23100071491116711 0 0.12988181228212109 0.2131379026144414 0 0.12251863696562371 0.22603725919028109 0 0.13214970077230281 0.23648168878787371 0 0.13181471734884589 0.2266643913759408 0 0.12251863696562371 0.22603725919028109 0 0.13181471734884589 0.2266643913759408 0 0.12988181228212109 0.2131379026144414 0 0.14270871937533591 0.23100071491116711 0 0.1544885841003556 0.2293367631220273 0 0.12988181228212109 0.2131379026144414 0 0.1544885841003556 0.2293367631220273 0 0.12988181228212109 0.2131379026144414 0 0.14633295819279951 0.24233203617085841 0 0.14270871937533591 0.23100071491116711 0 0.1544885841003556 0.2293367631220273 0 0.1544885841003556 0.2293367631220273 0 0.15560465915585961 0.2139452980240594 0 0.13869781330373679 0.20924440197705521 0 0.1544885841003556 0.2293367631220273 0 0.12988181228212109 0.2131379026144414 0 0.13869781330373679 0.20924440197705521 0 0.15560465915585961 0.2139452980240594 0 0.13869781330373679 0.20924440197705521 0 0.15560465915585961 0.2139452980240594 0 0.14841783745812909 0.20475889761714219 0 0.13869781330373679 0.20924440197705521 0 0.15560465915585961 0.2139452980240594 0 0.14841783745812909 0.20475889761714219 0 0.16165091737817261 0.20045470990679889 0 0.14841783745812909 0.20475889761714219 0 0.13869781330373679 0.20924440197705521 0 0.13808596367548601 0.19981717017800441 0 0.12294121813672899 0.1962131235235374 0 0.12988181228212109 0.2131379026144414 0 0.13182576260596809 0.20391859828952441 0 0.13182576260596809 0.20391859828952441 0 0.13869781330373679 0.20924440197705521 0 0.13808596367548601 0.19981717017800441 0 0.12988181228212109 0.2131379026144414 0 0.13182576260596809 0.20391859828952441 0 0.13869781330373679 0.20924440197705521 0 0.13808596367548601 0.19981717017800441 0 0.12948301493896799 0.19770563030393859 0 0.13105459294251509 0.18987953336476279 0 0.13182576260596809 0.20391859828952441 0 0.13808596367548601 0.19981717017800441 0 0.12948301493896799 0.19770563030393859 0 0.12294121813672899 0.1962131235235374 0 0.13182576260596809 0.20391859828952441 0 0.12948301493896799 0.19770563030393859 0 0.12294121813672899 0.1962131235235374 0 0.12948301493896799 0.19770563030393859 0 0.13105459294251509 0.18987953336476279 0 0.12294121813672899 0.1962131235235374 0 0.1228666290212994 0.18520041082350691 0 0.13105459294251509 0.18987953336476279 0 0.13841700548580391 0.1845056127920571 0 0.13105459294251509 0.18987953336476279 0 0.14049058878319759 0.1922098017864797 0 0.13808596367548601 0.19981717017800441 0 0.13105459294251509 0.18987953336476279 0 0.14049058878319759 0.1922098017864797 0 0.15079032974836121 0.18226322574253609 0 0.14049058878319759 0.1922098017864797 0 0.14790191889673479 0.19630368349651961 0 0.15079032974836121 0.18226322574253609 0 0.14790191889673479 0.19630368349651961 0 0.16165091737817261 0.20045470990679889 0 0.15079032974836121 0.18226322574253609 0 0.16165091737817261 0.20045470990679889 0 0.13808596367548601 0.19981717017800441 0 0.14049058878319759 0.1922098017864797 0 0.14790191889673479 0.19630368349651961 0 0.14841783745812909 0.20475889761714219 0 0.13808596367548601 0.19981717017800441 0 0.14790191889673479 0.19630368349651961 0 0.14841783745812909 0.20475889761714219 0 0.14790191889673479 0.19630368349651961 0 0.16165091737817261 0.20045470990679889 0 0.15079032974836121 0.18226322574253609 0 0.16165091737817261 0.20045470990679889 0 0.16520707863015149 0.1879491243085743 0 0.16165091737817261 0.20045470990679889 0 0.1712041356758183 0.20144883640348141 0 0.16520707863015149 0.1879491243085743 0 0.1712041356758183 0.20144883640348141 0 0.16520707863015149 0.1879491243085743 0 0.17754131674634141 0.19478517958964289 0 0.17641223907582809 0.17889510021295871 0 0.17754131674634141 0.19478517958964289 0 0.19488020007020021 0.19681751181220231 0 0.17754131674634141 0.19478517958964289 0 0.18051849603937431 0.206037843066391 0 0.19488020007020021 0.19681751181220231 0 0.1712041356758183 0.20144883640348141 0 0.17754131674634141 0.19478517958964289 0 0.18051849603937431 0.206037843066391 0 0.1712041356758183 0.20144883640348141 0 0.18051849603937431 0.206037843066391 0 0.17238544526434149 0.21211623471270249 0 0.18051849603937431 0.206037843066391 0 0.18136187705618961 0.21577461785114019 0 0.18981674503023541 0.22345786238132079 0 0.18136187705618961 0.21577461785114019 0 0.17238544526434149 0.21211623471270249 0 0.1827268218908073 0.22148653124414611 0 0.17238544526434149 0.21211623471270249 0 0.1827268218908073 0.22148653124414611 0 0.18051849603937431 0.206037843066391 0 0.18136187705618961 0.21577461785114019 0 0.17238544526434149 0.21211623471270249 0 0.17238544526434149 0.21211623471270249 0 0.17251150500798271 0.21864619407106239 0 0.1827268218908073 0.22148653124414611 0 0.16165091737817261 0.20045470990679889 0 0.17238544526434149 0.21211623471270249 0 0.17251150500798271 0.21864619407106239 0 0.15560465915585961 0.2139452980240594 0 0.17251150500798271 0.21864619407106239 0 0.16165091737817261 0.20045470990679889 0 0.17251150500798271 0.21864619407106239 0 0.15560465915585961 0.2139452980240594 0 0.16165091737817261 0.20045470990679889 0 0.17251150500798271 0.21864619407106239 0 0.16165091737817261 0.20045470990679889 0 0.1712041356758183 0.20144883640348141 0 0.17238544526434149 0.21211623471270249 0 0.15560465915585961 0.2139452980240594 0 0.17251150500798271 0.21864619407106239 0 0.16362348300632801 0.22374439089996301 0 0.1544885841003556 0.2293367631220273 0 0.16362348300632801 0.22374439089996301 0 0.17121008828197029 0.23181153593279119 0 0.1544885841003556 0.2293367631220273 0 0.15560465915585961 0.2139452980240594 0 0.16362348300632801 0.22374439089996301 0 0.17251150500798271 0.21864619407106239 0 0.16362348300632801 0.22374439089996301 0 0.17121008828197029 0.23181153593279119 0 0.17251150500798271 0.21864619407106239 0 0.1827268218908073 0.22148653124414611 0 0.1863315133765934 0.24179470794128871 0 0.17251150500798271 0.21864619407106239 0 0.1827268218908073 0.22148653124414611 0 0.17251150500798271 0.21864619407106239 0 0.17121008828197029 0.23181153593279119 0 0.1863315133765934 0.24179470794128871 0 0.1827268218908073 0.22148653124414611 0 0.1863315133765934 0.24179470794128871 0 0.18909474974784979 0.22725649538592471 0 0.17251150500798271 0.21864619407106239 0 0.1863315133765934 0.24179470794128871 0 0.18136187705618961 0.21577461785114019 0 0.1827268218908073 0.22148653124414611 0 0.18981674503023541 0.22345786238132079 0 0.1827268218908073 0.22148653124414611 0 0.18909474974784979 0.22725649538592471 0 0.1827268218908073 0.22148653124414611 0 0.18909474974784979 0.22725649538592471 0 0.18981674503023541 0.22345786238132079 0 0.1827268218908073 0.22148653124414611 0 0.18981674503023541 0.22345786238132079 0 0.17121008828197029 0.23181153593279119 0 0.1863315133765934 0.24179470794128871 0 0.1790953559185901 0.2455356236296132 0 0.1863315133765934 0.24179470794128871 0 0.1842785678011454 0.25259586829478281 0 0.1916917724144461 0.25077314177259769 0 0.1863315133765934 0.24179470794128871 0 0.1842785678011454 0.25259586829478281 0 0.1863315133765934 0.24179470794128871 0 0.1790953559185901 0.2455356236296132 0 0.1842785678011454 0.25259586829478281 0 0.1790953559185901 0.2455356236296132 0 0.1622835199241997 0.24370231580499011 0 0.15936993587747589 0.25872029442454331 0 0.1544885841003556 0.2293367631220273 0 0.1790953559185901 0.2455356236296132 0 0.1622835199241997 0.24370231580499011 0 0.1544885841003556 0.2293367631220273 0 0.1790953559185901 0.2455356236296132 0 0.1544885841003556 0.2293367631220273 0 0.17121008828197029 0.23181153593279119 0 0.1790953559185901 0.2455356236296132 0 0.15418310496364851 0.2424786122894575 0 0.1544885841003556 0.2293367631220273 0 0.1622835199241997 0.24370231580499011 0 0.21006328438723951 0.24625603427691251 0 0.21160490887710931 0.2295159937557423 0 0.22641896682136059 0.2422345701846027 0 0.21006328438723951 0.24625603427691251 0 0.22641896682136059 0.2422345701846027 0 0.21006328438723951 0.24625603427691251 0 0.18909474974784979 0.22725649538592471 0 0.1863315133765934 0.24179470794128871 0 0.21006328438723951 0.24625603427691251 0 0.18909474974784979 0.22725649538592471 0 0.1863315133765934 0.24179470794128871 0 0.21006328438723951 0.24625603427691251 0 0.1916917724144461 0.25077314177259769 0 0.21006328438723951 0.24625603427691251 0 0.1916917724144461 0.25077314177259769 0 0.1863315133765934 0.24179470794128871 0 0.1916917724144461 0.25077314177259769 0 0.1863315133765934 0.24179470794128871 0 0.18909474974784979 0.22725649538592471 0 0.18981674503023541 0.22345786238132079 0 0.21160490887710931 0.2295159937557423 0 0.18909474974784979 0.22725649538592471 0 0.18981674503023541 0.22345786238132079 0 0.21160490887710931 0.2295159937557423 0 0.18909474974784979 0.22725649538592471 0 0.18981674503023541 0.22345786238132079 0 0.21006328438723951 0.24625603427691251 0 0.18909474974784979 0.22725649538592471 0 0.21160490887710931 0.2295159937557423 0 0.18981674503023541 0.22345786238132079 0 0.21160490887710931 0.2295159937557423 0 0.20803570672464461 0.21156247112416979 0 0.20803570672464461 0.21156247112416979 0 0.2162718422218757 0.19307041967487021 0 0.22760483742380219 0.214950567996713 0 0.21160490887710931 0.2295159937557423 0 0.20803570672464461 0.21156247112416979 0 0.22760483742380219 0.214950567996713 0 0.18981674503023541 0.22345786238132079 0 0.19488020007020021 0.19681751181220231 0 0.18981674503023541 0.22345786238132079 0 0.20803570672464461 0.21156247112416979 0 0.19488020007020021 0.19681751181220231 0 0.18051849603937431 0.206037843066391 0 0.18981674503023541 0.22345786238132079 0 0.19488020007020021 0.19681751181220231 0 0.19488020007020021 0.19681751181220231 0 0.2162718422218757 0.19307041967487021 0 0.21144414463922209 0.17769727616991629 0 0.20803570672464461 0.21156247112416979 0 0.19488020007020021 0.19681751181220231 0 0.2162718422218757 0.19307041967487021 0 0.2162718422218757 0.19307041967487021 0 0.23390550015893249 0.19625806103275359 0 0.224884735501933 0.1835002475584688 0 0.2162718422218757 0.19307041967487021 0 0.23390550015893249 0.19625806103275359 0 0.22760483742380219 0.214950567996713 0 0.23390550015893249 0.19625806103275359 0 0.224884735501933 0.1835002475584688 0 0.23969856982118029 0.18307986814345761 0 0.23390550015893249 0.19625806103275359 0 0.24463737112728101 0.20835158098876269 0 0.25073204180229741 0.1932207952246269 0 0.23390550015893249 0.19625806103275359 0 0.23969856982118029 0.18307986814345761 0 0.25073204180229741 0.1932207952246269 0 0.23390550015893249 0.19625806103275359 0 0.24463737112728101 0.20835158098876269 0 0.22760483742380219 0.214950567996713 0 0.24463737112728101 0.20835158098876269 0 0.22760483742380219 0.214950567996713 0 0.24845356545818309 0.22428225389957809 0 0.21160490887710931 0.2295159937557423 0 0.22760483742380219 0.214950567996713 0 0.2333930727239831 0.23557412513016349 0 0.21160490887710931 0.2295159937557423 0 0.2333930727239831 0.23557412513016349 0 0.22760483742380219 0.214950567996713 0 0.24845356545818309 0.22428225389957809 0 0.2333930727239831 0.23557412513016349 0 0.24845356545818309 0.22428225389957809 0 0.2333930727239831 0.23557412513016349 0 0.2551812365708569 0.24163225650458531 0 0.2333930727239831 0.23557412513016349 0 0.2551812365708569 0.24163225650458531 0 0.2385216144851274 0.24513453473418331 0 0.24493592301361991 0.25343933973140892 0 0.2551812365708569 0.24163225650458531 0 0.2385216144851274 0.24513453473418331 0 0.2333930727239831 0.23557412513016349 0 0.2551812365708569 0.24163225650458531 0 0.2385216144851274 0.24513453473418331 0 0.22641896682136059 0.2422345701846027 0 0.2326788732958163 0.25279238212015659 0 0.21006328438723951 0.24625603427691251 0 0.22641896682136059 0.2422345701846027 0 0.2326788732958163 0.25279238212015659 0 0.21160490887710931 0.2295159937557423 0 0.2333930727239831 0.23557412513016349 0 0.22641896682136059 0.2422345701846027 0 0.2385216144851274 0.24513453473418331 0 0.2333930727239831 0.23557412513016349 0 0.22641896682136059 0.2422345701846027 0 0.20391661621623411 0.14685813769851969 0 0.2218075930187072 0.16496900292098859 0 0.20391661621623411 0.14685813769851969 0 0.2174313222260276 0.14340753609969889 0 0.2218075930187072 0.16496900292098859 0 0.20391661621623411 0.14685813769851969 0 0.2174313222260276 0.14340753609969889 0 0.19575459130388251 0.13514725815968601 0 0.2174313222260276 0.14340753609969889 0 0.21118658174218111 0.1326702780683556 0 0.2245236022557196 0.13449517453708851 0 0.2174313222260276 0.14340753609969889 0 0.21118658174218111 0.1326702780683556 0 0.19575459130388251 0.13514725815968601 0 0.2174313222260276 0.14340753609969889 0 0.19575459130388251 0.13514725815968601 0 0.21118658174218111 0.1326702780683556 0 0.2245236022557196 0.13449517453708851 0 0.2154892699569663 0.1239746647308811 0 0.21118658174218111 0.1326702780683556 0 0.20367028769115181 0.1261968954234077 0 0.2154892699569663 0.1239746647308811 0 0.21118658174218111 0.1326702780683556 0 0.20367028769115181 0.1261968954234077 0 0.19575459130388251 0.13514725815968601 0 0.18602563941376099 0.12874727247605081 0 0.20391661621623411 0.14685813769851969 0 0.18602563941376099 0.12874727247605081 0 0.20391661621623411 0.14685813769851969 0 0.19575459130388251 0.13514725815968601 0 0.18602563941376099 0.12874727247605081 0 0.20391661621623411 0.14685813769851969 0 0.18874820394077271 0.14397556743764131 0 0.20367028769115181 0.1261968954234077 0 0.19575459130388251 0.13514725815968601 0 0.19499515635837511 0.1251751632881874 0 0.18602563941376099 0.12874727247605081 0 0.19575459130388251 0.13514725815968601 0 0.19499515635837511 0.1251751632881874 0 0.18602563941376099 0.12874727247605081 0 0.19499515635837511 0.1251751632881874 0 0.18773396281682739 0.12156842983955971 0 0.20391661621623411 0.14685813769851969 0 0.19438733729913291 0.15605653302140979 0 0.20629986925669169 0.1631516222107835 0 0.20391661621623411 0.14685813769851969 0 0.18874820394077271 0.14397556743764131 0 0.19438733729913291 0.15605653302140979 0 0.18129806665415041 0.1513097582867107 0 0.18874820394077271 0.14397556743764131 0 0.19438733729913291 0.15605653302140979 0 0.1849836775427835 0.16433890506381429 0 0.19438733729913291 0.15605653302140979 0 0.19994365511016249 0.17017716124308321 0 0.19438733729913291 0.15605653302140979 0 0.19994365511016249 0.17017716124308321 0 0.20629986925669169 0.1631516222107835 0 0.19488020007020021 0.19681751181220231 0 0.19994365511016249 0.17017716124308321 0 0.21144414463922209 0.17769727616991629 0 0.17641223907582809 0.17889510021295871 0 0.19488020007020021 0.19681751181220231 0 0.19994365511016249 0.17017716124308321 0 0.19488020007020021 0.19681751181220231 0 0.19994365511016249 0.17017716124308321 0 0.2162718422218757 0.19307041967487021 0 0.21144414463922209 0.17769727616991629 0 0.224884735501933 0.1835002475584688 0 0.20391661621623411 0.14685813769851969 0 0.20629986925669169 0.1631516222107835 0 0.2218075930187072 0.16496900292098859 0 0.19994365511016249 0.17017716124308321 0 0.21144414463922209 0.17769727616991629 0 0.20629986925669169 0.1631516222107835 0 0.21144414463922209 0.17769727616991629 0 0.20629986925669169 0.1631516222107835 0 0.2218075930187072 0.16496900292098859 0 0.22629982248668171 0.16828213614348039 0 0.2391080531481726 0.15166781403971219 0 0.22629982248668171 0.16828213614348039 0 0.2218075930187072 0.16496900292098859 0 0.2391080531481726 0.15166781403971219 0 0.21144414463922209 0.17769727616991629 0 0.2218075930187072 0.16496900292098859 0 0.224884735501933 0.1835002475584688 0 0.2218075930187072 0.16496900292098859 0 0.23969856982118029 0.18307986814345761 0 0.2218075930187072 0.16496900292098859 0 0.224884735501933 0.1835002475584688 0 0.23969856982118029 0.18307986814345761 0 0.22629982248668171 0.16828213614348039 0 0.2218075930187072 0.16496900292098859 0 0.23969856982118029 0.18307986814345761 0 0.23969856982118029 0.18307986814345761 0 0.24379503891784551 0.1673423148611064 0 0.25553948601019638 0.17617637788106749 0 0.22629982248668171 0.16828213614348039 0 0.23969856982118029 0.18307986814345761 0 0.24379503891784551 0.1673423148611064 0 0.23969856982118029 0.18307986814345761 0 0.25553948601019638 0.17617637788106749 0 0.25073204180229741 0.1932207952246269 0 0.22629982248668171 0.16828213614348039 0 0.24379503891784551 0.1673423148611064 0 0.2391080531481726 0.15166781403971219 0 0.24379503891784551 0.1673423148611064 0 0.2391080531481726 0.15166781403971219 0 0.25667385192160991 0.15836155308311589 0 0.2391080531481726 0.15166781403971219 0 0.25400895402806112 0.1323389642244874 0 0.25667385192160991 0.15836155308311589 0 0.2391080531481726 0.15166781403971219 0 0.25400895402806112 0.1323389642244874 0 0.2391080531481726 0.15166781403971219 0 0.25667385192160991 0.15836155308311589 0 0.2174313222260276 0.14340753609969889 0 0.2218075930187072 0.16496900292098859 0 0.2391080531481726 0.15166781403971219 0 0.2174313222260276 0.14340753609969889 0 0.2391080531481726 0.15166781403971219 0 0.2174313222260276 0.14340753609969889 0 0.2391080531481726 0.15166781403971219 0 0.2245236022557196 0.13449517453708851 0 0.2391080531481726 0.15166781403971219 0 0.2245236022557196 0.13449517453708851 0 0.23636066641419859 0.1316269649836827 0 0.2245236022557196 0.13449517453708851 0 0.2275657200467712 0.1236237893002009 0 0.2154892699569663 0.1239746647308811 0 0.2245236022557196 0.13449517453708851 0 0.23636066641419859 0.1316269649836827 0 0.2275657200467712 0.1236237893002009 0 0.2391080531481726 0.15166781403971219 0 0.23636066641419859 0.1316269649836827 0 0.25400895402806112 0.1323389642244874 0 0.23636066641419859 0.1316269649836827 0 0.23837509289651551 0.11935377187874149 0 0.25400895402806112 0.1323389642244874 0 0.23837509289651551 0.11935377187874149 0 0.24939372836183171 0.1087620438097653 0 0.25400895402806112 0.1323389642244874 0 0.24939372836183171 0.1087620438097653 0 0.2255925144640423 0.11148900217599909 0 0.23837509289651551 0.11935377187874149 0 0.24939372836183171 0.1087620438097653 0 0.2255925144640423 0.11148900217599909 0 0.24926499288034901 0.097833509686936646 0 0.23640906175338189 0.1006637225655168 0 0.24453420445639781 0.083411633841565663 0 0.24939372836183171 0.1087620438097653 0 0.23640906175338189 0.1006637225655168 0 0.2255925144640423 0.11148900217599909 0 0.24926499288034901 0.097833509686936646 0 0.24939372836183171 0.1087620438097653 0 0.23640906175338189 0.1006637225655168 0 0.23640906175338189 0.1006637225655168 0 0.22122947084068681 0.1026039270987725 0 0.22370095730355649 0.087692205539246892 0 0.23640906175338189 0.1006637225655168 0 0.22122947084068681 0.1026039270987725 0 0.2255925144640423 0.11148900217599909 0 0.23837509289651551 0.11935377187874149 0 0.2275657200467712 0.1236237893002009 0 0.2255925144640423 0.11148900217599909 0 0.23636066641419859 0.1316269649836827 0 0.23837509289651551 0.11935377187874149 0 0.2275657200467712 0.1236237893002009 0 0.2275657200467712 0.1236237893002009 0 0.2255925144640423 0.11148900217599909 0 0.2154892699569663 0.1239746647308811 0 0.2255925144640423 0.11148900217599909 0 0.2154892699569663 0.1239746647308811 0 0.20179130056625291 0.11421596054223281 0 0.2255925144640423 0.11148900217599909 0 0.2090187778927505 0.1039538360553675 0 0.20179130056625291 0.11421596054223281 0 0.2255925144640423 0.11148900217599909 0 0.20179130056625291 0.11421596054223281 0 0.20367028769115181 0.1261968954234077 0 0.2154892699569663 0.1239746647308811 0 0.20179130056625291 0.11421596054223281 0 0.22122947084068681 0.1026039270987725 0 0.20286771015071511 0.091972777236928427 0 0.22122947084068681 0.1026039270987725 0 0.2090187778927505 0.1039538360553675 0 0.20286771015071511 0.091972777236928427 0 0.22122947084068681 0.1026039270987725 0 0.2255925144640423 0.11148900217599909 0 0.2090187778927505 0.1039538360553675 0 0.22122947084068681 0.1026039270987725 0 0.20286771015071511 0.091972777236928427 0 0.22370095730355649 0.087692205539246892 0 0.2090187778927505 0.1039538360553675 0 0.1980168996516776 0.1043724158010524 0 0.20286771015071511 0.091972777236928427 0 0.1980168996516776 0.1043724158010524 0 0.19644487478082501 0.093292466246592223 0 0.17799008666846369 0.1169429189084689 0 0.2090187778927505 0.1039538360553675 0 0.1980168996516776 0.1043724158010524 0 0.20179130056625291 0.11421596054223281 0 0.1980168996516776 0.1043724158010524 0 0.19644487478082501 0.093292466246592223 0 0.20286771015071511 0.091972777236928427 0 0.1980168996516776 0.1043724158010524 0 0.20179130056625291 0.11421596054223281 0 0.17799008666846369 0.1169429189084689 0 0.18773396281682739 0.12156842983955971 0 0.20179130056625291 0.11421596054223281 0 0.17799008666846369 0.1169429189084689 0 0.20179130056625291 0.11421596054223281 0 0.17799008666846369 0.1169429189084689 0 0.19499515635837511 0.1251751632881874 0 0.18773396281682739 0.12156842983955971 0 0.20179130056625291 0.11421596054223281 0 0.20367028769115181 0.1261968954234077 0 0.19499515635837511 0.1251751632881874 0 0.20179130056625291 0.11421596054223281 0 0.20108866482026469 0.062660349112820465 0 0.1914380884346451 0.071385092602742367 0 0.1841603608403336 0.060601333768152153 0 0.20302722235872731 0.077296670093505326 0 0.20108866482026469 0.062660349112820465 0 0.1914380884346451 0.071385092602742367 0 0.20302722235872731 0.077296670093505326 0 0.20108866482026469 0.062660349112820465 0 0.20286771015071511 0.091972777236928427 0 0.18013608290876459 0.078811548317052393 0 0.19644487478082501 0.093292466246592223 0 0.20286771015071511 0.091972777236928427 0 0.18013608290876459 0.078811548317052393 0 0.20302722235872731 0.077296670093505326 0 0.1914380884346451 0.071385092602742367 0 0.20286771015071511 0.091972777236928427 0 0.1914380884346451 0.071385092602742367 0 0.20286771015071511 0.091972777236928427 0 0.18013608290876459 0.078811548317052393 0 0.19644487478082501 0.093292466246592223 0 0.20286771015071511 0.091972777236928427 0 0.20286771015071511 0.091972777236928427 0 0.21507728481174171 0.076282327299020125 0 0.22370095730355649 0.087692205539246892 0 0.20302722235872731 0.077296670093505326 0 0.20286771015071511 0.091972777236928427 0 0.21507728481174171 0.076282327299020125 0 0.20286771015071511 0.091972777236928427 0 0.22370095730355649 0.087692205539246892 0 0.20302722235872731 0.077296670093505326 0 0.21507728481174171 0.076282327299020125 0 0.20838430995292659 0.069925045406674075 0 0.20302722235872731 0.077296670093505326 0 0.20108866482026469 0.062660349112820465 0 0.20838430995292659 0.069925045406674075 0 0.20108866482026469 0.062660349112820465 0 0.20838430995292659 0.069925045406674075 0 0.2078714471886981 0.063641821567089488 0 0.20838430995292659 0.069925045406674075 0 0.2078714471886981 0.063641821567089488 0 0.21292322500089481 0.063809124836209041 0 0.21507728481174171 0.076282327299020125 0 0.21292322500089481 0.063809124836209041 0 0.22226086265466391 0.066083763738658471 0 0.21292322500089481 0.063809124836209041 0 0.22226086265466391 0.066083763738658471 0 0.21854387452336549 0.060229597507069688 0 0.21507728481174171 0.076282327299020125 0 0.20838430995292659 0.069925045406674075 0 0.21292322500089481 0.063809124836209041 0 0.21507728481174171 0.076282327299020125 0 0.22226086265466391 0.066083763738658471 0 0.23065598703369691 0.074445347743870474 0 0.22226086265466391 0.066083763738658471 0 0.23065598703369691 0.074445347743870474 0 0.23075460651731691 0.062769372541245982 0 0.23065598703369691 0.074445347743870474 0 0.22370095730355649 0.087692205539246892 0 0.24453420445639781 0.083411633841565663 0 0.22370095730355649 0.087692205539246892 0 0.24453420445639781 0.083411633841565663 0 0.21507728481174171 0.076282327299020125 0 0.23065598703369691 0.074445347743870474 0 0.22370095730355649 0.087692205539246892 0 0.23640906175338189 0.1006637225655168 0 0.22370095730355649 0.087692205539246892 0 0.24453420445639781 0.083411633841565663 0 0.24453420445639781 0.083411633841565663 0 0.2425396257587987 0.063747620792488427 0 0.25333778260550099 0.070771559748385157 0 0.23065598703369691 0.074445347743870474 0 0.24453420445639781 0.083411633841565663 0 0.2425396257587987 0.063747620792488427 0 0.23065598703369691 0.074445347743870474 0 0.23075460651731691 0.062769372541245982 0 0.2425396257587987 0.063747620792488427 0 0.2425396257587987 0.063747620792488427 0 0.24570016514198911 0.049034817990739887 0 0.26090984859756849 0.056795922215602077 0 0.23075460651731691 0.062769372541245982 0 0.2425396257587987 0.063747620792488427 0 0.2321288119276215 0.050560158877538737 0 0.2425396257587987 0.063747620792488427 0 0.24570016514198911 0.049034817990739887 0 0.2321288119276215 0.050560158877538737 0 0.23886120953515461 0.039933391503956417 0 0.2338652400442553 0.027470089287165121 0 0.25645224558589569 0.034460782287320087 0 0.24570016514198911 0.049034817990739887 0 0.23886120953515461 0.039933391503956417 0 0.25645224558589569 0.034460782287320087 0 0.24570016514198911 0.049034817990739887 0 0.23886120953515461 0.039933391503956417 0 0.2321288119276215 0.050560158877538737 0 0.23886120953515461 0.039933391503956417 0 0.2261595849760111 0.038141109077018231 0 0.2321288119276215 0.050560158877538737 0 0.23886120953515461 0.039933391503956417 0 0.2261595849760111 0.038141109077018231 0 0.2338652400442553 0.027470089287165121 0 0.2261595849760111 0.038141109077018231 0 0.22185904456313249 0.0270434431230561 0 0.21333976248655681 0.037485206929145032 0 0.2261595849760111 0.038141109077018231 0 0.2196481493655959 0.046066681490813971 0 0.21333976248655681 0.037485206929145032 0 0.2261595849760111 0.038141109077018231 0 0.2196481493655959 0.046066681490813971 0 0.2321288119276215 0.050560158877538737 0 0.2196481493655959 0.046066681490813971 0 0.224023503714469 0.056885671294722731 0 0.2321288119276215 0.050560158877538737 0 0.2196481493655959 0.046066681490813971 0 0.224023503714469 0.056885671294722731 0 0.21496790672343419 0.054139830158688521 0 0.22226086265466391 0.066083763738658471 0 0.23075460651731691 0.062769372541245982 0 0.224023503714469 0.056885671294722731 0 0.22226086265466391 0.066083763738658471 0 0.224023503714469 0.056885671294722731 0 0.21854387452336549 0.060229597507069688 0 0.224023503714469 0.056885671294722731 0 0.21854387452336549 0.060229597507069688 0 0.21496790672343419 0.054139830158688521 0 0.23075460651731691 0.062769372541245982 0 0.224023503714469 0.056885671294722731 0 0.2321288119276215 0.050560158877538737 0 0.25199464257422283 0.01212564235903813 0 0.24753703956254999 -0.01020949756924389 0 0.2395762574609204 0.002991689319715289 0 0.25199464257422283 0.01212564235903813 0 0.24753703956254999 -0.01020949756924389 0 0.2395762574609204 0.002991689319715289 0 0.23964122540641161 0.015912261168314141 0 0.25199464257422283 0.01212564235903813 0 0.2395762574609204 0.002991689319715289 0 0.23964122540641161 0.015912261168314141 0 0.22525144146039569 0.0086877435239835279 0 0.23964122540641161 0.015912261168314141 0 0.25199464257422283 0.01212564235903813 0 0.25645224558589569 0.034460782287320087 0 0.23964122540641161 0.015912261168314141 0 0.2338652400442553 0.027470089287165121 0 0.25645224558589569 0.034460782287320087 0 0.22185904456313249 0.0270434431230561 0 0.22525144146039569 0.0086877435239835279 0 0.21138677859075569 0.022210128850687971 0 0.2338652400442553 0.027470089287165121 0 0.22185904456313249 0.0270434431230561 0 0.22525144146039569 0.0086877435239835279 0 0.23964122540641161 0.015912261168314141 0 0.2338652400442553 0.027470089287165121 0 0.22525144146039569 0.0086877435239835279 0 0.2261595849760111 0.038141109077018231 0 0.2338652400442553 0.027470089287165121 0 0.22185904456313249 0.0270434431230561 0 0.2395762574609204 0.002991689319715289 0 0.22525144146039569 0.0086877435239835279 0 0.23053237693820861 -0.0090602811915990143 0 0.22525144146039569 0.0086877435239835279 0 0.20771419223716811 0.0058451178476065114 0 0.21623936074239711 -0.007813001722562548 0 0.22525144146039569 0.0086877435239835279 0 0.20771419223716811 0.0058451178476065114 0 0.21138677859075569 0.022210128850687971 0 0.20771419223716811 0.0058451178476065114 0 0.21138677859075569 0.022210128850687971 0 0.1952433519535143 0.018527599038153111 0 0.22525144146039569 0.0086877435239835279 0 0.21138677859075569 0.022210128850687971 0 0.22185904456313249 0.0270434431230561 0 0.21138677859075569 0.022210128850687971 0 0.21333976248655681 0.037485206929145032 0 0.21138677859075569 0.022210128850687971 0 0.19752211572111561 0.035732514177392483 0 0.1952433519535143 0.018527599038153111 0 0.19752211572111561 0.035732514177392483 0 0.21138677859075569 0.022210128850687971 0 0.1952433519535143 0.018527599038153111 0 0.19752211572111561 0.035732514177392483 0 0.1952433519535143 0.018527599038153111 0 0.19752211572111561 0.035732514177392483 0 0.179806868627715 0.0293168371852633 0 0.1952433519535143 0.018527599038153111 0 0.192964588185913 0.001322683898913823 0 0.20771419223716811 0.0058451178476065114 0 0.1952433519535143 0.018527599038153111 0 0.192964588185913 0.001322683898913823 0 0.1952433519535143 0.018527599038153111 0 0.192964588185913 0.001322683898913823 0 0.18141587944829399 0.0137685385436929 0 0.20647124079233869 0.048076301952990223 0 0.2079454256828826 0.057632436840502843 0 0.21247449701016169 0.048680091474428117 0 0.20108866482026469 0.062660349112820465 0 0.20647124079233869 0.048076301952990223 0 0.2079454256828826 0.057632436840502843 0 0.20108866482026469 0.062660349112820465 0 0.2078714471886981 0.063641821567089488 0 0.2079454256828826 0.057632436840502843 0 0.2078714471886981 0.063641821567089488 0 0.21292322500089481 0.063809124836209041 0 0.2079454256828826 0.057632436840502843 0 0.21292322500089481 0.063809124836209041 0 0.2079454256828826 0.057632436840502843 0 0.21496790672343419 0.054139830158688521 0 0.21292322500089481 0.063809124836209041 0 0.21854387452336549 0.060229597507069688 0 0.21496790672343419 0.054139830158688521 0 0.2196481493655959 0.046066681490813971 0 0.21247449701016169 0.048680091474428117 0 0.21496790672343419 0.054139830158688521 0 0.2079454256828826 0.057632436840502843 0 0.21247449701016169 0.048680091474428117 0 0.21496790672343419 0.054139830158688521 0 0.21138677859075569 0.022210128850687971 0 0.21333976248655681 0.037485206929145032 0 0.19752211572111561 0.035732514177392483 0 0.2196481493655959 0.046066681490813971 0 0.21247449701016169 0.048680091474428117 0 0.21333976248655681 0.037485206929145032 0 0.20647124079233869 0.048076301952990223 0 0.21333976248655681 0.037485206929145032 0 0.19752211572111561 0.035732514177392483 0 0.20647124079233869 0.048076301952990223 0 0.21247449701016169 0.048680091474428117 0 0.21333976248655681 0.037485206929145032 0 0.19752211572111561 0.035732514177392483 0 0.18544582985288341 0.04751067224449225 0 0.179806868627715 0.0293168371852633 0 0.19752211572111561 0.035732514177392483 0 0.18594092472379051 0.052544124279364737 0 0.18544582985288341 0.04751067224449225 0 0.19752211572111561 0.035732514177392483 0 0.18544582985288341 0.04751067224449225 0 0.20108866482026469 0.062660349112820465 0 0.19752211572111561 0.035732514177392483 0 0.18594092472379051 0.052544124279364737 0 0.20108866482026469 0.062660349112820465 0 0.1841603608403336 0.060601333768152153 0 0.18594092472379051 0.052544124279364737 0 0.20108866482026469 0.062660349112820465 0 0.1841603608403336 0.060601333768152153 0 0.20108866482026469 0.062660349112820465 0 0.19752211572111561 0.035732514177392483 0 0.20108866482026469 0.062660349112820465 0 0.20647124079233869 0.048076301952990223 0 0.19752211572111561 0.035732514177392483 0 0.1841603608403336 0.060601333768152153 0 0.1733695439846514 0.059288830311592072 0 0.18594092472379051 0.052544124279364737 0 0.1733695439846514 0.059288830311592072 0 0.18544582985288341 0.04751067224449225 0 0.17448446518527619 0.041046191761762683 0 0.1841603608403336 0.060601333768152153 0 0.18594092472379051 0.052544124279364737 0 0.1841603608403336 0.060601333768152153 0 0.1733695439846514 0.059288830311592072 0 0.1733695439846514 0.059288830311592072 0 0.18544582985288341 0.04751067224449225 0 0.1733695439846514 0.059288830311592072 0 0.18594092472379051 0.052544124279364737 0 0.18544582985288341 0.04751067224449225 0 0.17448446518527619 0.041046191761762683 0 0.16357247920388601 0.031428230382362803 0 0.179806868627715 0.0293168371852633 0 0.18544582985288341 0.04751067224449225 0 0.17448446518527619 0.041046191761762683 0 0.179806868627715 0.0293168371852633 0 0.17448446518527619 0.041046191761762683 0 0.16357247920388601 0.031428230382362803 0 0.16302049019234841 0.046570528884837703 0 0.16357247920388601 0.031428230382362803 0 0.16302049019234841 0.046570528884837703 0 0.1497481244964759 0.036942319580258419 0 0.1733695439846514 0.059288830311592072 0 0.14992439655575721 0.056437161392405691 0 0.152543709658258 0.06283602940996269 0 0.1733695439846514 0.059288830311592072 0 0.14992439655575721 0.056437161392405691 0 0.1733695439846514 0.059288830311592072 0 0.16302049019234841 0.046570528884837703 0 0.14992439655575721 0.056437161392405691 0 0.1733695439846514 0.059288830311592072 0 0.17448446518527619 0.041046191761762683 0 0.16302049019234841 0.046570528884837703 0 0.192964588185913 0.001322683898913823 0 0.1752759979132742 0.0012444613690271869 0 0.18141587944829399 0.0137685385436929 0 0.1752759979132742 0.0012444613690271869 0 0.18141587944829399 0.0137685385436929 0 0.16387426104607999 0.015519819017581499 0 0.18141587944829399 0.0137685385436929 0 0.179806868627715 0.0293168371852633 0 0.16387426104607999 0.015519819017581499 0 0.1952433519535143 0.018527599038153111 0 0.18141587944829399 0.0137685385436929 0 0.179806868627715 0.0293168371852633 0 0.16357247920388601 0.031428230382362803 0 0.179806868627715 0.0293168371852633 0 0.16387426104607999 0.015519819017581499 0 0.16357247920388601 0.031428230382362803 0 0.16387426104607999 0.015519819017581499 0 0.14536099015485451 0.024924768565197809 0 0.1752759979132742 0.0012444613690271869 0 0.16387426104607999 0.015519819017581499 0 0.16042986223991529 0.00012293683036693629 0 0.16387426104607999 0.015519819017581499 0 0.16042986223991529 0.00012293683036693629 0 0.14395150954340419 0.0067659553444673164 0 0.16387426104607999 0.015519819017581499 0 0.14395150954340419 0.0067659553444673164 0 0.14536099015485451 0.024924768565197809 0 0.16357247920388601 0.031428230382362803 0 0.14536099015485451 0.024924768565197809 0 0.1497481244964759 0.036942319580258419 0 0.14536099015485451 0.024924768565197809 0 0.12795439222270669 0.02230707516679066 0 0.13294023283519829 0.036932220027843347 0 0.14395150954340419 0.0067659553444673164 0 0.14536099015485451 0.024924768565197809 0 0.12795439222270669 0.02230707516679066 0 0.1210613403930125 0.004795896164540109 0 0.14395150954340419 0.0067659553444673164 0 0.12795439222270669 0.02230707516679066 0 0.14992439655575721 0.056437161392405691 0 0.1497481244964759 0.036942319580258419 0 0.12538008986903079 0.050513544280858427 0 0.14130850677199361 0.057926492146451021 0 0.14992439655575721 0.056437161392405691 0 0.1443642705049947 0.064569874777914357 0 0.14992439655575721 0.056437161392405691 0 0.1443642705049947 0.064569874777914357 0 0.152543709658258 0.06283602940996269 0 0.16302049019234841 0.046570528884837703 0 0.14992439655575721 0.056437161392405691 0 0.1497481244964759 0.036942319580258419 0 0.14536099015485451 0.024924768565197809 0 0.1497481244964759 0.036942319580258419 0 0.13294023283519829 0.036932220027843347 0 0.1497481244964759 0.036942319580258419 0 0.13294023283519829 0.036932220027843347 0 0.12538008986903079 0.050513544280858427 0 0.1497481244964759 0.036942319580258419 0 0.12538008986903079 0.050513544280858427 0 0.1181203805069737 0.036826612053207572 0 0.12795439222270669 0.02230707516679066 0 0.13294023283519829 0.036932220027843347 0 0.1238427750788631 0.042536964017441593 0 0.13294023283519829 0.036932220027843347 0 0.12538008986903079 0.050513544280858427 0 0.14130850677199361 0.057926492146451021 0 0.14992439655575721 0.056437161392405691 0 0.12647924912686309 0.053585492473219247 0 0.14992439655575721 0.056437161392405691 0 0.12538008986903079 0.050513544280858427 0 0.12647924912686309 0.053585492473219247 0 0.14992439655575721 0.056437161392405691 0 0.12647924912686309 0.053585492473219247 0 0.14130850677199361 0.057926492146451021 0 0.13277849289456761 0.060443326451481698 0 0.13611457419231759 0.065187884291115078 0 0.14130850677199361 0.057926492146451021 0 0.13277849289456761 0.060443326451481698 0 0.13202798511330829 0.058113986347085693 0 0.14130850677199361 0.057926492146451021 0 0.12647924912686309 0.053585492473219247 0 0.13202798511330829 0.058113986347085693 0 0.13277849289456761 0.060443326451481698 0 0.13202798511330829 0.058113986347085693 0 0.12754569165980911 0.060500634317190771 0 0.13277849289456761 0.060443326451481698 0 0.12754569165980911 0.060500634317190771 0 0.12921666555375419 0.064596943458589628 0 0.12647924912686309 0.053585492473219247 0 0.13202798511330829 0.058113986347085693 0 0.12754569165980911 0.060500634317190771 0 0.1193220938219573 0.068173263495368383 0 0.12754569165980911 0.060500634317190771 0 0.12921666555375419 0.064596943458589628 0 0.12921666555375419 0.064596943458589628 0 0.12900118301339381 0.072609262641786493 0 0.13611457419231759 0.065187884291115078 0 0.1193220938219573 0.068173263495368383 0 0.12921666555375419 0.064596943458589628 0 0.12900118301339381 0.072609262641786493 0 0.13277849289456761 0.060443326451481698 0 0.12921666555375419 0.064596943458589628 0 0.13611457419231759 0.065187884291115078 0 0.12900118301339381 0.072609262641786493 0 0.13840144103972299 0.073098817775906252 0 0.13166497669982691 0.081068114085112775 0 0.12900118301339381 0.072609262641786493 0 0.13840144103972299 0.073098817775906252 0 0.13611457419231759 0.065187884291115078 0 0.14130850677199361 0.057926492146451021 0 0.13611457419231759 0.065187884291115078 0 0.1443642705049947 0.064569874777914357 0 0.13840144103972299 0.073098817775906252 0 0.13611457419231759 0.065187884291115078 0 0.1443642705049947 0.064569874777914357 0 0.13840144103972299 0.073098817775906252 0 0.1443642705049947 0.064569874777914357 0 0.1460795376684606 0.072065237659027268 0 0.1443642705049947 0.064569874777914357 0 0.1460795376684606 0.072065237659027268 0 0.152543709658258 0.06283602940996269 0 0.13840144103972299 0.073098817775906252 0 0.1460795376684606 0.072065237659027268 0 0.1459567147684829 0.081241973580878646 0 0.1460795376684606 0.072065237659027268 0 0.15382967684910051 0.074043080758720473 0 0.1459567147684829 0.081241973580878646 0 0.1460795376684606 0.072065237659027268 0 0.15382967684910051 0.074043080758720473 0 0.152543709658258 0.06283602940996269 0 0.1459567147684829 0.081241973580878646 0 0.14802599195352931 0.096292402844096112 0 0.16123879661578219 0.084991270290997289 0 0.15382967684910051 0.074043080758720473 0 0.1459567147684829 0.081241973580878646 0 0.16123879661578219 0.084991270290997289 0 0.1459567147684829 0.081241973580878646 0 0.1361725035248692 0.091851833649826728 0 0.14802599195352931 0.096292402844096112 0 0.1198751958672022 0.095608922582459163 0 0.1361725035248692 0.091851833649826728 0 0.13166497669982691 0.081068114085112775 0 0.1459567147684829 0.081241973580878646 0 0.1361725035248692 0.091851833649826728 0 0.13166497669982691 0.081068114085112775 0 0.13840144103972299 0.073098817775906252 0 0.1459567147684829 0.081241973580878646 0 0.13166497669982691 0.081068114085112775 0 0.1198165682318405 0.082529483207096493 0 0.12900118301339381 0.072609262641786493 0 0.13166497669982691 0.081068114085112775 0 0.1198751958672022 0.095608922582459163 0 0.1361725035248692 0.091851833649826728 0 0.1353396383353048 0.105047755156587 0 0.1361725035248692 0.091851833649826728 0 0.1353396383353048 0.105047755156587 0 0.14802599195352931 0.096292402844096112 0 0.1136456691481698 0.1200459196328274 0 0.1353396383353048 0.105047755156587 0 0.1391258913616209 0.1229970163466349 0 0.1391258913616209 0.1229970163466349 0 0.15583307629693191 0.1187281211142384 0 0.1494286080197296 0.1085701992433916 0 0.1353396383353048 0.105047755156587 0 0.1391258913616209 0.1229970163466349 0 0.1494286080197296 0.1085701992433916 0 0.15532541851061599 0.13137331457290979 0 0.1391258913616209 0.1229970163466349 0 0.15583307629693191 0.1187281211142384 0 0.1353396383353048 0.105047755156587 0 0.14802599195352931 0.096292402844096112 0 0.1494286080197296 0.1085701992433916 0 0.14802599195352931 0.096292402844096112 0 0.1494286080197296 0.1085701992433916 0 0.16038169799152191 0.10070230556545751 0 0.16038169799152191 0.10070230556545751 0 0.16359518759801389 0.10967517462958259 0 0.1760079753691049 0.097491601051087923 0 0.16038169799152191 0.10070230556545751 0 0.1760079753691049 0.097491601051087923 0 0.16123879661578219 0.084991270290997289 0 0.14802599195352931 0.096292402844096112 0 0.16038169799152191 0.10070230556545751 0 0.16123879661578219 0.084991270290997289 0 0.16038169799152191 0.10070230556545751 0 0.1760079753691049 0.097491601051087923 0 0.1494286080197296 0.1085701992433916 0 0.16038169799152191 0.10070230556545751 0 0.16359518759801389 0.10967517462958259 0 0.16359518759801389 0.10967517462958259 0 0.1726756238614732 0.11257078716551031 0 0.1760079753691049 0.097491601051087923 0 0.15532541851061599 0.13137331457290979 0 0.15583307629693191 0.1187281211142384 0 0.16126582530658509 0.1241613196481799 0 0.15583307629693191 0.1187281211142384 0 0.16126582530658509 0.1241613196481799 0 0.16456153406495069 0.1188938696256386 0 0.15583307629693191 0.1187281211142384 0 0.16359518759801389 0.10967517462958259 0 0.16456153406495069 0.1188938696256386 0 0.15583307629693191 0.1187281211142384 0 0.1494286080197296 0.1085701992433916 0 0.16359518759801389 0.10967517462958259 0 0.16359518759801389 0.10967517462958259 0 0.16456153406495069 0.1188938696256386 0 0.1726756238614732 0.11257078716551031 0 0.16934327235384211 0.12764997327993269 0 0.1726756238614732 0.11257078716551031 0 0.16934327235384211 0.12764997327993269 0 0.16126582530658509 0.1241613196481799 0 0.16456153406495069 0.1188938696256386 0 0.16934327235384211 0.12764997327993269 0 0.16456153406495069 0.1188938696256386 0 0.1726756238614732 0.11257078716551031 0 0.16934327235384211 0.12764997327993269 0 0.17477668774934391 0.11731108521730151 0 0.1726756238614732 0.11257078716551031 0 0.16934327235384211 0.12764997327993269 0 0.17799008666846369 0.1169429189084689 0 0.17826254093681809 0.12533394450169311 0 0.16934327235384211 0.12764997327993269 0 0.17799008666846369 0.1169429189084689 0 0.16934327235384211 0.12764997327993269 0 0.17477668774934391 0.11731108521730151 0 0.17799008666846369 0.1169429189084689 0 0.17799008666846369 0.1169429189084689 0 0.17761778239034151 0.11015049227377149 0 0.1822136089510841 0.10488429947145581 0 0.17799008666846369 0.1169429189084689 0 0.1757650451674056 0.114243820891263 0 0.17761778239034151 0.11015049227377149 0 0.17477668774934391 0.11731108521730151 0 0.17799008666846369 0.1169429189084689 0 0.17477668774934391 0.11731108521730151 0 0.17799008666846369 0.1169429189084689 0 0.1757650451674056 0.114243820891263 0 0.17477668774934391 0.11731108521730151 0 0.1757650451674056 0.114243820891263 0 0.1726756238614732 0.11257078716551031 0 0.1757650451674056 0.114243820891263 0 0.1726756238614732 0.11257078716551031 0 0.17761778239034151 0.11015049227377149 0 0.17826254093681809 0.12533394450169311 0 0.18773396281682739 0.12156842983955971 0 0.17799008666846369 0.1169429189084689 0 0.19644487478082501 0.093292466246592223 0 0.1760079753691049 0.097491601051087923 0 0.19644487478082501 0.093292466246592223 0 0.1760079753691049 0.097491601051087923 0 0.1822136089510841 0.10488429947145581 0 0.19644487478082501 0.093292466246592223 0 0.17799008666846369 0.1169429189084689 0 0.1822136089510841 0.10488429947145581 0 0.19644487478082501 0.093292466246592223 0 0.17799008666846369 0.1169429189084689 0 0.17761778239034151 0.11015049227377149 0 0.1760079753691049 0.097491601051087923 0 0.1822136089510841 0.10488429947145581 0 0.1726756238614732 0.11257078716551031 0 0.1760079753691049 0.097491601051087923 0 0.1726756238614732 0.11257078716551031 0 0.17761778239034151 0.11015049227377149 0 0.1760079753691049 0.097491601051087923 0 0.1760079753691049 0.097491601051087923 0 0.18013608290876459 0.078811548317052393 0 0.16123879661578219 0.084991270290997289 0 0.1760079753691049 0.097491601051087923 0 0.18013608290876459 0.078811548317052393 0 0.19644487478082501 0.093292466246592223 0 0.1760079753691049 0.097491601051087923 0 0.18013608290876459 0.078811548317052393 0 0.1733695439846514 0.059288830311592072 0 0.18013608290876459 0.078811548317052393 0 0.1632317104836925 0.069176390670389123 0 0.1914380884346451 0.071385092602742367 0 0.1841603608403336 0.060601333768152153 0 0.18013608290876459 0.078811548317052393 0 0.1841603608403336 0.060601333768152153 0 0.1733695439846514 0.059288830311592072 0 0.18013608290876459 0.078811548317052393 0 0.1841603608403336 0.060601333768152153 0 0.18013608290876459 0.078811548317052393 0 0.1733695439846514 0.059288830311592072 0 0.152543709658258 0.06283602940996269 0 0.1632317104836925 0.069176390670389123 0 0.18013608290876459 0.078811548317052393 0 0.1632317104836925 0.069176390670389123 0 0.15382967684910051 0.074043080758720473 0 0.1632317104836925 0.069176390670389123 0 0.16123879661578219 0.084991270290997289 0 0.18013608290876459 0.078811548317052393 0 0.1632317104836925 0.069176390670389123 0 0.16123879661578219 0.084991270290997289 0 0.1733695439846514 0.059288830311592072 0 0.1632317104836925 0.069176390670389123 0 0.15382967684910051 0.074043080758720473 0 0.152543709658258 0.06283602940996269 0 0.1632317104836925 0.069176390670389123 0 0.152543709658258 0.06283602940996269 0 0.1632317104836925 0.069176390670389123 0 0.1044300087912113 0.47310045327034861 0 0.10030642588523341 0.48908868059260452 0 0.085514430173924516 0.48555977286539242 0 0.1044300087912113 0.47310045327034861 0 0.085514430173924516 0.48555977286539242 0 0.1044300087912113 0.47310045327034861 0 0.10030642588523341 0.48908868059260452 0 0.11152176719815821 0.486550226635174 0 0.1044300087912113 0.47310045327034861 0 0.11152176719815821 0.486550226635174 0 0.10030642588523341 0.48908868059260452 0 0.11861352560510489 0.49999999999999961 0 0.090599800963266475 0.5 0 0.10030642588523341 0.48908868059260452 0 0.11152176719815821 0.486550226635174 0 0.11861352560510489 0.49999999999999961 0 0.11152176719815821 0.486550226635174 0 0.11861352560510489 0.49999999999999961 0 0.1331550468472531 0.48231942511762832 0 0.11152176719815821 0.486550226635174 0 0.11861352560510489 0.49999999999999961 0 0.11152176719815821 0.486550226635174 0 0.1203001463837419 0.4733270398945203 0 0.1331550468472531 0.48231942511762832 0 0.1044300087912113 0.47310045327034861 0 0.11152176719815821 0.486550226635174 0 0.1203001463837419 0.4733270398945203 0 0.1044300087912113 0.47310045327034861 0 0.12804039125473299 0.45754875872131462 0 0.1044300087912113 0.47310045327034861 0 0.1203001463837419 0.4733270398945203 0 0.12804039125473299 0.45754875872131462 0 0.1044300087912113 0.47310045327034861 0 0.1069534662152105 0.45161496819013658 0 0.12804039125473299 0.45754875872131462 0 0.1181673943830774 0.44022581583491821 0 0.1069534662152105 0.45161496819013658 0 0.12804039125473299 0.45754875872131462 0 0.1181673943830774 0.44022581583491821 0 0.1016752465199586 0.43769053185549489 0 0.1069534662152105 0.45161496819013658 0 0.1069534662152105 0.45161496819013658 0 0.096212062805685117 0.45751482489904988 0 0.093195693536597235 0.44360942455969399 0 0.1016752465199586 0.43769053185549489 0 0.1069534662152105 0.45161496819013658 0 0.093195693536597235 0.44360942455969399 0 0.1016752465199586 0.43769053185549489 0 0.093195693536597235 0.44360942455969399 0 0.094724424859834122 0.43667750210705852 0 0.1044300087912113 0.47310045327034861 0 0.096212062805685117 0.45751482489904988 0 0.086392003062676082 0.46934606083468949 0 0.1044300087912113 0.47310045327034861 0 0.1069534662152105 0.45161496819013658 0 0.096212062805685117 0.45751482489904988 0 0.1044300087912113 0.47310045327034861 0 0.096212062805685117 0.45751482489904988 0 0.096212062805685117 0.45751482489904988 0 0.083458961652304348 0.45497360947660997 0 0.086392003062676082 0.46934606083468949 0 0.083458961652304348 0.45497360947660997 0 0.071836152121106625 0.46308529201388138 0 0.086392003062676082 0.46934606083468949 0 0.091034999750805812 0.43947772329714818 0 0.087994116820160478 0.44192919652775048 0 0.090462269538333653 0.43566070080622671 0 0.091034999750805812 0.43947772329714818 0 0.093195693536597235 0.44360942455969399 0 0.094724424859834122 0.43667750210705852 0 0.093195693536597235 0.44360942455969399 0 0.087994116820160478 0.44192919652775048 0 0.091034999750805812 0.43947772329714818 0 0.093195693536597235 0.44360942455969399 0 0.087994116820160478 0.44192919652775048 0 0.096212062805685117 0.45751482489904988 0 0.093195693536597235 0.44360942455969399 0 0.087994116820160478 0.44192919652775048 0 0.096212062805685117 0.45751482489904988 0 0.083458961652304348 0.45497360947660997 0 0.087994116820160478 0.44192919652775048 0 0.096212062805685117 0.45751482489904988 0 0.087994116820160478 0.44192919652775048 0 0.083458961652304348 0.45497360947660997 0 0.087994116820160478 0.44192919652775048 0 0.073571026231000133 0.4488921643708883 0 0.087994116820160478 0.44192919652775048 0 0.073571026231000133 0.4488921643708883 0 0.065207812868590523 0.43456870013770288 0 0.087994116820160478 0.44192919652775048 0 0.065207812868590523 0.43456870013770288 0 0.073571026231000133 0.4488921643708883 0 0.05758973622827105 0.44827555009212028 0 0.065207812868590523 0.43456870013770288 0 0.073571026231000133 0.4488921643708883 0 0.071836152121106625 0.46308529201388138 0 0.05758973622827105 0.44827555009212028 0 0.083458961652304348 0.45497360947660997 0 0.073571026231000133 0.4488921643708883 0 0.071836152121106625 0.46308529201388138 0 0.071836152121106625 0.46308529201388138 0 0.066262664830115933 0.47688202081344228 0 0.05300369323002331 0.46739896249922253 0 0.066262664830115933 0.47688202081344228 0 0.071184832822273211 0.48516741460577928 0 0.059186611017253851 0.48805877124629871 0 0.066262664830115933 0.47688202081344228 0 0.077587703497203855 0.47684026425240461 0 0.071184832822273211 0.48516741460577928 0 0.077587703497203855 0.47684026425240461 0 0.085514430173924516 0.48555977286539242 0 0.071184832822273211 0.48516741460577928 0 0.071836152121106625 0.46308529201388138 0 0.066262664830115933 0.47688202081344228 0 0.077587703497203855 0.47684026425240461 0 0.077587703497203855 0.47684026425240461 0 0.086392003062676082 0.46934606083468949 0 0.085514430173924516 0.48555977286539242 0 0.071836152121106625 0.46308529201388138 0 0.077587703497203855 0.47684026425240461 0 0.086392003062676082 0.46934606083468949 0 0.1044300087912113 0.47310045327034861 0 0.086392003062676082 0.46934606083468949 0 0.085514430173924516 0.48555977286539242 0 0.090599800963266475 0.5 0 0.085514430173924516 0.48555977286539242 0 0.066598851556638208 0.49801909246043702 0 0.10030642588523341 0.48908868059260452 0 0.090599800963266475 0.5 0 0.085514430173924516 0.48555977286539242 0 0.085514430173924516 0.48555977286539242 0 0.066598851556638208 0.49801909246043702 0 0.085514430173924516 0.48555977286539242 0 0.071184832822273211 0.48516741460577928 0 0.066598851556638208 0.49801909246043702 0 0.090599800963266475 0.5 0 0.062586076321428041 0.5 0 0.066598851556638208 0.49801909246043702 0 0.071184832822273211 0.48516741460577928 0 0.066598851556638208 0.49801909246043702 0 0.059186611017253851 0.48805877124629871 0 0.062586076321428041 0.5 0 0.066598851556638208 0.49801909246043702 0 0.059186611017253851 0.48805877124629871 0 0.062586076321428041 0.5 0 0.059186611017253851 0.48805877124629871 0 0.034572351679589552 0.5 0 0.059186611017253851 0.48805877124629871 0 0.040262518807855002 0.48029732884284138 0 0.05300369323002331 0.46739896249922253 0 0.066262664830115933 0.47688202081344228 0 0.059186611017253851 0.48805877124629871 0 0.05300369323002331 0.46739896249922253 0 0.040262518807855002 0.48029732884284138 0 0.03453860393280609 0.46498840406362102 0 0.05300369323002331 0.46739896249922253 0 0.059186611017253851 0.48805877124629871 0 0.040262518807855002 0.48029732884284138 0 0.034572351679589552 0.5 0 0.034572351679589552 0.5 0 0.017105728995707371 0.47486598956155313 0 0.0065586270377511746 0.5 0 0.040262518807855002 0.48029732884284138 0 0.034572351679589552 0.5 0 0.017105728995707371 0.47486598956155313 0 0.040262518807855002 0.48029732884284138 0 0.017105728995707371 0.47486598956155313 0 0.03453860393280609 0.46498840406362102 0 0.017105728995707371 0.47486598956155313 0 0.0011845186115123339 0.47425500949493909 0 0.0065586270377511746 0.5 0 0.0054480129722310382 0.45626610830630021 0 0.021370052036611381 0.45079250320936259 0 0.0082093921443377529 0.43440497553953528 0 -0.0080230594812946143 0.44298741968758532 0 0.0054480129722310382 0.45626610830630021 0 0.0082093921443377529 0.43440497553953528 0 0.017105728995707371 0.47486598956155313 0 0.0054480129722310382 0.45626610830630021 0 0.021370052036611381 0.45079250320936259 0 -0.0061287547584561904 0.45995137823835391 0 0.0011845186115123339 0.47425500949493909 0 0.0054480129722310382 0.45626610830630021 0 0.017105728995707371 0.47486598956155313 0 0.0011845186115123339 0.47425500949493909 0 0.0054480129722310382 0.45626610830630021 0 0.017105728995707371 0.47486598956155313 0 0.021370052036611381 0.45079250320936259 0 0.03453860393280609 0.46498840406362102 0 0.021370052036611381 0.45079250320936259 0 0.026629321877742002 0.43554522788071143 0 0.0082093921443377529 0.43440497553953528 0 0.021370052036611381 0.45079250320936259 0 0.039498224001885983 0.44849997778336892 0 0.026629321877742002 0.43554522788071143 0 0.039498224001885983 0.44849997778336892 0 0.05758973622827105 0.44827555009212028 0 0.042421508917019783 0.42720820374765772 0 0.039498224001885983 0.44849997778336892 0 0.03453860393280609 0.46498840406362102 0 0.05300369323002331 0.46739896249922253 0 0.021370052036611381 0.45079250320936259 0 0.039498224001885983 0.44849997778336892 0 0.03453860393280609 0.46498840406362102 0 0.039498224001885983 0.44849997778336892 0 0.05300369323002331 0.46739896249922253 0 0.05758973622827105 0.44827555009212028 0 0.071836152121106625 0.46308529201388138 0 0.05300369323002331 0.46739896249922253 0 0.05758973622827105 0.44827555009212028 0 0.05758973622827105 0.44827555009212028 0 0.042421508917019783 0.42720820374765772 0 0.065207812868590523 0.43456870013770288 0 0.058006054117408397 0.41976389131511149 0 0.042421508917019783 0.42720820374765772 0 0.065207812868590523 0.43456870013770288 0 0.042421508917019783 0.42720820374765772 0 0.065207812868590523 0.43456870013770288 0 0.058006054117408397 0.41976389131511149 0 0.042421508917019783 0.42720820374765772 0 0.049248179423362903 0.40582304040036737 0 0.058006054117408397 0.41976389131511149 0 0.049248179423362903 0.40582304040036737 0 0.072086665130919658 0.40540019414906497 0 0.042421508917019783 0.42720820374765772 0 0.026881209722460081 0.40391324774372361 0 0.049248179423362903 0.40582304040036737 0 0.039498224001885983 0.44849997778336892 0 0.042421508917019783 0.42720820374765772 0 0.026629321877742002 0.43554522788071143 0 0.026629321877742002 0.43554522788071143 0 0.019635204965449071 0.41984770735761251 0 0.0082093921443377529 0.43440497553953528 0 0.042421508917019783 0.42720820374765772 0 0.019635204965449071 0.41984770735761251 0 0.042421508917019783 0.42720820374765772 0 0.026629321877742002 0.43554522788071143 0 0.019635204965449071 0.41984770735761251 0 0.042421508917019783 0.42720820374765772 0 0.019635204965449071 0.41984770735761251 0 0.026881209722460081 0.40391324774372361 0 0.019635204965449071 0.41984770735761251 0 0.01018605235046165 0.40917474073046162 0 0.026881209722460081 0.40391324774372361 0 -0.0076697471042952159 0.40800543104223258 0 0.01018605235046165 0.40917474073046162 0 0.019635204965449071 0.41984770735761251 0 0.01018605235046165 0.40917474073046162 0 0.0045028998126316654 0.41938585600695022 0 -0.0076697471042952159 0.40800543104223258 0 0.01018605235046165 0.40917474073046162 0 0.0045028998126316654 0.41938585600695022 0 -0.0078464032927949325 0.42549642536490889 0 0.0045028998126316654 0.41938585600695022 0 0.0082093921443377529 0.43440497553953528 0 0.019635204965449071 0.41984770735761251 0 0.0045028998126316654 0.41938585600695022 0 0.0082093921443377529 0.43440497553953528 0 -0.0074464104376092063 0.38589253252320838 0 0.0081315263000381558 0.38186996285958641 0 0.010524097550141651 0.39767975197429611 0 -0.0076697471042952159 0.40800543104223258 0 0.01018605235046165 0.40917474073046162 0 0.010524097550141651 0.39767975197429611 0 0.01018605235046165 0.40917474073046162 0 0.010524097550141651 0.39767975197429611 0 0.026881209722460081 0.40391324774372361 0 0.010524097550141651 0.39767975197429611 0 0.035440726339999812 0.3846274128254849 0 0.010524097550141651 0.39767975197429611 0 0.026881209722460081 0.40391324774372361 0 0.035440726339999812 0.3846274128254849 0 0.0081315263000381558 0.38186996285958641 0 0.010524097550141651 0.39767975197429611 0 0.035440726339999812 0.3846274128254849 0 0.0081315263000381558 0.38186996285958641 0 0.035440726339999812 0.3846274128254849 0 0.01591135968451008 0.36930208569643219 0 0.026881209722460081 0.40391324774372361 0 0.035440726339999812 0.3846274128254849 0 0.049248179423362903 0.40582304040036737 0 0.059362386261892788 0.39094652542284553 0 0.049248179423362903 0.40582304040036737 0 0.072086665130919658 0.40540019414906497 0 0.035440726339999812 0.3846274128254849 0 0.059362386261892788 0.39094652542284553 0 0.049248179423362903 0.40582304040036737 0 0.035440726339999812 0.3846274128254849 0 0.059362386261892788 0.39094652542284553 0 0.060357355129857841 0.37157507367667392 0 0.035440726339999812 0.3846274128254849 0 0.060357355129857841 0.37157507367667392 0 0.079679005285323762 0.38730690606263651 0 0.089355079524470915 0.37321624863410952 0 0.060357355129857841 0.37157507367667392 0 0.059362386261892788 0.39094652542284553 0 0.079679005285323762 0.38730690606263651 0 0.060357355129857841 0.37157507367667392 0 0.079679005285323762 0.38730690606263651 0 0.098374437036059942 0.38831161567656181 0 0.089355079524470915 0.37321624863410952 0 0.079679005285323762 0.38730690606263651 0 0.090418256092739069 0.40311298074437413 0 0.072086665130919658 0.40540019414906497 0 0.079679005285323762 0.38730690606263651 0 0.090418256092739069 0.40311298074437413 0 0.098374437036059942 0.38831161567656181 0 0.059362386261892788 0.39094652542284553 0 0.079679005285323762 0.38730690606263651 0 0.072086665130919658 0.40540019414906497 0 0.072086665130919658 0.40540019414906497 0 0.073376477534111417 0.42204492331683618 0 0.088099178125806352 0.41987520291861707 0 0.058006054117408397 0.41976389131511149 0 0.072086665130919658 0.40540019414906497 0 0.073376477534111417 0.42204492331683618 0 0.065207812868590523 0.43456870013770288 0 0.073376477534111417 0.42204492331683618 0 0.083482677427832178 0.43061662806368439 0 0.058006054117408397 0.41976389131511149 0 0.065207812868590523 0.43456870013770288 0 0.073376477534111417 0.42204492331683618 0 0.087994116820160478 0.44192919652775048 0 0.065207812868590523 0.43456870013770288 0 0.083482677427832178 0.43061662806368439 0 0.073376477534111417 0.42204492331683618 0 0.083482677427832178 0.43061662806368439 0 0.088099178125806352 0.41987520291861707 0 0.083482677427832178 0.43061662806368439 0 0.088099178125806352 0.41987520291861707 0 0.095251589905812728 0.42993711876888308 0 0.088099178125806352 0.41987520291861707 0 0.095251589905812728 0.42993711876888308 0 0.097676933648192313 0.42346352845045088 0 0.083482677427832178 0.43061662806368439 0 0.090462269538333653 0.43566070080622671 0 0.095251589905812728 0.42993711876888308 0 0.087994116820160478 0.44192919652775048 0 0.083482677427832178 0.43061662806368439 0 0.090462269538333653 0.43566070080622671 0 0.090462269538333653 0.43566070080622671 0 0.094724424859834122 0.43667750210705852 0 0.095251589905812728 0.42993711876888308 0 0.091034999750805812 0.43947772329714818 0 0.090462269538333653 0.43566070080622671 0 0.094724424859834122 0.43667750210705852 0 0.090418256092739069 0.40311298074437413 0 0.088099178125806352 0.41987520291861707 0 0.10010227739057199 0.41698993813201879 0 0.090418256092739069 0.40311298074437413 0 0.072086665130919658 0.40540019414906497 0 0.088099178125806352 0.41987520291861707 0 0.10010227739057199 0.41698993813201879 0 0.1072546891705782 0.42705185398228429 0 0.11668221390699671 0.4127773248028766 0 0.090418256092739069 0.40311298074437413 0 0.10010227739057199 0.41698993813201879 0 0.1043897558031109 0.40233112972349599 0 0.10010227739057199 0.41698993813201879 0 0.11668221390699671 0.4127773248028766 0 0.1043897558031109 0.40233112972349599 0 0.088099178125806352 0.41987520291861707 0 0.10010227739057199 0.41698993813201879 0 0.097676933648192313 0.42346352845045088 0 0.1181673943830774 0.44022581583491821 0 0.1016752465199586 0.43769053185549489 0 0.1072546891705782 0.42705185398228429 0 0.1016752465199586 0.43769053185549489 0 0.095251589905812728 0.42993711876888308 0 0.1072546891705782 0.42705185398228429 0 0.1016752465199586 0.43769053185549489 0 0.094724424859834122 0.43667750210705852 0 0.095251589905812728 0.42993711876888308 0 0.095251589905812728 0.42993711876888308 0 0.097676933648192313 0.42346352845045088 0 0.1072546891705782 0.42705185398228429 0 0.10010227739057199 0.41698993813201879 0 0.097676933648192313 0.42346352845045088 0 0.1072546891705782 0.42705185398228429 0 0.1072546891705782 0.42705185398228429 0 0.11668221390699671 0.4127773248028766 0 0.12937490732120219 0.4263610080159777 0 0.1181673943830774 0.44022581583491821 0 0.1072546891705782 0.42705185398228429 0 0.12937490732120219 0.4263610080159777 0 0.11668221390699671 0.4127773248028766 0 0.11260386254344371 0.39249487073324107 0 0.13062741307493311 0.39754765124585317 0 0.11668221390699671 0.4127773248028766 0 0.11260386254344371 0.39249487073324107 0 0.1043897558031109 0.40233112972349599 0 0.11260386254344371 0.39249487073324107 0 0.1093174034865963 0.37448663895632422 0 0.12809147473523691 0.38007429895379857 0 0.11260386254344371 0.39249487073324107 0 0.12809147473523691 0.38007429895379857 0 0.13062741307493311 0.39754765124585317 0 0.11260386254344371 0.39249487073324107 0 0.12809147473523691 0.38007429895379857 0 0.11260386254344371 0.39249487073324107 0 0.098374437036059942 0.38831161567656181 0 0.1093174034865963 0.37448663895632422 0 0.098374437036059942 0.38831161567656181 0 0.1093174034865963 0.37448663895632422 0 0.089355079524470915 0.37321624863410952 0 0.090418256092739069 0.40311298074437413 0 0.098374437036059942 0.38831161567656181 0 0.1043897558031109 0.40233112972349599 0 0.11260386254344371 0.39249487073324107 0 0.098374437036059942 0.38831161567656181 0 0.1043897558031109 0.40233112972349599 0 0.110190612709574 0.34547039537905172 0 0.085273983919715857 0.35852273452786282 0 0.110190612709574 0.34547039537905172 0 0.097768777047981037 0.3424338360009021 0 0.085273983919715857 0.35852273452786282 0 0.1031282922892718 0.35909452290459759 0 0.110190612709574 0.34547039537905172 0 0.085273983919715857 0.35852273452786282 0 0.1031282922892718 0.35909452290459759 0 0.1123992138018412 0.34981725168272398 0 0.110190612709574 0.34547039537905172 0 0.1031282922892718 0.35909452290459759 0 0.1093174034865963 0.37448663895632422 0 0.089355079524470915 0.37321624863410952 0 0.1093174034865963 0.37448663895632422 0 0.1161851069354763 0.36444164038519711 0 0.12809147473523691 0.38007429895379857 0 0.1031282922892718 0.35909452290459759 0 0.1093174034865963 0.37448663895632422 0 0.1161851069354763 0.36444164038519711 0 0.1161851069354763 0.36444164038519711 0 0.12798915036443539 0.35873548942854078 0 0.12809147473523691 0.38007429895379857 0 0.1123992138018412 0.34981725168272398 0 0.12547048333763261 0.34631434917745002 0 0.12798915036443539 0.35873548942854078 0 0.1161851069354763 0.36444164038519711 0 0.1123992138018412 0.34981725168272398 0 0.12798915036443539 0.35873548942854078 0 0.1123992138018412 0.34981725168272398 0 0.12798915036443539 0.35873548942854078 0 0.1031282922892718 0.35909452290459759 0 0.1161851069354763 0.36444164038519711 0 0.1123992138018412 0.34981725168272398 0 0.1123992138018412 0.34981725168272398 0 0.110190612709574 0.34547039537905172 0 0.12547048333763261 0.34631434917745002 0 0.110190612709574 0.34547039537905172 0 0.1351072414994324 0.33241805623024118 0 0.11621042340631001 0.33527626236853542 0 0.12079296905980121 0.32651950673600139 0 0.1351072414994324 0.33241805623024118 0 0.110190612709574 0.34547039537905172 0 0.1351072414994324 0.33241805623024118 0 0.12547048333763261 0.34631434917745002 0 0.110190612709574 0.34547039537905172 0 0.11621042340631001 0.33527626236853542 0 0.1351072414994324 0.33241805623024118 0 0.11621042340631001 0.33527626236853542 0 0.10793200547003851 0.33935919114285601 0 0.1069782657175007 0.33245575553360429 0 0.11621042340631001 0.33527626236853542 0 0.12079296905980121 0.32651950673600139 0 0.1069782657175007 0.33245575553360429 0 0.110190612709574 0.34547039537905172 0 0.11621042340631001 0.33527626236853542 0 0.10793200547003851 0.33935919114285601 0 0.12079296905980121 0.32651950673600139 0 0.1164245441480922 0.31441341228954378 0 0.12674909414285809 0.31446865288742237 0 0.12079296905980121 0.32651950673600139 0 0.1064786966201703 0.32062095724176082 0 0.12079296905980121 0.32651950673600139 0 0.1064786966201703 0.32062095724176082 0 0.1069782657175007 0.33245575553360429 0 0.12079296905980121 0.32651950673600139 0 0.1164245441480922 0.31441341228954378 0 0.1064786966201703 0.32062095724176082 0 0.1164245441480922 0.31441341228954378 0 0.1064786966201703 0.32062095724176082 0 0.1098145439264213 0.30574742120483972 0 0.1064786966201703 0.32062095724176082 0 0.09784986196202955 0.31173935082308052 0 0.1098145439264213 0.30574742120483972 0 0.1064786966201703 0.32062095724176082 0 0.097130403896475814 0.3246931456597717 0 0.1069782657175007 0.33245575553360429 0 0.097130403896475814 0.3246931456597717 0 0.088978860826265133 0.31920206334477852 0 0.09784986196202955 0.31173935082308052 0 0.1064786966201703 0.32062095724176082 0 0.097130403896475814 0.3246931456597717 0 0.09784986196202955 0.31173935082308052 0 0.110190612709574 0.34547039537905172 0 0.10793200547003851 0.33935919114285601 0 0.097768777047981037 0.3424338360009021 0 0.10793200547003851 0.33935919114285601 0 0.1069782657175007 0.33245575553360429 0 0.097768777047981037 0.3424338360009021 0 0.097130403896475814 0.3246931456597717 0 0.1069782657175007 0.33245575553360429 0 0.094553585995641232 0.33510424078336809 0 0.1069782657175007 0.33245575553360429 0 0.094553585995641232 0.33510424078336809 0 0.097768777047981037 0.3424338360009021 0 0.094553585995641232 0.33510424078336809 0 0.097768777047981037 0.3424338360009021 0 0.081633185900212776 0.3435322918177478 0 0.087089067467195913 0.32903657968813188 0 0.081633185900212776 0.3435322918177478 0 0.076610192816325279 0.32661472351520071 0 0.097130403896475814 0.3246931456597717 0 0.094553585995641232 0.33510424078336809 0 0.087089067467195913 0.32903657968813188 0 0.094553585995641232 0.33510424078336809 0 0.087089067467195913 0.32903657968813188 0 0.081633185900212776 0.3435322918177478 0 0.088978860826265133 0.31920206334477852 0 0.071396630805201186 0.31277046796999253 0 0.076610192816325279 0.32661472351520071 0 0.097130403896475814 0.3246931456597717 0 0.087089067467195913 0.32903657968813188 0 0.088978860826265133 0.31920206334477852 0 0.087089067467195913 0.32903657968813188 0 0.088978860826265133 0.31920206334477852 0 0.076610192816325279 0.32661472351520071 0 0.071396630805201186 0.31277046796999253 0 0.076610192816325279 0.32661472351520071 0 0.063143739393785037 0.32268321377703862 0 0.076610192816325279 0.32661472351520071 0 0.063143739393785037 0.32268321377703862 0 0.066480568862127207 0.33171957421003928 0 0.071396630805201186 0.31277046796999253 0 0.063143739393785037 0.32268321377703862 0 0.05690110502070183 0.31427177760110908 0 0.081633185900212776 0.3435322918177478 0 0.076610192816325279 0.32661472351520071 0 0.066480568862127207 0.33171957421003928 0 0.081633185900212776 0.3435322918177478 0 0.066480568862127207 0.33171957421003928 0 0.062490350833210632 0.34171957365296179 0 0.081633185900212776 0.3435322918177478 0 0.0639419653190509 0.35392366307415318 0 0.085273983919715857 0.35852273452786282 0 0.081633185900212776 0.3435322918177478 0 0.0639419653190509 0.35392366307415318 0 0.062490350833210632 0.34171957365296179 0 0.097768777047981037 0.3424338360009021 0 0.081633185900212776 0.3435322918177478 0 0.085273983919715857 0.35852273452786282 0 0.1031282922892718 0.35909452290459759 0 0.085273983919715857 0.35852273452786282 0 0.089355079524470915 0.37321624863410952 0 0.085273983919715857 0.35852273452786282 0 0.089355079524470915 0.37321624863410952 0 0.060357355129857841 0.37157507367667392 0 0.0639419653190509 0.35392366307415318 0 0.085273983919715857 0.35852273452786282 0 0.060357355129857841 0.37157507367667392 0 0.085273983919715857 0.35852273452786282 0 0.060357355129857841 0.37157507367667392 0 0.035440726339999812 0.3846274128254849 0 0.060357355129857841 0.37157507367667392 0 0.045377753171133281 0.36363474820533842 0 0.0639419653190509 0.35392366307415318 0 0.060357355129857841 0.37157507367667392 0 0.045377753171133281 0.36363474820533842 0 0.0639419653190509 0.35392366307415318 0 0.048519162960175027 0.3445575565643349 0 0.045377753171133281 0.36363474820533842 0 0.0639419653190509 0.35392366307415318 0 0.048519162960175027 0.3445575565643349 0 0.062490350833210632 0.34171957365296179 0 0.048519162960175027 0.3445575565643349 0 0.033108956432787787 0.35146577198107137 0 0.045377753171133281 0.36363474820533842 0 0.048519162960175027 0.3445575565643349 0 0.033108956432787787 0.35146577198107137 0 0.039082756377771817 0.33899066545567608 0 0.035440726339999812 0.3846274128254849 0 0.045377753171133281 0.36363474820533842 0 0.01591135968451008 0.36930208569643219 0 0.033108956432787787 0.35146577198107137 0 0.045377753171133281 0.36363474820533842 0 0.01591135968451008 0.36930208569643219 0 0.033108956432787787 0.35146577198107137 0 0.01591135968451008 0.36930208569643219 0 0.02028958614390856 0.34326789065851249 0 0.033108956432787787 0.35146577198107137 0 0.02028958614390856 0.34326789065851249 0 0.02983124610856026 0.338501915462664 0 0.01591135968451008 0.36930208569643219 0 0.0057351278555285209 0.35245322274004398 0 0.02028958614390856 0.34326789065851249 0 -0.0072230737709234787 0.36377963400418423 0 0.01591135968451008 0.36930208569643219 0 0.0057351278555285209 0.35245322274004398 0 -0.0072230737709234787 0.36377963400418423 0 0.0081315263000381558 0.38186996285958641 0 0.01591135968451008 0.36930208569643219 0 -0.0072230737709234787 0.36377963400418423 0 0.01591135968451008 0.36930208569643219 0 -0.006908411236358286 0.33262442425814348 0 -0.00016705615095490101 0.32251728058293411 0 0.011065978088773709 0.32498064786985442 0 0.011065978088773709 0.32498064786985442 0 0.0041928905666781249 0.31313637437673192 0 0.017060477579451651 0.31412141773653651 0 -0.00016705615095490101 0.32251728058293411 0 0.011065978088773709 0.32498064786985442 0 0.0041928905666781249 0.31313637437673192 0 -0.0069916639183323411 0.34086739723380732 0 0.010308129113141081 0.33144981796402972 0 -0.006908411236358286 0.33262442425814348 0 0.011065978088773709 0.32498064786985442 0 0.010308129113141081 0.33144981796402972 0 0.0057351278555285209 0.35245322274004398 0 0.010308129113141081 0.33144981796402972 0 0.02028958614390856 0.34326789065851249 0 -0.006908411236358286 0.33262442425814348 0 0.011065978088773709 0.32498064786985442 0 -0.0069916639183323411 0.34086739723380732 0 0.0057351278555285209 0.35245322274004398 0 0.010308129113141081 0.33144981796402972 0 0.010308129113141081 0.33144981796402972 0 0.02028958614390856 0.34326789065851249 0 0.025565730709524951 0.3287262736510454 0 0.02028958614390856 0.34326789065851249 0 0.02983124610856026 0.338501915462664 0 0.025565730709524951 0.3287262736510454 0 0.02983124610856026 0.338501915462664 0 0.025565730709524951 0.3287262736510454 0 0.035876417388626611 0.32984180778275812 0 0.011065978088773709 0.32498064786985442 0 0.010308129113141081 0.33144981796402972 0 0.027607922144613321 0.32203223869424991 0 0.011065978088773709 0.32498064786985442 0 0.029040367413905969 0.31733687148156592 0 0.011065978088773709 0.32498064786985442 0 0.027607922144613321 0.32203223869424991 0 0.029040367413905969 0.31733687148156592 0 0.010308129113141081 0.33144981796402972 0 0.025565730709524951 0.3287262736510454 0 0.027607922144613321 0.32203223869424991 0 0.025565730709524951 0.3287262736510454 0 0.027607922144613321 0.32203223869424991 0 0.032302210866139491 0.32520836753230148 0 0.025565730709524951 0.3287262736510454 0 0.032302210866139491 0.32520836753230148 0 0.035876417388626611 0.32984180778275812 0 0.010308129113141081 0.33144981796402972 0 0.027607922144613321 0.32203223869424991 0 0.011065978088773709 0.32498064786985442 0 0.017060477579451651 0.31412141773653651 0 0.029040367413905969 0.31733687148156592 0 0.025565730709524951 0.3287262736510454 0 0.027607922144613321 0.32203223869424991 0 0.027607922144613321 0.32203223869424991 0 0.029040367413905969 0.31733687148156592 0 0.027607922144613321 0.32203223869424991 0 0.029040367413905969 0.31733687148156592 0 0.035028374293642341 0.31479041581220868 0 0.027607922144613321 0.32203223869424991 0 0.040158773221793113 0.32023315000115271 0 0.048482359891059243 0.31066871129067919 0 0.027607922144613321 0.32203223869424991 0 0.048482359891059243 0.31066871129067919 0 0.027607922144613321 0.32203223869424991 0 0.035028374293642341 0.31479041581220868 0 0.048482359891059243 0.31066871129067919 0 0.029040367413905969 0.31733687148156592 0 0.035028374293642341 0.31479041581220868 0 0.027607922144613321 0.32203223869424991 0 0.032302210866139491 0.32520836753230148 0 0.040158773221793113 0.32023315000115271 0 0.032302210866139491 0.32520836753230148 0 0.040158773221793113 0.32023315000115271 0 0.035876417388626611 0.32984180778275812 0 0.040158773221793113 0.32023315000115271 0 0.035876417388626611 0.32984180778275812 0 0.044817124283869983 0.33090359791357221 0 0.040158773221793113 0.32023315000115271 0 0.044817124283869983 0.33090359791357221 0 0.050588857863712873 0.32090599889861748 0 0.040158773221793113 0.32023315000115271 0 0.050588857863712873 0.32090599889861748 0 0.048482359891059243 0.31066871129067919 0 0.033108956432787787 0.35146577198107137 0 0.02983124610856026 0.338501915462664 0 0.039082756377771817 0.33899066545567608 0 0.02983124610856026 0.338501915462664 0 0.035876417388626611 0.32984180778275812 0 0.039082756377771817 0.33899066545567608 0 0.035876417388626611 0.32984180778275812 0 0.044817124283869983 0.33090359791357221 0 0.039082756377771817 0.33899066545567608 0 0.048519162960175027 0.3445575565643349 0 0.044817124283869983 0.33090359791357221 0 0.039082756377771817 0.33899066545567608 0 0.048519162960175027 0.3445575565643349 0 0.044817124283869983 0.33090359791357221 0 0.056006634032813453 0.33208158583609398 0 0.066480568862127207 0.33171957421003928 0 0.056006634032813453 0.33208158583609398 0 0.062490350833210632 0.34171957365296179 0 0.063143739393785037 0.32268321377703862 0 0.066480568862127207 0.33171957421003928 0 0.056006634032813453 0.33208158583609398 0 0.048519162960175027 0.3445575565643349 0 0.056006634032813453 0.33208158583609398 0 0.062490350833210632 0.34171957365296179 0 0.050588857863712873 0.32090599889861748 0 0.05690110502070183 0.31427177760110908 0 0.048482359891059243 0.31066871129067919 0 0.044817124283869983 0.33090359791357221 0 0.056006634032813453 0.33208158583609398 0 0.050588857863712873 0.32090599889861748 0 0.063143739393785037 0.32268321377703862 0 0.056006634032813453 0.33208158583609398 0 0.050588857863712873 0.32090599889861748 0 0.063143739393785037 0.32268321377703862 0 0.050588857863712873 0.32090599889861748 0 0.05690110502070183 0.31427177760110908 0 0.071396630805201186 0.31277046796999253 0 0.05690110502070183 0.31427177760110908 0 0.057699999438929672 0.30261479694815852 0 0.057699999438929672 0.30261479694815852 0 0.047540263383566768 0.29496511685078619 0 0.045851698488760757 0.30583236371860312 0 0.05690110502070183 0.31427177760110908 0 0.057699999438929672 0.30261479694815852 0 0.048482359891059243 0.31066871129067919 0 0.057699999438929672 0.30261479694815852 0 0.048482359891059243 0.31066871129067919 0 0.045851698488760757 0.30583236371860312 0 0.059452375502135509 0.28213929455706438 0 0.047540263383566768 0.29496511685078619 0 0.039400140605856178 0.28337889736618049 0 0.057699999438929672 0.30261479694815852 0 0.059452375502135509 0.28213929455706438 0 0.047540263383566768 0.29496511685078619 0 0.039400140605856178 0.28337889736618049 0 0.032764058225888078 0.30513110270032973 0 0.047540263383566768 0.29496511685078619 0 0.039400140605856178 0.28337889736618049 0 0.032764058225888078 0.30513110270032973 0 0.048482359891059243 0.31066871129067919 0 0.045851698488760757 0.30583236371860312 0 0.039133668859766553 0.30873300652282681 0 0.045851698488760757 0.30583236371860312 0 0.032764058225888078 0.30513110270032973 0 0.035028374293642341 0.31479041581220868 0 0.048482359891059243 0.31066871129067919 0 0.039133668859766553 0.30873300652282681 0 0.045851698488760757 0.30583236371860312 0 0.039133668859766553 0.30873300652282681 0 0.032764058225888078 0.30513110270032973 0 0.047540263383566768 0.29496511685078619 0 0.045851698488760757 0.30583236371860312 0 0.032764058225888078 0.30513110270032973 0 0.029040367413905969 0.31733687148156592 0 0.035028374293642341 0.31479041581220868 0 0.032764058225888078 0.30513110270032973 0 0.035028374293642341 0.31479041581220868 0 0.039133668859766553 0.30873300652282681 0 0.032764058225888078 0.30513110270032973 0 0.032764058225888078 0.30513110270032973 0 0.010015705170234699 0.30391220204998992 0 0.029040367413905969 0.31733687148156592 0 0.032764058225888078 0.30513110270032973 0 0.032764058225888078 0.30513110270032973 0 0.020350732504161011 0.29114540489330942 0 0.010015705170234699 0.30391220204998992 0 0.017060477579451651 0.31412141773653651 0 0.029040367413905969 0.31733687148156592 0 0.032764058225888078 0.30513110270032973 0 0.017060477579451651 0.31412141773653651 0 0.032764058225888078 0.30513110270032973 0 0.010015705170234699 0.30391220204998992 0 0.039400140605856178 0.28337889736618049 0 0.020350732504161011 0.29114540489330942 0 0.016154933093132762 0.2752825918946406 0 0.039400140605856178 0.28337889736618049 0 0.032764058225888078 0.30513110270032973 0 0.020350732504161011 0.29114540489330942 0 0.020350732504161011 0.29114540489330942 0 0.003418825425693368 0.28802223045540559 0 0.016154933093132762 0.2752825918946406 0 0.020350732504161011 0.29114540489330942 0 0.003418825425693368 0.28802223045540559 0 0.010015705170234699 0.30391220204998992 0 -0.01273264788541861 0.30269330139964962 0 0.0041928905666781249 0.31313637437673192 0 0.010015705170234699 0.30391220204998992 0 -0.01273264788541861 0.30269330139964962 0 0.003418825425693368 0.28802223045540559 0 0.010015705170234699 0.30391220204998992 0 0.0041928905666781249 0.31313637437673192 0 0.017060477579451651 0.31412141773653651 0 0.010015705170234699 0.30391220204998992 0 -0.00037395858645878841 0.25379829121635378 0 0.013218435639475289 0.25587298613601162 0 0.004384506867510414 0.26784045360980691 0 0.013218435639475289 0.25587298613601162 0 0.004384506867510414 0.26784045360980691 0 0.016154933093132762 0.2752825918946406 0 0.003418825425693368 0.28802223045540559 0 0.0034999489172099232 0.27686119250556901 0 0.016154933093132762 0.2752825918946406 0 0.004384506867510414 0.26784045360980691 0 0.0034999489172099232 0.27686119250556901 0 0.016154933093132762 0.2752825918946406 0 0.039400140605856178 0.28337889736618049 0 0.016154933093132762 0.2752825918946406 0 0.028873894691308289 0.26091459238388948 0 0.013218435639475289 0.25587298613601162 0 0.016154933093132762 0.2752825918946406 0 0.028873894691308289 0.26091459238388948 0 0.023086518768083462 0.24489881756915879 0 0.013218435639475289 0.25587298613601162 0 0.028873894691308289 0.26091459238388948 0 0.036725159641776743 0.24288757640680189 0 0.028873894691308289 0.26091459238388948 0 0.046036222985824438 0.26162669203203143 0 0.039400140605856178 0.28337889736618049 0 0.028873894691308289 0.26091459238388948 0 0.046036222985824438 0.26162669203203143 0 0.039400140605856178 0.28337889736618049 0 0.046036222985824438 0.26162669203203143 0 0.059452375502135509 0.28213929455706438 0 0.039400140605856178 0.28337889736618049 0 0.046036222985824438 0.26162669203203143 0 0.059452375502135509 0.28213929455706438 0 0.046036222985824438 0.26162669203203143 0 0.067945532651693924 0.25923676326889211 0 0.052672305365792697 0.23987448669788219 0 0.046036222985824438 0.26162669203203143 0 0.067945532651693924 0.25923676326889211 0 0.052672305365792697 0.23987448669788219 0 0.046036222985824438 0.26162669203203143 0 0.082355491607861708 0.27643557223999538 0 0.093921741091282901 0.25414558468183052 0 0.067945532651693924 0.25923676326889211 0 0.082355491607861708 0.27643557223999538 0 0.093921741091282901 0.25414558468183052 0 0.073235059357266305 0.24119894940454861 0 0.067945532651693924 0.25923676326889211 0 0.093921741091282901 0.25414558468183052 0 0.082355491607861708 0.27643557223999538 0 0.093921741091282901 0.25414558468183052 0 0.10277638306369991 0.27672459071042882 0 0.059452375502135509 0.28213929455706438 0 0.067945532651693924 0.25923676326889211 0 0.082355491607861708 0.27643557223999538 0 0.059452375502135509 0.28213929455706438 0 0.082355491607861708 0.27643557223999538 0 0.070789242124440502 0.2987255597981604 0 0.082355491607861708 0.27643557223999538 0 0.070789242124440502 0.2987255597981604 0 0.057699999438929672 0.30261479694815852 0 0.059452375502135509 0.28213929455706438 0 0.070789242124440502 0.2987255597981604 0 0.071396630805201186 0.31277046796999253 0 0.057699999438929672 0.30261479694815852 0 0.070789242124440502 0.2987255597981604 0 0.071396630805201186 0.31277046796999253 0 0.070789242124440502 0.2987255597981604 0 0.085653276015960775 0.30528114080550173 0 0.088978860826265133 0.31920206334477852 0 0.071396630805201186 0.31277046796999253 0 0.085653276015960775 0.30528114080550173 0 0.088978860826265133 0.31920206334477852 0 0.085653276015960775 0.30528114080550173 0 0.09784986196202955 0.31173935082308052 0 0.082355491607861708 0.27643557223999538 0 0.085653276015960775 0.30528114080550173 0 0.099043390486883987 0.29489137668183069 0 0.082355491607861708 0.27643557223999538 0 0.070789242124440502 0.2987255597981604 0 0.085653276015960775 0.30528114080550173 0 0.082355491607861708 0.27643557223999538 0 0.099043390486883987 0.29489137668183069 0 0.10277638306369991 0.27672459071042882 0 0.099043390486883987 0.29489137668183069 0 0.1145564352572086 0.29022255056036489 0 0.10277638306369991 0.27672459071042882 0 0.085653276015960775 0.30528114080550173 0 0.099043390486883987 0.29489137668183069 0 0.09784986196202955 0.31173935082308052 0 0.099043390486883987 0.29489137668183069 0 0.09784986196202955 0.31173935082308052 0 0.1098145439264213 0.30574742120483972 0 0.099043390486883987 0.29489137668183069 0 0.1098145439264213 0.30574742120483972 0 0.1145564352572086 0.29022255056036489 0 0.1164245441480922 0.31441341228954378 0 0.1098145439264213 0.30574742120483972 0 0.1241036634742942 0.30200807165016252 0 0.1098145439264213 0.30574742120483972 0 0.1241036634742942 0.30200807165016252 0 0.1145564352572086 0.29022255056036489 0 0.1164245441480922 0.31441341228954378 0 0.1241036634742942 0.30200807165016252 0 0.12674909414285809 0.31446865288742237 0 0.1145564352572086 0.29022255056036489 0 0.1204903990181362 0.27382099470453047 0 0.12819731405138829 0.28740783976792122 0 0.1241036634742942 0.30200807165016252 0 0.1145564352572086 0.29022255056036489 0 0.12819731405138829 0.28740783976792122 0 0.1204903990181362 0.27382099470453047 0 0.110488971954286 0.26050480519288299 0 0.10277638306369991 0.27672459071042882 0 0.1145564352572086 0.29022255056036489 0 0.1204903990181362 0.27382099470453047 0 0.10277638306369991 0.27672459071042882 0 0.11714500643310689 0.24184084305890641 0 0.110488971954286 0.26050480519288299 0 0.122692362420721 0.25460339326642423 0 0.1204903990181362 0.27382099470453047 0 0.110488971954286 0.26050480519288299 0 0.122692362420721 0.25460339326642423 0 0.1204903990181362 0.27382099470453047 0 0.122692362420721 0.25460339326642423 0 0.13140022361490861 0.26665475404493411 0 0.11714500643310689 0.24184084305890641 0 0.110488971954286 0.26050480519288299 0 0.093921741091282901 0.25414558468183052 0 0.110488971954286 0.26050480519288299 0 0.093921741091282901 0.25414558468183052 0 0.10277638306369991 0.27672459071042882 0 0.1412474599136582 0.26885376755785068 0 0.1456798574683433 0.27682028634001588 0 0.1539223149733632 0.26792500308025119 0 0.1412474599136582 0.26885376755785068 0 0.1539223149733632 0.26792500308025119 0 0.14555872231867381 0.26211613557159691 0 0.1456798574683433 0.27682028634001588 0 0.1539223149733632 0.26792500308025119 0 0.1566547502755552 0.27746106219771838 0 0.1456798574683433 0.27682028634001588 0 0.14938640369817049 0.28447992148898532 0 0.1566547502755552 0.27746106219771838 0 0.14295504581104981 0.25729803308048282 0 0.14555872231867381 0.26211613557159691 0 0.15936993587747589 0.25872029442454331 0 0.15164892151638559 0.25060092041291859 0 0.14295504581104981 0.25729803308048282 0 0.15936993587747589 0.25872029442454331 0 0.14555872231867381 0.26211613557159691 0 0.15936993587747589 0.25872029442454331 0 0.1539223149733632 0.26792500308025119 0 0.14555872231867381 0.26211613557159691 0 0.15936993587747589 0.25872029442454331 0 0.14295504581104981 0.25729803308048282 0 0.15936993587747589 0.25872029442454331 0 0.14297999583437759 0.24917477378247349 0 0.15164892151638559 0.25060092041291859 0 0.14295504581104981 0.25729803308048282 0 0.14297999583437759 0.24917477378247349 0 0.14295504581104981 0.25729803308048282 0 0.13860995558670339 0.25301499757288809 0 0.14295504581104981 0.25729803308048282 0 0.14555872231867381 0.26211613557159691 0 0.13915713240949179 0.26241456360001142 0 0.1412474599136582 0.26885376755785068 0 0.14555872231867381 0.26211613557159691 0 0.13915713240949179 0.26241456360001142 0 0.14295504581104981 0.25729803308048282 0 0.13915713240949179 0.26241456360001142 0 0.1332794829035524 0.25716247945512499 0 0.13915713240949179 0.26241456360001142 0 0.1332794829035524 0.25716247945512499 0 0.13140022361490861 0.26665475404493411 0 0.14295504581104981 0.25729803308048282 0 0.1332794829035524 0.25716247945512499 0 0.13860995558670339 0.25301499757288809 0 0.13561463509703611 0.24735013405300291 0 0.1332794829035524 0.25716247945512499 0 0.13860995558670339 0.25301499757288809 0 0.13561463509703611 0.24735013405300291 0 0.1277487384109664 0.24662733078467489 0 0.1332794829035524 0.25716247945512499 0 0.1277487384109664 0.24662733078467489 0 0.122692362420721 0.25460339326642423 0 0.1332794829035524 0.25716247945512499 0 0.122692362420721 0.25460339326642423 0 0.1332794829035524 0.25716247945512499 0 0.13140022361490861 0.26665475404493411 0 0.1204903990181362 0.27382099470453047 0 0.13140022361490861 0.26665475404493411 0 0.13372030247438671 0.27679463412716782 0 0.1412474599136582 0.26885376755785068 0 0.13915713240949179 0.26241456360001142 0 0.13140022361490861 0.26665475404493411 0 0.1412474599136582 0.26885376755785068 0 0.13140022361490861 0.26665475404493411 0 0.13372030247438671 0.27679463412716782 0 0.1456798574683433 0.27682028634001588 0 0.13372030247438671 0.27679463412716782 0 0.14010209393989029 0.28581670956167371 0 0.1412474599136582 0.26885376755785068 0 0.1456798574683433 0.27682028634001588 0 0.13372030247438671 0.27679463412716782 0 0.1204903990181362 0.27382099470453047 0 0.13372030247438671 0.27679463412716782 0 0.12819731405138829 0.28740783976792122 0 0.1241036634742942 0.30200807165016252 0 0.12819731405138829 0.28740783976792122 0 0.13630247002515111 0.296506553313167 0 0.12819731405138829 0.28740783976792122 0 0.13630247002515111 0.296506553313167 0 0.14010209393989029 0.28581670956167371 0 0.13372030247438671 0.27679463412716782 0 0.12819731405138829 0.28740783976792122 0 0.14010209393989029 0.28581670956167371 0 0.1241036634742942 0.30200807165016252 0 0.13621773509297591 0.30779389204400448 0 0.12674909414285809 0.31446865288742237 0 0.1241036634742942 0.30200807165016252 0 0.13630247002515111 0.296506553313167 0 0.13621773509297591 0.30779389204400448 0 0.13630247002515111 0.296506553313167 0 0.13621773509297591 0.30779389204400448 0 0.1454049525154146 0.30254691868297112 0 0.13621773509297591 0.30779389204400448 0 0.14495201049736939 0.3124307981974721 0 0.1454049525154146 0.30254691868297112 0 0.14495201049736939 0.3124307981974721 0 0.1454049525154146 0.30254691868297112 0 0.15281881038374071 0.30821961200634262 0 0.13630247002515111 0.296506553313167 0 0.1454049525154146 0.30254691868297112 0 0.14732621592190209 0.29289102233278519 0 0.1454049525154146 0.30254691868297112 0 0.15516673634175379 0.30092636152926999 0 0.14732621592190209 0.29289102233278519 0 0.1454049525154146 0.30254691868297112 0 0.15516673634175379 0.30092636152926999 0 0.15281881038374071 0.30821961200634262 0 0.1456798574683433 0.27682028634001588 0 0.14010209393989029 0.28581670956167371 0 0.14938640369817049 0.28447992148898532 0 0.14010209393989029 0.28581670956167371 0 0.14732621592190209 0.29289102233278519 0 0.14938640369817049 0.28447992148898532 0 0.13630247002515111 0.296506553313167 0 0.14010209393989029 0.28581670956167371 0 0.14732621592190209 0.29289102233278519 0 0.15516673634175379 0.30092636152926999 0 0.14732621592190209 0.29289102233278519 0 0.15833936858045949 0.29067032682753408 0 0.14732621592190209 0.29289102233278519 0 0.14938640369817049 0.28447992148898532 0 0.15833936858045949 0.29067032682753408 0 0.14938640369817049 0.28447992148898532 0 0.15833936858045949 0.29067032682753408 0 0.1566547502755552 0.27746106219771838 0 0.15833936858045949 0.29067032682753408 0 0.1773960334425442 0.28880693893134057 0 0.1566547502755552 0.27746106219771838 0 0.15833936858045949 0.29067032682753408 0 0.16551743867170571 0.30286746684688598 0 0.1773960334425442 0.28880693893134057 0 0.16551743867170571 0.30286746684688598 0 0.1773960334425442 0.28880693893134057 0 0.17206224846698071 0.31686957610059818 0 0.15516673634175379 0.30092636152926999 0 0.15281881038374071 0.30821961200634262 0 0.16159363197730009 0.30836282247910118 0 0.15516673634175379 0.30092636152926999 0 0.16159363197730009 0.30836282247910118 0 0.16551743867170571 0.30286746684688598 0 0.15516673634175379 0.30092636152926999 0 0.15833936858045949 0.29067032682753408 0 0.16551743867170571 0.30286746684688598 0 0.16551743867170571 0.30286746684688598 0 0.17206224846698071 0.31686957610059818 0 0.16811581648349419 0.31512682798485669 0 0.16159363197730009 0.30836282247910118 0 0.16551743867170571 0.30286746684688598 0 0.16811581648349419 0.31512682798485669 0 0.1855942515271663 0.30968065630772279 0 0.1773960334425442 0.28880693893134057 0 0.17206224846698071 0.31686957610059818 0 0.1855942515271663 0.30968065630772279 0 0.1773960334425442 0.28880693893134057 0 0.18980547394622679 0.29804950176267819 0 0.1773960334425442 0.28880693893134057 0 0.17206224846698071 0.31686957610059818 0 0.1773960334425442 0.28880693893134057 0 0.18272981841810429 0.26074430176208241 0 0.19221439753866781 0.27514228964189869 0 0.1773960334425442 0.28880693893134057 0 0.18272981841810429 0.26074430176208241 0 0.1773960334425442 0.28880693893134057 0 0.1686789188405968 0.27014484434249841 0 0.18272981841810429 0.26074430176208241 0 0.1773960334425442 0.28880693893134057 0 0.1686789188405968 0.27014484434249841 0 0.1566547502755552 0.27746106219771838 0 0.1539223149733632 0.26792500308025119 0 0.1686789188405968 0.27014484434249841 0 0.1566547502755552 0.27746106219771838 0 0.15936993587747589 0.25872029442454331 0 0.1842785678011454 0.25259586829478281 0 0.1686789188405968 0.27014484434249841 0 0.15936993587747589 0.25872029442454331 0 0.18272981841810429 0.26074430176208241 0 0.15936993587747589 0.25872029442454331 0 0.18272981841810429 0.26074430176208241 0 0.1622835199241997 0.24370231580499011 0 0.15164892151638559 0.25060092041291859 0 0.15936993587747589 0.25872029442454331 0 0.1539223149733632 0.26792500308025119 0 0.1686789188405968 0.27014484434249841 0 0.15936993587747589 0.25872029442454331 0 0.15936993587747589 0.25872029442454331 0 0.18272981841810429 0.26074430176208241 0 0.1842785678011454 0.25259586829478281 0 0.1790953559185901 0.2455356236296132 0 0.15936993587747589 0.25872029442454331 0 0.1842785678011454 0.25259586829478281 0 0.18272981841810429 0.26074430176208241 0 0.1842785678011454 0.25259586829478281 0 0.1916917724144461 0.25077314177259769 0 0.18272981841810429 0.26074430176208241 0 0.1842785678011454 0.25259586829478281 0 0.18272981841810429 0.26074430176208241 0 0.19845830889049049 0.26210709029790757 0 0.18272981841810429 0.26074430176208241 0 0.1916917724144461 0.25077314177259769 0 0.19845830889049049 0.26210709029790757 0 0.1842785678011454 0.25259586829478281 0 0.1916917724144461 0.25077314177259769 0 0.21006328438723951 0.24625603427691251 0 0.1916917724144461 0.25077314177259769 0 0.19845830889049049 0.26210709029790757 0 0.1916917724144461 0.25077314177259769 0 0.19845830889049049 0.26210709029790757 0 0.18272981841810429 0.26074430176208241 0 0.19845830889049049 0.26210709029790757 0 0.19221439753866781 0.27514228964189869 0 0.19845830889049049 0.26210709029790757 0 0.2063974400092955 0.27540513483735379 0 0.19845830889049049 0.26210709029790757 0 0.19221439753866781 0.27514228964189869 0 0.2063974400092955 0.27540513483735379 0 0.19221439753866781 0.27514228964189869 0 0.2063974400092955 0.27540513483735379 0 0.19609038693290429 0.28864798238081302 0 0.19845830889049049 0.26210709029790757 0 0.2063974400092955 0.27540513483735379 0 0.2145460503579783 0.26350100598724802 0 0.2063974400092955 0.27540513483735379 0 0.2145460503579783 0.26350100598724802 0 0.21433657112810159 0.28870317937679962 0 0.19845830889049049 0.26210709029790757 0 0.2145460503579783 0.26350100598724802 0 0.21006328438723951 0.24625603427691251 0 0.2145460503579783 0.26350100598724802 0 0.23063379182546559 0.2648949216765949 0 0.21006328438723951 0.24625603427691251 0 0.19845830889049049 0.26210709029790757 0 0.2145460503579783 0.26350100598724802 0 0.21006328438723951 0.24625603427691251 0 0.2326788732958163 0.25279238212015659 0 0.23063379182546559 0.2648949216765949 0 0.2145460503579783 0.26350100598724802 0 0.23063379182546559 0.2648949216765949 0 0.21006328438723951 0.24625603427691251 0 0.23063379182546559 0.2648949216765949 0 0.2326788732958163 0.25279238212015659 0 0.23063379182546559 0.2648949216765949 0 0.23469060945638251 0.26524642295823209 0 0.23063379182546559 0.2648949216765949 0 0.23469060945638251 0.26524642295823209 0 0.23063379182546559 0.2648949216765949 0 0.2330756884940573 0.26710751838497249 0 0.21433657112810159 0.28870317937679962 0 0.2145460503579783 0.26350100598724802 0 0.23063379182546559 0.2648949216765949 0 0.21433657112810159 0.28870317937679962 0 0.2330756884940573 0.26710751838497249 0 0.21433657112810159 0.28870317937679962 0 0.23063379182546559 0.2648949216765949 0 0.2330756884940573 0.26710751838497249 0 0.23469060945638251 0.26524642295823209 0 0.23063379182546559 0.2648949216765949 0 0.2330756884940573 0.26710751838497249 0 0.2330756884940573 0.26710751838497249 0 0.23469060945638251 0.26524642295823209 0 0.23469060945638251 0.26524642295823209 0 0.25146727178258232 0.28377208784425101 0 0.2624965230106131 0.26765565480958592 0 0.2330756884940573 0.26710751838497249 0 0.23455072902601959 0.28983082313505792 0 0.25146727178258232 0.28377208784425101 0 0.2330756884940573 0.26710751838497249 0 0.23469060945638251 0.26524642295823209 0 0.25146727178258232 0.28377208784425101 0 0.2330756884940573 0.26710751838497249 0 0.25146727178258232 0.28377208784425101 0 0.23469060945638251 0.26524642295823209 0 0.2624965230106131 0.26765565480958592 0 0.24493592301361991 0.25343933973140892 0 0.23469060945638251 0.26524642295823209 0 0.2624965230106131 0.26765565480958592 0 0.2385216144851274 0.24513453473418331 0 0.2326788732958163 0.25279238212015659 0 0.24493592301361991 0.25343933973140892 0 0.2326788732958163 0.25279238212015659 0 0.24493592301361991 0.25343933973140892 0 0.23469060945638251 0.26524642295823209 0 0.24493592301361991 0.25343933973140892 0 0.23469060945638251 0.26524642295823209 0 0.2482774996666505 0.30671474592057979 0 0.23455072902601959 0.28983082313505792 0 0.2284664969734107 0.31237080501719883 0 0.2482774996666505 0.30671474592057979 0 0.23455072902601959 0.28983082313505792 0 0.25146727178258232 0.28377208784425101 0 0.2330756884940573 0.26710751838497249 0 0.23455072902601959 0.28983082313505792 0 0.21433657112810159 0.28870317937679962 0 0.2284664969734107 0.31237080501719883 0 0.21433657112810159 0.28870317937679962 0 0.23455072902601959 0.28983082313505792 0 0.2284664969734107 0.31237080501719883 0 0.21433657112810159 0.28870317937679962 0 0.21433657112810159 0.28870317937679962 0 0.2001412238822925 0.30506242943083639 0 0.2284664969734107 0.31237080501719883 0 0.21433657112810159 0.28870317937679962 0 0.2001412238822925 0.30506242943083639 0 0.2063974400092955 0.27540513483735379 0 0.21433657112810159 0.28870317937679962 0 0.19609038693290429 0.28864798238081302 0 0.21433657112810159 0.28870317937679962 0 0.19609038693290429 0.28864798238081302 0 0.2001412238822925 0.30506242943083639 0 0.2063974400092955 0.27540513483735379 0 0.21433657112810159 0.28870317937679962 0 0.1773960334425442 0.28880693893134057 0 0.19221439753866781 0.27514228964189869 0 0.19609038693290429 0.28864798238081302 0 0.1773960334425442 0.28880693893134057 0 0.19609038693290429 0.28864798238081302 0 0.18980547394622679 0.29804950176267819 0 0.19609038693290429 0.28864798238081302 0 0.2001412238822925 0.30506242943083639 0 0.18980547394622679 0.29804950176267819 0 0.1855942515271663 0.30968065630772279 0 0.2001412238822925 0.30506242943083639 0 0.18980547394622679 0.29804950176267819 0 0.1855942515271663 0.30968065630772279 0 0.2001412238822925 0.30506242943083639 0 0.1951345295960151 0.32021701977904271 0 0.1855942515271663 0.30968065630772279 0 0.1951345295960151 0.32021701977904271 0 0.1850655132550719 0.3198825914065519 0 0.1951345295960151 0.32021701977904271 0 0.1859854733279821 0.32952064813858872 0 0.1850655132550719 0.3198825914065519 0 0.1951345295960151 0.32021701977904271 0 0.20103925703808759 0.3341553000882943 0 0.1859854733279821 0.32952064813858872 0 0.18939951889318729 0.34113611702391339 0 0.20103925703808759 0.3341553000882943 0 0.1859854733279821 0.32952064813858872 0 0.18939951889318729 0.34113611702391339 0 0.20103925703808759 0.3341553000882943 0 0.20321201438324371 0.34906587793462179 0 0.20103925703808759 0.3341553000882943 0 0.21453226666663919 0.32513653419374527 0 0.21981566969130981 0.34297522018950122 0 0.20103925703808759 0.3341553000882943 0 0.21981566969130981 0.34297522018950122 0 0.20321201438324371 0.34906587793462179 0 0.1951345295960151 0.32021701977904271 0 0.20103925703808759 0.3341553000882943 0 0.21453226666663919 0.32513653419374527 0 0.2284664969734107 0.31237080501719883 0 0.2001412238822925 0.30506242943083639 0 0.21453226666663919 0.32513653419374527 0 0.2001412238822925 0.30506242943083639 0 0.1951345295960151 0.32021701977904271 0 0.21453226666663919 0.32513653419374527 0 0.2284664969734107 0.31237080501719883 0 0.21453226666663919 0.32513653419374527 0 0.24259642281871899 0.33603843065759847 0 0.21453226666663919 0.32513653419374527 0 0.21981566969130981 0.34297522018950122 0 0.24259642281871899 0.33603843065759847 0 0.2284664969734107 0.31237080501719883 0 0.24259642281871899 0.33603843065759847 0 0.2482774996666505 0.30671474592057979 0 0.2284664969734107 0.31237080501719883 0 0.24259642281871899 0.33603843065759847 0 0.23656930476675711 0.3553532152757361 0 0.23008614958966761 0.37018253417929142 0 0.24445023952260289 0.37741095824300153 0 0.23656930476675711 0.3553532152757361 0 0.24445023952260289 0.37741095824300153 0 0.25672634866402738 0.35970605629799818 0 0.24259642281871899 0.33603843065759847 0 0.23656930476675711 0.3553532152757361 0 0.25672634866402738 0.35970605629799818 0 0.24259642281871899 0.33603843065759847 0 0.25672634866402738 0.35970605629799818 0 0.21981566969130981 0.34297522018950122 0 0.24259642281871899 0.33603843065759847 0 0.23656930476675711 0.3553532152757361 0 0.21981566969130981 0.34297522018950122 0 0.23656930476675711 0.3553532152757361 0 0.21624197924118069 0.36135601439102888 0 0.23656930476675711 0.3553532152757361 0 0.23008614958966761 0.37018253417929142 0 0.21624197924118069 0.36135601439102888 0 0.23008614958966761 0.37018253417929142 0 0.21624197924118069 0.36135601439102888 0 0.21781857454556439 0.37737345626809071 0 0.21624197924118069 0.36135601439102888 0 0.20435243266960651 0.37136247435137298 0 0.21781857454556439 0.37737345626809071 0 0.21624197924118069 0.36135601439102888 0 0.20435243266960651 0.37136247435137298 0 0.20139856189408531 0.3609618715032803 0 0.21981566969130981 0.34297522018950122 0 0.21624197924118069 0.36135601439102888 0 0.20321201438324371 0.34906587793462179 0 0.21624197924118069 0.36135601439102888 0 0.20321201438324371 0.34906587793462179 0 0.20139856189408531 0.3609618715032803 0 0.20321201438324371 0.34906587793462179 0 0.18921313407632659 0.3526523795153037 0 0.20139856189408531 0.3609618715032803 0 0.18939951889318729 0.34113611702391339 0 0.20321201438324371 0.34906587793462179 0 0.18921313407632659 0.3526523795153037 0 0.20435243266960651 0.37136247435137298 0 0.19194949850119139 0.36696756782131013 0 0.19362349483402799 0.37794834730934201 0 0.20435243266960651 0.37136247435137298 0 0.20139856189408531 0.3609618715032803 0 0.19194949850119139 0.36696756782131013 0 0.18921313407632659 0.3526523795153037 0 0.20139856189408531 0.3609618715032803 0 0.19194949850119139 0.36696756782131013 0 0.19194949850119139 0.36696756782131013 0 0.181913774770601 0.37682288779145062 0 0.19362349483402799 0.37794834730934201 0 0.19194949850119139 0.36696756782131013 0 0.1793398261310887 0.36142261308742879 0 0.181913774770601 0.37682288779145062 0 0.18921313407632659 0.3526523795153037 0 0.19194949850119139 0.36696756782131013 0 0.1793398261310887 0.36142261308742879 0 0.1793398261310887 0.36142261308742879 0 0.17374481651574411 0.36962971537197548 0 0.16927957259797541 0.36068264340520151 0 0.1793398261310887 0.36142261308742879 0 0.17374481651574411 0.36962971537197548 0 0.181913774770601 0.37682288779145062 0 0.16927957259797541 0.36068264340520151 0 0.15665302320033381 0.35716884661875481 0 0.16444609256331111 0.37959071720382132 0 0.17374481651574411 0.36962971537197548 0 0.16927957259797541 0.36068264340520151 0 0.16444609256331111 0.37959071720382132 0 0.16654664547702219 0.34537343913309959 0 0.15241710048653481 0.33955101114669789 0 0.15543531200124031 0.34831643380964949 0 0.16654664547702219 0.34537343913309959 0 0.16972695947363781 0.34668396606315338 0 0.15543531200124031 0.34831643380964949 0 0.15665302320033381 0.35716884661875481 0 0.16972695947363781 0.34668396606315338 0 0.15543531200124031 0.34831643380964949 0 0.15665302320033381 0.35716884661875481 0 0.16972695947363781 0.34668396606315338 0 0.16927957259797541 0.36068264340520151 0 0.15665302320033381 0.35716884661875481 0 0.17116056857992021 0.35419217224400162 0 0.15665302320033381 0.35716884661875481 0 0.17116056857992021 0.35419217224400162 0 0.16972695947363781 0.34668396606315338 0 0.16972695947363781 0.34668396606315338 0 0.17430026660914161 0.34301631937607641 0 0.17050631527387369 0.34364570476013911 0 0.16654664547702219 0.34537343913309959 0 0.16972695947363781 0.34668396606315338 0 0.17050631527387369 0.34364570476013911 0 0.16654664547702219 0.34537343913309959 0 0.16972695947363781 0.34668396606315338 0 0.16972695947363781 0.34668396606315338 0 0.17780169937819151 0.35001136207164818 0 0.17430026660914161 0.34301631937607641 0 0.16972695947363781 0.34668396606315338 0 0.17430026660914161 0.34301631937607641 0 0.17116056857992021 0.35419217224400162 0 0.16972695947363781 0.34668396606315338 0 0.17780169937819151 0.35001136207164818 0 0.16972695947363781 0.34668396606315338 0 0.17780169937819151 0.35001136207164818 0 0.17780169937819151 0.35001136207164818 0 0.1811303173117523 0.34359605104229413 0 0.17430026660914161 0.34301631937607641 0 0.1793398261310887 0.36142261308742879 0 0.17116056857992021 0.35419217224400162 0 0.17780169937819151 0.35001136207164818 0 0.1793398261310887 0.36142261308742879 0 0.16927957259797541 0.36068264340520151 0 0.17116056857992021 0.35419217224400162 0 0.18921313407632659 0.3526523795153037 0 0.1793398261310887 0.36142261308742879 0 0.17780169937819151 0.35001136207164818 0 0.18939951889318729 0.34113611702391339 0 0.18921313407632659 0.3526523795153037 0 0.1811303173117523 0.34359605104229413 0 0.18921313407632659 0.3526523795153037 0 0.17780169937819151 0.35001136207164818 0 0.1811303173117523 0.34359605104229413 0 0.18939951889318729 0.34113611702391339 0 0.1811303173117523 0.34359605104229413 0 0.1801018393188985 0.33586223677990601 0 0.1859854733279821 0.32952064813858872 0 0.1801018393188985 0.33586223677990601 0 0.1775883227454037 0.32980591967575829 0 0.18939951889318729 0.34113611702391339 0 0.1859854733279821 0.32952064813858872 0 0.1801018393188985 0.33586223677990601 0 0.1801018393188985 0.33586223677990601 0 0.1775883227454037 0.32980591967575829 0 0.17498328523594539 0.33341995647874961 0 0.17306349885923211 0.33588292200836062 0 0.17126957152129821 0.3399503203314711 0 0.17177720111690711 0.33040606037117032 0 0.1775883227454037 0.32980591967575829 0 0.17531233753986819 0.32632022829218732 0 0.17177720111690711 0.33040606037117032 0 0.1775883227454037 0.32980591967575829 0 0.17498328523594539 0.33341995647874961 0 0.17177720111690711 0.33040606037117032 0 0.17306349885923211 0.33588292200836062 0 0.17498328523594539 0.33341995647874961 0 0.17177720111690711 0.33040606037117032 0 0.17306349885923211 0.33588292200836062 0 0.17498328523594539 0.33341995647874961 0 0.17580812980937799 0.33862130100280963 0 0.17306349885923211 0.33588292200836062 0 0.17580812980937799 0.33862130100280963 0 0.17126957152129821 0.3399503203314711 0 0.17430026660914161 0.34301631937607641 0 0.17580812980937799 0.33862130100280963 0 0.17126957152129821 0.3399503203314711 0 0.17430026660914161 0.34301631937607641 0 0.17050631527387369 0.34364570476013911 0 0.17126957152129821 0.3399503203314711 0 0.1811303173117523 0.34359605104229413 0 0.17430026660914161 0.34301631937607641 0 0.17580812980937799 0.33862130100280963 0 0.1811303173117523 0.34359605104229413 0 0.1801018393188985 0.33586223677990601 0 0.17580812980937799 0.33862130100280963 0 0.1801018393188985 0.33586223677990601 0 0.17498328523594539 0.33341995647874961 0 0.17580812980937799 0.33862130100280963 0 0.1855942515271663 0.30968065630772279 0 0.1850655132550719 0.3198825914065519 0 0.17984200754676 0.31661726412563518 0 0.1850655132550719 0.3198825914065519 0 0.17984200754676 0.31661726412563518 0 0.17877130427743609 0.32337736868177003 0 0.1859854733279821 0.32952064813858872 0 0.1850655132550719 0.3198825914065519 0 0.17877130427743609 0.32337736868177003 0 0.1859854733279821 0.32952064813858872 0 0.1775883227454037 0.32980591967575829 0 0.17877130427743609 0.32337736868177003 0 0.1748268515446646 0.32309290215210412 0 0.17206224846698071 0.31686957610059818 0 0.17177720111690711 0.33040606037117032 0 0.1775883227454037 0.32980591967575829 0 0.17531233753986819 0.32632022829218732 0 0.17877130427743609 0.32337736868177003 0 0.17531233753986819 0.32632022829218732 0 0.1748268515446646 0.32309290215210412 0 0.17877130427743609 0.32337736868177003 0 0.17531233753986819 0.32632022829218732 0 0.1748268515446646 0.32309290215210412 0 0.17177720111690711 0.33040606037117032 0 0.1748268515446646 0.32309290215210412 0 0.17877130427743609 0.32337736868177003 0 0.17632862106272329 0.31956127763638897 0 0.1855942515271663 0.30968065630772279 0 0.17984200754676 0.31661726412563518 0 0.17206224846698071 0.31686957610059818 0 0.17984200754676 0.31661726412563518 0 0.17877130427743609 0.32337736868177003 0 0.17632862106272329 0.31956127763638897 0 0.17984200754676 0.31661726412563518 0 0.17632862106272329 0.31956127763638897 0 0.17206224846698071 0.31686957610059818 0 0.1748268515446646 0.32309290215210412 0 0.17632862106272329 0.31956127763638897 0 0.17206224846698071 0.31686957610059818 0 0.16811581648349419 0.31512682798485669 0 0.16310696109604689 0.32372042980644983 0 0.1516115289914631 0.32377244210754869 0 0.16811581648349419 0.31512682798485669 0 0.1516115289914631 0.32377244210754869 0 0.16159363197730009 0.30836282247910118 0 0.16811581648349419 0.31512682798485669 0 0.1516115289914631 0.32377244210754869 0 0.16811581648349419 0.31512682798485669 0 0.16753187772170039 0.31960160623945028 0 0.16310696109604689 0.32372042980644983 0 0.17206224846698071 0.31686957610059818 0 0.16811581648349419 0.31512682798485669 0 0.16753187772170039 0.31960160623945028 0 0.17206224846698071 0.31686957610059818 0 0.16753187772170039 0.31960160623945028 0 0.16684248484028 0.32268959106589667 0 0.17206224846698071 0.31686957610059818 0 0.16684248484028 0.32268959106589667 0 0.16513464277812609 0.33009107314493469 0 0.16753187772170039 0.31960160623945028 0 0.16684248484028 0.32268959106589667 0 0.16310696109604689 0.32372042980644983 0 0.16684248484028 0.32268959106589667 0 0.16310696109604689 0.32372042980644983 0 0.16513464277812609 0.33009107314493469 0 0.16310696109604689 0.32372042980644983 0 0.15836388887539871 0.33134034001351897 0 0.1516115289914631 0.32377244210754869 0 0.16654664547702219 0.34537343913309959 0 0.17206224846698071 0.31686957610059818 0 0.16513464277812609 0.33009107314493469 0 0.16654664547702219 0.34537343913309959 0 0.17206224846698071 0.31686957610059818 0 0.17177720111690711 0.33040606037117032 0 0.16654664547702219 0.34537343913309959 0 0.17206224846698071 0.31686957610059818 0 0.16654664547702219 0.34537343913309959 0 0.16513464277812609 0.33009107314493469 0 0.1609624747685364 0.33748274617835028 0 0.16654664547702219 0.34537343913309959 0 0.17126957152129821 0.3399503203314711 0 0.17177720111690711 0.33040606037117032 0 0.16654664547702219 0.34537343913309959 0 0.17050631527387369 0.34364570476013911 0 0.17126957152129821 0.3399503203314711 0 0.16513464277812609 0.33009107314493469 0 0.15836388887539871 0.33134034001351897 0 0.1609624747685364 0.33748274617835028 0 0.16310696109604689 0.32372042980644983 0 0.16513464277812609 0.33009107314493469 0 0.15836388887539871 0.33134034001351897 0 0.16654664547702219 0.34537343913309959 0 0.1609624747685364 0.33748274617835028 0 0.15241710048653481 0.33955101114669789 0 0.15836388887539871 0.33134034001351897 0 0.1609624747685364 0.33748274617835028 0 0.15241710048653481 0.33955101114669789 0 0.16654664547702219 0.34537343913309959 0 0.15241710048653481 0.33955101114669789 0 0.15241710048653481 0.33955101114669789 0 0.1351072414994324 0.33241805623024118 0 0.15241710048653481 0.33955101114669789 0 0.1516115289914631 0.32377244210754869 0 0.1351072414994324 0.33241805623024118 0 0.15836388887539871 0.33134034001351897 0 0.15241710048653481 0.33955101114669789 0 0.1516115289914631 0.32377244210754869 0 0.15241710048653481 0.33955101114669789 0 0.1351072414994324 0.33241805623024118 0 0.14294416484445499 0.34986191140999201 0 0.1516115289914631 0.32377244210754869 0 0.1351072414994324 0.33241805623024118 0 0.1516115289914631 0.32377244210754869 0 0.13870702550325231 0.31982112614649372 0 0.1351072414994324 0.33241805623024118 0 0.14495201049736939 0.3124307981974721 0 0.15281881038374071 0.30821961200634262 0 0.1516115289914631 0.32377244210754869 0 0.15281881038374071 0.30821961200634262 0 0.16159363197730009 0.30836282247910118 0 0.1516115289914631 0.32377244210754869 0 0.14495201049736939 0.3124307981974721 0 0.1516115289914631 0.32377244210754869 0 0.13870702550325231 0.31982112614649372 0 0.12079296905980121 0.32651950673600139 0 0.13870702550325231 0.31982112614649372 0 0.12674909414285809 0.31446865288742237 0 0.12079296905980121 0.32651950673600139 0 0.13870702550325231 0.31982112614649372 0 0.1351072414994324 0.33241805623024118 0 0.13621773509297591 0.30779389204400448 0 0.13870702550325231 0.31982112614649372 0 0.12674909414285809 0.31446865288742237 0 0.13621773509297591 0.30779389204400448 0 0.14495201049736939 0.3124307981974721 0 0.13870702550325231 0.31982112614649372 0 0.1351072414994324 0.33241805623024118 0 0.12547048333763261 0.34631434917745002 0 0.14294416484445499 0.34986191140999201 0 0.12079296905980121 0.32651950673600139 0 0.1351072414994324 0.33241805623024118 0 0.12798915036443539 0.35873548942854078 0 0.14357908692703031 0.36765372717435651 0 0.14294416484445499 0.34986191140999201 0 0.12547048333763261 0.34631434917745002 0 0.12798915036443539 0.35873548942854078 0 0.14294416484445499 0.34986191140999201 0 0.12798915036443539 0.35873548942854078 0 0.14357908692703031 0.36765372717435651 0 0.12809147473523691 0.38007429895379857 0 0.14357908692703031 0.36765372717435651 0 0.12809147473523691 0.38007429895379857 0 0.12798915036443539 0.35873548942854078 0 0.14357908692703031 0.36765372717435651 0 0.15665302320033381 0.35716884661875481 0 0.14357908692703031 0.36765372717435651 0 0.16444609256331111 0.37959071720382132 0 0.14357908692703031 0.36765372717435651 0 0.16444609256331111 0.37959071720382132 0 0.15665302320033381 0.35716884661875481 0 0.14357908692703031 0.36765372717435651 0 0.15665302320033381 0.35716884661875481 0 0.14357908692703031 0.36765372717435651 0 0.14294416484445499 0.34986191140999201 0 0.15665302320033381 0.35716884661875481 0 0.15543531200124031 0.34831643380964949 0 0.14294416484445499 0.34986191140999201 0 0.15241710048653481 0.33955101114669789 0 0.15543531200124031 0.34831643380964949 0 0.14294416484445499 0.34986191140999201 0 0.1482445152707951 0.40107624664015401 0 0.14267099780821579 0.38562909282376712 0 0.16444609256331111 0.37959071720382132 0 0.14357908692703031 0.36765372717435651 0 0.14267099780821579 0.38562909282376712 0 0.16444609256331111 0.37959071720382132 0 0.14267099780821579 0.38562909282376712 0 0.12809147473523691 0.38007429895379857 0 0.13062741307493311 0.39754765124585317 0 0.14357908692703031 0.36765372717435651 0 0.14267099780821579 0.38562909282376712 0 0.12809147473523691 0.38007429895379857 0 0.1482445152707951 0.40107624664015401 0 0.13062741307493311 0.39754765124585317 0 0.1351441002781035 0.41247416104940121 0 0.1482445152707951 0.40107624664015401 0 0.14267099780821579 0.38562909282376712 0 0.13062741307493311 0.39754765124585317 0 0.1181673943830774 0.44022581583491821 0 0.12937490732120219 0.4263610080159777 0 0.15165077371825519 0.44199706417228152 0 0.11668221390699671 0.4127773248028766 0 0.13062741307493311 0.39754765124585317 0 0.1351441002781035 0.41247416104940121 0 0.11668221390699671 0.4127773248028766 0 0.1351441002781035 0.41247416104940121 0 0.12937490732120219 0.4263610080159777 0 0.1351441002781035 0.41247416104940121 0 0.12937490732120219 0.4263610080159777 0 0.14922034506391649 0.4209609946771159 0 0.12937490732120219 0.4263610080159777 0 0.14922034506391649 0.4209609946771159 0 0.15165077371825519 0.44199706417228152 0 0.1482445152707951 0.40107624664015401 0 0.1351441002781035 0.41247416104940121 0 0.14922034506391649 0.4209609946771159 0 0.1482445152707951 0.40107624664015401 0 0.14922034506391649 0.4209609946771159 0 0.16797624994955981 0.40559922052433078 0 0.14922034506391649 0.4209609946771159 0 0.1752611561817774 0.42644536962324842 0 0.16797624994955981 0.40559922052433078 0 0.1752611561817774 0.42644536962324842 0 0.15165077371825519 0.44199706417228152 0 0.14922034506391649 0.4209609946771159 0 0.1752611561817774 0.42644536962324842 0 0.15165077371825519 0.44199706417228152 0 0.1752611561817774 0.42644536962324842 0 0.20267353887625331 0.43327903413338509 0 0.17994596033189111 0.44991415153171488 0 0.1752611561817774 0.42644536962324842 0 0.19887153864529961 0.41089367507421531 0 0.1752611561817774 0.42644536962324842 0 0.18185551074405731 0.4086164931137698 0 0.16797624994955981 0.40559922052433078 0 0.1752611561817774 0.42644536962324842 0 0.18185551074405731 0.4086164931137698 0 0.19887153864529961 0.41089367507421531 0 0.18531309819959249 0.39152770723328489 0 0.16797624994955981 0.40559922052433078 0 0.16444609256331111 0.37959071720382132 0 0.18185551074405731 0.4086164931137698 0 0.18531309819959249 0.39152770723328489 0 0.16797624994955981 0.40559922052433078 0 0.1482445152707951 0.40107624664015401 0 0.16797624994955981 0.40559922052433078 0 0.16444609256331111 0.37959071720382132 0 0.17374481651574411 0.36962971537197548 0 0.16444609256331111 0.37959071720382132 0 0.181913774770601 0.37682288779145062 0 0.18531309819959249 0.39152770723328489 0 0.16444609256331111 0.37959071720382132 0 0.181913774770601 0.37682288779145062 0 0.18531309819959249 0.39152770723328489 0 0.16444609256331111 0.37959071720382132 0 0.18531309819959249 0.39152770723328489 0 0.181913774770601 0.37682288779145062 0 0.19362349483402799 0.37794834730934201 0 0.18531309819959249 0.39152770723328489 0 0.19362349483402799 0.37794834730934201 0 0.2045886700291486 0.38306109934929111 0 0.18531309819959249 0.39152770723328489 0 0.2065715273148919 0.39273321631320579 0 0.2045886700291486 0.38306109934929111 0 0.20435243266960651 0.37136247435137298 0 0.19362349483402799 0.37794834730934201 0 0.2045886700291486 0.38306109934929111 0 0.18531309819959249 0.39152770723328489 0 0.20618010383587401 0.40346469726274847 0 0.19887153864529961 0.41089367507421531 0 0.18531309819959249 0.39152770723328489 0 0.20618010383587401 0.40346469726274847 0 0.18185551074405731 0.4086164931137698 0 0.18531309819959249 0.39152770723328489 0 0.19887153864529961 0.41089367507421531 0 0.18531309819959249 0.39152770723328489 0 0.20618010383587401 0.40346469726274847 0 0.2065715273148919 0.39273321631320579 0 0.2065715273148919 0.39273321631320579 0 0.21571757352244261 0.38732700773784751 0 0.22017385881373019 0.39890633138414222 0 0.20618010383587401 0.40346469726274847 0 0.2065715273148919 0.39273321631320579 0 0.22017385881373019 0.39890633138414222 0 0.20618010383587401 0.40346469726274847 0 0.22017385881373019 0.39890633138414222 0 0.21506058102585379 0.40791122310883232 0 0.20435243266960651 0.37136247435137298 0 0.2045886700291486 0.38306109934929111 0 0.21781857454556439 0.37737345626809071 0 0.2065715273148919 0.39273321631320579 0 0.2045886700291486 0.38306109934929111 0 0.21571757352244261 0.38732700773784751 0 0.2045886700291486 0.38306109934929111 0 0.21571757352244261 0.38732700773784751 0 0.21781857454556439 0.37737345626809071 0 0.23008614958966761 0.37018253417929142 0 0.21781857454556439 0.37737345626809071 0 0.2336099623102354 0.38141599622927019 0 0.21781857454556439 0.37737345626809071 0 0.2336099623102354 0.38141599622927019 0 0.22519044247525469 0.38754059010067582 0 0.2336099623102354 0.38141599622927019 0 0.22519044247525469 0.38754059010067582 0 0.23123697400362761 0.39369410767364571 0 0.21571757352244261 0.38732700773784751 0 0.21781857454556439 0.37737345626809071 0 0.22519044247525469 0.38754059010067582 0 0.22017385881373019 0.39890633138414222 0 0.232279959058037 0.40219883893304481 0 0.2254011174206155 0.41664391673505541 0 0.21571757352244261 0.38732700773784751 0 0.22519044247525469 0.38754059010067582 0 0.22017385881373019 0.39890633138414222 0 0.22519044247525469 0.38754059010067582 0 0.22017385881373019 0.39890633138414222 0 0.23123697400362761 0.39369410767364571 0 0.22017385881373019 0.39890633138414222 0 0.232279959058037 0.40219883893304481 0 0.23123697400362761 0.39369410767364571 0 0.232279959058037 0.40219883893304481 0 0.23123697400362761 0.39369410767364571 0 0.23897344587099209 0.39646756418477119 0 0.24812869596497769 0.40000879933672562 0 0.2462868875795915 0.41869027928711372 0 0.25254422506417301 0.39852611150546569 0 0.232279959058037 0.40219883893304481 0 0.23897344587099209 0.39646756418477119 0 0.24812869596497769 0.40000879933672562 0 0.23123697400362761 0.39369410767364571 0 0.23897344587099209 0.39646756418477119 0 0.2387690372974865 0.39071700374335011 0 0.23897344587099209 0.39646756418477119 0 0.2387690372974865 0.39071700374335011 0 0.24454493245908659 0.39543059986728518 0 0.24812869596497769 0.40000879933672562 0 0.24454493245908659 0.39543059986728518 0 0.24709972094673099 0.39024053283712018 0 0.23897344587099209 0.39646756418477119 0 0.24812869596497769 0.40000879933672562 0 0.24454493245908659 0.39543059986728518 0 0.2387690372974865 0.39071700374335011 0 0.24454493245908659 0.39543059986728518 0 0.24709972094673099 0.39024053283712018 0 0.24709972094673099 0.39024053283712018 0 0.24445023952260289 0.37741095824300153 0 0.25521843280955409 0.38511933133671561 0 0.2387690372974865 0.39071700374335011 0 0.24709972094673099 0.39024053283712018 0 0.24445023952260289 0.37741095824300153 0 0.23008614958966761 0.37018253417929142 0 0.2336099623102354 0.38141599622927019 0 0.24445023952260289 0.37741095824300153 0 0.2336099623102354 0.38141599622927019 0 0.2387690372974865 0.39071700374335011 0 0.24445023952260289 0.37741095824300153 0 0.2336099623102354 0.38141599622927019 0 0.23123697400362761 0.39369410767364571 0 0.2387690372974865 0.39071700374335011 0 0.2462868875795915 0.41869027928711372 0 0.23144794287390541 0.43007506563477271 0 0.24002955009501001 0.43885444706876181 0 0.2462868875795915 0.41869027928711372 0 0.24002955009501001 0.43885444706876181 0 0.2462868875795915 0.41869027928711372 0 0.24002955009501001 0.43885444706876181 0 0.26125074000052179 0.4349223989582921 0 0.2462868875795915 0.41869027928711372 0 0.2254011174206155 0.41664391673505541 0 0.23144794287390541 0.43007506563477271 0 0.232279959058037 0.40219883893304481 0 0.24812869596497769 0.40000879933672562 0 0.2254011174206155 0.41664391673505541 0 0.2462868875795915 0.41869027928711372 0 0.25254422506417301 0.39852611150546569 0 0.24812869596497769 0.40000879933672562 0 0.2462868875795915 0.41869027928711372 0 0.2254011174206155 0.41664391673505541 0 0.24812869596497769 0.40000879933672562 0 0.2254011174206155 0.41664391673505541 0 0.22017385881373019 0.39890633138414222 0 0.2254011174206155 0.41664391673505541 0 0.21506058102585379 0.40791122310883232 0 0.2254011174206155 0.41664391673505541 0 0.23144794287390541 0.43007506563477271 0 0.220496548095832 0.43636979195703801 0 0.23144794287390541 0.43007506563477271 0 0.220496548095832 0.43636979195703801 0 0.2293550466787683 0.44110110535289121 0 0.23144794287390541 0.43007506563477271 0 0.2293550466787683 0.44110110535289121 0 0.24002955009501001 0.43885444706876181 0 0.2254011174206155 0.41664391673505541 0 0.220496548095832 0.43636979195703801 0 0.20267353887625331 0.43327903413338509 0 0.2254011174206155 0.41664391673505541 0 0.20267353887625331 0.43327903413338509 0 0.2254011174206155 0.41664391673505541 0 0.21014349886705089 0.41483968588318881 0 0.20267353887625331 0.43327903413338509 0 0.21014349886705089 0.41483968588318881 0 0.19887153864529961 0.41089367507421531 0 0.20267353887625331 0.43327903413338509 0 0.2254011174206155 0.41664391673505541 0 0.21506058102585379 0.40791122310883232 0 0.21014349886705089 0.41483968588318881 0 0.20618010383587401 0.40346469726274847 0 0.21014349886705089 0.41483968588318881 0 0.19887153864529961 0.41089367507421531 0 0.20618010383587401 0.40346469726274847 0 0.21506058102585379 0.40791122310883232 0 0.21014349886705089 0.41483968588318881 0 0.1752611561817774 0.42644536962324842 0 0.19887153864529961 0.41089367507421531 0 0.20267353887625331 0.43327903413338509 0 0.20267353887625331 0.43327903413338509 0 0.17994596033189111 0.44991415153171488 0 0.20267353887625331 0.43327903413338509 0 0.19693545560091849 0.45399746052800077 0 0.17994596033189111 0.44991415153171488 0 0.19693545560091849 0.45399746052800077 0 0.20796988299679731 0.46620669875256832 0 0.1851453842306347 0.47556567345982509 0 0.20796988299679731 0.46620669875256832 0 0.21126891067012349 0.44813902914220222 0 0.22161986932367311 0.45891273300293822 0 0.19693545560091849 0.45399746052800077 0 0.20796988299679731 0.46620669875256832 0 0.21126891067012349 0.44813902914220222 0 0.20267353887625331 0.43327903413338509 0 0.19693545560091849 0.45399746052800077 0 0.21126891067012349 0.44813902914220222 0 0.220496548095832 0.43636979195703801 0 0.20267353887625331 0.43327903413338509 0 0.21126891067012349 0.44813902914220222 0 0.21126891067012349 0.44813902914220222 0 0.22281480712925331 0.44778147160883552 0 0.22161986932367311 0.45891273300293822 0 0.220496548095832 0.43636979195703801 0 0.21126891067012349 0.44813902914220222 0 0.22281480712925331 0.44778147160883552 0 0.220496548095832 0.43636979195703801 0 0.2293550466787683 0.44110110535289121 0 0.22281480712925331 0.44778147160883552 0 0.2293550466787683 0.44110110535289121 0 0.23198638519984091 0.45242475049504788 0 0.24002955009501001 0.43885444706876181 0 0.2293550466787683 0.44110110535289121 0 0.23198638519984091 0.45242475049504788 0 0.22281480712925331 0.44778147160883552 0 0.23198638519984091 0.45242475049504788 0 0.22281480712925331 0.44778147160883552 0 0.22161986932367311 0.45891273300293822 0 0.20796988299679731 0.46620669875256832 0 0.22161986932367311 0.45891273300293822 0 0.22741354806638631 0.47950930742520248 0 0.22161986932367311 0.45891273300293822 0 0.23377221261042841 0.45901861485040979 0 0.22741354806638631 0.47950930742520248 0 0.23198638519984091 0.45242475049504788 0 0.22161986932367311 0.45891273300293822 0 0.23377221261042841 0.45901861485040979 0 0.23198638519984091 0.45242475049504788 0 0.23377221261042841 0.45901861485040979 0 0.23377221261042841 0.45901861485040979 0 0.24444283583438989 0.46597971488869572 0 0.23932174145874771 0.47950930742520559 0 0.23377221261042841 0.45901861485040979 0 0.24444283583438989 0.46597971488869572 0 0.25016187994385808 0.4547755483691745 0 0.24444283583438989 0.46597971488869572 0 0.25451550932452532 0.47061538890999283 0 0.25016187994385808 0.4547755483691745 0 0.23377221261042841 0.45901861485040979 0 0.24002955009501001 0.43885444706876181 0 0.23377221261042841 0.45901861485040979 0 0.24002955009501001 0.43885444706876181 0 0.25016187994385808 0.4547755483691745 0 0.23198638519984091 0.45242475049504788 0 0.23377221261042841 0.45901861485040979 0 0.24002955009501001 0.43885444706876181 0 0.2448712703070674 0.50000000000000111 0 0.23932174145874771 0.47950930742520559 0 0.22741354806638631 0.47950930742520248 0 0.2448712703070674 0.50000000000000111 0 0.23932174145874771 0.47950930742520559 0 0.2448712703070674 0.50000000000000111 0 0.23932174145874771 0.47950930742520559 0 0.25535221091133231 0.48820095967039262 0 0.23377221261042841 0.45901861485040979 0 0.23932174145874771 0.47950930742520559 0 0.23932174145874771 0.47950930742520559 0 0.25451550932452532 0.47061538890999283 0 0.25535221091133231 0.48820095967039262 0 0.24444283583438989 0.46597971488869572 0 0.23932174145874771 0.47950930742520559 0 0.25451550932452532 0.47061538890999283 0 0.23377221261042841 0.45901861485040979 0 0.23932174145874771 0.47950930742520559 0 0.22741354806638631 0.47950930742520248 0 0.23377221261042841 0.45901861485040979 0 0.22741354806638631 0.47950930742520248 0 0.22741354806638631 0.47950930742520248 0 0.2210548835223452 0.49999999999999561 0 0.2448712703070674 0.50000000000000111 0 0.22741354806638631 0.47950930742520248 0 0.2210548835223452 0.49999999999999561 0 0.2210548835223452 0.49999999999999561 0 0.20740564857183949 0.48425633592751821 0 0.19544454404303521 0.5 0 0.22741354806638631 0.47950930742520248 0 0.2210548835223452 0.49999999999999561 0 0.20740564857183949 0.48425633592751821 0 0.20796988299679731 0.46620669875256832 0 0.22741354806638631 0.47950930742520248 0 0.20740564857183949 0.48425633592751821 0 0.20796988299679731 0.46620669875256832 0 0.20740564857183949 0.48425633592751821 0 0.1851453842306347 0.47556567345982509 0 0.20740564857183949 0.48425633592751821 0 0.19544454404303521 0.5 0 0.1851453842306347 0.47556567345982509 0 0.19544454404303521 0.5 0 0.16983420456372519 0.5 0 0.1851453842306347 0.47556567345982509 0 0.16983420456372519 0.5 0 0.1570290348240701 0.48572505205748051 0 0.1851453842306347 0.47556567345982509 0 0.16983420456372519 0.5 0 0.1570290348240701 0.48572505205748051 0 0.14422386508441509 0.5 0 0.1570290348240701 0.48572505205748051 0 0.1851453842306347 0.47556567345982509 0 0.15721838178752889 0.46654926893004461 0 0.1851453842306347 0.47556567345982509 0 0.17994596033189111 0.44991415153171488 0 0.15721838178752889 0.46654926893004461 0 0.19693545560091849 0.45399746052800077 0 0.1851453842306347 0.47556567345982509 0 0.17994596033189111 0.44991415153171488 0 0.1752611561817774 0.42644536962324842 0 0.17994596033189111 0.44991415153171488 0 0.15165077371825519 0.44199706417228152 0 0.17994596033189111 0.44991415153171488 0 0.15721838178752889 0.46654926893004461 0 0.15165077371825519 0.44199706417228152 0 0.17994596033189111 0.44991415153171488 0 0.15721838178752889 0.46654926893004461 0 0.15721838178752889 0.46654926893004461 0 0.15165077371825519 0.44199706417228152 0 0.12804039125473299 0.45754875872131462 0 0.1181673943830774 0.44022581583491821 0 0.15165077371825519 0.44199706417228152 0 0.12804039125473299 0.45754875872131462 0 0.15165077371825519 0.44199706417228152 0 0.12804039125473299 0.45754875872131462 0 0.15721838178752889 0.46654926893004461 0 0.12804039125473299 0.45754875872131462 0 0.1331550468472531 0.48231942511762832 0 0.1203001463837419 0.4733270398945203 0 0.12804039125473299 0.45754875872131462 0 0.1331550468472531 0.48231942511762832 0 0.11861352560510489 0.49999999999999961 0 0.1331550468472531 0.48231942511762832 0 0.14422386508441509 0.5 0 0.1570290348240701 0.48572505205748051 0 0.1331550468472531 0.48231942511762832 0 0.14422386508441509 0.5 0 0.1570290348240701 0.48572505205748051 0 0.15721838178752889 0.46654926893004461 0 0.1331550468472531 0.48231942511762832 0 0.35849411576205048 0.48564832565320948 0 0.35408392671809169 0.46369884821087698 0 0.34015277833799928 0.48416811184305891 0 0.34603129802587879 0.5 0 0.35849411576205048 0.48564832565320948 0 0.34015277833799928 0.48416811184305891 0 0.34603129802587879 0.5 0 0.35849411576205048 0.48564832565320948 0 0.37132130495558169 0.5 0 0.35849411576205048 0.48564832565320948 0 0.37132130495558169 0.5 0 0.37526062029746671 0.48388889105816718 0 0.36824825436624259 0.4740585951063615 0 0.37865286170415258 0.47303755422137411 0 0.37526062029746671 0.48388889105816718 0 0.35849411576205048 0.48564832565320948 0 0.36824825436624259 0.4740585951063615 0 0.37526062029746671 0.48388889105816718 0 0.35849411576205048 0.48564832565320948 0 0.36824825436624259 0.4740585951063615 0 0.35408392671809169 0.46369884821087698 0 0.35408392671809169 0.46369884821087698 0 0.37506593838782409 0.45849177179803657 0 0.36824825436624259 0.4740585951063615 0 0.37506593838782409 0.45849177179803657 0 0.37865286170415258 0.47303755422137411 0 0.36824825436624259 0.4740585951063615 0 0.35408392671809169 0.46369884821087698 0 0.37506593838782409 0.45849177179803657 0 0.36494294587192572 0.458538535609606 0 0.35408392671809169 0.46369884821087698 0 0.37506593838782409 0.45849177179803657 0 0.36494294587192572 0.458538535609606 0 0.36925285784131068 0.44680946716270997 0 0.37506593838782409 0.45849177179803657 0 0.36925285784131068 0.44680946716270997 0 0.35586123749405879 0.4463433058356116 0 0.35944273296702778 0.43088093897841018 0 0.36925285784131068 0.44680946716270997 0 0.35944273296702778 0.43088093897841018 0 0.37729751408372991 0.43659552646984529 0 0.36494294587192572 0.458538535609606 0 0.36925285784131068 0.44680946716270997 0 0.35586123749405879 0.4463433058356116 0 0.35586123749405879 0.4463433058356116 0 0.34140484308466912 0.44163016283106937 0 0.35944273296702778 0.43088093897841018 0 0.35586123749405879 0.4463433058356116 0 0.34654550581594468 0.4583607181861335 0 0.34140484308466912 0.44163016283106937 0 0.36494294587192572 0.458538535609606 0 0.34654550581594468 0.4583607181861335 0 0.35408392671809169 0.46369884821087698 0 0.34654550581594468 0.4583607181861335 0 0.3331019150483599 0.46890592462371949 0 0.36494294587192572 0.458538535609606 0 0.35408392671809169 0.46369884821087698 0 0.34654550581594468 0.4583607181861335 0 0.36494294587192572 0.458538535609606 0 0.35586123749405879 0.4463433058356116 0 0.34654550581594468 0.4583607181861335 0 0.34654550581594468 0.4583607181861335 0 0.32814806575996391 0.45818290076266072 0 0.3331019150483599 0.46890592462371949 0 0.35408392671809169 0.46369884821087698 0 0.3331019150483599 0.46890592462371949 0 0.34654550581594468 0.4583607181861335 0 0.32814806575996391 0.45818290076266072 0 0.34654550581594468 0.4583607181861335 0 0.32814806575996391 0.45818290076266072 0 0.33740727438677193 0.45201350615931157 0 0.32814806575996391 0.45818290076266072 0 0.3331019150483599 0.46890592462371949 0 0.34654550581594468 0.4583607181861335 0 0.33740727438677193 0.45201350615931157 0 0.34140484308466912 0.44163016283106937 0 0.32814806575996391 0.45818290076266072 0 0.33740727438677193 0.45201350615931157 0 0.31918111643649949 0.43877318400327631 0 0.33740727438677193 0.45201350615931157 0 0.34140484308466912 0.44163016283106937 0 0.31918111643649949 0.43877318400327631 0 0.32814806575996391 0.45818290076266072 0 0.31918111643649949 0.43877318400327631 0 0.32814806575996391 0.45818290076266072 0 0.31918111643649949 0.43877318400327631 0 0.30800857313635233 0.44723848132150379 0 0.32814806575996391 0.45818290076266072 0 0.29849084745078508 0.45789625380900578 0 0.32814806575996391 0.45818290076266072 0 0.3331019150483599 0.46890592462371949 0 0.30718534700268368 0.47533760297260907 0 0.3237910745599244 0.48258766858628732 0 0.3331019150483599 0.46890592462371949 0 0.30718534700268368 0.47533760297260907 0 0.3331019150483599 0.46890592462371949 0 0.30718534700268368 0.47533760297260907 0 0.3237910745599244 0.48258766858628732 0 0.3331019150483599 0.46890592462371949 0 0.34015277833799928 0.48416811184305891 0 0.35408392671809169 0.46369884821087698 0 0.3331019150483599 0.46890592462371949 0 0.34015277833799928 0.48416811184305891 0 0.3331019150483599 0.46890592462371949 0 0.34015277833799928 0.48416811184305891 0 0.3237910745599244 0.48258766858628732 0 0.34015277833799928 0.48416811184305891 0 0.32074129109617588 0.5 0 0.34603129802587879 0.5 0 0.34015277833799928 0.48416811184305891 0 0.32074129109617588 0.5 0 0.3237910745599244 0.48258766858628732 0 0.32074129109617588 0.5 0 0.30718534700268368 0.47533760297260907 0 0.32074129109617588 0.5 0 0.30718534700268368 0.47533760297260907 0 0.29545128416647293 0.5 0 0.30718534700268368 0.47533760297260907 0 0.28126877895700808 0.48176928132150082 0 0.30718534700268368 0.47533760297260907 0 0.28126877895700808 0.48176928132150082 0 0.29849084745078508 0.45789625380900578 0 0.30718534700268368 0.47533760297260907 0 0.28126877895700808 0.48176928132150082 0 0.29545128416647293 0.5 0 0.28126877895700808 0.48176928132150082 0 0.29545128416647293 0.5 0 0.27016127723677008 0.5 0 0.28126877895700808 0.48176928132150082 0 0.25535221091133231 0.48820095967039262 0 0.28126877895700808 0.48176928132150082 0 0.27016127723677008 0.5 0 0.25535221091133231 0.48820095967039262 0 0.28126877895700808 0.48176928132150082 0 0.25451550932452532 0.47061538890999283 0 0.26883362914160641 0.45760960685535068 0 0.28126877895700808 0.48176928132150082 0 0.25451550932452532 0.47061538890999283 0 0.25535221091133231 0.48820095967039262 0 0.2448712703070674 0.50000000000000111 0 0.27016127723677008 0.5 0 0.25535221091133231 0.48820095967039262 0 0.24002955009501001 0.43885444706876181 0 0.25016187994385808 0.4547755483691745 0 0.26125074000052179 0.4349223989582921 0 0.25016187994385808 0.4547755483691745 0 0.26883362914160641 0.45760960685535068 0 0.26125074000052179 0.4349223989582921 0 0.25451550932452532 0.47061538890999283 0 0.25016187994385808 0.4547755483691745 0 0.26883362914160641 0.45760960685535068 0 0.26883362914160641 0.45760960685535068 0 0.28136822089640889 0.43642331312505939 0 0.26125074000052179 0.4349223989582921 0 0.26883362914160641 0.45760960685535068 0 0.29203291861773512 0.44548253455793502 0 0.28136822089640889 0.43642331312505939 0 0.29203291861773512 0.44548253455793502 0 0.30218991741677731 0.43585753347464151 0 0.28136822089640889 0.43642331312505939 0 0.28126877895700808 0.48176928132150082 0 0.26883362914160641 0.45760960685535068 0 0.29849084745078508 0.45789625380900578 0 0.26883362914160641 0.45760960685535068 0 0.29203291861773512 0.44548253455793502 0 0.29849084745078508 0.45789625380900578 0 0.26883362914160641 0.45760960685535068 0 0.29849084745078508 0.45789625380900578 0 0.32814806575996391 0.45818290076266072 0 0.29849084745078508 0.45789625380900578 0 0.30800857313635233 0.44723848132150379 0 0.32814806575996391 0.45818290076266072 0 0.30718534700268368 0.47533760297260907 0 0.29849084745078508 0.45789625380900578 0 0.31918111643649949 0.43877318400327631 0 0.30800857313635233 0.44723848132150379 0 0.30218991741677731 0.43585753347464151 0 0.29203291861773512 0.44548253455793502 0 0.29849084745078508 0.45789625380900578 0 0.30800857313635233 0.44723848132150379 0 0.29203291861773512 0.44548253455793502 0 0.30800857313635233 0.44723848132150379 0 0.30218991741677731 0.43585753347464151 0 0.30218991741677731 0.43585753347464151 0 0.31021416711303462 0.41936346724389201 0 0.29174536978096338 0.41836291629589373 0 0.31918111643649949 0.43877318400327631 0 0.30218991741677731 0.43585753347464151 0 0.31021416711303462 0.41936346724389201 0 0.30218991741677731 0.43585753347464151 0 0.29174536978096338 0.41836291629589373 0 0.30124721778956931 0.39995375048450788 0 0.31939642987121991 0.41723390356701068 0 0.31021416711303462 0.41936346724389201 0 0.29174536978096338 0.41836291629589373 0 0.30124721778956931 0.39995375048450788 0 0.31021416711303462 0.41936346724389201 0 0.30124721778956931 0.39995375048450788 0 0.31021416711303462 0.41936346724389201 0 0.30124721778956931 0.39995375048450788 0 0.31939642987121991 0.41723390356701068 0 0.30124721778956931 0.39995375048450788 0 0.3155040408294032 0.40315098430792612 0 0.31939642987121991 0.41723390356701068 0 0.29174536978096338 0.41836291629589373 0 0.28130082214514962 0.40086829911714578 0 0.30124721778956931 0.39995375048450788 0 0.29174536978096338 0.41836291629589373 0 0.275285418332892 0.41898730790900751 0 0.28130082214514962 0.40086829911714578 0 0.29174536978096338 0.41836291629589373 0 0.28130082214514962 0.40086829911714578 0 0.30218991741677731 0.43585753347464151 0 0.29174536978096338 0.41836291629589373 0 0.28136822089640889 0.43642331312505939 0 0.29174536978096338 0.41836291629589373 0 0.28136822089640889 0.43642331312505939 0 0.275285418332892 0.41898730790900751 0 0.275285418332892 0.41898730790900751 0 0.26349405754719479 0.41726586174782682 0 0.26125074000052179 0.4349223989582921 0 0.28136822089640889 0.43642331312505939 0 0.275285418332892 0.41898730790900751 0 0.26125074000052179 0.4349223989582921 0 0.275285418332892 0.41898730790900751 0 0.27068102274504058 0.40772775144275569 0 0.28130082214514962 0.40086829911714578 0 0.275285418332892 0.41898730790900751 0 0.27068102274504058 0.40772775144275569 0 0.26349405754719479 0.41726586174782682 0 0.2462868875795915 0.41869027928711372 0 0.26349405754719479 0.41726586174782682 0 0.26060972849126729 0.40616821651467883 0 0.2462868875795915 0.41869027928711372 0 0.25254422506417301 0.39852611150546569 0 0.26060972849126729 0.40616821651467883 0 0.27068102274504058 0.40772775144275569 0 0.26349405754719479 0.41726586174782682 0 0.26060972849126729 0.40616821651467883 0 0.2462868875795915 0.41869027928711372 0 0.26349405754719479 0.41726586174782682 0 0.26125074000052179 0.4349223989582921 0 0.24812869596497769 0.40000879933672562 0 0.25521843280955409 0.38511933133671561 0 0.27085627450933969 0.38337368193839549 0 0.25521843280955409 0.38511933133671561 0 0.27085627450933969 0.38337368193839549 0 0.25672634866402738 0.35970605629799818 0 0.25254422506417301 0.39852611150546569 0 0.2632451903773334 0.39667761708737942 0 0.27085627450933969 0.38337368193839549 0 0.24812869596497769 0.40000879933672562 0 0.27085627450933969 0.38337368193839549 0 0.24812869596497769 0.40000879933672562 0 0.24709972094673099 0.39024053283712018 0 0.25521843280955409 0.38511933133671561 0 0.24812869596497769 0.40000879933672562 0 0.25254422506417301 0.39852611150546569 0 0.27085627450933969 0.38337368193839549 0 0.26060972849126729 0.40616821651467883 0 0.2632451903773334 0.39667761708737942 0 0.26897053344455357 0.39864245839097762 0 0.25254422506417301 0.39852611150546569 0 0.26060972849126729 0.40616821651467883 0 0.2632451903773334 0.39667761708737942 0 0.2632451903773334 0.39667761708737942 0 0.26897053344455357 0.39864245839097762 0 0.27085627450933969 0.38337368193839549 0 0.27085627450933969 0.38337368193839549 0 0.28130082214514962 0.40086829911714578 0 0.27085627450933969 0.38337368193839549 0 0.28972017120904631 0.38897866635388878 0 0.28130082214514962 0.40086829911714578 0 0.26897053344455357 0.39864245839097762 0 0.27085627450933969 0.38337368193839549 0 0.28130082214514962 0.40086829911714578 0 0.27068102274504058 0.40772775144275569 0 0.26060972849126729 0.40616821651467883 0 0.26897053344455357 0.39864245839097762 0 0.27068102274504058 0.40772775144275569 0 0.26897053344455357 0.39864245839097762 0 0.28130082214514962 0.40086829911714578 0 0.27085627450933969 0.38337368193839549 0 0.27819312462852169 0.37800358222327118 0 0.28972017120904631 0.38897866635388878 0 0.27085627450933969 0.38337368193839549 0 0.27819312462852169 0.37800358222327118 0 0.27819312462852169 0.37800358222327118 0 0.28972017120904631 0.38897866635388878 0 0.29265243849390687 0.37870717794157699 0 0.27819312462852169 0.37800358222327118 0 0.28972017120904631 0.38897866635388878 0 0.28972017120904631 0.38897866635388878 0 0.29892294837441591 0.39492267364964923 0 0.29811024588461138 0.38660513102782618 0 0.28972017120904631 0.38897866635388878 0 0.29265243849390687 0.37870717794157699 0 0.29811024588461138 0.38660513102782618 0 0.28972017120904631 0.38897866635388878 0 0.28130082214514962 0.40086829911714578 0 0.30124721778956931 0.39995375048450788 0 0.28972017120904631 0.38897866635388878 0 0.30124721778956931 0.39995375048450788 0 0.28972017120904631 0.38897866635388878 0 0.30124721778956931 0.39995375048450788 0 0.29892294837441591 0.39492267364964923 0 0.30124721778956931 0.39995375048450788 0 0.29892294837441591 0.39492267364964923 0 0.30628506187928201 0.39176426978529788 0 0.29892294837441591 0.39492267364964923 0 0.30628506187928201 0.39176426978529788 0 0.29811024588461138 0.38660513102782618 0 0.30124721778956931 0.39995375048450788 0 0.29892294837441591 0.39492267364964923 0 0.30124721778956931 0.39995375048450788 0 0.30628506187928201 0.39176426978529788 0 0.3155040408294032 0.40315098430792612 0 0.29265243849390687 0.37870717794157699 0 0.29811024588461138 0.38660513102782618 0 0.30528425461376518 0.37960756626139031 0 0.30628506187928201 0.39176426978529788 0 0.29811024588461138 0.38660513102782618 0 0.30528425461376518 0.37960756626139031 0 0.30628506187928201 0.39176426978529788 0 0.30528425461376518 0.37960756626139031 0 0.31890699006229362 0.38645499679386741 0 0.31890699006229362 0.38645499679386741 0 0.33577478625947721 0.37976234956589738 0 0.31905663165804871 0.36737347241044049 0 0.30528425461376518 0.37960756626139031 0 0.31890699006229362 0.38645499679386741 0 0.31905663165804871 0.36737347241044049 0 0.33577478625947721 0.37976234956589738 0 0.33179995872059981 0.39369867899558952 0 0.34857596969027688 0.39208193098157762 0 0.31890699006229362 0.38645499679386741 0 0.33577478625947721 0.37976234956589738 0 0.33179995872059981 0.39369867899558952 0 0.33179995872059981 0.39369867899558952 0 0.34169373162583427 0.40868384749595049 0 0.34857596969027688 0.39208193098157762 0 0.33179995872059981 0.39369867899558952 0 0.32807588550763778 0.40609779058581319 0 0.34169373162583427 0.40868384749595049 0 0.33179995872059981 0.39369867899558952 0 0.32807588550763778 0.40609779058581319 0 0.3155040408294032 0.40315098430792612 0 0.31890699006229362 0.38645499679386741 0 0.33179995872059981 0.39369867899558952 0 0.3155040408294032 0.40315098430792612 0 0.30628506187928201 0.39176426978529788 0 0.31890699006229362 0.38645499679386741 0 0.3155040408294032 0.40315098430792612 0 0.3155040408294032 0.40315098430792612 0 0.31939642987121991 0.41723390356701068 0 0.32245034557114172 0.40978693275041411 0 0.31021416711303462 0.41936346724389201 0 0.31939642987121991 0.41723390356701068 0 0.32538071379330707 0.42806444074347377 0 0.31939642987121991 0.41723390356701068 0 0.32538071379330707 0.42806444074347377 0 0.3290784420069286 0.41579188615748669 0 0.31939642987121991 0.41723390356701068 0 0.32245034557114172 0.40978693275041411 0 0.3290784420069286 0.41579188615748669 0 0.32807588550763778 0.40609779058581319 0 0.3155040408294032 0.40315098430792612 0 0.32245034557114172 0.40978693275041411 0 0.32807588550763778 0.40609779058581319 0 0.32245034557114172 0.40978693275041411 0 0.3290784420069286 0.41579188615748669 0 0.31918111643649949 0.43877318400327631 0 0.31021416711303462 0.41936346724389201 0 0.31918111643649949 0.43877318400327631 0 0.31021416711303462 0.41936346724389201 0 0.32538071379330707 0.42806444074347377 0 0.34140484308466912 0.44163016283106937 0 0.33711205391171328 0.42342157578674849 0 0.35052563649771201 0.41998219282881621 0 0.34140484308466912 0.44163016283106937 0 0.32538071379330707 0.42806444074347377 0 0.33711205391171328 0.42342157578674849 0 0.34140484308466912 0.44163016283106937 0 0.31918111643649949 0.43877318400327631 0 0.32538071379330707 0.42806444074347377 0 0.32538071379330707 0.42806444074347377 0 0.33711205391171328 0.42342157578674849 0 0.3290784420069286 0.41579188615748669 0 0.32807588550763778 0.40609779058581319 0 0.3290784420069286 0.41579188615748669 0 0.34169373162583427 0.40868384749595049 0 0.33711205391171328 0.42342157578674849 0 0.34169373162583427 0.40868384749595049 0 0.35052563649771201 0.41998219282881621 0 0.33711205391171328 0.42342157578674849 0 0.3290784420069286 0.41579188615748669 0 0.34169373162583427 0.40868384749595049 0 0.35052563649771201 0.41998219282881621 0 0.35944273296702778 0.43088093897841018 0 0.36284812687180829 0.40992082802416602 0 0.34169373162583427 0.40868384749595049 0 0.35052563649771201 0.41998219282881621 0 0.36284812687180829 0.40992082802416602 0 0.34140484308466912 0.44163016283106937 0 0.35052563649771201 0.41998219282881621 0 0.35944273296702778 0.43088093897841018 0 0.34140484308466912 0.44163016283106937 0 0.35944273296702778 0.43088093897841018 0 0.35944273296702778 0.43088093897841018 0 0.37748062284938638 0.42013171512575093 0 0.37729751408372991 0.43659552646984529 0 0.35944273296702778 0.43088093897841018 0 0.37748062284938638 0.42013171512575093 0 0.35944273296702778 0.43088093897841018 0 0.36284812687180829 0.40992082802416602 0 0.37748062284938638 0.42013171512575093 0 0.36284812687180829 0.40992082802416602 0 0.37886652010980348 0.40131889232853257 0 0.37748062284938638 0.42013171512575093 0 0.36284812687180829 0.40992082802416602 0 0.36606419462052292 0.38621158283199353 0 0.37886652010980348 0.40131889232853257 0 0.36606419462052292 0.38621158283199353 0 0.35457484731269401 0.37369084456653762 0 0.37591247649495829 0.3674359799848943 0 0.36606419462052292 0.38621158283199353 0 0.34857596969027688 0.39208193098157762 0 0.35457484731269401 0.37369084456653762 0 0.33577478625947721 0.37976234956589738 0 0.34857596969027688 0.39208193098157762 0 0.35457484731269401 0.37369084456653762 0 0.36284812687180829 0.40992082802416602 0 0.36606419462052292 0.38621158283199353 0 0.34857596969027688 0.39208193098157762 0 0.34169373162583427 0.40868384749595049 0 0.36284812687180829 0.40992082802416602 0 0.34857596969027688 0.39208193098157762 0 0.34543149029035441 0.34466159452520928 0 0.36035945819921811 0.35513713113257311 0 0.35841251926192391 0.33394017070969478 0 0.34543149029035441 0.34466159452520928 0 0.36035945819921811 0.35513713113257311 0 0.34076219861171059 0.36151609290229009 0 0.35457484731269401 0.37369084456653762 0 0.36035945819921811 0.35513713113257311 0 0.34076219861171059 0.36151609290229009 0 0.35457484731269401 0.37369084456653762 0 0.36035945819921811 0.35513713113257311 0 0.37591247649495829 0.3674359799848943 0 0.36035945819921811 0.35513713113257311 0 0.374671623693971 0.3445763808473587 0 0.37591247649495829 0.3674359799848943 0 0.36035945819921811 0.35513713113257311 0 0.374671623693971 0.3445763808473587 0 0.35841251926192391 0.33394017070969478 0 0.374671623693971 0.3445763808473587 0 0.37192452973473378 0.32212880695312862 0 0.35841251926192391 0.33394017070969478 0 0.37192452973473378 0.32212880695312862 0 0.35487912645065639 0.31789521447534419 0 0.36744647139779429 0.30016565728106132 0 0.37192452973473378 0.32212880695312862 0 0.35487912645065639 0.31789521447534419 0 0.35841251926192391 0.33394017070969478 0 0.35487912645065639 0.31789521447534419 0 0.33821376244516249 0.32637807808801789 0 0.34603676897925628 0.30206803137035931 0 0.35487912645065639 0.31789521447534419 0 0.35841251926192391 0.33394017070969478 0 0.33821376244516249 0.32637807808801789 0 0.34543149029035441 0.34466159452520928 0 0.35841251926192391 0.33394017070969478 0 0.33821376244516249 0.32637807808801789 0 0.34543149029035441 0.34466159452520928 0 0.33821376244516249 0.32637807808801789 0 0.32709534914490768 0.34874647406978709 0 0.33821376244516249 0.32637807808801789 0 0.31385588617132498 0.33102839213700208 0 0.31838454209550832 0.30496072620914622 0 0.31385588617132498 0.33102839213700208 0 0.32709534914490768 0.34874647406978709 0 0.31091599811694542 0.35060963569138209 0 0.33821376244516249 0.32637807808801789 0 0.31385588617132498 0.33102839213700208 0 0.32709534914490768 0.34874647406978709 0 0.32709534914490768 0.34874647406978709 0 0.31905663165804871 0.36737347241044049 0 0.31091599811694542 0.35060963569138209 0 0.32709534914490768 0.34874647406978709 0 0.34076219861171059 0.36151609290229009 0 0.31905663165804871 0.36737347241044049 0 0.34543149029035441 0.34466159452520928 0 0.32709534914490768 0.34874647406978709 0 0.34076219861171059 0.36151609290229009 0 0.33577478625947721 0.37976234956589738 0 0.35457484731269401 0.37369084456653762 0 0.34076219861171059 0.36151609290229009 0 0.33577478625947721 0.37976234956589738 0 0.34076219861171059 0.36151609290229009 0 0.31905663165804871 0.36737347241044049 0 0.31905663165804871 0.36737347241044049 0 0.31091599811694542 0.35060963569138209 0 0.29665423817721293 0.36449124123248228 0 0.30528425461376518 0.37960756626139031 0 0.31905663165804871 0.36737347241044049 0 0.29665423817721293 0.36449124123248228 0 0.29265243849390687 0.37870717794157699 0 0.30528425461376518 0.37960756626139031 0 0.29665423817721293 0.36449124123248228 0 0.31091599811694542 0.35060963569138209 0 0.29665423817721293 0.36449124123248228 0 0.29791788543323272 0.34140859860719841 0 0.29665423817721293 0.36449124123248228 0 0.27752389090015989 0.35726488514773602 0 0.28246735595203182 0.34359395136822951 0 0.29665423817721293 0.36449124123248228 0 0.28246735595203182 0.34359395136822951 0 0.29791788543323272 0.34140859860719841 0 0.27819312462852169 0.37800358222327118 0 0.29665423817721293 0.36449124123248228 0 0.27502237391062112 0.36576778678673888 0 0.27819312462852169 0.37800358222327118 0 0.29665423817721293 0.36449124123248228 0 0.27819312462852169 0.37800358222327118 0 0.29265243849390687 0.37870717794157699 0 0.29665423817721293 0.36449124123248228 0 0.29665423817721293 0.36449124123248228 0 0.27502237391062112 0.36576778678673888 0 0.27752389090015989 0.35726488514773602 0 0.27502237391062112 0.36576778678673888 0 0.26898337993157201 0.35821022099497829 0 0.2583411501865665 0.35910220205295512 0 0.27085627450933969 0.38337368193839549 0 0.27819312462852169 0.37800358222327118 0 0.2583411501865665 0.35910220205295512 0 0.27819312462852169 0.37800358222327118 0 0.2583411501865665 0.35910220205295512 0 0.27819312462852169 0.37800358222327118 0 0.27502237391062112 0.36576778678673888 0 0.2583411501865665 0.35910220205295512 0 0.27502237391062112 0.36576778678673888 0 0.27752389090015989 0.35726488514773602 0 0.26898337993157201 0.35821022099497829 0 0.27752389090015989 0.35726488514773602 0 0.26600108686871687 0.34825459285034321 0 0.28246735595203182 0.34359395136822951 0 0.27752389090015989 0.35726488514773602 0 0.26600108686871687 0.34825459285034321 0 0.26898337993157201 0.35821022099497829 0 0.24259642281871899 0.33603843065759847 0 0.2583411501865665 0.35910220205295512 0 0.25672634866402738 0.35970605629799818 0 0.26600108686871687 0.34825459285034321 0 0.26898337993157201 0.35821022099497829 0 0.2583411501865665 0.35910220205295512 0 0.24259642281871899 0.33603843065759847 0 0.26600108686871687 0.34825459285034321 0 0.2583411501865665 0.35910220205295512 0 0.27085627450933969 0.38337368193839549 0 0.2583411501865665 0.35910220205295512 0 0.25672634866402738 0.35970605629799818 0 0.24445023952260289 0.37741095824300153 0 0.25521843280955409 0.38511933133671561 0 0.25672634866402738 0.35970605629799818 0 0.27085627450933969 0.38337368193839549 0 0.25672634866402738 0.35970605629799818 0 0.2482774996666505 0.30671474592057979 0 0.24259642281871899 0.33603843065759847 0 0.26272522232806028 0.31783967156584769 0 0.24259642281871899 0.33603843065759847 0 0.26272522232806028 0.31783967156584769 0 0.26845659597322807 0.3330431636088178 0 0.24259642281871899 0.33603843065759847 0 0.26600108686871687 0.34825459285034321 0 0.26845659597322807 0.3330431636088178 0 0.26600108686871687 0.34825459285034321 0 0.26845659597322807 0.3330431636088178 0 0.28246735595203182 0.34359395136822951 0 0.26845659597322807 0.3330431636088178 0 0.28825043835964048 0.31710122676279923 0 0.28246735595203182 0.34359395136822951 0 0.26272522232806028 0.31783967156584769 0 0.26845659597322807 0.3330431636088178 0 0.28825043835964048 0.31710122676279923 0 0.28825043835964048 0.31710122676279923 0 0.28246735595203182 0.34359395136822951 0 0.29791788543323272 0.34140859860719841 0 0.31385588617132498 0.33102839213700208 0 0.28825043835964048 0.31710122676279923 0 0.29791788543323272 0.34140859860719841 0 0.31385588617132498 0.33102839213700208 0 0.31091599811694542 0.35060963569138209 0 0.29791788543323272 0.34140859860719841 0 0.31385588617132498 0.33102839213700208 0 0.28825043835964048 0.31710122676279923 0 0.31838454209550832 0.30496072620914622 0 0.29485600920254951 0.29250643659418962 0 0.31810835011907429 0.27247411851228992 0 0.31838454209550832 0.30496072620914622 0 0.28825043835964048 0.31710122676279923 0 0.29485600920254951 0.29250643659418962 0 0.31838454209550832 0.30496072620914622 0 0.29485600920254951 0.29250643659418962 0 0.27526045227020429 0.28200624532064489 0 0.29030243656484378 0.27006488666093792 0 0.28825043835964048 0.31710122676279923 0 0.29485600920254951 0.29250643659418962 0 0.26985885507111151 0.30043665730352509 0 0.28825043835964048 0.31710122676279923 0 0.26985885507111151 0.30043665730352509 0 0.26272522232806028 0.31783967156584769 0 0.28825043835964048 0.31710122676279923 0 0.26985885507111151 0.30043665730352509 0 0.29485600920254951 0.29250643659418962 0 0.26985885507111151 0.30043665730352509 0 0.27526045227020429 0.28200624532064489 0 0.26985885507111151 0.30043665730352509 0 0.25146727178258232 0.28377208784425101 0 0.26985885507111151 0.30043665730352509 0 0.27526045227020429 0.28200624532064489 0 0.25146727178258232 0.28377208784425101 0 0.2482774996666505 0.30671474592057979 0 0.26272522232806028 0.31783967156584769 0 0.26985885507111151 0.30043665730352509 0 0.2482774996666505 0.30671474592057979 0 0.26985885507111151 0.30043665730352509 0 0.25146727178258232 0.28377208784425101 0 0.24493592301361991 0.25343933973140892 0 0.26275653215810768 0.25354268714085088 0 0.2624965230106131 0.26765565480958592 0 0.27526045227020429 0.28200624532064489 0 0.25146727178258232 0.28377208784425101 0 0.2624965230106131 0.26765565480958592 0 0.2624965230106131 0.26765565480958592 0 0.29030243656484378 0.27006488666093792 0 0.27526045227020429 0.28200624532064489 0 0.2624965230106131 0.26765565480958592 0 0.29030243656484378 0.27006488666093792 0 0.26275653215810768 0.25354268714085088 0 0.27898340245333569 0.25832679654206542 0 0.27539260209704491 0.24725196399690119 0 0.26275653215810768 0.25354268714085088 0 0.2624965230106131 0.26765565480958592 0 0.27898340245333569 0.25832679654206542 0 0.2624965230106131 0.26765565480958592 0 0.27898340245333569 0.25832679654206542 0 0.29030243656484378 0.27006488666093792 0 0.27898340245333569 0.25832679654206542 0 0.29560396762323271 0.25287167148921758 0 0.27539260209704491 0.24725196399690119 0 0.27898340245333569 0.25832679654206542 0 0.29560396762323271 0.25287167148921758 0 0.29030243656484378 0.27006488666093792 0 0.29560396762323271 0.25287167148921758 0 0.27539260209704491 0.24725196399690119 0 0.29485600920254951 0.29250643659418962 0 0.29030243656484378 0.27006488666093792 0 0.31810835011907429 0.27247411851228992 0 0.29030243656484378 0.27006488666093792 0 0.31810835011907429 0.27247411851228992 0 0.29030243656484378 0.27006488666093792 0 0.30495752186414282 0.26347551391099477 0 0.31810835011907429 0.27247411851228992 0 0.29560396762323271 0.25287167148921758 0 0.30495752186414282 0.26347551391099477 0 0.31581533314942051 0.25849137898153401 0 0.29560396762323271 0.25287167148921758 0 0.31581533314942051 0.25849137898153401 0 0.29560396762323271 0.25287167148921758 0 0.31581533314942051 0.25849137898153401 0 0.30786146012633903 0.2448714126411389 0 0.29560396762323271 0.25287167148921758 0 0.29030243656484378 0.27006488666093792 0 0.30495752186414282 0.26347551391099477 0 0.31581533314942051 0.25849137898153401 0 0.30786146012633903 0.2448714126411389 0 0.32009941314274531 0.2476026798805098 0 0.30495752186414282 0.26347551391099477 0 0.31581533314942051 0.25849137898153401 0 0.31810835011907429 0.27247411851228992 0 0.31581533314942051 0.25849137898153401 0 0.33017493573658652 0.25868944264124721 0 0.31810835011907429 0.27247411851228992 0 0.31581533314942051 0.25849137898153401 0 0.33017493573658652 0.25868944264124721 0 0.32009941314274531 0.2476026798805098 0 0.33017493573658652 0.25868944264124721 0 0.34628939972714812 0.25665104649035853 0 0.34591426367330491 0.27488335036364198 0 0.33017493573658652 0.25868944264124721 0 0.34628939972714812 0.25665104649035853 0 0.33345774829485081 0.24085278261729259 0 0.31810835011907429 0.27247411851228992 0 0.34591426367330491 0.27488335036364198 0 0.33017493573658652 0.25868944264124721 0 0.31810835011907429 0.27247411851228992 0 0.34591426367330491 0.27488335036364198 0 0.31810835011907429 0.27247411851228992 0 0.33211098121678589 0.2885965566138593 0 0.34591426367330491 0.27488335036364198 0 0.31810835011907429 0.27247411851228992 0 0.31838454209550832 0.30496072620914622 0 0.33211098121678589 0.2885965566138593 0 0.33821376244516249 0.32637807808801789 0 0.31838454209550832 0.30496072620914622 0 0.34603676897925628 0.30206803137035931 0 0.31838454209550832 0.30496072620914622 0 0.33211098121678589 0.2885965566138593 0 0.34603676897925628 0.30206803137035931 0 0.33211098121678589 0.2885965566138593 0 0.34603676897925628 0.30206803137035931 0 0.34591426367330491 0.27488335036364198 0 0.34603676897925628 0.30206803137035931 0 0.36744647139779429 0.30016565728106132 0 0.34591426367330491 0.27488335036364198 0 0.35487912645065639 0.31789521447534419 0 0.34603676897925628 0.30206803137035931 0 0.36744647139779429 0.30016565728106132 0 0.37192452973473378 0.32212880695312862 0 0.36744647139779429 0.30016565728106132 0 0.37984366275928799 0.31027627380068662 0 0.36744647139779429 0.30016565728106132 0 0.37372017722753559 0.27729258221499181 0 0.34591426367330491 0.27488335036364198 0 0.37372017722753559 0.27729258221499181 0 0.36302257261875098 0.26015066794522951 0 0.37836164626007551 0.26629111432059338 0 0.37372017722753559 0.27729258221499181 0 0.36302257261875098 0.26015066794522951 0 0.37372017722753559 0.27729258221499181 0 0.34591426367330491 0.27488335036364198 0 0.37372017722753559 0.27729258221499181 0 0.36302257261875098 0.26015066794522951 0 0.34591426367330491 0.27488335036364198 0 0.36302257261875098 0.26015066794522951 0 0.38660890851302299 0.25208891512075571 0 0.37204248311044841 0.23962343259801219 0 0.36302257261875098 0.26015066794522951 0 0.34628939972714812 0.25665104649035853 0 0.35232496800996521 0.24300875367546779 0 0.36302257261875098 0.26015066794522951 0 0.34628939972714812 0.25665104649035853 0 0.34591426367330491 0.27488335036364198 0 0.36302257261875098 0.26015066794522951 0 0.35232496800996521 0.24300875367546779 0 0.40460402248696858 0.2769961144103561 0 0.39112464203054959 0.26844762239351899 0 0.39272747177636352 0.28576268087446238 0 0.40460402248696858 0.2769961144103561 0 0.39112464203054959 0.26844762239351899 0 0.40670067735075283 0.25444318522484582 0 0.39112464203054959 0.26844762239351899 0 0.38660890851302299 0.25208891512075571 0 0.40670067735075283 0.25444318522484582 0 0.39112464203054959 0.26844762239351899 0 0.38660890851302299 0.25208891512075571 0 0.37836164626007551 0.26629111432059338 0 0.36302257261875098 0.26015066794522951 0 0.38660890851302299 0.25208891512075571 0 0.37836164626007551 0.26629111432059338 0 0.39112464203054959 0.26844762239351899 0 0.38104171517777868 0.27792695383512461 0 0.39272747177636352 0.28576268087446238 0 0.39112464203054959 0.26844762239351899 0 0.37836164626007551 0.26629111432059338 0 0.38104171517777868 0.27792695383512461 0 0.37372017722753559 0.27729258221499181 0 0.37836164626007551 0.26629111432059338 0 0.38104171517777868 0.27792695383512461 0 0.37372017722753559 0.27729258221499181 0 0.38104171517777868 0.27792695383512461 0 0.38104171517777868 0.27792695383512461 0 0.38703587055934152 0.29862973963327621 0 0.39272747177636352 0.28576268087446238 0 0.37372017722753559 0.27729258221499181 0 0.38104171517777868 0.27792695383512461 0 0.38703587055934152 0.29862973963327621 0 0.37372017722753559 0.27729258221499181 0 0.38703587055934152 0.29862973963327621 0 0.36744647139779429 0.30016565728106132 0 0.37372017722753559 0.27729258221499181 0 0.38703587055934152 0.29862973963327621 0 0.38703587055934152 0.29862973963327621 0 0.37984366275928799 0.31027627380068662 0 0.39651949716438728 0.31934432214183528 0 0.36744647139779429 0.30016565728106132 0 0.38703587055934152 0.29862973963327621 0 0.37984366275928799 0.31027627380068662 0 0.38703587055934152 0.29862973963327621 0 0.40542142513166107 0.29783915772933772 0 0.40035156389114629 0.31996689705156128 0 0.38703587055934152 0.29862973963327621 0 0.40035156389114629 0.31996689705156128 0 0.38703587055934152 0.29862973963327621 0 0.40542142513166107 0.29783915772933772 0 0.39272747177636352 0.28576268087446238 0 0.40460402248696858 0.2769961144103561 0 0.40542142513166107 0.29783915772933772 0 0.39272747177636352 0.28576268087446238 0 0.40460402248696858 0.2769961144103561 0 0.40542142513166107 0.29783915772933772 0 0.4228624228816405 0.28875819475482017 0 0.40542142513166107 0.29783915772933772 0 0.41902102946394348 0.30751524856954032 0 0.40035156389114629 0.31996689705156128 0 0.40542142513166107 0.29783915772933772 0 0.41902102946394348 0.30751524856954032 0 0.4228624228816405 0.28875819475482017 0 0.41902102946394348 0.30751524856954032 0 0.43592702750115347 0.3064189981762292 0 0.4228624228816405 0.28875819475482017 0 0.41902102946394348 0.30751524856954032 0 0.43592702750115347 0.3064189981762292 0 0.42202900103110402 0.32348871163173548 0 0.43592702750115347 0.3064189981762292 0 0.4228624228816405 0.28875819475482017 0 0.44701154206954341 0.28740153793574358 0 0.4228624228816405 0.28875819475482017 0 0.43313143046154118 0.27577780672539443 0 0.44701154206954341 0.28740153793574358 0 0.43313143046154118 0.27577780672539443 0 0.4261274034173213 0.25827838228123018 0 0.44418097100299009 0.26374502522036442 0 0.4228624228816405 0.28875819475482017 0 0.43313143046154118 0.27577780672539443 0 0.41883742498817778 0.27107170431958688 0 0.43313143046154118 0.27577780672539443 0 0.41883742498817778 0.27107170431958688 0 0.4261274034173213 0.25827838228123018 0 0.40460402248696858 0.2769961144103561 0 0.41883742498817778 0.27107170431958688 0 0.40670067735075283 0.25444318522484582 0 0.40460402248696858 0.2769961144103561 0 0.4228624228816405 0.28875819475482017 0 0.41883742498817778 0.27107170431958688 0 0.40670067735075283 0.25444318522484582 0 0.4261274034173213 0.25827838228123018 0 0.41981602115853628 0.23888238708617429 0 0.41883742498817778 0.27107170431958688 0 0.40670067735075283 0.25444318522484582 0 0.4261274034173213 0.25827838228123018 0 0.4261274034173213 0.25827838228123018 0 0.44418097100299009 0.26374502522036442 0 0.43523967917443951 0.24590673691979581 0 0.5 0.25885027281123069 0 0.46859129067535188 0.3013337854145911 0 0.482225777436327 0.33326855246137937 0 0.44418097100299009 0.26374502522036442 0 0.43523967917443951 0.24590673691979581 0 0.45409459804743968 0.2454788577419966 0 0.43313143046154118 0.27577780672539443 0 0.44418097100299009 0.26374502522036442 0 0.44701154206954341 0.28740153793574358 0 0.44418097100299009 0.26374502522036442 0 0.4717987060396831 0.27213523003709827 0 0.44701154206954341 0.28740153793574358 0 0.4717987060396831 0.27213523003709827 0 0.45409459804743968 0.2454788577419966 0 0.47500612140401433 0.24293667465960539 0 0.44418097100299009 0.26374502522036442 0 0.4717987060396831 0.27213523003709827 0 0.45409459804743968 0.2454788577419966 0 0.4717987060396831 0.27213523003709827 0 0.47500612140401433 0.24293667465960539 0 0.4717987060396831 0.27213523003709827 0 0.5 0.25885027281123069 0 0.47500612140401433 0.24293667465960539 0 0.4717987060396831 0.27213523003709827 0 0.5 0.25885027281123069 0 0.46859129067535188 0.3013337854145911 0 0.4717987060396831 0.27213523003709827 0 0.46859129067535188 0.3013337854145911 0 0.46859129067535188 0.3013337854145911 0 0.44701154206954341 0.28740153793574358 0 0.45212403474562601 0.31053943770611148 0 0.4717987060396831 0.27213523003709827 0 0.46859129067535188 0.3013337854145911 0 0.44701154206954341 0.28740153793574358 0 0.43592702750115347 0.3064189981762292 0 0.44701154206954341 0.28740153793574358 0 0.45212403474562601 0.31053943770611148 0 0.43592702750115347 0.3064189981762292 0 0.45212403474562601 0.31053943770611148 0 0.44370643817106192 0.32701052621190962 0 0.5 0.25885027281123069 0 0.482225777436327 0.33326855246137937 0 0.5 0.37854497429023681 0 0.44370643817106192 0.32701052621190962 0 0.44607734250847769 0.34708851415099101 0 0.42949967838882619 0.34010313892646321 0 0.44370643817106192 0.32701052621190962 0 0.4653838753110196 0.33053234079208382 0 0.44607734250847769 0.34708851415099101 0 0.44370643817106192 0.32701052621190962 0 0.4653838753110196 0.33053234079208382 0 0.4653838753110196 0.33053234079208382 0 0.4626063991599163 0.35581696470127688 0 0.46859129067535188 0.3013337854145911 0 0.4653838753110196 0.33053234079208382 0 0.45212403474562601 0.31053943770611148 0 0.44370643817106192 0.32701052621190962 0 0.4653838753110196 0.33053234079208382 0 0.46859129067535188 0.3013337854145911 0 0.45212403474562601 0.31053943770611148 0 0.4653838753110196 0.33053234079208382 0 0.46859129067535188 0.3013337854145911 0 0.4653838753110196 0.33053234079208382 0 0.482225777436327 0.33326855246137937 0 0.4653838753110196 0.33053234079208382 0 0.482225777436327 0.33326855246137937 0 0.4626063991599163 0.35581696470127688 0 0.4653838753110196 0.33053234079208382 0 0.482225777436327 0.33326855246137937 0 0.482225777436327 0.33326855246137937 0 0.4626063991599163 0.35581696470127688 0 0.5 0.37854497429023681 0 0.4626063991599163 0.35581696470127688 0 0.45982892300881212 0.38110158861047 0 0.5 0.37854497429023681 0 0.4626063991599163 0.35581696470127688 0 0.45982892300881212 0.38110158861047 0 0.4626063991599163 0.35581696470127688 0 0.44358427599080402 0.37172949709986858 0 0.45982892300881212 0.38110158861047 0 0.4653838753110196 0.33053234079208382 0 0.4626063991599163 0.35581696470127688 0 0.44607734250847769 0.34708851415099101 0 0.44607734250847769 0.34708851415099101 0 0.44358427599080402 0.37172949709986858 0 0.43142305651887441 0.35688323014241441 0 0.4626063991599163 0.35581696470127688 0 0.44607734250847769 0.34708851415099101 0 0.44358427599080402 0.37172949709986858 0 0.44358427599080402 0.37172949709986858 0 0.41632249105376912 0.37228531609209647 0 0.43142305651887441 0.35688323014241441 0 0.41632249105376912 0.37228531609209647 0 0.41622870418585178 0.35313741993218278 0 0.43142305651887441 0.35688323014241441 0 0.41632249105376912 0.37228531609209647 0 0.41622870418585178 0.35313741993218278 0 0.39487210456431521 0.3557807863638332 0 0.41622870418585178 0.35313741993218278 0 0.40989824339816422 0.3374025359285362 0 0.39487210456431521 0.3557807863638332 0 0.41622870418585178 0.35313741993218278 0 0.43142305651887441 0.35688323014241441 0 0.42949967838882619 0.34010313892646321 0 0.44607734250847769 0.34708851415099101 0 0.43142305651887441 0.35688323014241441 0 0.42949967838882619 0.34010313892646321 0 0.44370643817106192 0.32701052621190962 0 0.42949967838882619 0.34010313892646321 0 0.42202900103110402 0.32348871163173548 0 0.44370643817106192 0.32701052621190962 0 0.42202900103110402 0.32348871163173548 0 0.43592702750115347 0.3064189981762292 0 0.44370643817106192 0.32701052621190962 0 0.42202900103110402 0.32348871163173548 0 0.42202900103110402 0.32348871163173548 0 0.40035156389114629 0.31996689705156128 0 0.40158832816976009 0.32194869653015579 0 0.42202900103110402 0.32348871163173548 0 0.40035156389114629 0.31996689705156128 0 0.41902102946394348 0.30751524856954032 0 0.42202900103110402 0.32348871163173548 0 0.40035156389114629 0.31996689705156128 0 0.42202900103110402 0.32348871163173548 0 0.40989824339816422 0.3374025359285362 0 0.40158832816976009 0.32194869653015579 0 0.42949967838882619 0.34010313892646321 0 0.42202900103110402 0.32348871163173548 0 0.40989824339816422 0.3374025359285362 0 0.41622870418585178 0.35313741993218278 0 0.42949967838882619 0.34010313892646321 0 0.40989824339816422 0.3374025359285362 0 0.40989824339816422 0.3374025359285362 0 0.39454890048060071 0.3289799339092041 0 0.39487210456431521 0.3557807863638332 0 0.39454890048060071 0.3289799339092041 0 0.38412910363739378 0.33266175807338982 0 0.39487210456431521 0.3557807863638332 0 0.39454890048060071 0.3289799339092041 0 0.39487210456431521 0.3557807863638332 0 0.40989824339816422 0.3374025359285362 0 0.39454890048060071 0.3289799339092041 0 0.40158832816976009 0.32194869653015579 0 0.38703587055934152 0.29862973963327621 0 0.40035156389114629 0.31996689705156128 0 0.39651949716438728 0.31934432214183528 0 0.40035156389114629 0.31996689705156128 0 0.40158832816976009 0.32194869653015579 0 0.39651949716438728 0.31934432214183528 0 0.40035156389114629 0.31996689705156128 0 0.40158832816976009 0.32194869653015579 0 0.39454890048060071 0.3289799339092041 0 0.39651949716438728 0.31934432214183528 0 0.3898903450586409 0.32556370076437929 0 0.39454890048060071 0.3289799339092041 0 0.40158832816976009 0.32194869653015579 0 0.39651949716438728 0.31934432214183528 0 0.40035156389114629 0.31996689705156128 0 0.39651949716438728 0.31934432214183528 0 0.37984366275928799 0.31027627380068662 0 0.39651949716438728 0.31934432214183528 0 0.38436387895218188 0.32126878893308841 0 0.39651949716438728 0.31934432214183528 0 0.38436387895218188 0.32126878893308841 0 0.3898903450586409 0.32556370076437929 0 0.38436387895218188 0.32126878893308841 0 0.3898903450586409 0.32556370076437929 0 0.38412910363739378 0.33266175807338982 0 0.37192452973473378 0.32212880695312862 0 0.38436387895218188 0.32126878893308841 0 0.38412910363739378 0.33266175807338982 0 0.37192452973473378 0.32212880695312862 0 0.37984366275928799 0.31027627380068662 0 0.38436387895218188 0.32126878893308841 0 0.374671623693971 0.3445763808473587 0 0.37192452973473378 0.32212880695312862 0 0.38412910363739378 0.33266175807338982 0 0.39454890048060071 0.3289799339092041 0 0.3898903450586409 0.32556370076437929 0 0.38412910363739378 0.33266175807338982 0 0.374671623693971 0.3445763808473587 0 0.38412910363739378 0.33266175807338982 0 0.39487210456431521 0.3557807863638332 0 0.374671623693971 0.3445763808473587 0 0.37591247649495829 0.3674359799848943 0 0.39487210456431521 0.3557807863638332 0 0.37591247649495829 0.3674359799848943 0 0.39487210456431521 0.3557807863638332 0 0.39519530864802971 0.3825816388184623 0 0.41632249105376912 0.37228531609209647 0 0.39487210456431521 0.3557807863638332 0 0.39519530864802971 0.3825816388184623 0 0.39487210456431521 0.3557807863638332 0 0.39519530864802971 0.3825816388184623 0 0.39519530864802971 0.3825816388184623 0 0.39551851273174488 0.40938249127309129 0 0.41430333021439919 0.39818815482524139 0 0.39551851273174488 0.40938249127309129 0 0.41430333021439919 0.39818815482524139 0 0.39519530864802971 0.3825816388184623 0 0.39551851273174488 0.40938249127309129 0 0.36606419462052292 0.38621158283199353 0 0.37591247649495829 0.3674359799848943 0 0.39519530864802971 0.3825816388184623 0 0.36606419462052292 0.38621158283199353 0 0.39519530864802971 0.3825816388184623 0 0.37886652010980348 0.40131889232853257 0 0.39519530864802971 0.3825816388184623 0 0.37886652010980348 0.40131889232853257 0 0.39551851273174488 0.40938249127309129 0 0.37886652010980348 0.40131889232853257 0 0.37748062284938638 0.42013171512575093 0 0.39551851273174488 0.40938249127309129 0 0.37748062284938638 0.42013171512575093 0 0.38836201748213339 0.42278727344923861 0 0.39551851273174488 0.40938249127309129 0 0.37748062284938638 0.42013171512575093 0 0.39551851273174488 0.40938249127309129 0 0.37748062284938638 0.42013171512575093 0 0.37729751408372991 0.43659552646984529 0 0.38536984056362877 0.43026531282359443 0 0.37748062284938638 0.42013171512575093 0 0.38836201748213339 0.42278727344923861 0 0.38536984056362877 0.43026531282359443 0 0.38836201748213339 0.42278727344923861 0 0.38536984056362877 0.43026531282359443 0 0.39578323139465099 0.43133359332914378 0 0.37729751408372991 0.43659552646984529 0 0.38536984056362877 0.43026531282359443 0 0.38748106286857292 0.44029717045850608 0 0.38536984056362877 0.43026531282359443 0 0.39578323139465099 0.43133359332914378 0 0.38748106286857292 0.44029717045850608 0 0.39748122002183139 0.42087363345066331 0 0.4064175293117861 0.43468360677432327 0 0.40835125570510039 0.42376657826728142 0 0.39578323139465099 0.43133359332914378 0 0.39748122002183139 0.42087363345066331 0 0.4064175293117861 0.43468360677432327 0 0.39748122002183139 0.42087363345066331 0 0.4064175293117861 0.43468360677432327 0 0.39551851273174488 0.40938249127309129 0 0.40807514305537568 0.41341095682896778 0 0.41430333021439919 0.39818815482524139 0 0.39578323139465099 0.43133359332914378 0 0.39551851273174488 0.40938249127309129 0 0.39578323139465099 0.43133359332914378 0 0.39551851273174488 0.40938249127309129 0 0.39748122002183139 0.42087363345066331 0 0.38836201748213339 0.42278727344923861 0 0.39578323139465099 0.43133359332914378 0 0.39551851273174488 0.40938249127309129 0 0.39748122002183139 0.42087363345066331 0 0.40807514305537568 0.41341095682896778 0 0.40835125570510039 0.42376657826728142 0 0.39551851273174488 0.40938249127309129 0 0.39748122002183139 0.42087363345066331 0 0.40807514305537568 0.41341095682896778 0 0.41547286548203272 0.41973304854579851 0 0.42446407522103718 0.42544833941994997 0 0.42388642825092993 0.40817223802699842 0 0.40807514305537568 0.41341095682896778 0 0.41547286548203272 0.41973304854579851 0 0.42388642825092993 0.40817223802699842 0 0.40807514305537568 0.41341095682896778 0 0.42388642825092993 0.40817223802699842 0 0.41430333021439919 0.39818815482524139 0 0.40807514305537568 0.41341095682896778 0 0.41547286548203272 0.41973304854579851 0 0.40835125570510039 0.42376657826728142 0 0.4064175293117861 0.43468360677432327 0 0.40835125570510039 0.42376657826728142 0 0.41516367534136611 0.43103481342788219 0 0.41547286548203272 0.41973304854579851 0 0.40835125570510039 0.42376657826728142 0 0.41516367534136611 0.43103481342788219 0 0.41547286548203272 0.41973304854579851 0 0.41516367534136611 0.43103481342788219 0 0.42446407522103718 0.42544833941994997 0 0.41516367534136611 0.43103481342788219 0 0.4229724589750346 0.43625132992090621 0 0.42446407522103718 0.42544833941994997 0 0.4229724589750346 0.43625132992090621 0 0.42446407522103718 0.42544833941994997 0 0.43581639989977478 0.44341541495546061 0 0.42446407522103718 0.42544833941994997 0 0.43432677806397652 0.41498635933388528 0 0.43581639989977478 0.44341541495546061 0 0.43432677806397652 0.41498635933388528 0 0.43581639989977478 0.44341541495546061 0 0.42446407522103718 0.42544833941994997 0 0.42388642825092993 0.40817223802699842 0 0.43432677806397652 0.41498635933388528 0 0.42388642825092993 0.40817223802699842 0 0.43432677806397652 0.41498635933388528 0 0.43916574821854082 0.403810916413332 0 0.42388642825092993 0.40817223802699842 0 0.41430333021439919 0.39818815482524139 0 0.43308814769705328 0.38699381837739122 0 0.41430333021439919 0.39818815482524139 0 0.43308814769705328 0.38699381837739122 0 0.42388642825092993 0.40817223802699842 0 0.43308814769705328 0.38699381837739122 0 0.43916574821854082 0.403810916413332 0 0.41632249105376912 0.37228531609209647 0 0.39519530864802971 0.3825816388184623 0 0.41430333021439919 0.39818815482524139 0 0.41632249105376912 0.37228531609209647 0 0.41430333021439919 0.39818815482524139 0 0.43308814769705328 0.38699381837739122 0 0.44358427599080402 0.37172949709986858 0 0.41632249105376912 0.37228531609209647 0 0.43308814769705328 0.38699381837739122 0 0.44358427599080402 0.37172949709986858 0 0.43308814769705328 0.38699381837739122 0 0.45056526584976092 0.39287885309491899 0 0.44358427599080402 0.37172949709986858 0 0.45056526584976092 0.39287885309491899 0 0.45982892300881212 0.38110158861047 0 0.43308814769705328 0.38699381837739122 0 0.43916574821854082 0.403810916413332 0 0.45056526584976092 0.39287885309491899 0 0.45056526584976092 0.39287885309491899 0 0.45705144685770782 0.406386212519663 0 0.45072077757088053 0.40786201427010821 0 0.43916574821854082 0.403810916413332 0 0.45056526584976092 0.39287885309491899 0 0.45072077757088053 0.40786201427010821 0 0.45982892300881212 0.38110158861047 0 0.47630809284578057 0.40791767676994412 0 0.45705144685770782 0.406386212519663 0 0.45056526584976092 0.39287885309491899 0 0.45982892300881212 0.38110158861047 0 0.45705144685770782 0.406386212519663 0 0.45982892300881212 0.38110158861047 0 0.45705144685770782 0.406386212519663 0 0.45982892300881212 0.38110158861047 0 0.5 0.37854497429023681 0 0.47630809284578057 0.40791767676994412 0 0.5 0.37854497429023681 0 0.5 0.42798800082335348 0 0.47630809284578057 0.40791767676994412 0 0.5 0.42798800082335348 0 0.47664319205780931 0.43328348719732401 0 0.47630809284578057 0.40791767676994412 0 0.47664319205780931 0.43328348719732401 0 0.46634354183300869 0.42020179717861761 0 0.5 0.42798800082335348 0 0.47664319205780931 0.43328348719732401 0 0.47210335183087032 0.45006103403607178 0 0.5 0.42798800082335348 0 0.47630809284578057 0.40791767676994412 0 0.47664319205780931 0.43328348719732401 0 0.47664319205780931 0.43328348719732401 0 0.45530493079827311 0.43857897357129427 0 0.47664319205780931 0.43328348719732401 0 0.45427397070660569 0.43167083642885618 0 0.45530493079827311 0.43857897357129427 0 0.47664319205780931 0.43328348719732401 0 0.45427397070660569 0.43167083642885618 0 0.46634354183300869 0.42020179717861761 0 0.45427397070660569 0.43167083642885618 0 0.45530493079827311 0.43857897357129427 0 0.45346496349156862 0.43903559567759692 0 0.45427397070660569 0.43167083642885618 0 0.45530493079827311 0.43857897357129427 0 0.45427397070660569 0.43167083642885618 0 0.45346496349156862 0.43903559567759692 0 0.45427397070660569 0.43167083642885618 0 0.45705144685770782 0.406386212519663 0 0.45072077757088053 0.40786201427010821 0 0.47630809284578057 0.40791767676994412 0 0.46634354183300869 0.42020179717861761 0 0.45705144685770782 0.406386212519663 0 0.45427397070660569 0.43167083642885618 0 0.45705144685770782 0.406386212519663 0 0.45427397070660569 0.43167083642885618 0 0.46634354183300869 0.42020179717861761 0 0.45705144685770782 0.406386212519663 0 0.45427397070660569 0.43167083642885618 0 0.45072077757088053 0.40786201427010821 0 0.45427397070660569 0.43167083642885618 0 0.45072077757088053 0.40786201427010821 0 0.44503074777495988 0.42021336030665701 0 0.45072077757088053 0.40786201427010821 0 0.44503074777495988 0.42021336030665701 0 0.44231101290708941 0.41171816258099558 0 0.43432677806397652 0.41498635933388528 0 0.44503074777495988 0.42021336030665701 0 0.44231101290708941 0.41171816258099558 0 0.43432677806397652 0.41498635933388528 0 0.44503074777495988 0.42021336030665701 0 0.44458257198737638 0.42986431334049052 0 0.43916574821854082 0.403810916413332 0 0.45072077757088053 0.40786201427010821 0 0.44231101290708941 0.41171816258099558 0 0.43432677806397652 0.41498635933388528 0 0.43916574821854082 0.403810916413332 0 0.44231101290708941 0.41171816258099558 0 0.44458257198737638 0.42986431334049052 0 0.45346496349156862 0.43903559567759692 0 0.43581639989977478 0.44341541495546061 0 0.43432677806397652 0.41498635933388528 0 0.44458257198737638 0.42986431334049052 0 0.43581639989977478 0.44341541495546061 0 0.45427397070660569 0.43167083642885618 0 0.44458257198737638 0.42986431334049052 0 0.45346496349156862 0.43903559567759692 0 0.45427397070660569 0.43167083642885618 0 0.44503074777495988 0.42021336030665701 0 0.44458257198737638 0.42986431334049052 0 0.45042320573420358 0.46672609479754362 0 0.45346496349156862 0.43903559567759692 0 0.43581639989977478 0.44341541495546061 0 0.45346496349156862 0.43903559567759692 0 0.43581639989977478 0.44341541495546061 0 0.5 0.42798800082335348 0 0.5 0.5 0 0.47555875880995402 0.48023755561457021 0 0.45042320573420358 0.46672609479754362 0 0.45346496349156862 0.43903559567759692 0 0.45042320573420358 0.46672609479754362 0 0.43686263341420001 0.46338251671238229 0 0.43581639989977478 0.44341541495546061 0 0.45042320573420358 0.46672609479754362 0 0.45965351889690642 0.46771748553142689 0 0.45346496349156862 0.43903559567759692 0 0.45965351889690642 0.46771748553142689 0 0.45530493079827311 0.43857897357129427 0 0.45965351889690642 0.46771748553142689 0 0.45530493079827311 0.43857897357129427 0 0.45346496349156862 0.43903559567759692 0 0.45965351889690642 0.46771748553142689 0 0.45530493079827311 0.43857897357129427 0 0.47210335183087032 0.45006103403607178 0 0.47664319205780931 0.43328348719732401 0 0.45530493079827311 0.43857897357129427 0 0.47210335183087032 0.45006103403607178 0 0.45530493079827311 0.43857897357129427 0 0.45346496349156862 0.43903559567759692 0 0.5 0.42798800082335348 0 0.47210335183087032 0.45006103403607178 0 0.47555875880995402 0.48023755561457021 0 0.45965351889690642 0.46771748553142689 0 0.47210335183087032 0.45006103403607178 0 0.47555875880995402 0.48023755561457021 0 0.5 0.5 0 0.47555875880995402 0.48023755561457021 0 0.47117987727567878 0.49999999999999989 0 0.47555875880995402 0.48023755561457021 0 0.47117987727567878 0.49999999999999989 0 0.46400210699554162 0.49685599749155918 0 0.47117987727567878 0.49999999999999989 0 0.44738144797684087 0.49441659391749049 0 0.44868317877317571 0.50000000000000022 0 0.46400210699554162 0.49685599749155918 0 0.45536506990087322 0.48142904293450489 0 0.44738144797684087 0.49441659391749049 0 0.47117987727567878 0.49999999999999989 0 0.46400210699554162 0.49685599749155918 0 0.44738144797684087 0.49441659391749049 0 0.47117987727567878 0.49999999999999989 0 0.44738144797684087 0.49441659391749049 0 0.45965351889690642 0.46771748553142689 0 0.46400210699554162 0.49685599749155918 0 0.45536506990087322 0.48142904293450489 0 0.45965351889690642 0.46771748553142689 0 0.47555875880995402 0.48023755561457021 0 0.46400210699554162 0.49685599749155918 0 0.45965351889690642 0.46771748553142689 0 0.46400210699554162 0.49685599749155918 0 0.45042320573420358 0.46672609479754362 0 0.45965351889690642 0.46771748553142689 0 0.45536506990087322 0.48142904293450489 0 0.45042320573420358 0.46672609479754362 0 0.45536506990087322 0.48142904293450489 0 0.44738144797684087 0.49441659391749049 0 0.45042320573420358 0.46672609479754362 0 0.43790886692862419 0.48334961846930402 0 0.44738144797684087 0.49441659391749049 0 0.45042320573420358 0.46672609479754362 0 0.43790886692862419 0.48334961846930402 0 0.43686263341420001 0.46338251671238229 0 0.45042320573420358 0.46672609479754362 0 0.44738144797684087 0.49441659391749049 0 0.44738144797684087 0.49441659391749049 0 0.44465652065731143 0.49377729224008859 0 0.44738144797684087 0.49441659391749049 0 0.44704603647859642 0.49746999676470388 0 0.44465652065731143 0.49377729224008859 0 0.44738144797684087 0.49441659391749049 0 0.44704603647859642 0.49746999676470388 0 0.44704603647859642 0.49746999676470388 0 0.44465652065731143 0.49377729224008859 0 0.44738144797684087 0.49441659391749049 0 0.44704603647859642 0.49746999676470388 0 0.44868317877317571 0.50000000000000022 0 0.44704603647859642 0.49746999676470388 0 0.44676811960415341 0.50000000000001799 0 0.44704603647859642 0.49746999676470388 0 0.44868317877317571 0.50000000000000022 0 0.44704603647859642 0.49746999676470388 0 0.44676811960415341 0.50000000000001799 0 0.44868317877317571 0.50000000000000022 0 0.43790886692862419 0.48334961846930402 0 0.43837807263663292 0.49230429062190662 0 0.43790886692862419 0.48334961846930402 0 0.43837807263663292 0.49230429062190662 0 0.44465652065731143 0.49377729224008859 0 0.43790886692862419 0.48334961846930402 0 0.44465652065731143 0.49377729224008859 0 0.43790886692862419 0.48334961846930402 0 0.44738144797684087 0.49441659391749049 0 0.44465652065731143 0.49377729224008859 0 0.43837807263663292 0.49230429062190662 0 0.44465652065731143 0.49377729224008859 0 0.43878131138237841 0.49999999999999922 0 0.44704603647859642 0.49746999676470388 0 0.44465652065731143 0.49377729224008859 0 0.43878131138237841 0.49999999999999922 0 0.44704603647859642 0.49746999676470388 0 0.44676811960415341 0.50000000000001799 0 0.43878131138237841 0.49999999999999922 0 0.43837807263663292 0.49230429062190662 0 0.44465652065731143 0.49377729224008859 0 0.43837807263663292 0.49230429062190662 0 0.43878131138237841 0.49999999999999922 0 0.43837807263663292 0.49230429062190662 0 0.41738890449735883 0.48737997197952682 0 0.43837807263663292 0.49230429062190662 0 0.41738890449735883 0.48737997197952682 0 0.42637762304442578 0.47956686320415481 0 0.43837807263663292 0.49230429062190662 0 0.41769631163383147 0.5 0 0.41738890449735883 0.48737997197952682 0 0.43837807263663292 0.49230429062190662 0 0.43878131138237841 0.49999999999999922 0 0.41769631163383147 0.5 0 0.43790886692862419 0.48334961846930402 0 0.43837807263663292 0.49230429062190662 0 0.42637762304442578 0.47956686320415481 0 0.41769631163383147 0.5 0 0.41738890449735883 0.48737997197952682 0 0.40710652835360978 0.49340217704579858 0 0.41738890449735883 0.48737997197952682 0 0.40710652835360978 0.49340217704579858 0 0.39639973635808468 0.48245565333714679 0 0.41769631163383147 0.5 0 0.40710652835360978 0.49340217704579858 0 0.39661131188528459 0.50000000000000455 0 0.41738890449735883 0.48737997197952682 0 0.39639973635808468 0.48245565333714679 0 0.41738890449735883 0.48737997197952682 0 0.41158091839433009 0.46887883566639282 0 0.42637762304442578 0.47956686320415481 0 0.41738890449735883 0.48737997197952682 0 0.41158091839433009 0.46887883566639282 0 0.39639973635808468 0.48245565333714679 0 0.41158091839433009 0.46887883566639282 0 0.42637762304442578 0.47956686320415481 0 0.42663135276518238 0.46592159928364357 0 0.43790886692862419 0.48334961846930402 0 0.42663135276518238 0.46592159928364357 0 0.43790886692862419 0.48334961846930402 0 0.43686263341420001 0.46338251671238229 0 0.42663135276518238 0.46592159928364357 0 0.43790886692862419 0.48334961846930402 0 0.42637762304442578 0.47956686320415481 0 0.42663135276518238 0.46592159928364357 0 0.43790886692862419 0.48334961846930402 0 0.43686263341420001 0.46338251671238229 0 0.43686263341420001 0.46338251671238229 0 0.43581639989977478 0.44341541495546061 0 0.43686263341420001 0.46338251671238229 0 0.4290491295713072 0.45378096655666211 0 0.43581639989977478 0.44341541495546061 0 0.4290491295713072 0.45378096655666211 0 0.42663135276518238 0.46592159928364357 0 0.41535383860174102 0.44849358009798312 0 0.43686263341420001 0.46338251671238229 0 0.4290491295713072 0.45378096655666211 0 0.42663135276518238 0.46592159928364357 0 0.4290491295713072 0.45378096655666211 0 0.43581639989977478 0.44341541495546061 0 0.41535383860174102 0.44849358009798312 0 0.43581639989977478 0.44341541495546061 0 0.41535383860174102 0.44849358009798312 0 0.4229724589750346 0.43625132992090621 0 0.43581639989977478 0.44341541495546061 0 0.41535383860174102 0.44849358009798312 0 0.4064175293117861 0.43468360677432327 0 0.41516367534136611 0.43103481342788219 0 0.41535383860174102 0.44849358009798312 0 0.41516367534136611 0.43103481342788219 0 0.4229724589750346 0.43625132992090621 0 0.41535383860174102 0.44849358009798312 0 0.4064175293117861 0.43468360677432327 0 0.41535383860174102 0.44849358009798312 0 0.42663135276518238 0.46592159928364357 0 0.41535383860174102 0.44849358009798312 0 0.41158091839433009 0.46887883566639282 0 0.42663135276518238 0.46592159928364357 0 0.41535383860174102 0.44849358009798312 0 0.41158091839433009 0.46887883566639282 0 0.41535383860174102 0.44849358009798312 0 0.39604795005755661 0.45328469538519639 0 0.39604795005755661 0.45328469538519639 0 0.38715687862329901 0.46837319579895131 0 0.39639973635808468 0.48245565333714679 0 0.41158091839433009 0.46887883566639282 0 0.39604795005755661 0.45328469538519639 0 0.39639973635808468 0.48245565333714679 0 0.39604795005755661 0.45328469538519639 0 0.39639973635808468 0.48245565333714679 0 0.41535383860174102 0.44849358009798312 0 0.39604795005755661 0.45328469538519639 0 0.39578323139465099 0.43133359332914378 0 0.39604795005755661 0.45328469538519639 0 0.4064175293117861 0.43468360677432327 0 0.41535383860174102 0.44849358009798312 0 0.39604795005755661 0.45328469538519639 0 0.39578323139465099 0.43133359332914378 0 0.4064175293117861 0.43468360677432327 0 0.39604795005755661 0.45328469538519639 0 0.39578323139465099 0.43133359332914378 0 0.39604795005755661 0.45328469538519639 0 0.38748106286857292 0.44029717045850608 0 0.39604795005755661 0.45328469538519639 0 0.38748106286857292 0.44029717045850608 0 0.38156555424651301 0.44792743997768503 0 0.36925285784131068 0.44680946716270997 0 0.38156555424651301 0.44792743997768503 0 0.37506593838782409 0.45849177179803657 0 0.36925285784131068 0.44680946716270997 0 0.37729751408372991 0.43659552646984529 0 0.38156555424651301 0.44792743997768503 0 0.37729751408372991 0.43659552646984529 0 0.38748106286857292 0.44029717045850608 0 0.38156555424651301 0.44792743997768503 0 0.39604795005755661 0.45328469538519639 0 0.38715687862329901 0.46837319579895131 0 0.37506593838782409 0.45849177179803657 0 0.39604795005755661 0.45328469538519639 0 0.37506593838782409 0.45849177179803657 0 0.39604795005755661 0.45328469538519639 0 0.38156555424651301 0.44792743997768503 0 0.37506593838782409 0.45849177179803657 0 0.38715687862329901 0.46837319579895131 0 0.37506593838782409 0.45849177179803657 0 0.37865286170415258 0.47303755422137411 0 0.38715687862329901 0.46837319579895131 0 0.37865286170415258 0.47303755422137411 0 0.38753261684593049 0.48037531734535388 0 0.38715687862329901 0.46837319579895131 0 0.38753261684593049 0.48037531734535388 0 0.39639973635808468 0.48245565333714679 0 0.37865286170415258 0.47303755422137411 0 0.38753261684593049 0.48037531734535388 0 0.37526062029746671 0.48388889105816718 0 0.37132130495558169 0.5 0 0.38686494110885877 0.49050750729302039 0 0.39661131188528459 0.50000000000000455 0 0.37132130495558169 0.5 0 0.37526062029746671 0.48388889105816718 0 0.38686494110885877 0.49050750729302039 0 0.38753261684593049 0.48037531734535388 0 0.38686494110885877 0.49050750729302039 0 0.39639973635808468 0.48245565333714679 0 0.38753261684593049 0.48037531734535388 0 0.37526062029746671 0.48388889105816718 0 0.38686494110885877 0.49050750729302039 0 0.38686494110885877 0.49050750729302039 0 0.39661131188528459 0.50000000000000455 0 0.39639973635808468 0.48245565333714679 0 0.39661131188528459 0.50000000000000455 0 0.39639973635808468 0.48245565333714679 0 0.40710652835360978 0.49340217704579858 0 0.39661131188528459 0.50000000000000455 0 0.39639973635808468 0.48245565333714679 0 0.38753261684593049 0.48037531734535388 0 0.39639973635808468 0.48245565333714679 0 0.34204833152449321 0.076967675608901151 0 0.32860196740186193 0.071929471743717374 0 0.32225097642716111 0.091367286643772444 0 0.33989185462339311 0.091774669601948369 0 0.34204833152449321 0.076967675608901151 0 0.32225097642716111 0.091367286643772444 0 0.34204833152449321 0.076967675608901151 0 0.32225097642716111 0.091367286643772444 0 0.33989185462339311 0.091774669601948369 0 0.32225097642716111 0.091367286643772444 0 0.32790679548651608 0.098080131055469102 0 0.34204833152449321 0.076967675608901151 0 0.3376156716931818 0.068335443529183457 0 0.32860196740186193 0.071929471743717374 0 0.3376156716931818 0.068335443529183457 0 0.3250559194947874 0.068575503073984231 0 0.33947873555394409 0.058198332758861222 0 0.3376156716931818 0.068335443529183457 0 0.32860196740186193 0.071929471743717374 0 0.3250559194947874 0.068575503073984231 0 0.32860196740186193 0.071929471743717374 0 0.3250559194947874 0.068575503073984231 0 0.32225097642716111 0.091367286643772444 0 0.3250559194947874 0.068575503073984231 0 0.31267376953041309 0.077069403940070488 0 0.30900647300110617 0.06743136967199781 0 0.32860196740186193 0.071929471743717374 0 0.3250559194947874 0.068575503073984231 0 0.3250559194947874 0.068575503073984231 0 0.31267376953041309 0.077069403940070488 0 0.31721317054236731 0.081095865411430768 0 0.3250559194947874 0.068575503073984231 0 0.32225097642716111 0.091367286643772444 0 0.31267376953041309 0.077069403940070488 0 0.31721317054236731 0.081095865411430768 0 0.30887201671710768 0.08737126798789592 0 0.3250559194947874 0.068575503073984231 0 0.31721317054236731 0.081095865411430768 0 0.32225097642716111 0.091367286643772444 0 0.31721317054236731 0.081095865411430768 0 0.32225097642716111 0.091367286643772444 0 0.30887201671710768 0.08737126798789592 0 0.32225097642716111 0.091367286643772444 0 0.31432036343480141 0.1051832576762138 0 0.30276533289201712 0.105540174198235 0 0.32225097642716111 0.091367286643772444 0 0.31432036343480141 0.1051832576762138 0 0.32083755186635621 0.1028521781033785 0 0.32225097642716111 0.091367286643772444 0 0.30276533289201712 0.105540174198235 0 0.31432036343480141 0.1051832576762138 0 0.31935769595878272 0.1086376187098575 0 0.32083755186635621 0.1028521781033785 0 0.31935769595878272 0.1086376187098575 0 0.32288869746100513 0.10433494729476089 0 0.32083755186635621 0.1028521781033785 0 0.32288869746100513 0.10433494729476089 0 0.32083755186635621 0.1028521781033785 0 0.32790679548651608 0.098080131055469102 0 0.32225097642716111 0.091367286643772444 0 0.32083755186635621 0.1028521781033785 0 0.32225097642716111 0.091367286643772444 0 0.32083755186635621 0.1028521781033785 0 0.32790679548651608 0.098080131055469102 0 0.32655404985677278 0.1151984317643432 0 0.31218781717497812 0.1156192787105912 0 0.3155185078757044 0.13187911926034171 0 0.32655404985677278 0.1151984317643432 0 0.34161415058551109 0.126895785661058 0 0.3155185078757044 0.13187911926034171 0 0.31935769595878272 0.1086376187098575 0 0.32655404985677278 0.1151984317643432 0 0.31218781717497812 0.1156192787105912 0 0.31432036343480141 0.1051832576762138 0 0.31935769595878272 0.1086376187098575 0 0.31218781717497812 0.1156192787105912 0 0.31935769595878272 0.1086376187098575 0 0.32288869746100513 0.10433494729476089 0 0.32655404985677278 0.1151984317643432 0 0.32655404985677278 0.1151984317643432 0 0.34906006264324008 0.1036001262713513 0 0.34161415058551109 0.126895785661058 0 0.32288869746100513 0.10433494729476089 0 0.34906006264324008 0.1036001262713513 0 0.33989185462339311 0.091774669601948369 0 0.32790679548651608 0.098080131055469102 0 0.34906006264324008 0.1036001262713513 0 0.32288869746100513 0.10433494729476089 0 0.32790679548651608 0.098080131055469102 0 0.34906006264324008 0.1036001262713513 0 0.32288869746100513 0.10433494729476089 0 0.32655404985677278 0.1151984317643432 0 0.34906006264324008 0.1036001262713513 0 0.34906006264324008 0.1036001262713513 0 0.36272675030584972 0.11985169223031029 0 0.34161415058551109 0.126895785661058 0 0.36272675030584972 0.11985169223031029 0 0.37523142782547508 0.1028653052479418 0 0.3826807987389681 0.1245865465039131 0 0.34906006264324008 0.1036001262713513 0 0.36010592910936151 0.085158401287471444 0 0.37523142782547508 0.1028653052479418 0 0.34906006264324008 0.1036001262713513 0 0.37523142782547508 0.1028653052479418 0 0.34906006264324008 0.1036001262713513 0 0.36272675030584972 0.11985169223031029 0 0.37523142782547508 0.1028653052479418 0 0.36010592910936151 0.085158401287471444 0 0.3707086256962604 0.074242818797507826 0 0.38343778706175458 0.085018248378039674 0 0.36010592910936151 0.085158401287471444 0 0.38343778706175458 0.085018248378039674 0 0.37523142782547508 0.1028653052479418 0 0.33989185462339311 0.091774669601948369 0 0.34204833152449321 0.076967675608901151 0 0.36010592910936151 0.085158401287471444 0 0.33989185462339311 0.091774669601948369 0 0.34906006264324008 0.1036001262713513 0 0.36010592910936151 0.085158401287471444 0 0.34204833152449321 0.076967675608901151 0 0.36184568662182492 0.062568064574029469 0 0.34204833152449321 0.076967675608901151 0 0.36010592910936151 0.085158401287471444 0 0.36184568662182492 0.062568064574029469 0 0.34204833152449321 0.076967675608901151 0 0.3376156716931818 0.068335443529183457 0 0.36184568662182492 0.062568064574029469 0 0.3376156716931818 0.068335443529183457 0 0.36184568662182492 0.062568064574029469 0 0.33947873555394409 0.058198332758861222 0 0.3707086256962604 0.074242818797507826 0 0.36184568662182492 0.062568064574029469 0 0.37981673556155848 0.065711520098361759 0 0.36010592910936151 0.085158401287471444 0 0.3707086256962604 0.074242818797507826 0 0.36184568662182492 0.062568064574029469 0 0.36184568662182492 0.062568064574029469 0 0.37237999767587798 0.055285421951065977 0 0.37981673556155848 0.065711520098361759 0 0.36184568662182492 0.062568064574029469 0 0.37237999767587798 0.055285421951065977 0 0.3639850184181721 0.044705085274626057 0 0.37237999767587798 0.055285421951065977 0 0.3639850184181721 0.044705085274626057 0 0.3817547188558314 0.046560561163896431 0 0.3639850184181721 0.044705085274626057 0 0.37007773532495081 0.031258173671155277 0 0.35282283398869518 0.026939870270582901 0 0.3639850184181721 0.044705085274626057 0 0.37007773532495081 0.031258173671155277 0 0.3817547188558314 0.046560561163896431 0 0.3639850184181721 0.044705085274626057 0 0.34610302347367888 0.043586424600727258 0 0.35282283398869518 0.026939870270582901 0 0.36184568662182492 0.062568064574029469 0 0.34610302347367888 0.043586424600727258 0 0.33947873555394409 0.058198332758861222 0 0.36184568662182492 0.062568064574029469 0 0.3639850184181721 0.044705085274626057 0 0.34610302347367888 0.043586424600727258 0 0.36331461414636251 0.0014537306793350371 0 0.37210468571126148 0.0032659412068709909 0 0.37083028849458072 -0.0041634305290219036 0 0.36331461414636251 0.0014537306793350371 0 0.37210468571126148 0.0032659412068709909 0 0.36938164425099801 0.0099670860986863907 0 0.37210468571126148 0.0032659412068709909 0 0.36938164425099801 0.0099670860986863907 0 0.37600393760738487 0.0081912775376210868 0 0.36938164425099801 0.0099670860986863907 0 0.37600393760738487 0.0081912775376210868 0 0.37569594873728113 0.01630707445757788 0 0.36938164425099801 0.0099670860986863907 0 0.36488596327402029 0.019384892101921691 0 0.37569594873728113 0.01630707445757788 0 0.36938164425099801 0.0099670860986863907 0 0.36488596327402029 0.019384892101921691 0 0.35645165406817669 0.01245225601160597 0 0.36331461414636251 0.0014537306793350371 0 0.36938164425099801 0.0099670860986863907 0 0.35645165406817669 0.01245225601160597 0 0.37007773532495081 0.031258173671155277 0 0.36488596327402029 0.019384892101921691 0 0.35282283398869518 0.026939870270582901 0 0.37007773532495081 0.031258173671155277 0 0.36488596327402029 0.019384892101921691 0 0.37569594873728113 0.01630707445757788 0 0.35282283398869518 0.026939870270582901 0 0.35645165406817669 0.01245225601160597 0 0.34452226236519201 0.012194590358053391 0 0.36488596327402029 0.019384892101921691 0 0.35282283398869518 0.026939870270582901 0 0.35645165406817669 0.01245225601160597 0 0.35645165406817669 0.01245225601160597 0 0.34452226236519201 0.012194590358053391 0 0.3492682726630757 -0.002163828270382862 0 0.36331461414636251 0.0014537306793350371 0 0.35645165406817669 0.01245225601160597 0 0.3492682726630757 -0.002163828270382862 0 0.33342994676464999 0.00053169165227971021 0 0.33063860434136239 0.023212962126181218 0 0.34452226236519201 0.012194590358053391 0 0.33342994676464999 0.00053169165227971021 0 0.3492682726630757 -0.002163828270382862 0 0.34452226236519201 0.012194590358053391 0 0.33342994676464999 0.00053169165227971021 0 0.33063860434136239 0.023212962126181218 0 0.34610302347367888 0.043586424600727258 0 0.35282283398869518 0.026939870270582901 0 0.33063860434136239 0.023212962126181218 0 0.35282283398869518 0.026939870270582901 0 0.34452226236519201 0.012194590358053391 0 0.33063860434136239 0.023212962126181218 0 0.33063860434136239 0.023212962126181218 0 0.31148068274726609 0.0055153957526775056 0 0.30851599925592588 0.028132612701205331 0 0.33342994676464999 0.00053169165227971021 0 0.33063860434136239 0.023212962126181218 0 0.31148068274726609 0.0055153957526775056 0 0.3250559194947874 0.068575503073984231 0 0.33947873555394409 0.058198332758861222 0 0.32784726191807478 0.045894232600082678 0 0.34610302347367888 0.043586424600727258 0 0.33947873555394409 0.058198332758861222 0 0.32784726191807478 0.045894232600082678 0 0.34610302347367888 0.043586424600727258 0 0.33063860434136239 0.023212962126181218 0 0.32784726191807478 0.045894232600082678 0 0.33063860434136239 0.023212962126181218 0 0.32784726191807478 0.045894232600082678 0 0.32784726191807478 0.045894232600082678 0 0.30484755369236222 0.049461766445488671 0 0.30851599925592588 0.028132612701205331 0 0.33063860434136239 0.023212962126181218 0 0.32784726191807478 0.045894232600082678 0 0.30851599925592588 0.028132612701205331 0 0.3250559194947874 0.068575503073984231 0 0.30484755369236222 0.049461766445488671 0 0.30900647300110617 0.06743136967199781 0 0.3250559194947874 0.068575503073984231 0 0.32784726191807478 0.045894232600082678 0 0.30484755369236222 0.049461766445488671 0 0.3250559194947874 0.068575503073984231 0 0.32784726191807478 0.045894232600082678 0 0.3250559194947874 0.068575503073984231 0 0.30484755369236222 0.049461766445488671 0 0.30484755369236222 0.049461766445488671 0 0.30900647300110617 0.06743136967199781 0 0.29798330513007881 0.067113890221771305 0 0.30484755369236222 0.049461766445488671 0 0.30851599925592588 0.028132612701205331 0 0.28463918788993658 0.030348029816993138 0 0.30484755369236222 0.049461766445488671 0 0.28463918788993658 0.030348029816993138 0 0.27725773405106657 0.049987749929260708 0 0.30484755369236222 0.049461766445488671 0 0.28463918788993658 0.030348029816993138 0 0.30484755369236222 0.049461766445488671 0 0.27725773405106657 0.049987749929260708 0 0.28644049309620823 0.062805684455882416 0 0.30484755369236222 0.049461766445488671 0 0.28644049309620823 0.062805684455882416 0 0.29798330513007881 0.067113890221771305 0 0.31148068274726609 0.0055153957526775056 0 0.29505818984524468 0.014257731044878539 0 0.29040241283628182 -0.0018889931034821741 0 0.31148068274726609 0.0055153957526775056 0 0.30851599925592588 0.028132612701205331 0 0.29505818984524468 0.014257731044878539 0 0.28463918788993658 0.030348029816993138 0 0.29505818984524468 0.014257731044878539 0 0.28025266649681319 0.0091816100569989244 0 0.30851599925592588 0.028132612701205331 0 0.28463918788993658 0.030348029816993138 0 0.29505818984524468 0.014257731044878539 0 0.29505818984524468 0.014257731044878539 0 0.28025266649681319 0.0091816100569989244 0 0.29040241283628182 -0.0018889931034821741 0 0.28025266649681319 0.0091816100569989244 0 0.26443082208751112 0.01123429318849763 0 0.27014820472378293 -0.0081485690828227517 0 0.28463918788993658 0.030348029816993138 0 0.28025266649681319 0.0091816100569989244 0 0.26443082208751112 0.01123429318849763 0 0.28463918788993658 0.030348029816993138 0 0.26443082208751112 0.01123429318849763 0 0.28463918788993658 0.030348029816993138 0 0.26443082208751112 0.01123429318849763 0 0.25645224558589569 0.034460782287320087 0 0.25199464257422283 0.01212564235903813 0 0.25645224558589569 0.034460782287320087 0 0.26443082208751112 0.01123429318849763 0 0.25199464257422283 0.01212564235903813 0 0.25645224558589569 0.034460782287320087 0 0.26443082208751112 0.01123429318849763 0 0.25880614714358668 -0.00284646007175579 0 0.27014820472378293 -0.0081485690828227517 0 0.26443082208751112 0.01123429318849763 0 0.25199464257422283 0.01212564235903813 0 0.25880614714358668 -0.00284646007175579 0 0.27725773405106657 0.049987749929260708 0 0.27025707544442862 0.066054314354277888 0 0.28644049309620823 0.062805684455882416 0 0.27725773405106657 0.049987749929260708 0 0.26090984859756849 0.056795922215602077 0 0.27025707544442862 0.066054314354277888 0 0.28463918788993658 0.030348029816993138 0 0.27725773405106657 0.049987749929260708 0 0.25645224558589569 0.034460782287320087 0 0.24570016514198911 0.049034817990739887 0 0.25645224558589569 0.034460782287320087 0 0.26090984859756849 0.056795922215602077 0 0.25645224558589569 0.034460782287320087 0 0.26090984859756849 0.056795922215602077 0 0.27725773405106657 0.049987749929260708 0 0.25645224558589569 0.034460782287320087 0 0.26090984859756849 0.056795922215602077 0 0.26090984859756849 0.056795922215602077 0 0.26536745160923919 0.079131062143884462 0 0.27025707544442862 0.066054314354277888 0 0.26090984859756849 0.056795922215602077 0 0.25333778260550099 0.070771559748385157 0 0.26536745160923919 0.079131062143884462 0 0.2425396257587987 0.063747620792488427 0 0.26090984859756849 0.056795922215602077 0 0.25333778260550099 0.070771559748385157 0 0.26090984859756849 0.056795922215602077 0 0.26536745160923919 0.079131062143884462 0 0.24453420445639781 0.083411633841565663 0 0.25333778260550099 0.070771559748385157 0 0.26536745160923919 0.079131062143884462 0 0.24453420445639781 0.083411633841565663 0 0.26536745160923919 0.079131062143884462 0 0.24453420445639781 0.083411633841565663 0 0.25771306203649808 0.087156288160976036 0 0.26536745160923919 0.079131062143884462 0 0.24926499288034901 0.097833509686936646 0 0.24453420445639781 0.083411633841565663 0 0.25771306203649808 0.087156288160976036 0 0.24926499288034901 0.097833509686936646 0 0.25771306203649808 0.087156288160976036 0 0.25823432913829802 0.095645390479587755 0 0.25771306203649808 0.087156288160976036 0 0.26536745160923919 0.079131062143884462 0 0.26347769339416621 0.087623484082271039 0 0.26536745160923919 0.079131062143884462 0 0.26347769339416621 0.087623484082271039 0 0.26696459717702908 0.083099040946858396 0 0.26347769339416621 0.087623484082271039 0 0.265195774829106 0.093002294793098905 0 0.25823432913829802 0.095645390479587755 0 0.25771306203649808 0.087156288160976036 0 0.26347769339416621 0.087623484082271039 0 0.25823432913829802 0.095645390479587755 0 0.26347769339416621 0.087623484082271039 0 0.27157700823627351 0.09036173698654025 0 0.26968049034474312 0.085022996444556687 0 0.26347769339416621 0.087623484082271039 0 0.265195774829106 0.093002294793098905 0 0.27157700823627351 0.09036173698654025 0 0.27157700823627351 0.09036173698654025 0 0.26968049034474312 0.085022996444556687 0 0.27656868596733841 0.083620736570162141 0 0.26968049034474312 0.085022996444556687 0 0.26930050422866841 0.080457034528995094 0 0.27656868596733841 0.083620736570162141 0 0.26347769339416621 0.087623484082271039 0 0.26968049034474312 0.085022996444556687 0 0.26696459717702908 0.083099040946858396 0 0.26968049034474312 0.085022996444556687 0 0.26696459717702908 0.083099040946858396 0 0.26930050422866841 0.080457034528995094 0 0.26536745160923919 0.079131062143884462 0 0.26930050422866841 0.080457034528995094 0 0.27230146340534089 0.0777063425873014 0 0.26536745160923919 0.079131062143884462 0 0.26696459717702908 0.083099040946858396 0 0.26930050422866841 0.080457034528995094 0 0.26536745160923919 0.079131062143884462 0 0.27230146340534089 0.0777063425873014 0 0.26930050422866841 0.080457034528995094 0 0.27656868596733841 0.083620736570162141 0 0.27230146340534089 0.0777063425873014 0 0.27656868596733841 0.083620736570162141 0 0.27939717064718922 0.07752885545102467 0 0.28750634145386772 0.078549851258632356 0 0.27656868596733841 0.083620736570162141 0 0.27230146340534089 0.0777063425873014 0 0.27939717064718922 0.07752885545102467 0 0.27157700823627351 0.09036173698654025 0 0.27656868596733841 0.083620736570162141 0 0.28381075578783538 0.093681264594036015 0 0.27025707544442862 0.066054314354277888 0 0.27993445509820558 0.071235586748490065 0 0.28644049309620823 0.062805684455882416 0 0.26536745160923919 0.079131062143884462 0 0.27025707544442862 0.066054314354277888 0 0.27230146340534089 0.0777063425873014 0 0.27025707544442862 0.066054314354277888 0 0.27230146340534089 0.0777063425873014 0 0.27993445509820558 0.071235586748490065 0 0.27230146340534089 0.0777063425873014 0 0.27939717064718922 0.07752885545102467 0 0.27993445509820558 0.071235586748490065 0 0.27993445509820558 0.071235586748490065 0 0.28644049309620823 0.062805684455882416 0 0.28750634145386772 0.078549851258632356 0 0.28644049309620823 0.062805684455882416 0 0.28750634145386772 0.078549851258632356 0 0.29798330513007881 0.067113890221771305 0 0.28750634145386772 0.078549851258632356 0 0.29798330513007881 0.067113890221771305 0 0.30211566440684973 0.077320779276855295 0 0.27939717064718922 0.07752885545102467 0 0.27993445509820558 0.071235586748490065 0 0.28750634145386772 0.078549851258632356 0 0.27656868596733841 0.083620736570162141 0 0.28750634145386772 0.078549851258632356 0 0.28381075578783538 0.093681264594036015 0 0.28750634145386772 0.078549851258632356 0 0.28381075578783538 0.093681264594036015 0 0.29609786667188531 0.090817441159287596 0 0.28750634145386772 0.078549851258632356 0 0.29609786667188531 0.090817441159287596 0 0.30211566440684973 0.077320779276855295 0 0.29609786667188531 0.090817441159287596 0 0.30887201671710768 0.08737126798789592 0 0.30211566440684973 0.077320779276855295 0 0.31267376953041309 0.077069403940070488 0 0.30887201671710768 0.08737126798789592 0 0.30211566440684973 0.077320779276855295 0 0.31267376953041309 0.077069403940070488 0 0.30900647300110617 0.06743136967199781 0 0.30211566440684973 0.077320779276855295 0 0.30900647300110617 0.06743136967199781 0 0.29798330513007881 0.067113890221771305 0 0.30211566440684973 0.077320779276855295 0 0.31218781717497812 0.1156192787105912 0 0.30276533289201712 0.105540174198235 0 0.29854282123570919 0.12533826847722301 0 0.31218781717497812 0.1156192787105912 0 0.29854282123570919 0.12533826847722301 0 0.3155185078757044 0.13187911926034171 0 0.32225097642716111 0.091367286643772444 0 0.30887201671710768 0.08737126798789592 0 0.30276533289201712 0.105540174198235 0 0.29609786667188531 0.090817441159287596 0 0.30887201671710768 0.08737126798789592 0 0.30276533289201712 0.105540174198235 0 0.31432036343480141 0.1051832576762138 0 0.31218781717497812 0.1156192787105912 0 0.30276533289201712 0.105540174198235 0 0.30276533289201712 0.105540174198235 0 0.29080626866044268 0.1027880174464061 0 0.28327968935687281 0.11971306175269709 0 0.29609786667188531 0.090817441159287596 0 0.30276533289201712 0.105540174198235 0 0.29080626866044268 0.1027880174464061 0 0.28381075578783538 0.093681264594036015 0 0.29609786667188531 0.090817441159287596 0 0.29080626866044268 0.1027880174464061 0 0.28381075578783538 0.093681264594036015 0 0.29080626866044268 0.1027880174464061 0 0.28187934720657271 0.1072114375990165 0 0.30276533289201712 0.105540174198235 0 0.28327968935687281 0.11971306175269709 0 0.30276533289201712 0.105540174198235 0 0.28327968935687281 0.11971306175269709 0 0.29854282123570919 0.12533826847722301 0 0.29080626866044268 0.1027880174464061 0 0.28187934720657271 0.1072114375990165 0 0.28327968935687281 0.11971306175269709 0 0.28327968935687281 0.11971306175269709 0 0.26890985490794828 0.1130101144092617 0 0.27005798102194001 0.1293033112388014 0 0.28187934720657271 0.1072114375990165 0 0.28327968935687281 0.11971306175269709 0 0.26890985490794828 0.1130101144092617 0 0.28381075578783538 0.093681264594036015 0 0.26890985490794828 0.1130101144092617 0 0.28381075578783538 0.093681264594036015 0 0.26890985490794828 0.1130101144092617 0 0.27319494225962099 0.1060350854435315 0 0.28381075578783538 0.093681264594036015 0 0.28187934720657271 0.1072114375990165 0 0.26890985490794828 0.1130101144092617 0 0.28381075578783538 0.093681264594036015 0 0.27319494225962099 0.1060350854435315 0 0.26695703116305952 0.097958403150423784 0 0.27157700823627351 0.09036173698654025 0 0.28381075578783538 0.093681264594036015 0 0.26695703116305952 0.097958403150423784 0 0.265195774829106 0.093002294793098905 0 0.27157700823627351 0.09036173698654025 0 0.26695703116305952 0.097958403150423784 0 0.24939372836183171 0.1087620438097653 0 0.27319494225962099 0.1060350854435315 0 0.24939372836183171 0.1087620438097653 0 0.26695703116305952 0.097958403150423784 0 0.25823432913829802 0.095645390479587755 0 0.24939372836183171 0.1087620438097653 0 0.26890985490794828 0.1130101144092617 0 0.27319494225962099 0.1060350854435315 0 0.24939372836183171 0.1087620438097653 0 0.27319494225962099 0.1060350854435315 0 0.26695703116305952 0.097958403150423784 0 0.265195774829106 0.093002294793098905 0 0.26695703116305952 0.097958403150423784 0 0.25823432913829802 0.095645390479587755 0 0.24926499288034901 0.097833509686936646 0 0.24939372836183171 0.1087620438097653 0 0.25823432913829802 0.095645390479587755 0 0.26890985490794828 0.1130101144092617 0 0.25400895402806112 0.1323389642244874 0 0.26890985490794828 0.1130101144092617 0 0.25400895402806112 0.1323389642244874 0 0.27005798102194001 0.1293033112388014 0 0.24939372836183171 0.1087620438097653 0 0.26890985490794828 0.1130101144092617 0 0.25400895402806112 0.1323389642244874 0 0.25400895402806112 0.1323389642244874 0 0.27005798102194001 0.1293033112388014 0 0.27156433191762702 0.14494880293406501 0 0.27005798102194001 0.1293033112388014 0 0.27156433191762702 0.14494880293406501 0 0.28307874734312272 0.13292494342159519 0 0.28327968935687281 0.11971306175269709 0 0.27005798102194001 0.1293033112388014 0 0.28307874734312272 0.13292494342159519 0 0.27156433191762702 0.14494880293406501 0 0.27423965069504708 0.16505529212652001 0 0.29194891318346478 0.14532127270518949 0 0.27156433191762702 0.14494880293406501 0 0.25667385192160991 0.15836155308311589 0 0.27423965069504708 0.16505529212652001 0 0.25400895402806112 0.1323389642244874 0 0.27156433191762702 0.14494880293406501 0 0.25667385192160991 0.15836155308311589 0 0.24379503891784551 0.1673423148611064 0 0.25667385192160991 0.15836155308311589 0 0.25553948601019638 0.17617637788106749 0 0.25667385192160991 0.15836155308311589 0 0.25553948601019638 0.17617637788106749 0 0.27423965069504708 0.16505529212652001 0 0.25667385192160991 0.15836155308311589 0 0.27423965069504708 0.16505529212652001 0 0.25553948601019638 0.17617637788106749 0 0.25073204180229741 0.1932207952246269 0 0.26849415984797309 0.18862355723795579 0 0.25553948601019638 0.17617637788106749 0 0.27423965069504708 0.16505529212652001 0 0.26849415984797309 0.18862355723795579 0 0.27423965069504708 0.16505529212652001 0 0.28629353704617622 0.18159014938591159 0 0.26849415984797309 0.18862355723795579 0 0.27423965069504708 0.16505529212652001 0 0.29780010918749539 0.16542292272077219 0 0.29194891318346478 0.14532127270518949 0 0.27423965069504708 0.16505529212652001 0 0.28629353704617622 0.18159014938591159 0 0.29780010918749539 0.16542292272077219 0 0.28629353704617622 0.18159014938591159 0 0.30560100522750611 0.1835266259174563 0 0.29780010918749539 0.16542292272077219 0 0.30560100522750611 0.1835266259174563 0 0.29780010918749539 0.16542292272077219 0 0.32240759477972208 0.16415808238841301 0 0.29780010918749539 0.16542292272077219 0 0.31039152693249772 0.15148483015829051 0 0.32240759477972208 0.16415808238841301 0 0.31039152693249772 0.15148483015829051 0 0.29194891318346478 0.14532127270518949 0 0.3155185078757044 0.13187911926034171 0 0.29780010918749539 0.16542292272077219 0 0.31039152693249772 0.15148483015829051 0 0.29194891318346478 0.14532127270518949 0 0.29854282123570919 0.12533826847722301 0 0.29194891318346478 0.14532127270518949 0 0.3155185078757044 0.13187911926034171 0 0.29854282123570919 0.12533826847722301 0 0.28307874734312272 0.13292494342159519 0 0.29194891318346478 0.14532127270518949 0 0.28327968935687281 0.11971306175269709 0 0.29854282123570919 0.12533826847722301 0 0.28307874734312272 0.13292494342159519 0 0.27156433191762702 0.14494880293406501 0 0.28307874734312272 0.13292494342159519 0 0.29194891318346478 0.14532127270518949 0 0.27539260209704491 0.24725196399690119 0 0.2551812365708569 0.24163225650458531 0 0.27198782612307387 0.2222637129755429 0 0.27539260209704491 0.24725196399690119 0 0.27198782612307387 0.2222637129755429 0 0.2943431933599846 0.23553335959393021 0 0.27539260209704491 0.24725196399690119 0 0.2551812365708569 0.24163225650458531 0 0.26275653215810768 0.25354268714085088 0 0.27539260209704491 0.24725196399690119 0 0.2551812365708569 0.24163225650458531 0 0.24493592301361991 0.25343933973140892 0 0.26275653215810768 0.25354268714085088 0 0.2551812365708569 0.24163225650458531 0 0.24493592301361991 0.25343933973140892 0 0.2551812365708569 0.24163225650458531 0 0.2551812365708569 0.24163225650458531 0 0.27198782612307387 0.2222637129755429 0 0.24845356545818309 0.22428225389957809 0 0.2551812365708569 0.24163225650458531 0 0.27198782612307387 0.2222637129755429 0 0.27198782612307387 0.2222637129755429 0 0.26211716384822059 0.2068353260637647 0 0.28879441567529002 0.2028951694464996 0 0.27198782612307387 0.2222637129755429 0 0.28879441567529002 0.2028951694464996 0 0.24845356545818309 0.22428225389957809 0 0.27198782612307387 0.2222637129755429 0 0.26211716384822059 0.2068353260637647 0 0.24463737112728101 0.20835158098876269 0 0.24845356545818309 0.22428225389957809 0 0.26211716384822059 0.2068353260637647 0 0.24463737112728101 0.20835158098876269 0 0.26211716384822059 0.2068353260637647 0 0.25073204180229741 0.1932207952246269 0 0.26211716384822059 0.2068353260637647 0 0.25073204180229741 0.1932207952246269 0 0.26849415984797309 0.18862355723795579 0 0.28629353704617622 0.18159014938591159 0 0.26849415984797309 0.18862355723795579 0 0.28879441567529002 0.2028951694464996 0 0.26211716384822059 0.2068353260637647 0 0.26849415984797309 0.18862355723795579 0 0.28879441567529002 0.2028951694464996 0 0.28629353704617622 0.18159014938591159 0 0.30560100522750611 0.1835266259174563 0 0.28879441567529002 0.2028951694464996 0 0.30560100522750611 0.1835266259174563 0 0.28879441567529002 0.2028951694464996 0 0.30560100522750611 0.1835266259174563 0 0.28879441567529002 0.2028951694464996 0 0.31618030916054729 0.20509077126378891 0 0.2988615866539423 0.21774506825389209 0 0.31344539335631222 0.22985797326050289 0 0.31618030916054729 0.20509077126378891 0 0.28879441567529002 0.2028951694464996 0 0.2988615866539423 0.21774506825389209 0 0.31618030916054729 0.20509077126378891 0 0.27198782612307387 0.2222637129755429 0 0.28879441567529002 0.2028951694464996 0 0.2988615866539423 0.21774506825389209 0 0.27198782612307387 0.2222637129755429 0 0.2988615866539423 0.21774506825389209 0 0.2943431933599846 0.23553335959393021 0 0.2988615866539423 0.21774506825389209 0 0.2943431933599846 0.23553335959393021 0 0.31344539335631222 0.22985797326050289 0 0.29560396762323271 0.25287167148921758 0 0.30786146012633903 0.2448714126411389 0 0.2943431933599846 0.23553335959393021 0 0.30786146012633903 0.2448714126411389 0 0.2943431933599846 0.23553335959393021 0 0.31344539335631222 0.22985797326050289 0 0.29560396762323271 0.25287167148921758 0 0.27539260209704491 0.24725196399690119 0 0.2943431933599846 0.23553335959393021 0 0.33345774829485081 0.24085278261729259 0 0.34162736340117938 0.22586683940570609 0 0.35232496800996521 0.24300875367546779 0 0.33345774829485081 0.24085278261729259 0 0.32009941314274531 0.2476026798805098 0 0.31344539335631222 0.22985797326050289 0 0.33017493573658652 0.25868944264124721 0 0.33345774829485081 0.24085278261729259 0 0.32009941314274531 0.2476026798805098 0 0.30786146012633903 0.2448714126411389 0 0.32009941314274531 0.2476026798805098 0 0.31344539335631222 0.22985797326050289 0 0.32806561384138422 0.22131916323152159 0 0.31344539335631222 0.22985797326050289 0 0.31618030916054729 0.20509077126378891 0 0.33345774829485081 0.24085278261729259 0 0.32806561384138422 0.22131916323152159 0 0.31344539335631222 0.22985797326050289 0 0.32806561384138422 0.22131916323152159 0 0.34162736340117938 0.22586683940570609 0 0.33852374796240009 0.20993665795327729 0 0.33345774829485081 0.24085278261729259 0 0.32806561384138422 0.22131916323152159 0 0.34162736340117938 0.22586683940570609 0 0.33852374796240009 0.20993665795327729 0 0.33661299745696133 0.19363632791802479 0 0.35568661347106312 0.2073287946650664 0 0.32806561384138422 0.22131916323152159 0 0.33852374796240009 0.20993665795327729 0 0.31618030916054729 0.20509077126378891 0 0.30560100522750611 0.1835266259174563 0 0.31618030916054729 0.20509077126378891 0 0.32328624594611632 0.18189654033722721 0 0.31618030916054729 0.20509077126378891 0 0.33661299745696133 0.19363632791802479 0 0.32328624594611632 0.18189654033722721 0 0.33852374796240009 0.20993665795327729 0 0.31618030916054729 0.20509077126378891 0 0.33661299745696133 0.19363632791802479 0 0.33661299745696133 0.19363632791802479 0 0.35372874071223948 0.18971161788961199 0 0.35568661347106312 0.2073287946650664 0 0.35372874071223948 0.18971161788961199 0 0.37316428195117918 0.19349473031227701 0 0.35568661347106312 0.2073287946650664 0 0.35568661347106312 0.2073287946650664 0 0.36025589981991452 0.2261504289438635 0 0.37761009817176372 0.21632170545643509 0 0.37316428195117918 0.19349473031227701 0 0.35568661347106312 0.2073287946650664 0 0.37761009817176372 0.21632170545643509 0 0.34162736340117938 0.22586683940570609 0 0.33852374796240009 0.20993665795327729 0 0.35568661347106312 0.2073287946650664 0 0.34162736340117938 0.22586683940570609 0 0.36025589981991452 0.2261504289438635 0 0.35232496800996521 0.24300875367546779 0 0.34162736340117938 0.22586683940570609 0 0.35568661347106312 0.2073287946650664 0 0.36025589981991452 0.2261504289438635 0 0.36025589981991452 0.2261504289438635 0 0.37204248311044841 0.23962343259801219 0 0.37761009817176372 0.21632170545643509 0 0.36025589981991452 0.2261504289438635 0 0.37204248311044841 0.23962343259801219 0 0.35232496800996521 0.24300875367546779 0 0.36302257261875098 0.26015066794522951 0 0.37204248311044841 0.23962343259801219 0 0.35232496800996521 0.24300875367546779 0 0.34628939972714812 0.25665104649035853 0 0.33345774829485081 0.24085278261729259 0 0.35232496800996521 0.24300875367546779 0 0.34162736340117938 0.22586683940570609 0 0.35232496800996521 0.24300875367546779 0 0.33556608581958708 0.14974182298389679 0 0.34161415058551109 0.126895785661058 0 0.3155185078757044 0.13187911926034171 0 0.31039152693249772 0.15148483015829051 0 0.33556608581958708 0.14974182298389679 0 0.3155185078757044 0.13187911926034171 0 0.31039152693249772 0.15148483015829051 0 0.33556608581958708 0.14974182298389679 0 0.32240759477972208 0.16415808238841301 0 0.30560100522750611 0.1835266259174563 0 0.32240759477972208 0.16415808238841301 0 0.30560100522750611 0.1835266259174563 0 0.32240759477972208 0.16415808238841301 0 0.32328624594611632 0.18189654033722721 0 0.33661299745696133 0.19363632791802479 0 0.32328624594611632 0.18189654033722721 0 0.34206403602936147 0.1728476276652294 0 0.32240759477972208 0.16415808238841301 0 0.32328624594611632 0.18189654033722721 0 0.34206403602936147 0.1728476276652294 0 0.33556608581958708 0.14974182298389679 0 0.32240759477972208 0.16415808238841301 0 0.34206403602936147 0.1728476276652294 0 0.34206403602936147 0.1728476276652294 0 0.35541702560656829 0.16044147115909779 0 0.36145180762998458 0.17637749441918199 0 0.33556608581958708 0.14974182298389679 0 0.34206403602936147 0.1728476276652294 0 0.35541702560656829 0.16044147115909779 0 0.35372874071223948 0.18971161788961199 0 0.34206403602936147 0.1728476276652294 0 0.36145180762998458 0.17637749441918199 0 0.33661299745696133 0.19363632791802479 0 0.35372874071223948 0.18971161788961199 0 0.34206403602936147 0.1728476276652294 0 0.37316428195117918 0.19349473031227701 0 0.36145180762998458 0.17637749441918199 0 0.37846056411425322 0.1667899377804449 0 0.35372874071223948 0.18971161788961199 0 0.37316428195117918 0.19349473031227701 0 0.36145180762998458 0.17637749441918199 0 0.35541702560656829 0.16044147115909779 0 0.36145180762998458 0.17637749441918199 0 0.37846056411425322 0.1667899377804449 0 0.35541702560656829 0.16044147115909779 0 0.36504731173605431 0.14131069746728761 0 0.37846056411425322 0.1667899377804449 0 0.33556608581958708 0.14974182298389679 0 0.35541702560656829 0.16044147115909779 0 0.36504731173605431 0.14131069746728761 0 0.33556608581958708 0.14974182298389679 0 0.34161415058551109 0.126895785661058 0 0.36504731173605431 0.14131069746728761 0 0.36272675030584972 0.11985169223031029 0 0.34161415058551109 0.126895785661058 0 0.36504731173605431 0.14131069746728761 0 0.36272675030584972 0.11985169223031029 0 0.36504731173605431 0.14131069746728761 0 0.3826807987389681 0.1245865465039131 0 0.36504731173605431 0.14131069746728761 0 0.39333467961607338 0.14492862778787571 0 0.3826807987389681 0.1245865465039131 0 0.39333467961607338 0.14492862778787571 0 0.3826807987389681 0.1245865465039131 0 0.40564094317357041 0.124956973621035 0 0.39333467961607338 0.14492862778787571 0 0.4131627349476697 0.1461492486520117 0 0.40564094317357041 0.124956973621035 0 0.39333467961607338 0.14492862778787571 0 0.40843208916892071 0.16804030341117429 0 0.4131627349476697 0.1461492486520117 0 0.36504731173605431 0.14131069746728761 0 0.39333467961607338 0.14492862778787571 0 0.37846056411425322 0.1667899377804449 0 0.37316428195117918 0.19349473031227701 0 0.37846056411425322 0.1667899377804449 0 0.39352356086107448 0.18394878668133491 0 0.37846056411425322 0.1667899377804449 0 0.39352356086107448 0.18394878668133491 0 0.40843208916892071 0.16804030341117429 0 0.39352356086107448 0.18394878668133491 0 0.40843208916892071 0.16804030341117429 0 0.40864288476000149 0.18965912335618679 0 0.39333467961607338 0.14492862778787571 0 0.37846056411425322 0.1667899377804449 0 0.40843208916892071 0.16804030341117429 0 0.40843208916892071 0.16804030341117429 0 0.42163138360829833 0.16010638497740851 0 0.4131627349476697 0.1461492486520117 0 0.40843208916892071 0.16804030341117429 0 0.42163138360829833 0.16010638497740851 0 0.42858253299878057 0.17930160931766881 0 0.40843208916892071 0.16804030341117429 0 0.42858253299878057 0.17930160931766881 0 0.40864288476000149 0.18965912335618679 0 0.42858253299878057 0.17930160931766881 0 0.43587648488145653 0.1542544173486099 0 0.44512115155545751 0.16597497232969249 0 0.42163138360829833 0.16010638497740851 0 0.42858253299878057 0.17930160931766881 0 0.43587648488145653 0.1542544173486099 0 0.42858253299878057 0.17930160931766881 0 0.43587648488145653 0.1542544173486099 0 0.42163138360829833 0.16010638497740851 0 0.43587648488145653 0.1542544173486099 0 0.4259034760859236 0.14691834676835669 0 0.43587648488145653 0.1542544173486099 0 0.4259034760859236 0.14691834676835669 0 0.43659359073534498 0.13988460608452941 0 0.43659359073534498 0.13988460608452941 0 0.44780696195848368 0.1222848664328112 0 0.42754923145002732 0.1172733911367581 0 0.43659359073534498 0.13988460608452941 0 0.42225318625684832 0.13419707677922429 0 0.42754923145002732 0.1172733911367581 0 0.43659359073534498 0.13988460608452941 0 0.42754923145002732 0.1172733911367581 0 0.4259034760859236 0.14691834676835669 0 0.43659359073534498 0.13988460608452941 0 0.42225318625684832 0.13419707677922429 0 0.42225318625684832 0.13419707677922429 0 0.42754923145002732 0.1172733911367581 0 0.40564094317357041 0.124956973621035 0 0.42225318625684832 0.13419707677922429 0 0.4131627349476697 0.1461492486520117 0 0.40564094317357041 0.124956973621035 0 0.42163138360829833 0.16010638497740851 0 0.4259034760859236 0.14691834676835669 0 0.4131627349476697 0.1461492486520117 0 0.4259034760859236 0.14691834676835669 0 0.42225318625684832 0.13419707677922429 0 0.4131627349476697 0.1461492486520117 0 0.38660890851302299 0.25208891512075571 0 0.40670067735075283 0.25444318522484582 0 0.39990927885880112 0.2393678512070789 0 0.38660890851302299 0.25208891512075571 0 0.39990927885880112 0.2393678512070789 0 0.3901452825170118 0.23192030798283081 0 0.38660890851302299 0.25208891512075571 0 0.37204248311044841 0.23962343259801219 0 0.3901452825170118 0.23192030798283081 0 0.37204248311044841 0.23962343259801219 0 0.3901452825170118 0.23192030798283081 0 0.37761009817176372 0.21632170545643509 0 0.3901452825170118 0.23192030798283081 0 0.40078290281169759 0.21376821020575221 0 0.37761009817176372 0.21632170545643509 0 0.40209689667978898 0.22899085445117559 0 0.40078290281169759 0.21376821020575221 0 0.41399462923342878 0.2293959932557868 0 0.3901452825170118 0.23192030798283081 0 0.40209689667978898 0.22899085445117559 0 0.40078290281169759 0.21376821020575221 0 0.39990927885880112 0.2393678512070789 0 0.3901452825170118 0.23192030798283081 0 0.40209689667978898 0.22899085445117559 0 0.39990927885880112 0.2393678512070789 0 0.40209689667978898 0.22899085445117559 0 0.41399462923342878 0.2293959932557868 0 0.40078290281169759 0.21376821020575221 0 0.37761009817176372 0.21632170545643509 0 0.39139881462593468 0.19860070489717149 0 0.37316428195117918 0.19349473031227701 0 0.37761009817176372 0.21632170545643509 0 0.39139881462593468 0.19860070489717149 0 0.37316428195117918 0.19349473031227701 0 0.39352356086107448 0.18394878668133491 0 0.39139881462593468 0.19860070489717149 0 0.39352356086107448 0.18394878668133491 0 0.39139881462593468 0.19860070489717149 0 0.40864288476000149 0.18965912335618679 0 0.40078290281169759 0.21376821020575221 0 0.39139881462593468 0.19860070489717149 0 0.40864288476000149 0.18965912335618679 0 0.40078290281169759 0.21376821020575221 0 0.40864288476000149 0.18965912335618679 0 0.42128858111610468 0.2043488012867278 0 0.42858253299878057 0.17930160931766881 0 0.40864288476000149 0.18965912335618679 0 0.42128858111610468 0.2043488012867278 0 0.42128858111610468 0.2043488012867278 0 0.44135379115893009 0.2132531516276833 0 0.44374979220474747 0.19176887977067791 0 0.42858253299878057 0.17930160931766881 0 0.42128858111610468 0.2043488012867278 0 0.42858253299878057 0.17930160931766881 0 0.42128858111610468 0.2043488012867278 0 0.44374979220474747 0.19176887977067791 0 0.42128858111610468 0.2043488012867278 0 0.42714697647242811 0.22327625954823879 0 0.44135379115893009 0.2132531516276833 0 0.42128858111610468 0.2043488012867278 0 0.41399462923342878 0.2293959932557868 0 0.40078290281169759 0.21376821020575221 0 0.42128858111610468 0.2043488012867278 0 0.41399462923342878 0.2293959932557868 0 0.42128858111610468 0.2043488012867278 0 0.41399462923342878 0.2293959932557868 0 0.42714697647242811 0.22327625954823879 0 0.41399462923342878 0.2293959932557868 0 0.42714697647242811 0.22327625954823879 0 0.41981602115853628 0.23888238708617429 0 0.42714697647242811 0.22327625954823879 0 0.43928185969514072 0.2305009644848218 0 0.44135379115893009 0.2132531516276833 0 0.42714697647242811 0.22327625954823879 0 0.41981602115853628 0.23888238708617429 0 0.43928185969514072 0.2305009644848218 0 0.4261274034173213 0.25827838228123018 0 0.43523967917443951 0.24590673691979581 0 0.41981602115853628 0.23888238708617429 0 0.41981602115853628 0.23888238708617429 0 0.43928185969514072 0.2305009644848218 0 0.43523967917443951 0.24590673691979581 0 0.41981602115853628 0.23888238708617429 0 0.43928185969514072 0.2305009644848218 0 0.40670067735075283 0.25444318522484582 0 0.39990927885880112 0.2393678512070789 0 0.41399462923342878 0.2293959932557868 0 0.40670067735075283 0.25444318522484582 0 0.41399462923342878 0.2293959932557868 0 0.41981602115853628 0.23888238708617429 0 0.40670067735075283 0.25444318522484582 0 0.41399462923342878 0.2293959932557868 0 0.45409459804743968 0.2454788577419966 0 0.45874769823174522 0.2221195418834693 0 0.47500612140401433 0.24293667465960539 0 0.43523967917443951 0.24590673691979581 0 0.45409459804743968 0.2454788577419966 0 0.43928185969514072 0.2305009644848218 0 0.45409459804743968 0.2454788577419966 0 0.43928185969514072 0.2305009644848218 0 0.45874769823174522 0.2221195418834693 0 0.43928185969514072 0.2305009644848218 0 0.45874769823174522 0.2221195418834693 0 0.44135379115893009 0.2132531516276833 0 0.43928185969514072 0.2305009644848218 0 0.45874769823174522 0.2221195418834693 0 0.45874769823174522 0.2221195418834693 0 0.47821353676834782 0.2137381192821127 0 0.45874769823174522 0.2221195418834693 0 0.46755721503756731 0.20839871541364671 0 0.47821353676834782 0.2137381192821127 0 0.45874769823174522 0.2221195418834693 0 0.46755721503756731 0.20839871541364671 0 0.45833655966352588 0.20266330581827641 0 0.45874769823174522 0.2221195418834693 0 0.44135379115893009 0.2132531516276833 0 0.45833655966352588 0.20266330581827641 0 0.44135379115893009 0.2132531516276833 0 0.44374979220474747 0.19176887977067791 0 0.45833655966352588 0.20266330581827641 0 0.44374979220474747 0.19176887977067791 0 0.45833655966352588 0.20266330581827641 0 0.46363626392476531 0.18817566541614841 0 0.46755721503756731 0.20839871541364671 0 0.45833655966352588 0.20266330581827641 0 0.47057459118304379 0.19798012061262871 0 0.45833655966352588 0.20266330581827641 0 0.46363626392476531 0.18817566541614841 0 0.47057459118304379 0.19798012061262871 0 0.46363626392476531 0.18817566541614841 0 0.47155154753063722 0.188737064463224 0 0.47057459118304379 0.19798012061262871 0 0.47057459118304379 0.19798012061262871 0 0.47821353676834782 0.2137381192821127 0 0.47909327371692179 0.1870281833861254 0 0.47821353676834782 0.2137381192821127 0 0.48132588865858211 0.18540496978363399 0 0.47909327371692179 0.1870281833861254 0 0.47821353676834782 0.2137381192821127 0 0.48132588865858211 0.18540496978363399 0 0.47155154753063722 0.188737064463224 0 0.47057459118304379 0.19798012061262871 0 0.47909327371692179 0.1870281833861254 0 0.5 0.20493582360739809 0 0.47821353676834782 0.2137381192821127 0 0.48132588865858211 0.18540496978363399 0 0.5 0.20493582360739809 0 0.47821353676834782 0.2137381192821127 0 0.46755721503756731 0.20839871541364671 0 0.47057459118304379 0.19798012061262871 0 0.47821353676834782 0.2137381192821127 0 0.5 0.25885027281123069 0 0.5 0.20493582360739809 0 0.47500612140401433 0.24293667465960539 0 0.5 0.20493582360739809 0 0.47821353676834782 0.2137381192821127 0 0.47500612140401433 0.24293667465960539 0 0.47821353676834782 0.2137381192821127 0 0.47500612140401433 0.24293667465960539 0 0.45874769823174522 0.2221195418834693 0 0.47821353676834782 0.2137381192821127 0 0.47500612140401433 0.24293667465960539 0 0.5 0.16528424080106591 0 0.48755059243905502 0.1287386707866772 0 0.5 0.098145510685203163 0 0.45527452933115242 0.14517828205705349 0 0.46237795928846381 0.15395880857841371 0 0.46704338468832429 0.1303750191232769 0 0.46237795928846381 0.15395880857841371 0 0.46704338468832429 0.1303750191232769 0 0.47306832920262309 0.15870160125470109 0 0.45527452933115242 0.14517828205705349 0 0.46237795928846381 0.15395880857841371 0 0.45079561333255502 0.1560692831655674 0 0.46704338468832429 0.1303750191232769 0 0.44956549493347819 0.1357773585238326 0 0.44780696195848368 0.1222848664328112 0 0.45527452933115242 0.14517828205705349 0 0.46704338468832429 0.1303750191232769 0 0.44956549493347819 0.1357773585238326 0 0.43659359073534498 0.13988460608452941 0 0.44956549493347819 0.1357773585238326 0 0.44780696195848368 0.1222848664328112 0 0.43659359073534498 0.13988460608452941 0 0.44956549493347819 0.1357773585238326 0 0.44516743119320312 0.14701944998339619 0 0.43587648488145653 0.1542544173486099 0 0.43659359073534498 0.13988460608452941 0 0.44516743119320312 0.14701944998339619 0 0.45527452933115242 0.14517828205705349 0 0.44956549493347819 0.1357773585238326 0 0.44516743119320312 0.14701944998339619 0 0.45527452933115242 0.14517828205705349 0 0.44516743119320312 0.14701944998339619 0 0.45079561333255502 0.1560692831655674 0 0.43587648488145653 0.1542544173486099 0 0.44516743119320312 0.14701944998339619 0 0.45079561333255502 0.1560692831655674 0 0.43587648488145653 0.1542544173486099 0 0.45079561333255502 0.1560692831655674 0 0.44512115155545751 0.16597497232969249 0 0.44512115155545751 0.16597497232969249 0 0.45471844151097729 0.1774085761573414 0 0.45891663785072789 0.16592821609360561 0 0.45079561333255502 0.1560692831655674 0 0.44512115155545751 0.16597497232969249 0 0.45891663785072789 0.16592821609360561 0 0.42858253299878057 0.17930160931766881 0 0.44512115155545751 0.16597497232969249 0 0.45471844151097729 0.1774085761573414 0 0.42858253299878057 0.17930160931766881 0 0.44374979220474747 0.19176887977067791 0 0.45471844151097729 0.1774085761573414 0 0.44374979220474747 0.19176887977067791 0 0.46363626392476531 0.18817566541614841 0 0.45471844151097729 0.1774085761573414 0 0.45471844151097729 0.1774085761573414 0 0.45891663785072789 0.16592821609360561 0 0.47009476786182619 0.17413809641263411 0 0.45471844151097729 0.1774085761573414 0 0.46463635274948578 0.18083138508954419 0 0.47009476786182619 0.17413809641263411 0 0.46463635274948578 0.18083138508954419 0 0.4700959377003745 0.18360320237205269 0 0.47009476786182619 0.17413809641263411 0 0.46363626392476531 0.18817566541614841 0 0.45471844151097729 0.1774085761573414 0 0.46463635274948578 0.18083138508954419 0 0.46363626392476531 0.18817566541614841 0 0.47155154753063722 0.188737064463224 0 0.4700959377003745 0.18360320237205269 0 0.46363626392476531 0.18817566541614841 0 0.46463635274948578 0.18083138508954419 0 0.4700959377003745 0.18360320237205269 0 0.46237795928846381 0.15395880857841371 0 0.45079561333255502 0.1560692831655674 0 0.45891663785072789 0.16592821609360561 0 0.45891663785072789 0.16592821609360561 0 0.46611442355091032 0.16318168058483859 0 0.47009476786182619 0.17413809641263411 0 0.46237795928846381 0.15395880857841371 0 0.46611442355091032 0.16318168058483859 0 0.47306832920262309 0.15870160125470109 0 0.46237795928846381 0.15395880857841371 0 0.45891663785072789 0.16592821609360561 0 0.46611442355091032 0.16318168058483859 0 0.5 0.20493582360739809 0 0.48132588865858211 0.18540496978363399 0 0.5 0.16528424080106591 0 0.48132588865858211 0.18540496978363399 0 0.48443824054881862 0.15707182028515559 0 0.47306832920262309 0.15870160125470109 0 0.48132588865858211 0.18540496978363399 0 0.48443824054881862 0.15707182028515559 0 0.46611442355091032 0.16318168058483859 0 0.47306832920262309 0.15870160125470109 0 0.47009476786182619 0.17413809641263411 0 0.47306832920262309 0.15870160125470109 0 0.47909327371692179 0.1870281833861254 0 0.47306832920262309 0.15870160125470109 0 0.47009476786182619 0.17413809641263411 0 0.47909327371692179 0.1870281833861254 0 0.47306832920262309 0.15870160125470109 0 0.48132588865858211 0.18540496978363399 0 0.47909327371692179 0.1870281833861254 0 0.47155154753063722 0.188737064463224 0 0.4700959377003745 0.18360320237205269 0 0.47909327371692179 0.1870281833861254 0 0.4700959377003745 0.18360320237205269 0 0.47009476786182619 0.17413809641263411 0 0.47909327371692179 0.1870281833861254 0 0.48132588865858211 0.18540496978363399 0 0.5 0.16528424080106591 0 0.48443824054881862 0.15707182028515559 0 0.5 0.16528424080106591 0 0.48443824054881862 0.15707182028515559 0 0.48755059243905502 0.1287386707866772 0 0.48443824054881862 0.15707182028515559 0 0.48755059243905502 0.1287386707866772 0 0.48443824054881862 0.15707182028515559 0 0.4776291520862459 0.1435550021632829 0 0.48755059243905502 0.1287386707866772 0 0.46704338468832429 0.1303750191232769 0 0.47306832920262309 0.15870160125470109 0 0.4776291520862459 0.1435550021632829 0 0.46704338468832429 0.1303750191232769 0 0.47306832920262309 0.15870160125470109 0 0.47306832920262309 0.15870160125470109 0 0.48443824054881862 0.15707182028515559 0 0.4776291520862459 0.1435550021632829 0 0.46704338468832429 0.1303750191232769 0 0.4776291520862459 0.1435550021632829 0 0.48755059243905502 0.1287386707866772 0 0.48755059243905502 0.1287386707866772 0 0.49066294432929147 0.100405521288199 0 0.48755059243905502 0.1287386707866772 0 0.49066294432929147 0.100405521288199 0 0.47602850986076373 0.1136598897001241 0 0.48755059243905502 0.1287386707866772 0 0.49066294432929147 0.100405521288199 0 0.5 0.098145510685203163 0 0.47602850986076373 0.1136598897001241 0 0.47520787350067639 0.088506255131323042 0 0.4610184401740256 0.10204843699185261 0 0.49066294432929147 0.100405521288199 0 0.47602850986076373 0.1136598897001241 0 0.47520787350067639 0.088506255131323042 0 0.46704338468832429 0.1303750191232769 0 0.48755059243905502 0.1287386707866772 0 0.47602850986076373 0.1136598897001241 0 0.5 0.098145510685203163 0 0.49377529621952793 0.072072371789720896 0 0.49688764810976438 0.043739222291242552 0 0.49066294432929147 0.100405521288199 0 0.49377529621952793 0.072072371789720896 0 0.47520787350067639 0.088506255131323042 0 0.49066294432929147 0.100405521288199 0 0.49377529621952793 0.072072371789720896 0 0.49066294432929147 0.100405521288199 0 0.5 0.098145510685203163 0 0.49377529621952793 0.072072371789720896 0 0.49377529621952793 0.072072371789720896 0 0.47520787350067639 0.088506255131323042 0 0.47181581201781092 0.060431482141388111 0 0.45794623840263909 0.082419828876653584 0 0.44995215459176019 0.062642261371637351 0 0.47181581201781092 0.060431482141388111 0 0.47520787350067639 0.088506255131323042 0 0.45794623840263909 0.082419828876653584 0 0.47181581201781092 0.060431482141388111 0 0.47520787350067639 0.088506255131323042 0 0.45794623840263909 0.082419828876653584 0 0.4610184401740256 0.10204843699185261 0 0.45794623840263909 0.082419828876653584 0 0.44016224099705409 0.098288434399746494 0 0.43370337564101641 0.077235395058933634 0 0.45794623840263909 0.082419828876653584 0 0.43370337564101641 0.077235395058933634 0 0.45794623840263909 0.082419828876653584 0 0.44995215459176019 0.062642261371637351 0 0.43370337564101641 0.077235395058933634 0 0.44995215459176019 0.062642261371637351 0 0.43370337564101641 0.077235395058933634 0 0.43359138310331502 0.050880385053809797 0 0.46704338468832429 0.1303750191232769 0 0.4610184401740256 0.10204843699185261 0 0.46704338468832429 0.1303750191232769 0 0.47602850986076373 0.1136598897001241 0 0.4610184401740256 0.10204843699185261 0 0.46704338468832429 0.1303750191232769 0 0.4610184401740256 0.10204843699185261 0 0.44780696195848368 0.1222848664328112 0 0.4610184401740256 0.10204843699185261 0 0.44016224099705409 0.098288434399746494 0 0.44780696195848368 0.1222848664328112 0 0.45794623840263909 0.082419828876653584 0 0.4610184401740256 0.10204843699185261 0 0.44016224099705409 0.098288434399746494 0 0.44016224099705409 0.098288434399746494 0 0.44780696195848368 0.1222848664328112 0 0.42754923145002732 0.1172733911367581 0 0.41397882427465621 0.1095293660855083 0 0.40564094317357041 0.124956973621035 0 0.40140279300771031 0.10213048422453221 0 0.42754923145002732 0.1172733911367581 0 0.41397882427465621 0.1095293660855083 0 0.40564094317357041 0.124956973621035 0 0.41397882427465621 0.1095293660855083 0 0.41850487216470961 0.094662176188986702 0 0.40140279300771031 0.10213048422453221 0 0.42754923145002732 0.1172733911367581 0 0.41397882427465621 0.1095293660855083 0 0.41850487216470961 0.094662176188986702 0 0.42754923145002732 0.1172733911367581 0 0.41850487216470961 0.094662176188986702 0 0.44016224099705409 0.098288434399746494 0 0.42754923145002732 0.1172733911367581 0 0.41850487216470961 0.094662176188986702 0 0.44016224099705409 0.098288434399746494 0 0.41850487216470961 0.094662176188986702 0 0.43370337564101641 0.077235395058933634 0 0.43370337564101641 0.077235395058933634 0 0.40946051287939361 0.072050961241214684 0 0.41870941372441378 0.058392474193348622 0 0.43370337564101641 0.077235395058933634 0 0.40946051287939361 0.072050961241214684 0 0.41850487216470961 0.094662176188986702 0 0.40946051287939361 0.072050961241214684 0 0.3991604850033097 0.083975706515184725 0 0.41850487216470961 0.094662176188986702 0 0.43370337564101641 0.077235395058933634 0 0.40946051287939361 0.072050961241214684 0 0.41850487216470961 0.094662176188986702 0 0.3991604850033097 0.083975706515184725 0 0.40140279300771031 0.10213048422453221 0 0.41850487216470961 0.094662176188986702 0 0.40946051287939361 0.072050961241214684 0 0.3991604850033097 0.083975706515184725 0 0.39463862422047619 0.068881240669787749 0 0.38343778706175458 0.085018248378039674 0 0.3991604850033097 0.083975706515184725 0 0.38343778706175458 0.085018248378039674 0 0.40140279300771031 0.10213048422453221 0 0.40946051287939361 0.072050961241214684 0 0.39463862422047619 0.068881240669787749 0 0.40124123970137648 0.051502490456307927 0 0.40946051287939361 0.072050961241214684 0 0.39463862422047619 0.068881240669787749 0 0.40946051287939361 0.072050961241214684 0 0.3991604850033097 0.083975706515184725 0 0.39463862422047619 0.068881240669787749 0 0.3707086256962604 0.074242818797507826 0 0.37981673556155848 0.065711520098361759 0 0.38343778706175458 0.085018248378039674 0 0.39463862422047619 0.068881240669787749 0 0.37981673556155848 0.065711520098361759 0 0.38343778706175458 0.085018248378039674 0 0.39463862422047619 0.068881240669787749 0 0.37981673556155848 0.065711520098361759 0 0.39463862422047619 0.068881240669787749 0 0.37981673556155848 0.065711520098361759 0 0.38942735028784459 0.0570105305833086 0 0.37523142782547508 0.1028653052479418 0 0.40140279300771031 0.10213048422453221 0 0.38343778706175458 0.085018248378039674 0 0.37523142782547508 0.1028653052479418 0 0.40140279300771031 0.10213048422453221 0 0.37523142782547508 0.1028653052479418 0 0.3826807987389681 0.1245865465039131 0 0.40140279300771031 0.10213048422453221 0 0.3826807987389681 0.1245865465039131 0 0.40564094317357041 0.124956973621035 0 0.40140279300771031 0.10213048422453221 0 0.39503964799333813 0.01822889138757099 0 0.39302196652336119 0.03095401967140048 0 0.41607997959029769 0.020946498905546229 0 0.39503964799333813 0.01822889138757099 0 0.39302196652336119 0.03095401967140048 0 0.38480269334534828 0.01040554888649208 0 0.39503964799333813 0.01822889138757099 0 0.40168829805231138 0.0078172793661316683 0 0.41607997959029769 0.020946498905546229 0 0.40168829805231138 0.0078172793661316683 0 0.39402013412665482 0.0070887935818948226 0 0.39454989711562138 -0.0080965453126154406 0 0.39402013412665482 0.0070887935818948226 0 0.38480269334534828 0.01040554888649208 0 0.39454989711562138 -0.0080965453126154406 0 0.39503964799333813 0.01822889138757099 0 0.40168829805231138 0.0078172793661316683 0 0.39402013412665482 0.0070887935818948226 0 0.39503964799333813 0.01822889138757099 0 0.39402013412665482 0.0070887935818948226 0 0.38480269334534828 0.01040554888649208 0 0.38480269334534828 0.01040554888649208 0 0.39454989711562138 -0.0080965453126154406 0 0.38480269334534828 0.01040554888649208 0 0.38099294405698142 0.00088104224773434547 0 0.39454989711562138 -0.0080965453126154406 0 0.38480269334534828 0.01040554888649208 0 0.3835881591769229 0.01271097166433671 0 0.38021673658478378 0.0096991829587524218 0 0.38480269334534828 0.01040554888649208 0 0.3835881591769229 0.01271097166433671 0 0.38480269334534828 0.01040554888649208 0 0.38099294405698142 0.00088104224773434547 0 0.37210468571126148 0.0032659412068709909 0 0.38099294405698142 0.00088104224773434547 0 0.37600393760738487 0.0081912775376210868 0 0.38099294405698142 0.00088104224773434547 0 0.38021673658478378 0.0096991829587524218 0 0.37600393760738487 0.0081912775376210868 0 0.38480269334534828 0.01040554888649208 0 0.38099294405698142 0.00088104224773434547 0 0.38021673658478378 0.0096991829587524218 0 0.38021673658478378 0.0096991829587524218 0 0.37600393760738487 0.0081912775376210868 0 0.37569594873728113 0.01630707445757788 0 0.3835881591769229 0.01271097166433671 0 0.38021673658478378 0.0096991829587524218 0 0.37569594873728113 0.01630707445757788 0 0.39302196652336119 0.03095401967140048 0 0.38480269334534828 0.01040554888649208 0 0.38437170489697009 0.023866505617326349 0 0.3835881591769229 0.01271097166433671 0 0.37569594873728113 0.01630707445757788 0 0.38437170489697009 0.023866505617326349 0 0.39302196652336119 0.03095401967140048 0 0.38480269334534828 0.01040554888649208 0 0.38480269334534828 0.01040554888649208 0 0.3835881591769229 0.01271097166433671 0 0.38437170489697009 0.023866505617326349 0 0.39302196652336119 0.03095401967140048 0 0.38437170489697009 0.023866505617326349 0 0.38151551500107372 0.03431841896734493 0 0.37007773532495081 0.031258173671155277 0 0.37569594873728113 0.01630707445757788 0 0.38437170489697009 0.023866505617326349 0 0.37007773532495081 0.031258173671155277 0 0.38437170489697009 0.023866505617326349 0 0.38151551500107372 0.03431841896734493 0 0.37007773532495081 0.031258173671155277 0 0.38151551500107372 0.03431841896734493 0 0.3817547188558314 0.046560561163896431 0 0.39302196652336119 0.03095401967140048 0 0.38151551500107372 0.03431841896734493 0 0.3817547188558314 0.046560561163896431 0 0.37237999767587798 0.055285421951065977 0 0.3817547188558314 0.046560561163896431 0 0.38942735028784459 0.0570105305833086 0 0.37237999767587798 0.055285421951065977 0 0.37981673556155848 0.065711520098361759 0 0.38942735028784459 0.0570105305833086 0 0.40946051287939361 0.072050961241214684 0 0.40124123970137648 0.051502490456307927 0 0.3817547188558314 0.046560561163896431 0 0.38942735028784459 0.0570105305833086 0 0.40124123970137648 0.051502490456307927 0 0.39463862422047619 0.068881240669787749 0 0.38942735028784459 0.0570105305833086 0 0.40124123970137648 0.051502490456307927 0 0.39302196652336119 0.03095401967140048 0 0.40124123970137648 0.051502490456307927 0 0.41555055729696772 0.040293139156477017 0 0.39302196652336119 0.03095401967140048 0 0.40124123970137648 0.051502490456307927 0 0.39302196652336119 0.03095401967140048 0 0.3817547188558314 0.046560561163896431 0 0.40124123970137648 0.051502490456307927 0 0.40946051287939361 0.072050961241214684 0 0.40124123970137648 0.051502490456307927 0 0.41870941372441378 0.058392474193348622 0 0.40124123970137648 0.051502490456307927 0 0.41555055729696772 0.040293139156477017 0 0.41870941372441378 0.058392474193348622 0 0.43370337564101641 0.077235395058933634 0 0.41870941372441378 0.058392474193348622 0 0.43359138310331502 0.050880385053809797 0 0.41555055729696772 0.040293139156477017 0 0.41870941372441378 0.058392474193348622 0 0.43359138310331502 0.050880385053809797 0 0.41555055729696772 0.040293139156477017 0 0.43359138310331502 0.050880385053809797 0 0.43618135468682939 0.0288332886482849 0 0.43618135468682939 0.0288332886482849 0 0.41607997959029769 0.020946498905546229 0 0.44094277511034768 0.0061362821161396949 0 0.41555055729696772 0.040293139156477017 0 0.43618135468682939 0.0288332886482849 0 0.41607997959029769 0.020946498905546229 0 0.39302196652336119 0.03095401967140048 0 0.41555055729696772 0.040293139156477017 0 0.41607997959029769 0.020946498905546229 0 0.40168829805231138 0.0078172793661316683 0 0.41607997959029769 0.020946498905546229 0 0.41018854023809481 -0.0028260703030887901 0 0.41607997959029769 0.020946498905546229 0 0.41018854023809481 -0.0028260703030887901 0 0.42526013446378919 -0.00092103479540981206 0 0.41607997959029769 0.020946498905546229 0 0.41018854023809481 -0.0028260703030887901 0 0.41607997959029769 0.020946498905546229 0 0.44094277511034768 0.0061362821161396949 0 0.42526013446378919 -0.00092103479540981206 0 0.5 0.098145510685203163 0 0.49688764810976438 0.043739222291242552 0 0.50000000000000044 0.015406072792764189 0 0.43618135468682939 0.0288332886482849 0 0.44094277511034768 0.0061362821161396949 0 0.4548360539383966 0.022745928653355629 0 0.4548360539383966 0.022745928653355629 0 0.46663767238538711 0.0079734943451115724 0 0.47668749070293093 0.030148840656404191 0 0.44094277511034768 0.0061362821161396949 0 0.4548360539383966 0.022745928653355629 0 0.46663767238538711 0.0079734943451115724 0 0.44094277511034768 0.0061362821161396949 0 0.46663767238538711 0.0079734943451115724 0 0.46086009997036359 -0.0086032479557195136 0 0.44995215459176019 0.062642261371637351 0 0.43359138310331502 0.050880385053809797 0 0.45270396379401912 0.042244215727401613 0 0.43359138310331502 0.050880385053809797 0 0.43618135468682939 0.0288332886482849 0 0.45270396379401912 0.042244215727401613 0 0.43618135468682939 0.0288332886482849 0 0.4548360539383966 0.022745928653355629 0 0.45270396379401912 0.042244215727401613 0 0.4548360539383966 0.022745928653355629 0 0.45270396379401912 0.042244215727401613 0 0.47668749070293093 0.030148840656404191 0 0.45270396379401912 0.042244215727401613 0 0.47181581201781092 0.060431482141388111 0 0.47668749070293093 0.030148840656404191 0 0.44995215459176019 0.062642261371637351 0 0.45270396379401912 0.042244215727401613 0 0.47181581201781092 0.060431482141388111 0 0.47181581201781092 0.060431482141388111 0 0.49688764810976438 0.043739222291242552 0 0.47668749070293093 0.030148840656404191 0 0.49377529621952793 0.072072371789720896 0 0.47181581201781092 0.060431482141388111 0 0.49688764810976438 0.043739222291242552 0 0.49377529621952793 0.072072371789720896 0 0.49688764810976438 0.043739222291242552 0 0.46663767238538711 0.0079734943451115724 0 0.48229278228027211 0.013278237181303011 0 0.48183715122427462 -0.0034689197544221428 0 0.46663767238538711 0.0079734943451115724 0 0.48229278228027211 0.013278237181303011 0 0.47668749070293093 0.030148840656404191 0 0.49688764810976438 0.043739222291242552 0 0.50000000000000044 0.015406072792764189 0 0.49688764810976438 0.043739222291242552 0 0.47668749070293093 0.030148840656404191 0 0.50000000000000044 0.015406072792764189 0 0.48229278228027211 0.013278237181303011 0 0.47668749070293093 0.030148840656404191 0 0.50000000000000044 0.015406072792764189 0 0.50000000000000044 0.015406072792764189 0 0.5 -0.0091314211229983622 0 0.48183715122427462 -0.0034689197544221428 0 0.48229278228027211 0.013278237181303011 0 0.50000000000000044 0.015406072792764189 0 0.48183715122427462 -0.0034689197544221428 0 0.5 -0.0091314211229983622 0 0.48183715122427462 -0.0034689197544221428 0 0.4754792167441218 -0.021400168080879599 0 0.48183715122427462 -0.0034689197544221428 0 0.4754792167441218 -0.021400168080879599 0 0.46086009997036359 -0.0086032479557195136 0 0.46663767238538711 0.0079734943451115724 0 0.48183715122427462 -0.0034689197544221428 0 0.46086009997036359 -0.0086032479557195136 0 0.5 -0.0091314211229983622 0 0.4754792167441218 -0.021400168080879599 0 0.5000000000000171 -0.033668915038760849 0 0.4754792167441218 -0.021400168080879599 0 0.5000000000000171 -0.033668915038760849 0 0.47797640830481691 -0.050061340501430518 0 0.5000000000000171 -0.033668915038760849 0 0.50000000000000155 -0.053851359786688383 0 0.47797640830481691 -0.050061340501430518 0 0.5000000000000171 -0.033668915038760849 0 0.47797640830481691 -0.050061340501430518 0 0.50000000000000155 -0.053851359786688383 0 0.48004350142806401 -0.067440049654426432 0 0.50000000000000155 -0.053851359786688383 0 0.47797640830481691 -0.050061340501430518 0 0.48004350142806401 -0.067440049654426432 0 0.47797640830481691 -0.050061340501430518 0 0.48004350142806401 -0.067440049654426432 0 0.4559528166096104 -0.066453765964092137 0 0.4754792167441218 -0.021400168080879599 0 0.47797640830481691 -0.050061340501430518 0 0.45790251107382418 -0.039051699964520403 0 0.44045299982209302 -0.048023587943996797 0 0.4559528166096104 -0.066453765964092137 0 0.42405185023822028 -0.06409700745508172 0 0.47797640830481691 -0.050061340501430518 0 0.45790251107382418 -0.039051699964520403 0 0.4559528166096104 -0.066453765964092137 0 0.47797640830481691 -0.050061340501430518 0 0.4559528166096104 -0.066453765964092137 0 0.45790251107382418 -0.039051699964520403 0 0.44045299982209302 -0.048023587943996797 0 0.4559528166096104 -0.066453765964092137 0 0.45790251107382418 -0.039051699964520403 0 0.44045299982209302 -0.048023587943996797 0 0.4362420200247108 -0.030392629628627831 0 0.45028129758018681 -0.021210648787390519 0 0.43787881998099137 -0.011358791450738251 0 0.4362420200247108 -0.030392629628627831 0 0.45790251107382418 -0.039051699964520403 0 0.45028129758018681 -0.021210648787390519 0 0.4362420200247108 -0.030392629628627831 0 0.44094277511034768 0.0061362821161396949 0 0.43787881998099137 -0.011358791450738251 0 0.46086009997036359 -0.0086032479557195136 0 0.45028129758018681 -0.021210648787390519 0 0.43787881998099137 -0.011358791450738251 0 0.46086009997036359 -0.0086032479557195136 0 0.4754792167441218 -0.021400168080879599 0 0.45790251107382418 -0.039051699964520403 0 0.45028129758018681 -0.021210648787390519 0 0.4754792167441218 -0.021400168080879599 0 0.45028129758018681 -0.021210648787390519 0 0.46086009997036359 -0.0086032479557195136 0 0.48228836697154809 -0.11923196499995389 0 0.47005596841816388 -0.10315462552384549 0 0.4638311428672906 -0.1236923512144171 0 0.48228836697154809 -0.11923196499995389 0 0.5 -0.1041334160187959 0 0.5 -0.1292744441348497 0 0.48228836697154809 -0.11923196499995389 0 0.5 -0.1041334160187959 0 0.47005596841816388 -0.10315462552384549 0 0.5 -0.1041334160187959 0 0.47005596841816388 -0.10315462552384549 0 0.48203729454047067 -0.086949843724394793 0 0.48203729454047067 -0.086949843724394793 0 0.48004350142806401 -0.067440049654426432 0 0.4600870028561258 -0.08102873952216387 0 0.47005596841816388 -0.10315462552384549 0 0.48203729454047067 -0.086949843724394793 0 0.4600870028561258 -0.08102873952216387 0 0.5 -0.1041334160187959 0 0.48203729454047067 -0.086949843724394793 0 0.5 -0.078992387902742156 0 0.48203729454047067 -0.086949843724394793 0 0.5 -0.078992387902742156 0 0.48004350142806401 -0.067440049654426432 0 0.50000000000000155 -0.053851359786688383 0 0.5 -0.078992387902742156 0 0.48004350142806401 -0.067440049654426432 0 0.48004350142806401 -0.067440049654426432 0 0.4600870028561258 -0.08102873952216387 0 0.4559528166096104 -0.066453765964092137 0 0.43392922491440211 -0.082846191426751203 0 0.42405185023822028 -0.06409700745508172 0 0.48004350142806401 -0.067440049654426432 0 0.4559528166096104 -0.066453765964092137 0 0.4600870028561258 -0.08102873952216387 0 0.4559528166096104 -0.066453765964092137 0 0.43392922491440211 -0.082846191426751203 0 0.4559528166096104 -0.066453765964092137 0 0.4600870028561258 -0.08102873952216387 0 0.43392922491440211 -0.082846191426751203 0 0.4600870028561258 -0.08102873952216387 0 0.44013050428418782 -0.094617429389901225 0 0.4600870028561258 -0.08102873952216387 0 0.45556745736231868 -0.096937016590732561 0 0.44013050428418782 -0.094617429389901225 0 0.4600870028561258 -0.08102873952216387 0 0.44013050428418782 -0.094617429389901225 0 0.43392922491440211 -0.082846191426751203 0 0.47005596841816388 -0.10315462552384549 0 0.4600870028561258 -0.08102873952216387 0 0.45556745736231868 -0.096937016590732561 0 0.47005596841816388 -0.10315462552384549 0 0.45695734741235611 -0.10932333860396939 0 0.45556745736231868 -0.096937016590732561 0 0.45556745736231868 -0.096937016590732561 0 0.44013050428418782 -0.094617429389901225 0 0.44540062192532798 -0.104621140744963 0 0.44013050428418782 -0.094617429389901225 0 0.44540062192532798 -0.104621140744963 0 0.44013050428418782 -0.094617429389901225 0 0.44540062192532798 -0.104621140744963 0 0.43696887298009163 -0.1041885832385247 0 0.44540062192532798 -0.104621140744963 0 0.43561371910109409 -0.1137741621949208 0 0.43696887298009163 -0.1041885832385247 0 0.45695734741235611 -0.10932333860396939 0 0.45556745736231868 -0.096937016590732561 0 0.44540062192532798 -0.104621140744963 0 0.4488469960896303 -0.1198907653690512 0 0.43561371910109409 -0.1137741621949208 0 0.43231071002569682 -0.12852044256002301 0 0.45695734741235611 -0.10932333860396939 0 0.44540062192532798 -0.104621140744963 0 0.4488469960896303 -0.1198907653690512 0 0.44540062192532798 -0.104621140744963 0 0.4488469960896303 -0.1198907653690512 0 0.43561371910109409 -0.1137741621949208 0 0.45695734741235611 -0.10932333860396939 0 0.4488469960896303 -0.1198907653690512 0 0.4638311428672906 -0.1236923512144171 0 0.47005596841816388 -0.10315462552384549 0 0.45695734741235611 -0.10932333860396939 0 0.4638311428672906 -0.1236923512144171 0 0.41376671036287799 -0.1132237327268923 0 0.39633217745925881 -0.11083012822298299 0 0.41301553878902347 -0.13142107497970981 0 0.41376671036287799 -0.1132237327268923 0 0.42427560559550581 -0.11902307359181501 0 0.41301553878902347 -0.13142107497970981 0 0.41376671036287799 -0.1132237327268923 0 0.42427560559550581 -0.11902307359181501 0 0.42673064660975651 -0.1037416006243136 0 0.42427560559550581 -0.11902307359181501 0 0.43561371910109409 -0.1137741621949208 0 0.43231071002569682 -0.12852044256002301 0 0.42427560559550581 -0.11902307359181501 0 0.43561371910109409 -0.1137741621949208 0 0.42673064660975651 -0.1037416006243136 0 0.42673064660975651 -0.1037416006243136 0 0.41513070118683137 -0.09683815982486832 0 0.43392922491440211 -0.082846191426751203 0 0.43561371910109409 -0.1137741621949208 0 0.42673064660975651 -0.1037416006243136 0 0.43696887298009163 -0.1041885832385247 0 0.44013050428418782 -0.094617429389901225 0 0.42673064660975651 -0.1037416006243136 0 0.43696887298009163 -0.1041885832385247 0 0.44013050428418782 -0.094617429389901225 0 0.42673064660975651 -0.1037416006243136 0 0.41376671036287799 -0.1132237327268923 0 0.41513070118683137 -0.09683815982486832 0 0.39633217745925881 -0.11083012822298299 0 0.41376671036287799 -0.1132237327268923 0 0.42673064660975651 -0.1037416006243136 0 0.41513070118683137 -0.09683815982486832 0 0.41513070118683137 -0.09683815982486832 0 0.41771403917044603 -0.080665808737391945 0 0.40619765754869708 -0.085650988353764085 0 0.41771403917044603 -0.080665808737391945 0 0.40591829478324309 -0.071739549773069455 0 0.40619765754869708 -0.085650988353764085 0 0.44013050428418782 -0.094617429389901225 0 0.42673064660975651 -0.1037416006243136 0 0.43392922491440211 -0.082846191426751203 0 0.41513070118683137 -0.09683815982486832 0 0.43392922491440211 -0.082846191426751203 0 0.41513070118683137 -0.09683815982486832 0 0.41771403917044603 -0.080665808737391945 0 0.43392922491440211 -0.082846191426751203 0 0.44013050428418782 -0.094617429389901225 0 0.43392922491440211 -0.082846191426751203 0 0.41771403917044603 -0.080665808737391945 0 0.43392922491440211 -0.082846191426751203 0 0.42405185023822028 -0.06409700745508172 0 0.43392922491440211 -0.082846191426751203 0 0.42405185023822028 -0.06409700745508172 0 0.42405185023822028 -0.06409700745508172 0 0.40591829478324309 -0.071739549773069455 0 0.41023970699991918 -0.058723420628733827 0 0.41771403917044603 -0.080665808737391945 0 0.42405185023822028 -0.06409700745508172 0 0.40591829478324309 -0.071739549773069455 0 0.40591829478324309 -0.071739549773069455 0 0.41023970699991918 -0.058723420628733827 0 0.39629818631354591 -0.058875089950604857 0 0.40591829478324309 -0.071739549773069455 0 0.39137443801909982 -0.069688577610405242 0 0.39379234464598178 -0.082414635198656661 0 0.40591829478324309 -0.071739549773069455 0 0.39137443801909982 -0.069688577610405242 0 0.39629818631354591 -0.058875089950604857 0 0.39137443801909982 -0.069688577610405242 0 0.3799667179696119 -0.067430746174565834 0 0.38308333795116228 -0.05552251528690872 0 0.3799667179696119 -0.067430746174565834 0 0.38074856653262812 -0.077658027997661097 0 0.36982066929176011 -0.070275991062431764 0 0.39137443801909982 -0.069688577610405242 0 0.3799667179696119 -0.067430746174565834 0 0.38074856653262812 -0.077658027997661097 0 0.39137443801909982 -0.069688577610405242 0 0.38074856653262812 -0.077658027997661097 0 0.39379234464598178 -0.082414635198656661 0 0.38079219248377089 -0.092317188870142494 0 0.39379234464598178 -0.082414635198656661 0 0.39676167436656579 -0.095518214808122906 0 0.38074856653262812 -0.077658027997661097 0 0.38079219248377089 -0.092317188870142494 0 0.39379234464598178 -0.082414635198656661 0 0.38074856653262812 -0.077658027997661097 0 0.38079219248377089 -0.092317188870142494 0 0.36876226041906879 -0.081937793950469517 0 0.41513070118683137 -0.09683815982486832 0 0.40619765754869708 -0.085650988353764085 0 0.39676167436656579 -0.095518214808122906 0 0.40591829478324309 -0.071739549773069455 0 0.39379234464598178 -0.082414635198656661 0 0.40619765754869708 -0.085650988353764085 0 0.39379234464598178 -0.082414635198656661 0 0.40619765754869708 -0.085650988353764085 0 0.39676167436656579 -0.095518214808122906 0 0.41513070118683137 -0.09683815982486832 0 0.39633217745925881 -0.11083012822298299 0 0.41513070118683137 -0.09683815982486832 0 0.39676167436656579 -0.095518214808122906 0 0.39633217745925881 -0.11083012822298299 0 0.39676167436656579 -0.095518214808122906 0 0.38891815007278419 -0.1041866894576283 0 0.39633217745925881 -0.11083012822298299 0 0.38079219248377089 -0.092317188870142494 0 0.39676167436656579 -0.095518214808122906 0 0.38891815007278419 -0.1041866894576283 0 0.38079219248377089 -0.092317188870142494 0 0.37711745631493049 -0.1052412280538197 0 0.37072129822040351 -0.1012266871233494 0 0.38079219248377089 -0.092317188870142494 0 0.37711745631493049 -0.1052412280538197 0 0.38891815007278419 -0.1041866894576283 0 0.37753365373168629 -0.1248220966210976 0 0.39633217745925881 -0.11083012822298299 0 0.37753365373168629 -0.1248220966210976 0 0.39633217745925881 -0.11083012822298299 0 0.39356079645124381 -0.1353071490638019 0 0.38891815007278419 -0.1041866894576283 0 0.37753365373168629 -0.1248220966210976 0 0.36995877703419078 -0.1196469366492653 0 0.38891815007278419 -0.1041866894576283 0 0.36995877703419078 -0.1196469366492653 0 0.37711745631493049 -0.1052412280538197 0 0.38891815007278419 -0.1041866894576283 0 0.36995877703419078 -0.1196469366492653 0 0.38891815007278419 -0.1041866894576283 0 0.37753365373168629 -0.1248220966210976 0 0.39633217745925881 -0.11083012822298299 0 0.42167935192759259 -0.017773606129433819 0 0.41018854023809481 -0.0028260703030887901 0 0.40429710088589249 -0.02659863951172391 0 0.42167935192759259 -0.017773606129433819 0 0.41921572752466252 -0.031788500886446941 0 0.40429710088589249 -0.02659863951172391 0 0.42167935192759259 -0.017773606129433819 0 0.41018854023809481 -0.0028260703030887901 0 0.42526013446378919 -0.00092103479540981206 0 0.41018854023809481 -0.0028260703030887901 0 0.40429710088589249 -0.02659863951172391 0 0.44094277511034768 0.0061362821161396949 0 0.43787881998099137 -0.011358791450738251 0 0.42526013446378919 -0.00092103479540981206 0 0.43787881998099137 -0.011358791450738251 0 0.42167935192759259 -0.017773606129433819 0 0.42526013446378919 -0.00092103479540981206 0 0.43787881998099137 -0.011358791450738251 0 0.42167935192759259 -0.017773606129433819 0 0.4362420200247108 -0.030392629628627831 0 0.42167935192759259 -0.017773606129433819 0 0.4362420200247108 -0.030392629628627831 0 0.41921572752466252 -0.031788500886446941 0 0.4362420200247108 -0.030392629628627831 0 0.42675222679200342 -0.043812085122393929 0 0.41921572752466252 -0.031788500886446941 0 0.44045299982209302 -0.048023587943996797 0 0.4362420200247108 -0.030392629628627831 0 0.42675222679200342 -0.043812085122393929 0 0.44045299982209302 -0.048023587943996797 0 0.42405185023822028 -0.06409700745508172 0 0.42675222679200342 -0.043812085122393929 0 0.42405185023822028 -0.06409700745508172 0 0.41417447556205672 -0.045347823483402681 0 0.41023970699991918 -0.058723420628733827 0 0.41417447556205672 -0.045347823483402681 0 0.40029764359971881 -0.042736864731164302 0 0.42405185023822028 -0.06409700745508172 0 0.41023970699991918 -0.058723420628733827 0 0.41417447556205672 -0.045347823483402681 0 0.42405185023822028 -0.06409700745508172 0 0.42675222679200342 -0.043812085122393929 0 0.41417447556205672 -0.045347823483402681 0 0.41417447556205672 -0.045347823483402681 0 0.40029764359971881 -0.042736864731164302 0 0.40429710088589249 -0.02659863951172391 0 0.41921572752466252 -0.031788500886446941 0 0.41417447556205672 -0.045347823483402681 0 0.40429710088589249 -0.02659863951172391 0 0.41417447556205672 -0.045347823483402681 0 0.40429710088589249 -0.02659863951172391 0 0.42675222679200342 -0.043812085122393929 0 0.41921572752466252 -0.031788500886446941 0 0.41417447556205672 -0.045347823483402681 0 0.40029764359971881 -0.042736864731164302 0 0.40429710088589249 -0.02659863951172391 0 0.40029764359971881 -0.042736864731164302 0 0.39080348434152518 -0.032513402183444201 0 0.40429710088589249 -0.02659863951172391 0 0.40029764359971881 -0.042736864731164302 0 0.39066722813721899 -0.046865815783003952 0 0.39080348434152518 -0.032513402183444201 0 0.40029764359971881 -0.042736864731164302 0 0.39066722813721899 -0.046865815783003952 0 0.39629818631354591 -0.058875089950604857 0 0.40029764359971881 -0.042736864731164302 0 0.39629818631354591 -0.058875089950604857 0 0.41023970699991918 -0.058723420628733827 0 0.40029764359971881 -0.042736864731164302 0 0.39629818631354591 -0.058875089950604857 0 0.39137443801909982 -0.069688577610405242 0 0.39629818631354591 -0.058875089950604857 0 0.38308333795116228 -0.05552251528690872 0 0.39066722813721899 -0.046865815783003952 0 0.39629818631354591 -0.058875089950604857 0 0.38308333795116228 -0.05552251528690872 0 0.39066722813721899 -0.046865815783003952 0 0.38308333795116228 -0.05552251528690872 0 0.381091998934593 -0.040334129502481081 0 0.38308333795116228 -0.05552251528690872 0 0.381091998934593 -0.040334129502481081 0 0.36938257835714988 -0.045922090339662963 0 0.3799667179696119 -0.067430746174565834 0 0.38308333795116228 -0.05552251528690872 0 0.37212043377261161 -0.059429909518194858 0 0.39080348434152518 -0.032513402183444201 0 0.381091998934593 -0.040334129502481081 0 0.37875091372345299 -0.023189459766284511 0 0.381091998934593 -0.040334129502481081 0 0.37875091372345299 -0.023189459766284511 0 0.37098046967138992 -0.033253168286269202 0 0.39066722813721899 -0.046865815783003952 0 0.39080348434152518 -0.032513402183444201 0 0.381091998934593 -0.040334129502481081 0 0.37875091372345299 -0.023189459766284511 0 0.38959072850730597 -0.02026552105336827 0 0.3795522464700376 -0.010929558492773279 0 0.37875091372345299 -0.023189459766284511 0 0.3795522464700376 -0.010929558492773279 0 0.37112591615338991 -0.014224565479692509 0 0.39080348434152518 -0.032513402183444201 0 0.37875091372345299 -0.023189459766284511 0 0.38959072850730597 -0.02026552105336827 0 0.40429710088589249 -0.02659863951172391 0 0.39454989711562138 -0.0080965453126154406 0 0.38959072850730597 -0.02026552105336827 0 0.40429710088589249 -0.02659863951172391 0 0.39454989711562138 -0.0080965453126154406 0 0.39080348434152518 -0.032513402183444201 0 0.38959072850730597 -0.02026552105336827 0 0.40429710088589249 -0.02659863951172391 0 0.40168829805231138 0.0078172793661316683 0 0.41018854023809481 -0.0028260703030887901 0 0.39454989711562138 -0.0080965453126154406 0 0.41018854023809481 -0.0028260703030887901 0 0.40429710088589249 -0.02659863951172391 0 0.39454989711562138 -0.0080965453126154406 0 0.38099294405698142 0.00088104224773434547 0 0.39454989711562138 -0.0080965453126154406 0 0.3795522464700376 -0.010929558492773279 0 0.38959072850730597 -0.02026552105336827 0 0.39454989711562138 -0.0080965453126154406 0 0.3795522464700376 -0.010929558492773279 0 0.38099294405698142 0.00088104224773434547 0 0.3795522464700376 -0.010929558492773279 0 0.37083028849458072 -0.0041634305290219036 0 0.37210468571126148 0.0032659412068709909 0 0.38099294405698142 0.00088104224773434547 0 0.37083028849458072 -0.0041634305290219036 0 0.37083028849458072 -0.0041634305290219036 0 0.37112591615338991 -0.014224565479692509 0 0.36085973298925172 -0.010493417023439011 0 0.3795522464700376 -0.010929558492773279 0 0.37083028849458072 -0.0041634305290219036 0 0.37112591615338991 -0.014224565479692509 0 0.36331461414636251 0.0014537306793350371 0 0.37083028849458072 -0.0041634305290219036 0 0.36085973298925172 -0.010493417023439011 0 0.37875091372345299 -0.023189459766284511 0 0.36563639908962658 -0.022346961586943829 0 0.37098046967138992 -0.033253168286269202 0 0.37875091372345299 -0.023189459766284511 0 0.37112591615338991 -0.014224565479692509 0 0.36563639908962658 -0.022346961586943829 0 0.37112591615338991 -0.014224565479692509 0 0.36085973298925172 -0.010493417023439011 0 0.36563639908962658 -0.022346961586943829 0 0.36085973298925172 -0.010493417023439011 0 0.36563639908962658 -0.022346961586943829 0 0.35373199222803292 -0.021386724976388199 0 0.36563639908962658 -0.022346961586943829 0 0.36004045825212672 -0.034473200235973632 0 0.37098046967138992 -0.033253168286269202 0 0.36563639908962658 -0.022346961586943829 0 0.35373199222803292 -0.021386724976388199 0 0.36004045825212672 -0.034473200235973632 0 0.35373199222803292 -0.021386724976388199 0 0.33930292014103558 -0.021682264773556281 0 0.34728417023308128 -0.037160677968033573 0 0.35373199222803292 -0.021386724976388199 0 0.34728417023308128 -0.037160677968033573 0 0.36004045825212672 -0.034473200235973632 0 0.36085973298925172 -0.010493417023439011 0 0.35373199222803292 -0.021386724976388199 0 0.3492682726630757 -0.002163828270382862 0 0.35373199222803292 -0.021386724976388199 0 0.3492682726630757 -0.002163828270382862 0 0.33930292014103558 -0.021682264773556281 0 0.36331461414636251 0.0014537306793350371 0 0.36085973298925172 -0.010493417023439011 0 0.3492682726630757 -0.002163828270382862 0 0.33342994676464999 0.00053169165227971021 0 0.3492682726630757 -0.002163828270382862 0 0.33930292014103558 -0.021682264773556281 0 0.33342994676464999 0.00053169165227971021 0 0.33930292014103558 -0.021682264773556281 0 0.3192992506643868 -0.014597287624063929 0 0.33930292014103558 -0.021682264773556281 0 0.33631792376272002 -0.034314678218359498 0 0.34728417023308128 -0.037160677968033573 0 0.33930292014103558 -0.021682264773556281 0 0.32509311375622812 -0.031388088653999398 0 0.33631792376272002 -0.034314678218359498 0 0.3192992506643868 -0.014597287624063929 0 0.32509311375622812 -0.031388088653999398 0 0.30272950886260652 -0.028853544672441781 0 0.33930292014103558 -0.021682264773556281 0 0.3192992506643868 -0.014597287624063929 0 0.32509311375622812 -0.031388088653999398 0 0.33342994676464999 0.00053169165227971021 0 0.31148068274726609 0.0055153957526775056 0 0.3192992506643868 -0.014597287624063929 0 0.32021412516950393 -0.054285573549802749 0 0.33359149092053469 -0.047027681477848728 0 0.32979566350454997 -0.064545815666408657 0 0.32021412516950393 -0.054285573549802749 0 0.31586144479121359 -0.043334225608872443 0 0.33359149092053469 -0.047027681477848728 0 0.32021412516950393 -0.054285573549802749 0 0.31586144479121359 -0.043334225608872443 0 0.30389483319898197 -0.050276789868135829 0 0.32021412516950393 -0.054285573549802749 0 0.31361063165402348 -0.063636171774060141 0 0.30389483319898197 -0.050276789868135829 0 0.32021412516950393 -0.054285573549802749 0 0.32979566350454997 -0.064545815666408657 0 0.31361063165402348 -0.063636171774060141 0 0.31586144479121359 -0.043334225608872443 0 0.32509311375622812 -0.031388088653999398 0 0.33359149092053469 -0.047027681477848728 0 0.31586144479121359 -0.043334225608872443 0 0.32509311375622812 -0.031388088653999398 0 0.30272950886260652 -0.028853544672441781 0 0.32509311375622812 -0.031388088653999398 0 0.33631792376272002 -0.034314678218359498 0 0.33359149092053469 -0.047027681477848728 0 0.33631792376272002 -0.034314678218359498 0 0.33359149092053469 -0.047027681477848728 0 0.34728417023308128 -0.037160677968033573 0 0.33359149092053469 -0.047027681477848728 0 0.34224276383775648 -0.059410873759792371 0 0.32979566350454997 -0.064545815666408657 0 0.33359149092053469 -0.047027681477848728 0 0.34224276383775648 -0.059410873759792371 0 0.35090727287295659 -0.051315494565497548 0 0.34224276383775648 -0.059410873759792371 0 0.35090727287295659 -0.051315494565497548 0 0.36032995241472382 -0.058617475504554983 0 0.35090727287295659 -0.051315494565497548 0 0.35859260393204778 -0.044358155715215383 0 0.36032995241472382 -0.058617475504554983 0 0.33359149092053469 -0.047027681477848728 0 0.35090727287295659 -0.051315494565497548 0 0.34728417023308128 -0.037160677968033573 0 0.35090727287295659 -0.051315494565497548 0 0.34728417023308128 -0.037160677968033573 0 0.35859260393204778 -0.044358155715215383 0 0.34728417023308128 -0.037160677968033573 0 0.35859260393204778 -0.044358155715215383 0 0.36004045825212672 -0.034473200235973632 0 0.36004045825212672 -0.034473200235973632 0 0.36938257835714988 -0.045922090339662963 0 0.37098046967138992 -0.033253168286269202 0 0.35859260393204778 -0.044358155715215383 0 0.36004045825212672 -0.034473200235973632 0 0.36938257835714988 -0.045922090339662963 0 0.381091998934593 -0.040334129502481081 0 0.36938257835714988 -0.045922090339662963 0 0.37098046967138992 -0.033253168286269202 0 0.35859260393204778 -0.044358155715215383 0 0.36938257835714988 -0.045922090339662963 0 0.36032995241472382 -0.058617475504554983 0 0.36938257835714988 -0.045922090339662963 0 0.36032995241472382 -0.058617475504554983 0 0.37212043377261161 -0.059429909518194858 0 0.38308333795116228 -0.05552251528690872 0 0.36938257835714988 -0.045922090339662963 0 0.37212043377261161 -0.059429909518194858 0 0.36032995241472382 -0.058617475504554983 0 0.37212043377261161 -0.059429909518194858 0 0.36982066929176011 -0.070275991062431764 0 0.3799667179696119 -0.067430746174565834 0 0.37212043377261161 -0.059429909518194858 0 0.36982066929176011 -0.070275991062431764 0 0.36032995241472382 -0.058617475504554983 0 0.36982066929176011 -0.070275991062431764 0 0.35692065146547108 -0.071662699816668729 0 0.36982066929176011 -0.070275991062431764 0 0.36876226041906879 -0.081937793950469517 0 0.35692065146547108 -0.071662699816668729 0 0.38074856653262812 -0.077658027997661097 0 0.36982066929176011 -0.070275991062431764 0 0.36876226041906879 -0.081937793950469517 0 0.38079219248377089 -0.092317188870142494 0 0.36876226041906879 -0.081937793950469517 0 0.36662309729249248 -0.092246926541668536 0 0.36876226041906879 -0.081937793950469517 0 0.36662309729249248 -0.092246926541668536 0 0.35690028520771311 -0.084377118061175649 0 0.36662309729249248 -0.092246926541668536 0 0.35690028520771311 -0.084377118061175649 0 0.35726054180449002 -0.098356712121313583 0 0.36876226041906879 -0.081937793950469517 0 0.35690028520771311 -0.084377118061175649 0 0.35692065146547108 -0.071662699816668729 0 0.35690028520771311 -0.084377118061175649 0 0.34414878531182252 -0.090649954601471988 0 0.34336843135842499 -0.073074182316125599 0 0.35690028520771311 -0.084377118061175649 0 0.34414878531182252 -0.090649954601471988 0 0.35726054180449002 -0.098356712121313583 0 0.34224276383775648 -0.059410873759792371 0 0.36032995241472382 -0.058617475504554983 0 0.35692065146547108 -0.071662699816668729 0 0.34224276383775648 -0.059410873759792371 0 0.35692065146547108 -0.071662699816668729 0 0.34336843135842499 -0.073074182316125599 0 0.35690028520771311 -0.084377118061175649 0 0.35692065146547108 -0.071662699816668729 0 0.34336843135842499 -0.073074182316125599 0 0.36995877703419078 -0.1196469366492653 0 0.36223340749514682 -0.1101012313494721 0 0.37058430465476078 -0.1090289782800585 0 0.37711745631493049 -0.1052412280538197 0 0.36995877703419078 -0.1196469366492653 0 0.37058430465476078 -0.1090289782800585 0 0.36995877703419078 -0.1196469366492653 0 0.36223340749514682 -0.1101012313494721 0 0.35862075371719498 -0.1205653759522488 0 0.36223340749514682 -0.1101012313494721 0 0.37072129822040351 -0.1012266871233494 0 0.35726054180449002 -0.098356712121313583 0 0.36223340749514682 -0.1101012313494721 0 0.37058430465476078 -0.1090289782800585 0 0.37072129822040351 -0.1012266871233494 0 0.37711745631493049 -0.1052412280538197 0 0.37058430465476078 -0.1090289782800585 0 0.37072129822040351 -0.1012266871233494 0 0.38079219248377089 -0.092317188870142494 0 0.36662309729249248 -0.092246926541668536 0 0.37072129822040351 -0.1012266871233494 0 0.36662309729249248 -0.092246926541668536 0 0.37072129822040351 -0.1012266871233494 0 0.35726054180449002 -0.098356712121313583 0 0.34414878531182252 -0.090649954601471988 0 0.35726054180449002 -0.098356712121313583 0 0.34709571830500441 -0.10130034441205089 0 0.34709571830500441 -0.10130034441205089 0 0.35303727088905851 -0.10829648646008309 0 0.34096100387560158 -0.11225997515766931 0 0.35726054180449002 -0.098356712121313583 0 0.34709571830500441 -0.10130034441205089 0 0.35303727088905851 -0.10829648646008309 0 0.36223340749514682 -0.1101012313494721 0 0.35726054180449002 -0.098356712121313583 0 0.35303727088905851 -0.10829648646008309 0 0.36223340749514682 -0.1101012313494721 0 0.35303727088905851 -0.10829648646008309 0 0.35255169459734242 -0.11765545265611869 0 0.36223340749514682 -0.1101012313494721 0 0.35255169459734242 -0.11765545265611869 0 0.35862075371719498 -0.1205653759522488 0 0.35303727088905851 -0.10829648646008309 0 0.35255169459734242 -0.11765545265611869 0 0.34096100387560158 -0.11225997515766931 0 0.35212697750611771 -0.12383452340526881 0 0.35255169459734242 -0.11765545265611869 0 0.34371930373554588 -0.1237693052416973 0 0.35255169459734242 -0.11765545265611869 0 0.34371930373554588 -0.1237693052416973 0 0.34096100387560158 -0.11225997515766931 0 0.35212697750611771 -0.12383452340526881 0 0.35255169459734242 -0.11765545265611869 0 0.35862075371719498 -0.1205653759522488 0 0.33571706933824319 -0.1193075862431618 0 0.32748551487209843 -0.1158199721954095 0 0.33070245486972683 -0.12538109237787121 0 0.33571706933824319 -0.1193075862431618 0 0.34371930373554588 -0.1237693052416973 0 0.34096100387560158 -0.11225997515766931 0 0.33571706933824319 -0.1193075862431618 0 0.34371930373554588 -0.1237693052416973 0 0.33070245486972683 -0.12538109237787121 0 0.34096100387560158 -0.11225997515766931 0 0.33004064166623992 -0.1069174823209298 0 0.32748551487209843 -0.1158199721954095 0 0.33571706933824319 -0.1193075862431618 0 0.34096100387560158 -0.11225997515766931 0 0.32748551487209843 -0.1158199721954095 0 0.33004064166623992 -0.1069174823209298 0 0.33714988085207948 -0.1000437733237816 0 0.32702468228194631 -0.097850645082154575 0 0.34709571830500441 -0.10130034441205089 0 0.34096100387560158 -0.11225997515766931 0 0.33714988085207948 -0.1000437733237816 0 0.34096100387560158 -0.11225997515766931 0 0.33004064166623992 -0.1069174823209298 0 0.33714988085207948 -0.1000437733237816 0 0.34414878531182252 -0.090649954601471988 0 0.34709571830500441 -0.10130034441205089 0 0.33714988085207948 -0.1000437733237816 0 0.34414878531182252 -0.090649954601471988 0 0.33714988085207948 -0.1000437733237816 0 0.33325829867976758 -0.09105653109802056 0 0.33714988085207948 -0.1000437733237816 0 0.32702468228194631 -0.097850645082154575 0 0.33325829867976758 -0.09105653109802056 0 0.32702468228194631 -0.097850645082154575 0 0.31664032004554971 -0.095348365443445104 0 0.32061464017454439 -0.1060958060343011 0 0.32061464017454439 -0.1060958060343011 0 0.31362593975270081 -0.1144174503717353 0 0.30981960666641728 -0.1043536162603277 0 0.31664032004554971 -0.095348365443445104 0 0.32061464017454439 -0.1060958060343011 0 0.30981960666641728 -0.1043536162603277 0 0.33004064166623992 -0.1069174823209298 0 0.32702468228194631 -0.097850645082154575 0 0.32061464017454439 -0.1060958060343011 0 0.32061464017454439 -0.1060958060343011 0 0.32748551487209843 -0.1158199721954095 0 0.31362593975270081 -0.1144174503717353 0 0.33004064166623992 -0.1069174823209298 0 0.32061464017454439 -0.1060958060343011 0 0.32748551487209843 -0.1158199721954095 0 0.31362593975270081 -0.1144174503717353 0 0.31937529532925391 -0.1237791918182146 0 0.30783137815710498 -0.1220768158476193 0 0.32748551487209843 -0.1158199721954095 0 0.31362593975270081 -0.1144174503717353 0 0.31937529532925391 -0.1237791918182146 0 0.32748551487209843 -0.1158199721954095 0 0.31937529532925391 -0.1237791918182146 0 0.33070245486972683 -0.12538109237787121 0 0.32979566350454997 -0.064545815666408657 0 0.34336843135842499 -0.073074182316125599 0 0.33273669835367542 -0.080408742988799325 0 0.34224276383775648 -0.059410873759792371 0 0.32979566350454997 -0.064545815666408657 0 0.34336843135842499 -0.073074182316125599 0 0.34414878531182252 -0.090649954601471988 0 0.34336843135842499 -0.073074182316125599 0 0.33273669835367542 -0.080408742988799325 0 0.34414878531182252 -0.090649954601471988 0 0.33325829867976758 -0.09105653109802056 0 0.33273669835367542 -0.080408742988799325 0 0.32702468228194631 -0.097850645082154575 0 0.33325829867976758 -0.09105653109802056 0 0.32444431227349713 -0.087641912272449274 0 0.33325829867976758 -0.09105653109802056 0 0.33273669835367542 -0.080408742988799325 0 0.32444431227349713 -0.087641912272449274 0 0.33273669835367542 -0.080408742988799325 0 0.32444431227349713 -0.087641912272449274 0 0.32134076908420101 -0.075185825678396448 0 0.32702468228194631 -0.097850645082154575 0 0.31664032004554971 -0.095348365443445104 0 0.32444431227349713 -0.087641912272449274 0 0.31664032004554971 -0.095348365443445104 0 0.32444431227349713 -0.087641912272449274 0 0.3137151793734132 -0.084295678797140686 0 0.32444431227349713 -0.087641912272449274 0 0.3137151793734132 -0.084295678797140686 0 0.32134076908420101 -0.075185825678396448 0 0.32979566350454997 -0.064545815666408657 0 0.33273669835367542 -0.080408742988799325 0 0.32134076908420101 -0.075185825678396448 0 0.3137151793734132 -0.084295678797140686 0 0.32134076908420101 -0.075185825678396448 0 0.30971991400429633 -0.073651118246978287 0 0.32134076908420101 -0.075185825678396448 0 0.31361063165402348 -0.063636171774060141 0 0.30971991400429633 -0.073651118246978287 0 0.32979566350454997 -0.064545815666408657 0 0.32134076908420101 -0.075185825678396448 0 0.31361063165402348 -0.063636171774060141 0 0.31361063165402348 -0.063636171774060141 0 0.29740021703030212 -0.064367630291898625 0 0.30971991400429633 -0.073651118246978287 0 0.29740021703030212 -0.064367630291898625 0 0.30971991400429633 -0.073651118246978287 0 0.30155916723344289 -0.080625065910660598 0 0.3137151793734132 -0.084295678797140686 0 0.30971991400429633 -0.073651118246978287 0 0.30155916723344289 -0.080625065910660598 0 0.3137151793734132 -0.084295678797140686 0 0.30624994004885608 -0.092973260152350551 0 0.30155916723344289 -0.080625065910660598 0 0.31664032004554971 -0.095348365443445104 0 0.3137151793734132 -0.084295678797140686 0 0.30624994004885608 -0.092973260152350551 0 0.30624994004885608 -0.092973260152350551 0 0.30155916723344289 -0.080625065910660598 0 0.29423432540187838 -0.090297798066512058 0 0.30155916723344289 -0.080625065910660598 0 0.29423432540187838 -0.090297798066512058 0 0.28957895660483191 -0.077064290719776649 0 0.29423432540187838 -0.090297798066512058 0 0.28957895660483191 -0.077064290719776649 0 0.27823916634446583 -0.089100932736185329 0 0.29740021703030212 -0.064367630291898625 0 0.30155916723344289 -0.080625065910660598 0 0.28957895660483191 -0.077064290719776649 0 0.28957895660483191 -0.077064290719776649 0 0.27823916634446583 -0.089100932736185329 0 0.27661659557333079 -0.060459794897578259 0 0.29740021703030212 -0.064367630291898625 0 0.28957895660483191 -0.077064290719776649 0 0.27661659557333079 -0.060459794897578259 0 0.29849140758012072 -0.1213131280295386 0 0.30783137815710498 -0.1220768158476193 0 0.30107273091361669 -0.1292622308547281 0 0.29849140758012072 -0.1213131280295386 0 0.30783137815710498 -0.1220768158476193 0 0.30199356836199781 -0.1123542275755805 0 0.31362593975270081 -0.1144174503717353 0 0.30783137815710498 -0.1220768158476193 0 0.30199356836199781 -0.1123542275755805 0 0.31362593975270081 -0.1144174503717353 0 0.30199356836199781 -0.1123542275755805 0 0.30981960666641728 -0.1043536162603277 0 0.29849140758012072 -0.1213131280295386 0 0.30199356836199781 -0.1123542275755805 0 0.29018551865728992 -0.11496671495159939 0 0.30199356836199781 -0.1123542275755805 0 0.30110329614882292 -0.10123183884523131 0 0.29550759004474392 -0.1078204451485366 0 0.30199356836199781 -0.1123542275755805 0 0.30981960666641728 -0.1043536162603277 0 0.30110329614882292 -0.10123183884523131 0 0.30624994004885608 -0.092973260152350551 0 0.30981960666641728 -0.1043536162603277 0 0.30110329614882292 -0.10123183884523131 0 0.31664032004554971 -0.095348365443445104 0 0.30624994004885608 -0.092973260152350551 0 0.30981960666641728 -0.1043536162603277 0 0.30624994004885608 -0.092973260152350551 0 0.29423432540187838 -0.090297798066512058 0 0.30110329614882292 -0.10123183884523131 0 0.28874797701086491 -0.1027289992217354 0 0.27986173711560342 -0.1177420705747923 0 0.27823916634446583 -0.089100932736185329 0 0.29423432540187838 -0.090297798066512058 0 0.28874797701086491 -0.1027289992217354 0 0.27823916634446583 -0.089100932736185329 0 0.29423432540187838 -0.090297798066512058 0 0.30110329614882292 -0.10123183884523131 0 0.28874797701086491 -0.1027289992217354 0 0.30110329614882292 -0.10123183884523131 0 0.28874797701086491 -0.1027289992217354 0 0.29550759004474392 -0.1078204451485366 0 0.28874797701086491 -0.1027289992217354 0 0.29550759004474392 -0.1078204451485366 0 0.29018551865728992 -0.11496671495159939 0 0.30199356836199781 -0.1123542275755805 0 0.29550759004474392 -0.1078204451485366 0 0.29018551865728992 -0.11496671495159939 0 0.29018551865728992 -0.11496671495159939 0 0.27986173711560342 -0.1177420705747923 0 0.28874797701086491 -0.1027289992217354 0 0.29018551865728992 -0.11496671495159939 0 0.27986173711560342 -0.1177420705747923 0 0.29018551865728992 -0.11496671495159939 0 0.27986173711560342 -0.1177420705747923 0 0.29071097194558521 -0.12712196578212251 0 0.29849140758012072 -0.1213131280295386 0 0.29018551865728992 -0.11496671495159939 0 0.29071097194558521 -0.12712196578212251 0 0.27986173711560342 -0.1177420705747923 0 0.26574708597307678 -0.1041751606950362 0 0.25403700729592121 -0.1246845662904464 0 0.27986173711560342 -0.1177420705747923 0 0.25403700729592121 -0.1246845662904464 0 0.27986173711560342 -0.1177420705747923 0 0.27823916634446583 -0.089100932736185329 0 0.27986173711560342 -0.1177420705747923 0 0.26574708597307678 -0.1041751606950362 0 0.27823916634446583 -0.089100932736185329 0 0.26574708597307678 -0.1041751606950362 0 0.27823916634446583 -0.089100932736185329 0 0.26521712970535549 -0.091022748040057846 0 0.26574708597307678 -0.1041751606950362 0 0.25208268657354588 -0.090154867915969661 0 0.24205332124073201 -0.109454436840509 0 0.26574708597307678 -0.1041751606950362 0 0.26521712970535549 -0.091022748040057846 0 0.25208268657354588 -0.090154867915969661 0 0.26574708597307678 -0.1041751606950362 0 0.25403700729592121 -0.1246845662904464 0 0.24205332124073201 -0.109454436840509 0 0.27823916634446583 -0.089100932736185329 0 0.27661659557333079 -0.060459794897578259 0 0.27823916634446583 -0.089100932736185329 0 0.26434964107343861 -0.075307331406774064 0 0.27661659557333079 -0.060459794897578259 0 0.26434964107343861 -0.075307331406774064 0 0.26216218464614433 -0.055511372819959423 0 0.27661659557333079 -0.060459794897578259 0 0.26434964107343861 -0.075307331406774064 0 0.27661659557333079 -0.060459794897578259 0 0.27823916634446583 -0.089100932736185329 0 0.26521712970535549 -0.091022748040057846 0 0.26434964107343861 -0.075307331406774064 0 0.25208268657354588 -0.090154867915969661 0 0.26434964107343861 -0.075307331406774064 0 0.26521712970535549 -0.091022748040057846 0 0.25208268657354588 -0.090154867915969661 0 0.26434964107343861 -0.075307331406774064 0 0.25221133895635578 -0.067258602420323332 0 0.26434964107343861 -0.075307331406774064 0 0.26216218464614433 -0.055511372819959423 0 0.25208268657354588 -0.090154867915969661 0 0.25221133895635578 -0.067258602420323332 0 0.26434964107343861 -0.075307331406774064 0 0.25221133895635578 -0.067258602420323332 0 0.26216218464614433 -0.055511372819959423 0 0.24363606603041749 -0.048629932833656617 0 0.26216218464614433 -0.055511372819959423 0 0.26046736413035448 -0.037271664730805669 0 0.24363606603041749 -0.048629932833656617 0 0.26216218464614433 -0.055511372819959423 0 0.27661659557333079 -0.060459794897578259 0 0.27569210211296841 -0.044140910630618563 0 0.27661659557333079 -0.060459794897578259 0 0.27569210211296841 -0.044140910630618563 0 0.28967305221796891 -0.044656669785010171 0 0.27661659557333079 -0.060459794897578259 0 0.27569210211296841 -0.044140910630618563 0 0.27569210211296841 -0.044140910630618563 0 0.27476760865260652 -0.027822026363658849 0 0.28684518800410669 -0.032144485369820917 0 0.27569210211296841 -0.044140910630618563 0 0.27476760865260652 -0.027822026363658849 0 0.27569210211296841 -0.044140910630618563 0 0.26046736413035448 -0.037271664730805669 0 0.27476760865260652 -0.027822026363658849 0 0.26216218464614433 -0.055511372819959423 0 0.27569210211296841 -0.044140910630618563 0 0.26046736413035448 -0.037271664730805669 0 0.26046736413035448 -0.037271664730805669 0 0.24363606603041749 -0.048629932833656617 0 0.24906327622952931 -0.02860119719721484 0 0.26046736413035448 -0.037271664730805669 0 0.25992002676986692 -0.01923416925424808 0 0.24906327622952931 -0.02860119719721484 0 0.25992002676986692 -0.01923416925424808 0 0.24906327622952931 -0.02860119719721484 0 0.24753703956254999 -0.01020949756924389 0 0.26046736413035448 -0.037271664730805669 0 0.25992002676986692 -0.01923416925424808 0 0.27476760865260652 -0.027822026363658849 0 0.25992002676986692 -0.01923416925424808 0 0.25880614714358668 -0.00284646007175579 0 0.27014820472378293 -0.0081485690828227517 0 0.25992002676986692 -0.01923416925424808 0 0.25880614714358668 -0.00284646007175579 0 0.24753703956254999 -0.01020949756924389 0 0.25199464257422283 0.01212564235903813 0 0.25880614714358668 -0.00284646007175579 0 0.24753703956254999 -0.01020949756924389 0 0.28025266649681319 0.0091816100569989244 0 0.27014820472378293 -0.0081485690828227517 0 0.29040241283628182 -0.0018889931034821741 0 0.25992002676986692 -0.01923416925424808 0 0.27014820472378293 -0.0081485690828227517 0 0.27476760865260652 -0.027822026363658849 0 0.27014820472378293 -0.0081485690828227517 0 0.27476760865260652 -0.027822026363658849 0 0.28807804965151268 -0.01843771930021211 0 0.27476760865260652 -0.027822026363658849 0 0.28807804965151268 -0.01843771930021211 0 0.28684518800410669 -0.032144485369820917 0 0.28807804965151268 -0.01843771930021211 0 0.30272950886260652 -0.028853544672441781 0 0.28684518800410669 -0.032144485369820917 0 0.28807804965151268 -0.01843771930021211 0 0.29040241283628182 -0.0018889931034821741 0 0.30357537482969199 -0.01176869720904619 0 0.27014820472378293 -0.0081485690828227517 0 0.28807804965151268 -0.01843771930021211 0 0.29040241283628182 -0.0018889931034821741 0 0.31148068274726609 0.0055153957526775056 0 0.3192992506643868 -0.014597287624063929 0 0.30357537482969199 -0.01176869720904619 0 0.31148068274726609 0.0055153957526775056 0 0.29040241283628182 -0.0018889931034821741 0 0.30357537482969199 -0.01176869720904619 0 0.3192992506643868 -0.014597287624063929 0 0.30357537482969199 -0.01176869720904619 0 0.30272950886260652 -0.028853544672441781 0 0.28807804965151268 -0.01843771930021211 0 0.30357537482969199 -0.01176869720904619 0 0.30272950886260652 -0.028853544672441781 0 0.30272950886260652 -0.028853544672441781 0 0.30389483319898197 -0.050276789868135829 0 0.28967305221796891 -0.044656669785010171 0 0.31586144479121359 -0.043334225608872443 0 0.30272950886260652 -0.028853544672441781 0 0.30389483319898197 -0.050276789868135829 0 0.29740021703030212 -0.064367630291898625 0 0.30389483319898197 -0.050276789868135829 0 0.28967305221796891 -0.044656669785010171 0 0.31361063165402348 -0.063636171774060141 0 0.29740021703030212 -0.064367630291898625 0 0.30389483319898197 -0.050276789868135829 0 0.29740021703030212 -0.064367630291898625 0 0.27661659557333079 -0.060459794897578259 0 0.28967305221796891 -0.044656669785010171 0 0.27661659557333079 -0.060459794897578259 0 0.28967305221796891 -0.044656669785010171 0 0.30272950886260652 -0.028853544672441781 0 0.28967305221796891 -0.044656669785010171 0 0.30272950886260652 -0.028853544672441781 0 0.28684518800410669 -0.032144485369820917 0 0.28967305221796891 -0.044656669785010171 0 0.27569210211296841 -0.044140910630618563 0 0.28684518800410669 -0.032144485369820917 0 0.28967305221796891 -0.044656669785010171 0 0.2907726228005002 -0.21197282061066769 0 0.27340535246785691 -0.20232604968395851 0 0.29742521820764101 -0.18444777332414691 0 0.27340535246785691 -0.20232604968395851 0 0.29742521820764101 -0.18444777332414691 0 0.31246275484666619 -0.21031234773820071 0 0.29742521820764101 -0.18444777332414691 0 0.32694014948630912 -0.18800667112601299 0 0.2907726228005002 -0.21197282061066769 0 0.31246275484666619 -0.21031234773820071 0 0.29742521820764101 -0.18444777332414691 0 0.2907726228005002 -0.21197282061066769 0 0.31246275484666619 -0.21031234773820071 0 0.29360691313776 -0.2316362146819777 0 0.29360691313776 -0.2316362146819777 0 0.31620253618049943 -0.23025104169372429 0 0.31246275484666619 -0.21031234773820071 0 0.29360691313776 -0.2316362146819777 0 0.31620253618049943 -0.23025104169372429 0 0.29360691313776 -0.2316362146819777 0 0.31314198633835533 -0.24956525868757071 0 0.31620253618049943 -0.23025104169372429 0 0.29360691313776 -0.2316362146819777 0 0.31314198633835533 -0.24956525868757071 0 0.29526169436595001 -0.25668483292193389 0 0.29360691313776 -0.2316362146819777 0 0.27101129009502062 -0.23302138767023109 0 0.27983965477651479 -0.24805314350398611 0 0.29360691313776 -0.2316362146819777 0 0.27983965477651479 -0.24805314350398611 0 0.29526169436595001 -0.25668483292193389 0 0.2907726228005002 -0.21197282061066769 0 0.29360691313776 -0.2316362146819777 0 0.27101129009502062 -0.23302138767023109 0 0.29360691313776 -0.2316362146819777 0 0.27101129009502062 -0.23302138767023109 0 0.27101129009502062 -0.23302138767023109 0 0.27983965477651479 -0.24805314350398611 0 0.26389312579297852 -0.25232101815766539 0 0.27101129009502062 -0.23302138767023109 0 0.26389312579297852 -0.25232101815766539 0 0.2489702938113785 -0.2367608979880374 0 0.26389312579297852 -0.25232101815766539 0 0.2472694597858873 -0.25498884440800829 0 0.2489702938113785 -0.2367608979880374 0 0.27101129009502062 -0.23302138767023109 0 0.2489702938113785 -0.2367608979880374 0 0.24938548672807259 -0.22020432604376991 0 0.27340535246785691 -0.20232604968395851 0 0.25112293762544419 -0.19362497304091861 0 0.24938548672807259 -0.22020432604376991 0 0.27340535246785691 -0.20232604968395851 0 0.24938548672807259 -0.22020432604376991 0 0.27101129009502062 -0.23302138767023109 0 0.27340535246785691 -0.20232604968395851 0 0.24938548672807259 -0.22020432604376991 0 0.27340535246785691 -0.20232604968395851 0 0.25112293762544419 -0.19362497304091861 0 0.27350264208828251 -0.16986352441860461 0 0.2907726228005002 -0.21197282061066769 0 0.27101129009502062 -0.23302138767023109 0 0.27340535246785691 -0.20232604968395851 0 0.25112293762544419 -0.19362497304091861 0 0.27350264208828251 -0.16986352441860461 0 0.24462922542526189 -0.1680610887697877 0 0.27350264208828251 -0.16986352441860461 0 0.26006545064579711 -0.14768455072516859 0 0.24462922542526189 -0.1680610887697877 0 0.25403700729592121 -0.1246845662904464 0 0.26006545064579711 -0.14768455072516859 0 0.26903023724207809 -0.13260925622388589 0 0.25403700729592121 -0.1246845662904464 0 0.26006545064579711 -0.14768455072516859 0 0.24085401083076899 -0.14725923797183901 0 0.27350264208828251 -0.16986352441860461 0 0.26006545064579711 -0.14768455072516859 0 0.28128979757253258 -0.14294977005788009 0 0.26006545064579711 -0.14768455072516859 0 0.26903023724207809 -0.13260925622388589 0 0.28128979757253258 -0.14294977005788009 0 0.27986173711560342 -0.1177420705747923 0 0.28128979757253258 -0.14294977005788009 0 0.27986173711560342 -0.1177420705747923 0 0.25403700729592121 -0.1246845662904464 0 0.26903023724207809 -0.13260925622388589 0 0.27986173711560342 -0.1177420705747923 0 0.26903023724207809 -0.13260925622388589 0 0.28128979757253258 -0.14294977005788009 0 0.29071097194558521 -0.12712196578212251 0 0.29391662255481049 -0.13950936739445671 0 0.28128979757253258 -0.14294977005788009 0 0.27986173711560342 -0.1177420705747923 0 0.29071097194558521 -0.12712196578212251 0 0.28128979757253258 -0.14294977005788009 0 0.29071097194558521 -0.12712196578212251 0 0.29391662255481049 -0.13950936739445671 0 0.30107273091361669 -0.1292622308547281 0 0.29849140758012072 -0.1213131280295386 0 0.29071097194558521 -0.12712196578212251 0 0.30107273091361669 -0.1292622308547281 0 0.27350264208828251 -0.16986352441860461 0 0.28128979757253258 -0.14294977005788009 0 0.29189612199198228 -0.15411288578809229 0 0.29391662255481049 -0.13950936739445671 0 0.29189612199198228 -0.15411288578809229 0 0.30461349035033569 -0.14409998448946071 0 0.29391662255481049 -0.13950936739445671 0 0.28128979757253258 -0.14294977005788009 0 0.29189612199198228 -0.15411288578809229 0 0.30461349035033569 -0.14409998448946071 0 0.30779049005777392 -0.1600739946036982 0 0.31493269442773109 -0.15018315204450561 0 0.29189612199198228 -0.15411288578809229 0 0.30461349035033569 -0.14409998448946071 0 0.30779049005777392 -0.1600739946036982 0 0.30461349035033569 -0.14409998448946071 0 0.31789640730137658 -0.14170886884967909 0 0.31493269442773109 -0.15018315204450561 0 0.29391662255481049 -0.13950936739445671 0 0.30461349035033569 -0.14409998448946071 0 0.30107273091361669 -0.1292622308547281 0 0.30461349035033569 -0.14409998448946071 0 0.3124293270049408 -0.13133466643591871 0 0.30107273091361669 -0.1292622308547281 0 0.30461349035033569 -0.14409998448946071 0 0.3124293270049408 -0.13133466643591871 0 0.31789640730137658 -0.14170886884967909 0 0.30783137815710498 -0.1220768158476193 0 0.3124293270049408 -0.13133466643591871 0 0.30107273091361669 -0.1292622308547281 0 0.27340535246785691 -0.20232604968395851 0 0.27350264208828251 -0.16986352441860461 0 0.29742521820764101 -0.18444777332414691 0 0.27350264208828251 -0.16986352441860461 0 0.29189612199198228 -0.15411288578809229 0 0.29742521820764101 -0.18444777332414691 0 0.29189612199198228 -0.15411288578809229 0 0.30779049005777392 -0.1600739946036982 0 0.29742521820764101 -0.18444777332414691 0 0.30779049005777392 -0.1600739946036982 0 0.29742521820764101 -0.18444777332414691 0 0.32144508394742521 -0.16656949696433551 0 0.29742521820764101 -0.18444777332414691 0 0.32144508394742521 -0.16656949696433551 0 0.29742521820764101 -0.18444777332414691 0 0.32144508394742521 -0.16656949696433551 0 0.32694014948630912 -0.18800667112601299 0 0.30779049005777392 -0.1600739946036982 0 0.32204258597104518 -0.15871975603047511 0 0.32144508394742521 -0.16656949696433551 0 0.30779049005777392 -0.1600739946036982 0 0.32204258597104518 -0.15871975603047511 0 0.31493269442773109 -0.15018315204450561 0 0.32144508394742521 -0.16656949696433551 0 0.34546494968720581 -0.14869122060451931 0 0.32144508394742521 -0.16656949696433551 0 0.34546494968720581 -0.14869122060451931 0 0.3464850969213662 -0.17062749530107241 0 0.32204258597104518 -0.15871975603047511 0 0.32144508394742521 -0.16656949696433551 0 0.34546494968720581 -0.14869122060451931 0 0.32144508394742521 -0.16656949696433551 0 0.3464850969213662 -0.17062749530107241 0 0.32694014948630912 -0.18800667112601299 0 0.3464850969213662 -0.17062749530107241 0 0.34752303055782541 -0.1900172312027236 0 0.32694014948630912 -0.18800667112601299 0 0.31937529532925391 -0.1237791918182146 0 0.32358746823669399 -0.1328479150965767 0 0.33070245486972683 -0.12538109237787121 0 0.31937529532925391 -0.1237791918182146 0 0.3124293270049408 -0.13133466643591871 0 0.32358746823669399 -0.1328479150965767 0 0.31937529532925391 -0.1237791918182146 0 0.30783137815710498 -0.1220768158476193 0 0.3124293270049408 -0.13133466643591871 0 0.3124293270049408 -0.13133466643591871 0 0.32358746823669399 -0.1328479150965767 0 0.31789640730137658 -0.14170886884967909 0 0.32358746823669399 -0.1328479150965767 0 0.32625540551904209 -0.14598927048461621 0 0.31789640730137658 -0.14170886884967909 0 0.32625540551904209 -0.14598927048461621 0 0.31789640730137658 -0.14170886884967909 0 0.32028177330479868 -0.149150261852319 0 0.31789640730137658 -0.14170886884967909 0 0.32028177330479868 -0.149150261852319 0 0.31493269442773109 -0.15018315204450561 0 0.32204258597104518 -0.15871975603047511 0 0.32028177330479868 -0.149150261852319 0 0.31493269442773109 -0.15018315204450561 0 0.32204258597104518 -0.15871975603047511 0 0.32625540551904209 -0.14598927048461621 0 0.32028177330479868 -0.149150261852319 0 0.32204258597104518 -0.15871975603047511 0 0.32625540551904209 -0.14598927048461621 0 0.33957324098198138 -0.14442454387611209 0 0.32358746823669399 -0.1328479150965767 0 0.32625540551904209 -0.14598927048461621 0 0.33957324098198138 -0.14442454387611209 0 0.32204258597104518 -0.15871975603047511 0 0.33957324098198138 -0.14442454387611209 0 0.34546494968720581 -0.14869122060451931 0 0.32204258597104518 -0.15871975603047511 0 0.33957324098198138 -0.14442454387611209 0 0.33957324098198138 -0.14442454387611209 0 0.34546494968720581 -0.14869122060451931 0 0.33070245486972683 -0.12538109237787121 0 0.35099940399559643 -0.1351071838409009 0 0.32358746823669399 -0.1328479150965767 0 0.33957324098198138 -0.14442454387611209 0 0.33407753668466211 -0.13473436152431359 0 0.33986925156649322 -0.13530382378819819 0 0.33070245486972683 -0.12538109237787121 0 0.35099940399559643 -0.1351071838409009 0 0.34371930373554588 -0.1237693052416973 0 0.33070245486972683 -0.12538109237787121 0 0.35099940399559643 -0.1351071838409009 0 0.32358746823669399 -0.1328479150965767 0 0.33957324098198138 -0.14442454387611209 0 0.33957324098198138 -0.14442454387611209 0 0.33407753668466211 -0.13473436152431359 0 0.33986925156649322 -0.13530382378819819 0 0.33957324098198138 -0.14442454387611209 0 0.33986925156649322 -0.13530382378819819 0 0.35099940399559643 -0.1351071838409009 0 0.33407753668466211 -0.13473436152431359 0 0.33986925156649322 -0.13530382378819819 0 0.33070245486972683 -0.12538109237787121 0 0.32358746823669399 -0.1328479150965767 0 0.33407753668466211 -0.13473436152431359 0 0.33070245486972683 -0.12538109237787121 0 0.35212697750611771 -0.12383452340526881 0 0.35862075371719498 -0.1205653759522488 0 0.35099940399559643 -0.1351071838409009 0 0.35212697750611771 -0.12383452340526881 0 0.34371930373554588 -0.1237693052416973 0 0.35099940399559643 -0.1351071838409009 0 0.33957324098198138 -0.14442454387611209 0 0.35099940399559643 -0.1351071838409009 0 0.35099940399559643 -0.1351071838409009 0 0.3587351300041115 -0.13881406501920929 0 0.3587351300041115 -0.13881406501920929 0 0.34546494968720581 -0.14869122060451931 0 0.36766278486178572 -0.16476652091183699 0 0.3587351300041115 -0.13881406501920929 0 0.34546494968720581 -0.14869122060451931 0 0.35099940399559643 -0.1351071838409009 0 0.3587351300041115 -0.13881406501920929 0 0.34546494968720581 -0.14869122060451931 0 0.33957324098198138 -0.14442454387611209 0 0.35099940399559643 -0.1351071838409009 0 0.34546494968720581 -0.14869122060451931 0 0.3587351300041115 -0.13881406501920929 0 0.38251943169041419 -0.1502112603390898 0 0.3587351300041115 -0.13881406501920929 0 0.36766278486178572 -0.16476652091183699 0 0.38251943169041419 -0.1502112603390898 0 0.37753365373168629 -0.1248220966210976 0 0.3587351300041115 -0.13881406501920929 0 0.36995877703419078 -0.1196469366492653 0 0.35862075371719498 -0.1205653759522488 0 0.35099940399559643 -0.1351071838409009 0 0.37753365373168629 -0.1248220966210976 0 0.36995877703419078 -0.1196469366492653 0 0.3587351300041115 -0.13881406501920929 0 0.37753365373168629 -0.1248220966210976 0 0.3587351300041115 -0.13881406501920929 0 0.38251943169041419 -0.1502112603390898 0 0.36995877703419078 -0.1196469366492653 0 0.35099940399559643 -0.1351071838409009 0 0.3587351300041115 -0.13881406501920929 0 0.36995877703419078 -0.1196469366492653 0 0.35099940399559643 -0.1351071838409009 0 0.3464850969213662 -0.17062749530107241 0 0.36309525726108782 -0.18175147304167061 0 0.34752303055782541 -0.1900172312027236 0 0.3464850969213662 -0.17062749530107241 0 0.36766278486178572 -0.16476652091183699 0 0.36309525726108782 -0.18175147304167061 0 0.34546494968720581 -0.14869122060451931 0 0.3464850969213662 -0.17062749530107241 0 0.36766278486178572 -0.16476652091183699 0 0.34546494968720581 -0.14869122060451931 0 0.36766278486178572 -0.16476652091183699 0 0.36766278486178572 -0.16476652091183699 0 0.36309525726108782 -0.18175147304167061 0 0.38986062003635402 -0.1808418212191707 0 0.37470622858833008 -0.19398379007187491 0 0.36580120488221912 -0.20450052978670849 0 0.37952987043715691 -0.2065167992691091 0 0.36017816692859322 -0.19500589984945729 0 0.36580120488221912 -0.20450052978670849 0 0.35371078961039087 -0.2050174716631015 0 0.37470622858833008 -0.19398379007187491 0 0.36017816692859322 -0.19500589984945729 0 0.36580120488221912 -0.20450052978670849 0 0.36309525726108782 -0.18175147304167061 0 0.37470622858833008 -0.19398379007187491 0 0.36017816692859322 -0.19500589984945729 0 0.36660369373075602 -0.21607747614591921 0 0.36528392010773852 -0.2208088783075689 0 0.39025161194271762 -0.2184974856299069 0 0.36580120488221912 -0.20450052978670849 0 0.36660369373075602 -0.21607747614591921 0 0.37952987043715691 -0.2065167992691091 0 0.36580120488221912 -0.20450052978670849 0 0.36175379470591479 -0.21049616548700231 0 0.36660369373075602 -0.21607747614591921 0 0.36580120488221912 -0.20450052978670849 0 0.36175379470591479 -0.21049616548700231 0 0.35371078961039087 -0.2050174716631015 0 0.36175379470591479 -0.21049616548700231 0 0.36660369373075602 -0.21607747614591921 0 0.35751772039219593 -0.21609281123296009 0 0.36660369373075602 -0.21607747614591921 0 0.35751772039219593 -0.21609281123296009 0 0.36528392010773852 -0.2208088783075689 0 0.36660369373075602 -0.21607747614591921 0 0.36528392010773852 -0.2208088783075689 0 0.35371078961039087 -0.2050174716631015 0 0.34823235579286183 -0.21364954955816179 0 0.33629971243693069 -0.20606568222559921 0 0.35751772039219593 -0.21609281123296009 0 0.34823235579286183 -0.21364954955816179 0 0.35074926853678878 -0.22215442868665611 0 0.35751772039219593 -0.21609281123296009 0 0.35371078961039087 -0.2050174716631015 0 0.34823235579286183 -0.21364954955816179 0 0.36175379470591479 -0.21049616548700231 0 0.35751772039219593 -0.21609281123296009 0 0.35371078961039087 -0.2050174716631015 0 0.34823235579286183 -0.21364954955816179 0 0.34030974545305792 -0.21810903906476961 0 0.35074926853678878 -0.22215442868665611 0 0.35371078961039087 -0.2050174716631015 0 0.34752303055782541 -0.1900172312027236 0 0.33629971243693069 -0.20606568222559921 0 0.36309525726108782 -0.18175147304167061 0 0.36017816692859322 -0.19500589984945729 0 0.34752303055782541 -0.1900172312027236 0 0.36017816692859322 -0.19500589984945729 0 0.35371078961039087 -0.2050174716631015 0 0.34752303055782541 -0.1900172312027236 0 0.34752303055782541 -0.1900172312027236 0 0.33629971243693069 -0.20606568222559921 0 0.32694014948630912 -0.18800667112601299 0 0.34823235579286183 -0.21364954955816179 0 0.33629971243693069 -0.20606568222559921 0 0.34030974545305792 -0.21810903906476961 0 0.33629971243693069 -0.20606568222559921 0 0.34030974545305792 -0.21810903906476961 0 0.32746923127546912 -0.21980966614795999 0 0.31246275484666619 -0.21031234773820071 0 0.33629971243693069 -0.20606568222559921 0 0.32746923127546912 -0.21980966614795999 0 0.31246275484666619 -0.21031234773820071 0 0.33629971243693069 -0.20606568222559921 0 0.32694014948630912 -0.18800667112601299 0 0.31314198633835533 -0.24956525868757071 0 0.31620253618049943 -0.23025104169372429 0 0.33751164888474638 -0.244602004849788 0 0.31620253618049943 -0.23025104169372429 0 0.32746923127546912 -0.21980966614795999 0 0.33879815922323869 -0.22886586870547099 0 0.31620253618049943 -0.23025104169372429 0 0.33879815922323869 -0.22886586870547099 0 0.31246275484666619 -0.21031234773820071 0 0.31620253618049943 -0.23025104169372429 0 0.32746923127546912 -0.21980966614795999 0 0.34030974545305792 -0.21810903906476961 0 0.32746923127546912 -0.21980966614795999 0 0.33879815922323869 -0.22886586870547099 0 0.34030974545305792 -0.21810903906476961 0 0.33879815922323869 -0.22886586870547099 0 0.35074926853678878 -0.22215442868665611 0 0.31620253618049943 -0.23025104169372429 0 0.33879815922323869 -0.22886586870547099 0 0.33751164888474638 -0.244602004849788 0 0.33879815922323869 -0.22886586870547099 0 0.33751164888474638 -0.244602004849788 0 0.3505554929032248 -0.23566923366573481 0 0.33751164888474638 -0.244602004849788 0 0.3505554929032248 -0.23566923366573481 0 0.35796260658620471 -0.24705586340997779 0 0.3505554929032248 -0.23566923366573481 0 0.35796260658620471 -0.24705586340997779 0 0.36139378226597813 -0.2274806957172176 0 0.33879815922323869 -0.22886586870547099 0 0.3505554929032248 -0.23566923366573481 0 0.36139378226597813 -0.2274806957172176 0 0.33879815922323869 -0.22886586870547099 0 0.35074926853678878 -0.22215442868665611 0 0.36139378226597813 -0.2274806957172176 0 0.33879815922323869 -0.22886586870547099 0 0.36139378226597813 -0.2274806957172176 0 0.35074926853678878 -0.22215442868665611 0 0.36528392010773852 -0.2208088783075689 0 0.35751772039219593 -0.21609281123296009 0 0.35074926853678878 -0.22215442868665611 0 0.36528392010773852 -0.2208088783075689 0 0.35074926853678878 -0.22215442868665611 0 0.36528392010773852 -0.2208088783075689 0 0.36139378226597813 -0.2274806957172176 0 0.36528392010773852 -0.2208088783075689 0 0.37284530265142762 -0.2404476806440933 0 0.38233031003628037 -0.23274648068010431 0 0.35796260658620471 -0.24705586340997779 0 0.36528392010773852 -0.2208088783075689 0 0.35796260658620471 -0.24705586340997779 0 0.36528392010773852 -0.2208088783075689 0 0.36139378226597813 -0.2274806957172176 0 0.35796260658620471 -0.24705586340997779 0 0.36528392010773852 -0.2208088783075689 0 0.37284530265142762 -0.2404476806440933 0 0.35796260658620471 -0.24705586340997779 0 0.37284530265142762 -0.2404476806440933 0 0.37259386068367178 -0.25127866304762542 0 0.37284530265142762 -0.2404476806440933 0 0.38493658990460172 -0.24778607594761029 0 0.37259386068367178 -0.25127866304762542 0 0.38493658990460172 -0.24778607594761029 0 0.39833412557491671 -0.23619228287134231 0 0.38233031003628037 -0.23274648068010431 0 0.37284530265142762 -0.2404476806440933 0 0.38493658990460172 -0.24778607594761029 0 0.38233031003628037 -0.23274648068010431 0 0.38493658990460172 -0.24778607594761029 0 0.39833412557491671 -0.23619228287134231 0 0.39872282926479402 -0.25290581260322298 0 0.39833412557491671 -0.23619228287134231 0 0.41052225686018412 -0.24574795916561171 0 0.39872282926479402 -0.25290581260322298 0 0.39833412557491671 -0.23619228287134231 0 0.39025161194271762 -0.2184974856299069 0 0.41521930377769661 -0.21618609295224431 0 0.36528392010773852 -0.2208088783075689 0 0.38233031003628037 -0.23274648068010431 0 0.39025161194271762 -0.2184974856299069 0 0.36528392010773852 -0.2208088783075689 0 0.39025161194271762 -0.2184974856299069 0 0.39833412557491671 -0.23619228287134231 0 0.38233031003628037 -0.23274648068010431 0 0.39025161194271762 -0.2184974856299069 0 0.39025161194271762 -0.2184974856299069 0 0.37952987043715691 -0.2065167992691091 0 0.39409105017505242 -0.19995637233951891 0 0.36660369373075602 -0.21607747614591921 0 0.39025161194271762 -0.2184974856299069 0 0.37952987043715691 -0.2065167992691091 0 0.37470622858833008 -0.19398379007187491 0 0.39409105017505242 -0.19995637233951891 0 0.38986062003635402 -0.1808418212191707 0 0.37470622858833008 -0.19398379007187491 0 0.37952987043715691 -0.2065167992691091 0 0.39409105017505242 -0.19995637233951891 0 0.41205845521092233 -0.19691712152650451 0 0.38986062003635402 -0.1808418212191707 0 0.39409105017505242 -0.19995637233951891 0 0.41205845521092233 -0.19691712152650451 0 0.38986062003635402 -0.1808418212191707 0 0.39025161194271762 -0.2184974856299069 0 0.39409105017505242 -0.19995637233951891 0 0.41521930377769661 -0.21618609295224431 0 0.39025161194271762 -0.2184974856299069 0 0.41521930377769661 -0.21618609295224431 0 0.39409105017505242 -0.19995637233951891 0 0.41521930377769661 -0.21618609295224431 0 0.41205845521092233 -0.19691712152650451 0 0.41521930377769661 -0.21618609295224431 0 0.41205845521092233 -0.19691712152650451 0 0.43425629038549057 -0.21299242183383821 0 0.41205845521092233 -0.19691712152650451 0 0.42689648232140143 -0.19482714267743451 0 0.41274517172619568 -0.17868190359708741 0 0.41205845521092233 -0.19691712152650451 0 0.42689648232140143 -0.19482714267743451 0 0.43425629038549057 -0.21299242183383821 0 0.42689648232140143 -0.19482714267743451 0 0.4393936968901202 -0.20379104214290031 0 0.44120838392944101 -0.19025535279631631 0 0.41521930377769661 -0.21618609295224431 0 0.43425629038549057 -0.21299242183383821 0 0.4401869956126756 -0.21387470027458161 0 0.41521930377769661 -0.21618609295224431 0 0.42841326383205047 -0.2249402867554349 0 0.4401869956126756 -0.21387470027458161 0 0.42689648232140143 -0.19482714267743451 0 0.43425629038549057 -0.21299242183383821 0 0.4393936968901202 -0.20379104214290031 0 0.41205845521092233 -0.19691712152650451 0 0.43425629038549057 -0.21299242183383821 0 0.41521930377769661 -0.21618609295224431 0 0.4401869956126756 -0.21387470027458161 0 0.42841326383205047 -0.2249402867554349 0 0.43835091128863068 -0.2258051776383718 0 0.4401869956126756 -0.21387470027458161 0 0.42841326383205047 -0.2249402867554349 0 0.43129387343614539 -0.2355983238397466 0 0.41701523504510379 -0.23323713907223009 0 0.42841326383205047 -0.2249402867554349 0 0.43129387343614539 -0.2355983238397466 0 0.43835091128863068 -0.2258051776383718 0 0.43129387343614539 -0.2355983238397466 0 0.44202602000744412 -0.24083141477102141 0 0.43835091128863068 -0.2258051776383718 0 0.43129387343614539 -0.2355983238397466 0 0.431334621702953 -0.24822071671014981 0 0.44202602000744412 -0.24083141477102141 0 0.43129387343614539 -0.2355983238397466 0 0.431334621702953 -0.24822071671014981 0 0.42190675602349742 -0.24322619894733949 0 0.431334621702953 -0.24822071671014981 0 0.42190675602349742 -0.24322619894733949 0 0.42074550956160423 -0.25332972919439273 0 0.43129387343614539 -0.2355983238397466 0 0.42190675602349742 -0.24322619894733949 0 0.41701523504510379 -0.23323713907223009 0 0.39833412557491671 -0.23619228287134231 0 0.41052225686018412 -0.24574795916561171 0 0.41701523504510379 -0.23323713907223009 0 0.42190675602349742 -0.24322619894733949 0 0.41052225686018412 -0.24574795916561171 0 0.41701523504510379 -0.23323713907223009 0 0.42190675602349742 -0.24322619894733949 0 0.41052225686018412 -0.24574795916561171 0 0.42074550956160423 -0.25332972919439273 0 0.39833412557491671 -0.23619228287134231 0 0.41521930377769661 -0.21618609295224431 0 0.41701523504510379 -0.23323713907223009 0 0.41521930377769661 -0.21618609295224431 0 0.42841326383205047 -0.2249402867554349 0 0.41701523504510379 -0.23323713907223009 0 0.39633217745925881 -0.11083012822298299 0 0.39356079645124381 -0.1353071490638019 0 0.41301553878902347 -0.13142107497970981 0 0.37753365373168629 -0.1248220966210976 0 0.39356079645124381 -0.1353071490638019 0 0.38251943169041419 -0.1502112603390898 0 0.39356079645124381 -0.1353071490638019 0 0.38251943169041419 -0.1502112603390898 0 0.40630373337671621 -0.16160845565897169 0 0.39356079645124381 -0.1353071490638019 0 0.40630373337671621 -0.16160845565897169 0 0.41301553878902347 -0.13142107497970981 0 0.38251943169041419 -0.1502112603390898 0 0.40630373337671621 -0.16160845565897169 0 0.38251943169041419 -0.1502112603390898 0 0.39027218956322818 -0.16454817369349811 0 0.40630373337671621 -0.16160845565897169 0 0.39027218956322818 -0.16454817369349811 0 0.38986062003635402 -0.1808418212191707 0 0.40630373337671621 -0.16160845565897169 0 0.36766278486178572 -0.16476652091183699 0 0.39027218956322818 -0.16454817369349811 0 0.38986062003635402 -0.1808418212191707 0 0.36766278486178572 -0.16476652091183699 0 0.38251943169041419 -0.1502112603390898 0 0.39027218956322818 -0.16454817369349811 0 0.36766278486178572 -0.16476652091183699 0 0.38986062003635402 -0.1808418212191707 0 0.36309525726108782 -0.18175147304167061 0 0.37470622858833008 -0.19398379007187491 0 0.38986062003635402 -0.1808418212191707 0 0.41205845521092233 -0.19691712152650451 0 0.38986062003635402 -0.1808418212191707 0 0.41274517172619568 -0.17868190359708741 0 0.38986062003635402 -0.1808418212191707 0 0.41274517172619568 -0.17868190359708741 0 0.40630373337671621 -0.16160845565897169 0 0.42689648232140143 -0.19482714267743451 0 0.43008803506301813 -0.1730056509788537 0 0.44120838392944101 -0.19025535279631631 0 0.42689648232140143 -0.19482714267743451 0 0.41274517172619568 -0.17868190359708741 0 0.43008803506301813 -0.1730056509788537 0 0.43008803506301813 -0.1730056509788537 0 0.42623874465269829 -0.1503979287396339 0 0.45082582976846569 -0.15173710991005709 0 0.43008803506301813 -0.1730056509788537 0 0.40630373337671621 -0.16160845565897169 0 0.42623874465269829 -0.1503979287396339 0 0.43008803506301813 -0.1730056509788537 0 0.40630373337671621 -0.16160845565897169 0 0.41274517172619568 -0.17868190359708741 0 0.43008803506301813 -0.1730056509788537 0 0.40630373337671621 -0.16160845565897169 0 0.40630373337671621 -0.16160845565897169 0 0.42623874465269829 -0.1503979287396339 0 0.41301553878902347 -0.13142107497970981 0 0.42427560559550581 -0.11902307359181501 0 0.43231071002569682 -0.12852044256002301 0 0.41301553878902347 -0.13142107497970981 0 0.42623874465269829 -0.1503979287396339 0 0.43231071002569682 -0.12852044256002301 0 0.44744190240454468 -0.13601222872425869 0 0.42623874465269829 -0.1503979287396339 0 0.43231071002569682 -0.12852044256002301 0 0.41301553878902347 -0.13142107497970981 0 0.4488469960896303 -0.1198907653690512 0 0.4638311428672906 -0.1236923512144171 0 0.44744190240454468 -0.13601222872425869 0 0.4638311428672906 -0.1236923512144171 0 0.46364003850979219 -0.14028777279360849 0 0.44744190240454468 -0.13601222872425869 0 0.4488469960896303 -0.1198907653690512 0 0.43231071002569682 -0.12852044256002301 0 0.44744190240454468 -0.13601222872425869 0 0.42623874465269829 -0.1503979287396339 0 0.44744190240454468 -0.13601222872425869 0 0.45082582976846569 -0.15173710991005709 0 0.42623874465269829 -0.1503979287396339 0 0.45082582976846569 -0.15173710991005709 0 0.45082582976846569 -0.15173710991005709 0 0.47541291488423332 -0.15307629108048029 0 0.46364003850979219 -0.14028777279360849 0 0.45082582976846569 -0.15173710991005709 0 0.47541291488423332 -0.15307629108048029 0 0.46364003850979219 -0.14028777279360849 0 0.44744190240454468 -0.13601222872425869 0 0.45082582976846569 -0.15173710991005709 0 0.45082582976846569 -0.15173710991005709 0 0.46414015605154008 -0.16783865705271281 0 0.44914106397011039 -0.17598128562042609 0 0.45082582976846569 -0.15173710991005709 0 0.46414015605154008 -0.16783865705271281 0 0.47541291488423332 -0.15307629108048029 0 0.43008803506301813 -0.1730056509788537 0 0.45082582976846569 -0.15173710991005709 0 0.44914106397011039 -0.17598128562042609 0 0.43008803506301813 -0.1730056509788537 0 0.44914106397011039 -0.17598128562042609 0 0.44120838392944101 -0.19025535279631631 0 0.44914106397011039 -0.17598128562042609 0 0.44120838392944101 -0.19025535279631631 0 0.45337174915547829 -0.1909209274715862 0 0.46414015605154008 -0.16783865705271281 0 0.44914106397011039 -0.17598128562042609 0 0.46499970879783109 -0.1845111503416548 0 0.44914106397011039 -0.17598128562042609 0 0.46499970879783109 -0.1845111503416548 0 0.45337174915547829 -0.1909209274715862 0 0.46499970879783109 -0.1845111503416548 0 0.48032126283705989 -0.1738874483109456 0 0.47951535921235 -0.19742723997522249 0 0.46414015605154008 -0.16783865705271281 0 0.46499970879783109 -0.1845111503416548 0 0.48032126283705989 -0.1738874483109456 0 0.48032126283705989 -0.1738874483109456 0 0.5 -0.18225066829903061 0 0.47951535921235 -0.19742723997522249 0 0.48032126283705989 -0.1738874483109456 0 0.5 -0.18225066829903061 0 0.50000000000000078 -0.15441547225090349 0 0.48032126283705989 -0.1738874483109456 0 0.47541291488423332 -0.15307629108048029 0 0.50000000000000078 -0.15441547225090349 0 0.46414015605154008 -0.16783865705271281 0 0.48032126283705989 -0.1738874483109456 0 0.47541291488423332 -0.15307629108048029 0 0.46364003850979219 -0.14028777279360849 0 0.47541291488423332 -0.15307629108048029 0 0.48068840262442653 -0.13692088303882899 0 0.47541291488423332 -0.15307629108048029 0 0.50000000000000078 -0.15441547225090349 0 0.48068840262442653 -0.13692088303882899 0 0.47541291488423332 -0.15307629108048029 0 0.50000000000000078 -0.15441547225090349 0 0.50000000000000078 -0.15441547225090349 0 0.5 -0.1292744441348497 0 0.48068840262442653 -0.13692088303882899 0 0.48228836697154809 -0.11923196499995389 0 0.5 -0.1292744441348497 0 0.48068840262442653 -0.13692088303882899 0 0.4638311428672906 -0.1236923512144171 0 0.46364003850979219 -0.14028777279360849 0 0.48068840262442653 -0.13692088303882899 0 0.48228836697154809 -0.11923196499995389 0 0.4638311428672906 -0.1236923512144171 0 0.48068840262442653 -0.13692088303882899 0 0.4622465208287948 -0.22469370543765599 0 0.46713100939537788 -0.2373571775898925 0 0.44952201437368039 -0.23037835504977139 0 0.4622465208287948 -0.22469370543765599 0 0.44952201437368039 -0.23037835504977139 0 0.4530150634284526 -0.21751064305169021 0 0.46713100939537788 -0.2373571775898925 0 0.45459618760586368 -0.2459213792974897 0 0.46850828596256489 -0.25348251997850518 0 0.46713100939537788 -0.2373571775898925 0 0.45459618760586368 -0.2459213792974897 0 0.44952201437368039 -0.23037835504977139 0 0.45459618760586368 -0.2459213792974897 0 0.44202602000744412 -0.24083141477102141 0 0.44952201437368039 -0.23037835504977139 0 0.45459618760586368 -0.2459213792974897 0 0.44202602000744412 -0.24083141477102141 0 0.4426108592012758 -0.25616356821076058 0 0.431334621702953 -0.24822071671014981 0 0.44202602000744412 -0.24083141477102141 0 0.4426108592012758 -0.25616356821076058 0 0.44202602000744412 -0.24083141477102141 0 0.44952201437368039 -0.23037835504977139 0 0.43835091128863068 -0.2258051776383718 0 0.44952201437368039 -0.23037835504977139 0 0.4451682138880621 -0.22074782715594279 0 0.4530150634284526 -0.21751064305169021 0 0.44952201437368039 -0.23037835504977139 0 0.4451682138880621 -0.22074782715594279 0 0.43835091128863068 -0.2258051776383718 0 0.4451682138880621 -0.22074782715594279 0 0.43835091128863068 -0.2258051776383718 0 0.4401869956126756 -0.21387470027458161 0 0.4451682138880621 -0.22074782715594279 0 0.4401869956126756 -0.21387470027458161 0 0.44682692310396932 -0.21328115517551649 0 0.4401869956126756 -0.21387470027458161 0 0.44479213309845789 -0.20818871759456031 0 0.44682692310396932 -0.21328115517551649 0 0.4393936968901202 -0.20379104214290031 0 0.44479213309845789 -0.20818871759456031 0 0.45072455857603438 -0.20421749266452541 0 0.43425629038549057 -0.21299242183383821 0 0.4401869956126756 -0.21387470027458161 0 0.4393936968901202 -0.20379104214290031 0 0.4401869956126756 -0.21387470027458161 0 0.4393936968901202 -0.20379104214290031 0 0.44479213309845789 -0.20818871759456031 0 0.44479213309845789 -0.20818871759456031 0 0.45072455857603438 -0.20421749266452541 0 0.44682692310396932 -0.21328115517551649 0 0.4451682138880621 -0.22074782715594279 0 0.4530150634284526 -0.21751064305169021 0 0.44682692310396932 -0.21328115517551649 0 0.45072455857603438 -0.20421749266452541 0 0.4530150634284526 -0.21751064305169021 0 0.44682692310396932 -0.21328115517551649 0 0.4393936968901202 -0.20379104214290031 0 0.45072455857603438 -0.20421749266452541 0 0.44120838392944101 -0.19025535279631631 0 0.45072455857603438 -0.20421749266452541 0 0.44120838392944101 -0.19025535279631631 0 0.45337174915547829 -0.1909209274715862 0 0.46499970879783109 -0.1845111503416548 0 0.45337174915547829 -0.1909209274715862 0 0.46281578150358088 -0.1975862754902199 0 0.45072455857603438 -0.20421749266452541 0 0.45337174915547829 -0.1909209274715862 0 0.46281578150358088 -0.1975862754902199 0 0.4622465208287948 -0.22469370543765599 0 0.4530150634284526 -0.21751064305169021 0 0.46546753177621081 -0.2108545669981107 0 0.45072455857603438 -0.20421749266452541 0 0.4530150634284526 -0.21751064305169021 0 0.46546753177621081 -0.2108545669981107 0 0.45072455857603438 -0.20421749266452541 0 0.46281578150358088 -0.1975862754902199 0 0.46546753177621081 -0.2108545669981107 0 0.46546753177621081 -0.2108545669981107 0 0.47951535921235 -0.19742723997522249 0 0.47947633257614952 -0.2238234179083414 0 0.46281578150358088 -0.1975862754902199 0 0.46546753177621081 -0.2108545669981107 0 0.47951535921235 -0.19742723997522249 0 0.46499970879783109 -0.1845111503416548 0 0.46281578150358088 -0.1975862754902199 0 0.47951535921235 -0.19742723997522249 0 0.5 -0.18225066829903061 0 0.47951535921235 -0.19742723997522249 0 0.5 -0.21008586434715781 0 0.47951535921235 -0.19742723997522249 0 0.5 -0.21008586434715781 0 0.47947633257614952 -0.2238234179083414 0 0.5 -0.21008586434715781 0 0.47947633257614952 -0.2238234179083414 0 0.5 -0.2379210603952851 0 0.4622465208287948 -0.22469370543765599 0 0.46713100939537788 -0.2373571775898925 0 0.47947633257614952 -0.2238234179083414 0 0.4622465208287948 -0.22469370543765599 0 0.46546753177621081 -0.2108545669981107 0 0.47947633257614952 -0.2238234179083414 0 0.46713100939537788 -0.2373571775898925 0 0.48366358052326119 -0.2466521273198285 0 0.46850828596256489 -0.25348251997850518 0 0.46713100939537788 -0.2373571775898925 0 0.47947633257614952 -0.2238234179083414 0 0.48366358052326119 -0.2466521273198285 0 0.47947633257614952 -0.2238234179083414 0 0.48366358052326119 -0.2466521273198285 0 0.5 -0.2379210603952851 0 0.48366358052326119 -0.2466521273198285 0 0.5 -0.2379210603952851 0 0.50000000000000089 -0.26575625644341228 0 0.50000000000000089 -0.26575625644341228 0 0.48413680388112551 -0.26719254372692408 0 0.48362234693830891 -0.26391544838013359 0 0.48366358052326119 -0.2466521273198285 0 0.50000000000000089 -0.26575625644341228 0 0.48362234693830891 -0.26391544838013359 0 0.50000000000000089 -0.26575625644341228 0 0.49301545589229662 -0.27990386989445298 0 0.5 -0.29534316696324309 0 0.48413680388112551 -0.26719254372692408 0 0.4879250196880599 -0.29132351244423288 0 0.50000000000000089 -0.26575625644341228 0 0.49301545589229662 -0.27990386989445298 0 0.48413680388112551 -0.26719254372692408 0 0.49301545589229662 -0.27990386989445298 0 0.48413680388112551 -0.26719254372692408 0 0.4879250196880599 -0.29132351244423288 0 0.50000000000000089 -0.26575625644341228 0 0.48413680388112551 -0.26719254372692408 0 0.48413680388112551 -0.26719254372692408 0 0.47065871758863642 -0.28424935028375609 0 0.4879250196880599 -0.29132351244423288 0 0.48413680388112551 -0.26719254372692408 0 0.46209381704023078 -0.26918836231562099 0 0.48413680388112551 -0.26719254372692408 0 0.46209381704023078 -0.26918836231562099 0 0.47065871758863642 -0.28424935028375609 0 0.48413680388112551 -0.26719254372692408 0 0.48362234693830891 -0.26391544838013359 0 0.46209381704023078 -0.26918836231562099 0 0.48366358052326119 -0.2466521273198285 0 0.48362234693830891 -0.26391544838013359 0 0.46850828596256489 -0.25348251997850518 0 0.48362234693830891 -0.26391544838013359 0 0.46850828596256489 -0.25348251997850518 0 0.46209381704023078 -0.26918836231562099 0 0.48413680388112551 -0.26719254372692408 0 0.48362234693830891 -0.26391544838013359 0 0.46850828596256489 -0.25348251997850518 0 0.45357199600185422 -0.25918800214133841 0 0.46209381704023078 -0.26918836231562099 0 0.45459618760586368 -0.2459213792974897 0 0.46850828596256489 -0.25348251997850518 0 0.45357199600185422 -0.25918800214133841 0 0.46209381704023078 -0.26918836231562099 0 0.45369942894533272 -0.28628780081315502 0 0.47065871758863642 -0.28424935028375609 0 0.45357199600185422 -0.25918800214133841 0 0.46209381704023078 -0.26918836231562099 0 0.44005083019933611 -0.27118418090431601 0 0.46209381704023078 -0.26918836231562099 0 0.44005083019933611 -0.27118418090431601 0 0.46209381704023078 -0.26918836231562099 0 0.44005083019933611 -0.27118418090431601 0 0.45369942894533272 -0.28628780081315502 0 0.44005083019933611 -0.27118418090431601 0 0.4426108592012758 -0.25616356821076058 0 0.43008594262025801 -0.26203670041984278 0 0.44005083019933611 -0.27118418090431601 0 0.4426108592012758 -0.25616356821076058 0 0.45459618760586368 -0.2459213792974897 0 0.45357199600185422 -0.25918800214133841 0 0.4426108592012758 -0.25616356821076058 0 0.45357199600185422 -0.25918800214133841 0 0.44005083019933611 -0.27118418090431601 0 0.4426108592012758 -0.25616356821076058 0 0.4654385183884322 -0.30725453211884779 0 0.4496032050127256 -0.3203498805599268 0 0.43564704393691389 -0.29702278186661152 0 0.44005083019933611 -0.27118418090431601 0 0.43564704393691389 -0.29702278186661152 0 0.45369942894533272 -0.28628780081315502 0 0.4654385183884322 -0.30725453211884779 0 0.43564704393691389 -0.29702278186661152 0 0.44005083019933611 -0.27118418090431601 0 0.45369942894533272 -0.28628780081315502 0 0.43564704393691389 -0.29702278186661152 0 0.45369942894533272 -0.28628780081315502 0 0.4654385183884322 -0.30725453211884779 0 0.47065871758863642 -0.28424935028375609 0 0.4654385183884322 -0.30725453211884779 0 0.4879250196880599 -0.29132351244423288 0 0.49171323549499318 -0.31545448116154179 0 0.4654385183884322 -0.30725453211884779 0 0.47065871758863642 -0.28424935028375609 0 0.4879250196880599 -0.29132351244423288 0 0.49301545589229662 -0.27990386989445298 0 0.4879250196880599 -0.29132351244423288 0 0.5 -0.29534316696324309 0 0.4879250196880599 -0.29132351244423288 0 0.49171323549499318 -0.31545448116154179 0 0.4879250196880599 -0.29132351244423288 0 0.5 -0.30516032368606738 0 0.49171323549499318 -0.31545448116154179 0 0.4879250196880599 -0.29132351244423288 0 0.5 -0.29534316696324309 0 0.5 -0.30516032368606738 0 0.5 -0.30516032368606738 0 0.5 -0.32493007748307379 0 0.49749449343249019 -0.32237288678245918 0 0.49171323549499318 -0.31545448116154179 0 0.49550145130192652 -0.33958544987885092 0 0.5 -0.30516032368606738 0 0.49749449343249019 -0.32237288678245918 0 0.49171323549499318 -0.31545448116154179 0 0.49749449343249019 -0.32237288678245918 0 0.49171323549499318 -0.31545448116154179 0 0.49550145130192652 -0.33958544987885092 0 0.5 -0.30516032368606738 0 0.49749449343249019 -0.32237288678245918 0 0.49550145130192652 -0.33958544987885092 0 0.47985687563729712 -0.33061171919387822 0 0.47804027478116679 -0.34821917694039622 0 0.49171323549499318 -0.31545448116154179 0 0.49550145130192652 -0.33958544987885092 0 0.47985687563729712 -0.33061171919387822 0 0.49749449343249019 -0.32237288678245918 0 0.49550145130192652 -0.33958544987885092 0 0.5 -0.32493007748307379 0 0.49550145130192652 -0.33958544987885092 0 0.5 -0.35451698800290482 0 0.5 -0.32493007748307379 0 0.49749449343249019 -0.32237288678245918 0 0.49550145130192652 -0.33958544987885092 0 0.47985687563729712 -0.33061171919387822 0 0.47804027478116679 -0.34821917694039622 0 0.46237619644010108 -0.33505091337046627 0 0.4654385183884322 -0.30725453211884779 0 0.49171323549499318 -0.31545448116154179 0 0.47985687563729712 -0.33061171919387822 0 0.4654385183884322 -0.30725453211884779 0 0.47985687563729712 -0.33061171919387822 0 0.46237619644010108 -0.33505091337046627 0 0.49299200778905389 -0.36125782405486889 0 0.47686143466053149 -0.36557531205745242 0 0.49048256427618009 -0.38293019823088698 0 0.49299200778905389 -0.36125782405486889 0 0.50000000000000089 -0.36647486368364413 0 0.49048256427618009 -0.38293019823088698 0 0.49299200778905389 -0.36125782405486889 0 0.49048256427618009 -0.38293019823088698 0 0.49550145130192652 -0.33958544987885092 0 0.49299200778905389 -0.36125782405486889 0 0.49550145130192652 -0.33958544987885092 0 0.50000000000000089 -0.36647486368364413 0 0.5 -0.35451698800290482 0 0.49550145130192652 -0.33958544987885092 0 0.49299200778905389 -0.36125782405486889 0 0.50000000000000089 -0.36647486368364413 0 0.49550145130192652 -0.33958544987885092 0 0.49299200778905389 -0.36125782405486889 0 0.47804027478116679 -0.34821917694039622 0 0.49550145130192652 -0.33958544987885092 0 0.50000000000000089 -0.36647486368364413 0 0.49299200778905389 -0.36125782405486889 0 0.47804027478116679 -0.34821917694039622 0 0.47686143466053149 -0.36557531205745242 0 0.47804027478116679 -0.34821917694039622 0 0.47686143466053149 -0.36557531205745242 0 0.46095804900567228 -0.35736217719453761 0 0.46095804900567228 -0.35736217719453761 0 0.45047104934957732 -0.3661299199941952 0 0.46615871167541528 -0.37993055486844912 0 0.47686143466053149 -0.36557531205745242 0 0.46095804900567228 -0.35736217719453761 0 0.46615871167541528 -0.37993055486844912 0 0.46095804900567228 -0.35736217719453761 0 0.46237619644010108 -0.33505091337046627 0 0.44477112633115279 -0.34046385843302002 0 0.47804027478116679 -0.34821917694039622 0 0.46095804900567228 -0.35736217719453761 0 0.46237619644010108 -0.33505091337046627 0 0.46095804900567228 -0.35736217719453761 0 0.4387821072036503 -0.35873980283597579 0 0.44477112633115279 -0.34046385843302002 0 0.46095804900567228 -0.35736217719453761 0 0.4387821072036503 -0.35873980283597579 0 0.45047104934957732 -0.3661299199941952 0 0.4387821072036503 -0.35873980283597579 0 0.45047104934957732 -0.3661299199941952 0 0.4418348590746507 -0.37693091150600982 0 0.45047104934957732 -0.3661299199941952 0 0.46615871167541528 -0.37993055486844912 0 0.4418348590746507 -0.37693091150600982 0 0.4387821072036503 -0.35873980283597579 0 0.4418348590746507 -0.37693091150600982 0 0.4654385183884322 -0.30725453211884779 0 0.46237619644010108 -0.33505091337046627 0 0.4496032050127256 -0.3203498805599268 0 0.46237619644010108 -0.33505091337046627 0 0.44477112633115279 -0.34046385843302002 0 0.4496032050127256 -0.3203498805599268 0 0.4496032050127256 -0.3203498805599268 0 0.43124325767449218 -0.32286138282890708 0 0.43564704393691389 -0.29702278186661152 0 0.44477112633115279 -0.34046385843302002 0 0.4496032050127256 -0.3203498805599268 0 0.43124325767449218 -0.32286138282890708 0 0.43124325767449218 -0.32286138282890708 0 0.4170085564605866 -0.33372987897238021 0 0.42683947141207063 -0.34869998379120248 0 0.44477112633115279 -0.34046385843302002 0 0.43124325767449218 -0.32286138282890708 0 0.42683947141207063 -0.34869998379120248 0 0.43124325767449218 -0.32286138282890708 0 0.42683947141207063 -0.34869998379120248 0 0.4170085564605866 -0.33372987897238021 0 0.40561217259791388 -0.35212644787080022 0 0.39965262777169419 -0.32931143281836589 0 0.39965262777169419 -0.32931143281836589 0 0.41491038074139541 -0.30998427459692163 0 0.43124325767449218 -0.32286138282890708 0 0.4170085564605866 -0.33372987897238021 0 0.41491038074139541 -0.30998427459692163 0 0.4170085564605866 -0.33372987897238021 0 0.39965262777169419 -0.32931143281836589 0 0.41491038074139541 -0.30998427459692163 0 0.4387821072036503 -0.35873980283597579 0 0.42243568514964902 -0.37453858475349799 0 0.42683947141207063 -0.34869998379120248 0 0.4387821072036503 -0.35873980283597579 0 0.42243568514964902 -0.37453858475349799 0 0.4418348590746507 -0.37693091150600982 0 0.42243568514964902 -0.37453858475349799 0 0.42683947141207063 -0.34869998379120248 0 0.4387821072036503 -0.35873980283597579 0 0.44477112633115279 -0.34046385843302002 0 0.42683947141207063 -0.34869998379120248 0 0.42243568514964902 -0.37453858475349799 0 0.42683947141207063 -0.34869998379120248 0 0.40561217259791388 -0.35212644787080022 0 0.4170085564605866 -0.33372987897238021 0 0.42683947141207063 -0.34869998379120248 0 0.40561217259791388 -0.35212644787080022 0 0.42243568514964902 -0.37453858475349799 0 0.39578640349097172 -0.37125216700738012 0 0.40561217259791388 -0.35212644787080022 0 0.42243568514964902 -0.37453858475349799 0 0.39578640349097172 -0.37125216700738012 0 0.39578640349097172 -0.37125216700738012 0 0.40561217259791388 -0.35212644787080022 0 0.38439487480199308 -0.34863859103981021 0 0.38439487480199308 -0.34863859103981021 0 0.36913712183229502 -0.3679657492612568 0 0.39578640349097172 -0.37125216700738012 0 0.37512270163814948 -0.37791265524049972 0 0.36913712183229502 -0.3679657492612568 0 0.39578640349097172 -0.37125216700738012 0 0.36913712183229502 -0.3679657492612568 0 0.39578640349097172 -0.37125216700738012 0 0.38439487480199308 -0.34863859103981021 0 0.36913712183229502 -0.3679657492612568 0 0.39965262777169419 -0.32931143281836589 0 0.39434327225099031 -0.31116328250925962 0 0.41491038074139541 -0.30998427459692163 0 0.40561217259791388 -0.35212644787080022 0 0.38439487480199308 -0.34863859103981021 0 0.39965262777169419 -0.32931143281836589 0 0.38439487480199308 -0.34863859103981021 0 0.39965262777169419 -0.32931143281836589 0 0.38439487480199308 -0.34863859103981021 0 0.39965262777169419 -0.32931143281836589 0 0.37432845728121061 -0.32777836454551179 0 0.38439487480199308 -0.34863859103981021 0 0.37432845728121061 -0.32777836454551179 0 0.36914244380834638 -0.3434837741967624 0 0.39965262777169419 -0.32931143281836589 0 0.39434327225099031 -0.31116328250925962 0 0.37432845728121061 -0.32777836454551179 0 0.37611760612626821 -0.30534017104714889 0 0.39434327225099031 -0.31116328250925962 0 0.37432845728121061 -0.32777836454551179 0 0.37611760612626821 -0.30534017104714889 0 0.39434327225099031 -0.31116328250925962 0 0.39287756023924331 -0.29499280874801392 0 0.39434327225099031 -0.31116328250925962 0 0.40455754244205572 -0.29885512218476018 0 0.41491038074139541 -0.30998427459692163 0 0.39434327225099031 -0.31116328250925962 0 0.40455754244205572 -0.29885512218476018 0 0.39287756023924331 -0.29499280874801392 0 0.40479118783882362 -0.28725009003446128 0 0.39287756023924331 -0.29499280874801392 0 0.39193800138560331 -0.27714300971213091 0 0.40455754244205572 -0.29885512218476018 0 0.40479118783882362 -0.28725009003446128 0 0.39287756023924331 -0.29499280874801392 0 0.37611760612626821 -0.30534017104714889 0 0.39287756023924331 -0.29499280874801392 0 0.37590561275027928 -0.28541093940745887 0 0.39287756023924331 -0.29499280874801392 0 0.37590561275027928 -0.28541093940745887 0 0.39193800138560331 -0.27714300971213091 0 0.38706995104117697 -0.26061796111692309 0 0.39193800138560331 -0.27714300971213091 0 0.37156940573209801 -0.26659112310485839 0 0.37590561275027928 -0.28541093940745887 0 0.39193800138560331 -0.27714300971213091 0 0.37156940573209801 -0.26659112310485839 0 0.38493658990460172 -0.24778607594761029 0 0.38706995104117697 -0.26061796111692309 0 0.37259386068367178 -0.25127866304762542 0 0.38706995104117697 -0.26061796111692309 0 0.37259386068367178 -0.25127866304762542 0 0.37156940573209801 -0.26659112310485839 0 0.38493658990460172 -0.24778607594761029 0 0.38706995104117697 -0.26061796111692309 0 0.39872282926479402 -0.25290581260322298 0 0.38706995104117697 -0.26061796111692309 0 0.39872282926479402 -0.25290581260322298 0 0.40265901927629338 -0.26800308228609099 0 0.39872282926479402 -0.25290581260322298 0 0.40265901927629338 -0.26800308228609099 0 0.41131722731799458 -0.25869368089994321 0 0.38706995104117697 -0.26061796111692309 0 0.39193800138560331 -0.27714300971213091 0 0.40265901927629338 -0.26800308228609099 0 0.40479118783882362 -0.28725009003446128 0 0.39193800138560331 -0.27714300971213091 0 0.40234531728115169 -0.27725792715009201 0 0.39193800138560331 -0.27714300971213091 0 0.40265901927629338 -0.26800308228609099 0 0.40234531728115169 -0.27725792715009201 0 0.40265901927629338 -0.26800308228609099 0 0.40234531728115169 -0.27725792715009201 0 0.41151581986507441 -0.27859344452881368 0 0.40479118783882362 -0.28725009003446128 0 0.40234531728115169 -0.27725792715009201 0 0.41151581986507441 -0.27859344452881368 0 0.40265901927629338 -0.26800308228609099 0 0.41151581986507441 -0.27859344452881368 0 0.41528452917696163 -0.26942019642134413 0 0.41528452917696163 -0.26942019642134413 0 0.42272592547967908 -0.27918335744903661 0 0.42418293027799042 -0.2699944943407111 0 0.41528452917696163 -0.26942019642134413 0 0.41996921976813018 -0.26275530572899658 0 0.42418293027799042 -0.2699944943407111 0 0.41151581986507441 -0.27859344452881368 0 0.41528452917696163 -0.26942019642134413 0 0.42272592547967908 -0.27918335744903661 0 0.41052225686018412 -0.24574795916561171 0 0.39872282926479402 -0.25290581260322298 0 0.41131722731799458 -0.25869368089994321 0 0.40265901927629338 -0.26800308228609099 0 0.41528452917696163 -0.26942019642134413 0 0.41131722731799458 -0.25869368089994321 0 0.41131722731799458 -0.25869368089994321 0 0.41996921976813018 -0.26275530572899658 0 0.42074550956160423 -0.25332972919439273 0 0.41528452917696163 -0.26942019642134413 0 0.41131722731799458 -0.25869368089994321 0 0.41996921976813018 -0.26275530572899658 0 0.41052225686018412 -0.24574795916561171 0 0.41131722731799458 -0.25869368089994321 0 0.42074550956160423 -0.25332972919439273 0 0.431334621702953 -0.24822071671014981 0 0.42074550956160423 -0.25332972919439273 0 0.43008594262025801 -0.26203670041984278 0 0.41996921976813018 -0.26275530572899658 0 0.43008594262025801 -0.26203670041984278 0 0.42418293027799042 -0.2699944943407111 0 0.41996921976813018 -0.26275530572899658 0 0.42074550956160423 -0.25332972919439273 0 0.43008594262025801 -0.26203670041984278 0 0.431334621702953 -0.24822071671014981 0 0.4426108592012758 -0.25616356821076058 0 0.43008594262025801 -0.26203670041984278 0 0.44005083019933611 -0.27118418090431601 0 0.43325800332624131 -0.27179921779750188 0 0.43016813371109658 -0.29065711637547731 0 0.42272592547967908 -0.27918335744903661 0 0.43325800332624131 -0.27179921779750188 0 0.43016813371109658 -0.29065711637547731 0 0.42272592547967908 -0.27918335744903661 0 0.42418293027799042 -0.2699944943407111 0 0.43325800332624131 -0.27179921779750188 0 0.43008594262025801 -0.26203670041984278 0 0.42418293027799042 -0.2699944943407111 0 0.43325800332624131 -0.27179921779750188 0 0.44005083019933611 -0.27118418090431601 0 0.43008594262025801 -0.26203670041984278 0 0.43325800332624131 -0.27179921779750188 0 0.44005083019933611 -0.27118418090431601 0 0.43325800332624131 -0.27179921779750188 0 0.44005083019933611 -0.27118418090431601 0 0.43016813371109658 -0.29065711637547731 0 0.43564704393691389 -0.29702278186661152 0 0.42272592547967908 -0.27918335744903661 0 0.43016813371109658 -0.29065711637547731 0 0.41586531113982578 -0.29088515503514473 0 0.43124325767449218 -0.32286138282890708 0 0.43564704393691389 -0.29702278186661152 0 0.41491038074139541 -0.30998427459692163 0 0.43016813371109658 -0.29065711637547731 0 0.43564704393691389 -0.29702278186661152 0 0.41491038074139541 -0.30998427459692163 0 0.43016813371109658 -0.29065711637547731 0 0.41491038074139541 -0.30998427459692163 0 0.43124325767449218 -0.32286138282890708 0 0.43564704393691389 -0.29702278186661152 0 0.40455754244205572 -0.29885512218476018 0 0.41491038074139541 -0.30998427459692163 0 0.41586531113982578 -0.29088515503514473 0 0.43016813371109658 -0.29065711637547731 0 0.41491038074139541 -0.30998427459692163 0 0.41586531113982578 -0.29088515503514473 0 0.40455754244205572 -0.29885512218476018 0 0.40479118783882362 -0.28725009003446128 0 0.41586531113982578 -0.29088515503514473 0 0.40479118783882362 -0.28725009003446128 0 0.41151581986507441 -0.27859344452881368 0 0.41586531113982578 -0.29088515503514473 0 0.41151581986507441 -0.27859344452881368 0 0.42272592547967908 -0.27918335744903661 0 0.41586531113982578 -0.29088515503514473 0 0.43751011300792447 -0.5 0 0.45762025762125252 -0.480992035968832 0 0.47794566960148638 -0.48409635470254608 0 0.43751011300792447 -0.5 0 0.44625526411755573 -0.48157020470408057 0 0.45762025762125252 -0.480992035968832 0 0.43751011300792447 -0.5 0 0.44625526411755573 -0.48157020470408057 0 0.42985889027449659 -0.47468244082314581 0 0.44625526411755573 -0.48157020470408057 0 0.45577659626689621 -0.46835305102893271 0 0.42985889027449659 -0.47468244082314581 0 0.45577659626689621 -0.46835305102893271 0 0.42985889027449659 -0.47468244082314581 0 0.44625526411755573 -0.48157020470408057 0 0.45762025762125252 -0.480992035968832 0 0.45577659626689621 -0.46835305102893271 0 0.45762025762125252 -0.480992035968832 0 0.47108894605394558 -0.47203062268236362 0 0.45577659626689621 -0.46835305102893271 0 0.43751011300792447 -0.5 0 0.5 -0.5 0 0.47794566960148638 -0.48409635470254608 0 0.5 -0.5 0 0.48586023002269868 -0.47285338690414208 0 0.5 -0.45738429357929689 0 0.5 -0.5 0 0.48586023002269868 -0.47285338690414208 0 0.47794566960148638 -0.48409635470254608 0 0.45762025762125252 -0.480992035968832 0 0.47794566960148638 -0.48409635470254608 0 0.47108894605394558 -0.47203062268236362 0 0.48586023002269868 -0.47285338690414208 0 0.47794566960148638 -0.48409635470254608 0 0.47108894605394558 -0.47203062268236362 0 0.5 -0.45738429357929689 0 0.48359134617054328 -0.44244500960155131 0 0.50000000000000022 -0.42599114466983617 0 0.48586023002269868 -0.47285338690414208 0 0.47108894605394558 -0.47203062268236362 0 0.4762174190567266 -0.45696090605822581 0 0.48586023002269868 -0.47285338690414208 0 0.4762174190567266 -0.45696090605822581 0 0.5 -0.45738429357929689 0 0.4762174190567266 -0.45696090605822581 0 0.5 -0.45738429357929689 0 0.48359134617054328 -0.44244500960155131 0 0.48359134617054328 -0.44244500960155131 0 0.4765727155506313 -0.44540155402499121 0 0.48452001920521159 -0.43442468581613403 0 0.4765727155506313 -0.44540155402499121 0 0.4649190019057281 -0.44510338032461322 0 0.48452001920521159 -0.43442468581613403 0 0.4649190019057281 -0.44510338032461322 0 0.48452001920521159 -0.43442468581613403 0 0.48359134617054328 -0.44244500960155131 0 0.48452001920521159 -0.43442468581613403 0 0.4762174190567266 -0.45696090605822581 0 0.48359134617054328 -0.44244500960155131 0 0.4765727155506313 -0.44540155402499121 0 0.4762174190567266 -0.45696090605822581 0 0.4765727155506313 -0.44540155402499121 0 0.4649190019057281 -0.44510338032461322 0 0.4649190019057281 -0.44510338032461322 0 0.44531798460624228 -0.4557820748330883 0 0.4649190019057281 -0.44510338032461322 0 0.4536473391336594 -0.44732055255639858 0 0.44970984578065798 -0.42385733887293542 0 0.4649190019057281 -0.44510338032461322 0 0.4536473391336594 -0.44732055255639858 0 0.44531798460624228 -0.4557820748330883 0 0.4762174190567266 -0.45696090605822581 0 0.44992560460436942 -0.46235163833596182 0 0.4762174190567266 -0.45696090605822581 0 0.4649190019057281 -0.44510338032461322 0 0.44992560460436942 -0.46235163833596182 0 0.47108894605394558 -0.47203062268236362 0 0.4762174190567266 -0.45696090605822581 0 0.45577659626689621 -0.46835305102893271 0 0.4762174190567266 -0.45696090605822581 0 0.45577659626689621 -0.46835305102893271 0 0.44992560460436942 -0.46235163833596182 0 0.4649190019057281 -0.44510338032461322 0 0.44992560460436942 -0.46235163833596182 0 0.44531798460624228 -0.4557820748330883 0 0.45577659626689621 -0.46835305102893271 0 0.44992560460436942 -0.46235163833596182 0 0.42985889027449659 -0.47468244082314581 0 0.44992560460436942 -0.46235163833596182 0 0.44531798460624228 -0.4557820748330883 0 0.42363379015201202 -0.46774237061369778 0 0.4536473391336594 -0.44732055255639858 0 0.44281856074011411 -0.44310795993326713 0 0.44970984578065798 -0.42385733887293542 0 0.44531798460624228 -0.4557820748330883 0 0.44281856074011411 -0.44310795993326713 0 0.43009005528187477 -0.4533568463373398 0 0.4536473391336594 -0.44732055255639858 0 0.44531798460624228 -0.4557820748330883 0 0.44281856074011411 -0.44310795993326713 0 0.4536473391336594 -0.44732055255639858 0 0.44970984578065798 -0.42385733887293542 0 0.44970984578065798 -0.42385733887293542 0 0.43070425103652432 -0.41579202638508689 0 0.43532757889813611 -0.43522298706657359 0 0.44281856074011411 -0.44310795993326713 0 0.44970984578065798 -0.42385733887293542 0 0.43532757889813611 -0.43522298706657359 0 0.44970984578065798 -0.42385733887293542 0 0.44577235242765673 -0.40039412518947221 0 0.44970984578065798 -0.42385733887293542 0 0.44577235242765673 -0.40039412518947221 0 0.43070425103652432 -0.41579202638508689 0 0.44970984578065798 -0.42385733887293542 0 0.46837241713185851 -0.4032249131263162 0 0.44577235242765673 -0.40039412518947221 0 0.44970984578065798 -0.42385733887293542 0 0.47060973689054458 -0.42355981957264338 0 0.46837241713185851 -0.4032249131263162 0 0.4649190019057281 -0.44510338032461322 0 0.44970984578065798 -0.42385733887293542 0 0.47060973689054458 -0.42355981957264338 0 0.47060973689054458 -0.42355981957264338 0 0.48452001920521159 -0.43442468581613403 0 0.48750129174069518 -0.40867744202351047 0 0.4649190019057281 -0.44510338032461322 0 0.47060973689054458 -0.42355981957264338 0 0.48452001920521159 -0.43442468581613403 0 0.48359134617054328 -0.44244500960155131 0 0.48452001920521159 -0.43442468581613403 0 0.50000000000000022 -0.42599114466983617 0 0.48452001920521159 -0.43442468581613403 0 0.50000000000000022 -0.42599114466983617 0 0.48750129174069518 -0.40867744202351047 0 0.48452001920521159 -0.43442468581613403 0 0.50000000000000022 -0.42599114466983617 0 0.48452001920521159 -0.43442468581613403 0 0.48750129174069518 -0.40867744202351047 0 0.50000000000000022 -0.42599114466983617 0 0.48750129174069518 -0.40867744202351047 0 0.5 -0.40504752159628599 0 0.47060973689054458 -0.42355981957264338 0 0.48750129174069518 -0.40867744202351047 0 0.46837241713185851 -0.4032249131263162 0 0.48750129174069518 -0.40867744202351047 0 0.49048256427618009 -0.38293019823088698 0 0.46837241713185851 -0.4032249131263162 0 0.48750129174069518 -0.40867744202351047 0 0.49048256427618009 -0.38293019823088698 0 0.48750129174069518 -0.40867744202351047 0 0.5 -0.40504752159628599 0 0.49048256427618009 -0.38293019823088698 0 0.5 -0.40504752159628599 0 0.50000000000000222 -0.38410389852273569 0 0.49048256427618009 -0.38293019823088698 0 0.50000000000000089 -0.36647486368364413 0 0.50000000000000222 -0.38410389852273569 0 0.49048256427618009 -0.38293019823088698 0 0.50000000000000222 -0.38410389852273569 0 0.49048256427618009 -0.38293019823088698 0 0.47686143466053149 -0.36557531205745242 0 0.49048256427618009 -0.38293019823088698 0 0.46615871167541528 -0.37993055486844912 0 0.49048256427618009 -0.38293019823088698 0 0.46615871167541528 -0.37993055486844912 0 0.49048256427618009 -0.38293019823088698 0 0.46615871167541528 -0.37993055486844912 0 0.46837241713185851 -0.4032249131263162 0 0.46615871167541528 -0.37993055486844912 0 0.4418348590746507 -0.37693091150600982 0 0.46615871167541528 -0.37993055486844912 0 0.46837241713185851 -0.4032249131263162 0 0.44577235242765673 -0.40039412518947221 0 0.46615871167541528 -0.37993055486844912 0 0.44577235242765673 -0.40039412518947221 0 0.4418348590746507 -0.37693091150600982 0 0.44577235242765673 -0.40039412518947221 0 0.4418348590746507 -0.37693091150600982 0 0.44577235242765673 -0.40039412518947221 0 0.4418348590746507 -0.37693091150600982 0 0.43083665446210601 -0.39012675877049979 0 0.42243568514964902 -0.37453858475349799 0 0.4418348590746507 -0.37693091150600982 0 0.42243568514964902 -0.37453858475349799 0 0.43083665446210601 -0.39012675877049979 0 0.41812124182265809 -0.39985297851775148 0 0.42243568514964902 -0.37453858475349799 0 0.4418348590746507 -0.37693091150600982 0 0.43083665446210601 -0.39012675877049979 0 0.43083665446210601 -0.39012675877049979 0 0.41812124182265809 -0.39985297851775148 0 0.43070425103652432 -0.41579202638508689 0 0.44577235242765673 -0.40039412518947221 0 0.43083665446210601 -0.39012675877049979 0 0.43070425103652432 -0.41579202638508689 0 0.41812124182265809 -0.39985297851775148 0 0.40355514433784778 -0.3882066558737397 0 0.3988586680656242 -0.41019126810710249 0 0.42243568514964902 -0.37453858475349799 0 0.39578640349097172 -0.37125216700738012 0 0.40355514433784778 -0.3882066558737397 0 0.42243568514964902 -0.37453858475349799 0 0.41812124182265809 -0.39985297851775148 0 0.40355514433784778 -0.3882066558737397 0 0.42243568514964902 -0.37453858475349799 0 0.41812124182265809 -0.39985297851775148 0 0.40355514433784778 -0.3882066558737397 0 0.38620886150187289 -0.38135723992493092 0 0.38292880700821591 -0.39786369152698919 0 0.39578640349097172 -0.37125216700738012 0 0.40355514433784778 -0.3882066558737397 0 0.38620886150187289 -0.38135723992493092 0 0.38620886150187289 -0.38135723992493092 0 0.38292880700821591 -0.39786369152698919 0 0.36791937195628061 -0.38701650858216491 0 0.39578640349097172 -0.37125216700738012 0 0.38620886150187289 -0.38135723992493092 0 0.37512270163814948 -0.37791265524049972 0 0.38620886150187289 -0.38135723992493092 0 0.37512270163814948 -0.37791265524049972 0 0.36791937195628061 -0.38701650858216491 0 0.38620886150187289 -0.38135723992493092 0 0.36791937195628061 -0.38701650858216491 0 0.38292880700821591 -0.39786369152698919 0 0.37778740770580088 -0.41660790444261508 0 0.37181444826458587 -0.40031372685937122 0 0.40355514433784778 -0.3882066558737397 0 0.38292880700821591 -0.39786369152698919 0 0.3988586680656242 -0.41019126810710249 0 0.3988586680656242 -0.41019126810710249 0 0.37778740770580088 -0.41660790444261508 0 0.39695260902355572 -0.43344900599951441 0 0.38292880700821591 -0.39786369152698919 0 0.3988586680656242 -0.41019126810710249 0 0.37778740770580088 -0.41660790444261508 0 0.37778740770580088 -0.41660790444261508 0 0.39695260902355572 -0.43344900599951441 0 0.37778740770580088 -0.41660790444261508 0 0.38335916971509992 -0.43997952221287268 0 0.36810230460547227 -0.44047488284903191 0 0.37778740770580088 -0.41660790444261508 0 0.39695260902355572 -0.43344900599951441 0 0.38335916971509992 -0.43997952221287268 0 0.3988586680656242 -0.41019126810710249 0 0.39695260902355572 -0.43344900599951441 0 0.41380679849566732 -0.42516737228200507 0 0.39695260902355572 -0.43344900599951441 0 0.41380679849566732 -0.42516737228200507 0 0.42137652354667748 -0.43670321891549729 0 0.41812124182265809 -0.39985297851775148 0 0.41380679849566732 -0.42516737228200507 0 0.41812124182265809 -0.39985297851775148 0 0.3988586680656242 -0.41019126810710249 0 0.41380679849566732 -0.42516737228200507 0 0.41812124182265809 -0.39985297851775148 0 0.41380679849566732 -0.42516737228200507 0 0.43070425103652432 -0.41579202638508689 0 0.42137652354667748 -0.43670321891549729 0 0.43070425103652432 -0.41579202638508689 0 0.43532757889813611 -0.43522298706657359 0 0.41380679849566732 -0.42516737228200507 0 0.42137652354667748 -0.43670321891549729 0 0.43070425103652432 -0.41579202638508689 0 0.44281856074011411 -0.44310795993326713 0 0.43532757889813611 -0.43522298706657359 0 0.43009005528187477 -0.4533568463373398 0 0.42137652354667748 -0.43670321891549729 0 0.43009005528187477 -0.4533568463373398 0 0.41611781034131051 -0.45029010755641358 0 0.42137652354667748 -0.43670321891549729 0 0.43532757889813611 -0.43522298706657359 0 0.43009005528187477 -0.4533568463373398 0 0.44992560460436942 -0.46235163833596182 0 0.42363379015201202 -0.46774237061369778 0 0.44531798460624228 -0.4557820748330883 0 0.43009005528187477 -0.4533568463373398 0 0.42363379015201202 -0.46774237061369778 0 0.44992560460436942 -0.46235163833596182 0 0.42363379015201202 -0.46774237061369778 0 0.42985889027449659 -0.47468244082314581 0 0.43009005528187477 -0.4533568463373398 0 0.42363379015201202 -0.46774237061369778 0 0.41940383572999118 -0.45855873651591522 0 0.43009005528187477 -0.4533568463373398 0 0.41940383572999118 -0.45855873651591522 0 0.41611781034131051 -0.45029010755641358 0 0.41940383572999118 -0.45855873651591522 0 0.40998905918467321 -0.46083433734891821 0 0.41611781034131051 -0.45029010755641358 0 0.42363379015201202 -0.46774237061369778 0 0.40730255420965872 -0.46585007819121338 0 0.40998905918467321 -0.46083433734891821 0 0.42363379015201202 -0.46774237061369778 0 0.41940383572999118 -0.45855873651591522 0 0.40998905918467321 -0.46083433734891821 0 0.40998905918467321 -0.46083433734891821 0 0.41611781034131051 -0.45029010755641358 0 0.40244423169319821 -0.45136647493303111 0 0.39695260902355572 -0.43344900599951441 0 0.41611781034131051 -0.45029010755641358 0 0.39695260902355572 -0.43344900599951441 0 0.42137652354667748 -0.43670321891549729 0 0.41611781034131051 -0.45029010755641358 0 0.39695260902355572 -0.43344900599951441 0 0.41611781034131051 -0.45029010755641358 0 0.40244423169319821 -0.45136647493303111 0 0.39695260902355572 -0.43344900599951441 0 0.40244423169319821 -0.45136647493303111 0 0.39091628811415657 -0.45056842184950491 0 0.39695260902355572 -0.43344900599951441 0 0.39091628811415657 -0.45056842184950491 0 0.38335916971509992 -0.43997952221287268 0 0.39091628811415657 -0.45056842184950491 0 0.38335916971509992 -0.43997952221287268 0 0.37639790168023468 -0.45316081742807868 0 0.38335916971509992 -0.43997952221287268 0 0.37639790168023468 -0.45316081742807868 0 0.36810230460547227 -0.44047488284903191 0 0.37611627957627791 -0.46779462071439543 0 0.38780356737452371 -0.46126949295884329 0 0.39734197569965451 -0.4731331028914339 0 0.37611627957627791 -0.46779462071439543 0 0.37639790168023468 -0.45316081742807868 0 0.38780356737452371 -0.46126949295884329 0 0.39091628811415657 -0.45056842184950491 0 0.37639790168023468 -0.45316081742807868 0 0.38780356737452371 -0.46126949295884329 0 0.38780356737452371 -0.46126949295884329 0 0.3982453918022949 -0.46169050191080369 0 0.39734197569965451 -0.4731331028914339 0 0.40244423169319821 -0.45136647493303111 0 0.39091628811415657 -0.45056842184950491 0 0.3982453918022949 -0.46169050191080369 0 0.39091628811415657 -0.45056842184950491 0 0.38780356737452371 -0.46126949295884329 0 0.3982453918022949 -0.46169050191080369 0 0.40998905918467321 -0.46083433734891821 0 0.40244423169319821 -0.45136647493303111 0 0.3982453918022949 -0.46169050191080369 0 0.40730255420965872 -0.46585007819121338 0 0.40998905918467321 -0.46083433734891821 0 0.3982453918022949 -0.46169050191080369 0 0.40730255420965872 -0.46585007819121338 0 0.3982453918022949 -0.46169050191080369 0 0.39734197569965451 -0.4731331028914339 0 0.40394118428209708 -0.48101183061735892 0 0.37802347828969751 -0.48734122041157202 0 0.40132663135690211 -0.47706714376800491 0 0.40394118428209708 -0.48101183061735892 0 0.37802347828969751 -0.48734122041157202 0 0.37611627957627791 -0.46779462071439543 0 0.40132663135690211 -0.47706714376800491 0 0.39734197569965451 -0.4731331028914339 0 0.37611627957627791 -0.46779462071439543 0 0.40132663135690211 -0.47706714376800491 0 0.37611627957627791 -0.46779462071439543 0 0.40132663135690211 -0.47706714376800491 0 0.37802347828969751 -0.48734122041157202 0 0.40394118428209708 -0.48101183061735892 0 0.37802347828969751 -0.48734122041157202 0 0.38994652009150738 -0.5 0 0.43751011300792447 -0.5 0 0.40394118428209708 -0.48101183061735892 0 0.38994652009150738 -0.5 0 0.43751011300792447 -0.5 0 0.40394118428209708 -0.48101183061735892 0 0.42985889027449659 -0.47468244082314581 0 0.42363379015201202 -0.46774237061369778 0 0.40394118428209708 -0.48101183061735892 0 0.42985889027449659 -0.47468244082314581 0 0.42363379015201202 -0.46774237061369778 0 0.40730255420965872 -0.46585007819121338 0 0.39734197569965451 -0.4731331028914339 0 0.40394118428209708 -0.48101183061735892 0 0.42985889027449659 -0.47468244082314581 0 0.42363379015201202 -0.46774237061369778 0 0.40132663135690211 -0.47706714376800491 0 0.39734197569965451 -0.4731331028914339 0 0.42363379015201202 -0.46774237061369778 0 0.40132663135690211 -0.47706714376800491 0 0.40394118428209708 -0.48101183061735892 0 0.42363379015201202 -0.46774237061369778 0 0.39734197569965451 -0.4731331028914339 0 0.38994652009150738 -0.5 0 0.32618806630489872 -0.49999999999999911 0 0.352105772297298 -0.49367061020578512 0 0.32618806630489872 -0.49999999999999911 0 0.30706638696578842 -0.48340713064352142 0 0.30958078195893279 -0.50000000000000155 0 0.32618806630489872 -0.49999999999999911 0 0.31832339355507849 -0.47608776419563142 0 0.30706638696578842 -0.48340713064352142 0 0.32618806630489872 -0.49999999999999911 0 0.31832339355507849 -0.47608776419563142 0 0.3332929352618606 -0.47327004338503748 0 0.31832339355507849 -0.47608776419563142 0 0.31986039364719832 -0.46424607140063617 0 0.3077085286610482 -0.46786474979510162 0 0.31832339355507849 -0.47608776419563142 0 0.3332929352618606 -0.47327004338503748 0 0.31986039364719832 -0.46424607140063617 0 0.32618806630489872 -0.49999999999999911 0 0.3332929352618606 -0.47327004338503748 0 0.352105772297298 -0.49367061020578512 0 0.32618806630489872 -0.49999999999999911 0 0.352105772297298 -0.49367061020578512 0 0.37802347828969751 -0.48734122041157202 0 0.38994652009150738 -0.5 0 0.352105772297298 -0.49367061020578512 0 0.37802347828969751 -0.48734122041157202 0 0.352105772297298 -0.49367061020578512 0 0.35808887864415762 -0.47611971847551521 0 0.37802347828969751 -0.48734122041157202 0 0.352105772297298 -0.49367061020578512 0 0.37611627957627791 -0.46779462071439543 0 0.37802347828969751 -0.48734122041157202 0 0.35808887864415762 -0.47611971847551521 0 0.3332929352618606 -0.47327004338503748 0 0.35808887864415762 -0.47611971847551521 0 0.35090592779565383 -0.45852209766078589 0 0.3332929352618606 -0.47327004338503748 0 0.352105772297298 -0.49367061020578512 0 0.35808887864415762 -0.47611971847551521 0 0.37611627957627791 -0.46779462071439543 0 0.37639790168023468 -0.45316081742807868 0 0.35090592779565383 -0.45852209766078589 0 0.37611627957627791 -0.46779462071439543 0 0.35808887864415762 -0.47611971847551521 0 0.35090592779565383 -0.45852209766078589 0 0.37611627957627791 -0.46779462071439543 0 0.35090592779565383 -0.45852209766078589 0 0.37639790168023468 -0.45316081742807868 0 0.35090592779565383 -0.45852209766078589 0 0.36810230460547227 -0.44047488284903191 0 0.35090592779565383 -0.45852209766078589 0 0.36810230460547227 -0.44047488284903191 0 0.34631588100872202 -0.44124952835592729 0 0.35090592779565383 -0.45852209766078589 0 0.34631588100872202 -0.44124952835592729 0 0.32569557601502958 -0.44924957460717629 0 0.34631588100872202 -0.44124952835592729 0 0.32569557601502958 -0.44924957460717629 0 0.33232334386975709 -0.43628820972476001 0 0.3332929352618606 -0.47327004338503748 0 0.35090592779565383 -0.45852209766078589 0 0.32569557601502958 -0.44924957460717629 0 0.35090592779565383 -0.45852209766078589 0 0.32569557601502958 -0.44924957460717629 0 0.3332929352618606 -0.47327004338503748 0 0.31986039364719832 -0.46424607140063617 0 0.32569557601502958 -0.44924957460717629 0 0.31986039364719832 -0.46424607140063617 0 0.31189863307305632 -0.45736924020975328 0 0.3077085286610482 -0.46786474979510162 0 0.31986039364719832 -0.46424607140063617 0 0.32569557601502958 -0.44924957460717629 0 0.31189863307305632 -0.45736924020975328 0 0.32569557601502958 -0.44924957460717629 0 0.30048522423440399 -0.43997705155357081 0 0.31189863307305632 -0.45736924020975328 0 0.32569557601502958 -0.44924957460717629 0 0.32085389781471613 -0.42912662346614089 0 0.33232334386975709 -0.43628820972476001 0 0.32569557601502958 -0.44924957460717629 0 0.31137099642933591 -0.43308046152983098 0 0.30048522423440399 -0.43997705155357081 0 0.32569557601502958 -0.44924957460717629 0 0.30048522423440399 -0.43997705155357081 0 0.32085389781471613 -0.42912662346614089 0 0.32776837237306189 -0.4203679848859605 0 0.31165786604331752 -0.42240055263676662 0 0.32569557601502958 -0.44924957460717629 0 0.32085389781471613 -0.42912662346614089 0 0.31137099642933591 -0.43308046152983098 0 0.32085389781471613 -0.42912662346614089 0 0.32776837237306189 -0.4203679848859605 0 0.33232334386975709 -0.43628820972476001 0 0.32085389781471613 -0.42912662346614089 0 0.32776837237306189 -0.4203679848859605 0 0.32085389781471613 -0.42912662346614089 0 0.31165786604331752 -0.42240055263676662 0 0.31137099642933591 -0.43308046152983098 0 0.32776837237306189 -0.4203679848859605 0 0.30274415268121468 -0.40718350530190861 0 0.31165786604331752 -0.42240055263676662 0 0.32776837237306189 -0.4203679848859605 0 0.30274415268121468 -0.40718350530190861 0 0.32776837237306189 -0.4203679848859605 0 0.32618701754595142 -0.39992964127065322 0 0.30274415268121468 -0.40718350530190861 0 0.32776837237306189 -0.4203679848859605 0 0.33869912739187491 -0.40652188106267939 0 0.34293521932246879 -0.4283589227222373 0 0.32776837237306189 -0.4203679848859605 0 0.33869912739187491 -0.40652188106267939 0 0.32618701754595142 -0.39992964127065322 0 0.32776837237306189 -0.4203679848859605 0 0.33869912739187491 -0.40652188106267939 0 0.32776837237306189 -0.4203679848859605 0 0.34293521932246879 -0.4283589227222373 0 0.33232334386975709 -0.43628820972476001 0 0.32776837237306189 -0.4203679848859605 0 0.34293521932246879 -0.4283589227222373 0 0.34631588100872202 -0.44124952835592729 0 0.34293521932246879 -0.4283589227222373 0 0.33232334386975709 -0.43628820972476001 0 0.36810230460547227 -0.44047488284903191 0 0.34631588100872202 -0.44124952835592729 0 0.3578391535097642 -0.42898640244982927 0 0.34631588100872202 -0.44124952835592729 0 0.34293521932246879 -0.4283589227222373 0 0.3578391535097642 -0.42898640244982927 0 0.34293521932246879 -0.4283589227222373 0 0.3578391535097642 -0.42898640244982927 0 0.35312679511684991 -0.41491146997066569 0 0.37778740770580088 -0.41660790444261508 0 0.36810230460547227 -0.44047488284903191 0 0.3578391535097642 -0.42898640244982927 0 0.37778740770580088 -0.41660790444261508 0 0.35862220638804598 -0.39976680288571581 0 0.37778740770580088 -0.41660790444261508 0 0.35312679511684991 -0.41491146997066569 0 0.35862220638804598 -0.39976680288571581 0 0.37778740770580088 -0.41660790444261508 0 0.3578391535097642 -0.42898640244982927 0 0.35312679511684991 -0.41491146997066569 0 0.35312679511684991 -0.41491146997066569 0 0.34955531724827982 -0.40444076191245282 0 0.35862220638804598 -0.39976680288571581 0 0.33869912739187491 -0.40652188106267939 0 0.34293521932246879 -0.4283589227222373 0 0.35312679511684991 -0.41491146997066569 0 0.33869912739187491 -0.40652188106267939 0 0.35312679511684991 -0.41491146997066569 0 0.34955531724827982 -0.40444076191245282 0 0.34962988241068832 -0.39267577723939873 0 0.35862220638804598 -0.39976680288571581 0 0.36791937195628061 -0.38701650858216491 0 0.33869912739187491 -0.40652188106267939 0 0.34955531724827982 -0.40444076191245282 0 0.34962988241068832 -0.39267577723939873 0 0.33869912739187491 -0.40652188106267939 0 0.34962988241068832 -0.39267577723939873 0 0.34955531724827982 -0.40444076191245282 0 0.34962988241068832 -0.39267577723939873 0 0.35862220638804598 -0.39976680288571581 0 0.37778740770580088 -0.41660790444261508 0 0.35862220638804598 -0.39976680288571581 0 0.37181444826458587 -0.40031372685937122 0 0.35862220638804598 -0.39976680288571581 0 0.37181444826458587 -0.40031372685937122 0 0.36791937195628061 -0.38701650858216491 0 0.38292880700821591 -0.39786369152698919 0 0.37181444826458587 -0.40031372685937122 0 0.36791937195628061 -0.38701650858216491 0 0.37512270163814948 -0.37791265524049972 0 0.36791937195628061 -0.38701650858216491 0 0.35938350212149012 -0.38032076325032649 0 0.37512270163814948 -0.37791265524049972 0 0.35938350212149012 -0.38032076325032649 0 0.36913712183229502 -0.3679657492612568 0 0.35938350212149012 -0.38032076325032649 0 0.34631638271812459 -0.37989200188724742 0 0.35255220550608241 -0.37015177602119631 0 0.34962988241068832 -0.39267577723939873 0 0.36791937195628061 -0.38701650858216491 0 0.34962988241068832 -0.39267577723939873 0 0.36791937195628061 -0.38701650858216491 0 0.35938350212149012 -0.38032076325032649 0 0.34962988241068832 -0.39267577723939873 0 0.35938350212149012 -0.38032076325032649 0 0.34631638271812459 -0.37989200188724742 0 0.34962988241068832 -0.39267577723939873 0 0.35938350212149012 -0.38032076325032649 0 0.34962988241068832 -0.39267577723939873 0 0.34631638271812459 -0.37989200188724742 0 0.3325811510924257 -0.3815948633889078 0 0.33869912739187491 -0.40652188106267939 0 0.34962988241068832 -0.39267577723939873 0 0.32618701754595142 -0.39992964127065322 0 0.34962988241068832 -0.39267577723939873 0 0.32618701754595142 -0.39992964127065322 0 0.34962988241068832 -0.39267577723939873 0 0.3325811510924257 -0.3815948633889078 0 0.32618701754595142 -0.39992964127065322 0 0.32618701754595142 -0.39992964127065322 0 0.30274415268121468 -0.40718350530190861 0 0.32618701754595142 -0.39992964127065322 0 0.30982544047728222 -0.38845482624550159 0 0.30274415268121468 -0.40718350530190861 0 0.3325811510924257 -0.3815948633889078 0 0.30982544047728222 -0.38845482624550159 0 0.31219909583831751 -0.3665062228465813 0 0.3325811510924257 -0.3815948633889078 0 0.32618701754595142 -0.39992964127065322 0 0.30982544047728222 -0.38845482624550159 0 0.30982544047728222 -0.38845482624550159 0 0.29488869394530848 -0.40304470950319288 0 0.29072757129432869 -0.37558483756095329 0 0.30982544047728222 -0.38845482624550159 0 0.29072757129432869 -0.37558483756095329 0 0.31219909583831751 -0.3665062228465813 0 0.30982544047728222 -0.38845482624550159 0 0.29488869394530848 -0.40304470950319288 0 0.30274415268121468 -0.40718350530190861 0 0.29488869394530848 -0.40304470950319288 0 0.30274415268121468 -0.40718350530190861 0 0.29488869394530848 -0.40304470950319288 0 0.27489911573622089 -0.39251282523119252 0 0.29488869394530848 -0.40304470950319288 0 0.28257143088250192 -0.40517079140275147 0 0.27489911573622089 -0.39251282523119252 0 0.29488869394530848 -0.40304470950319288 0 0.28257143088250192 -0.40517079140275147 0 0.29058847697065121 -0.40723875509834778 0 0.29488869394530848 -0.40304470950319288 0 0.2958396118440253 -0.40931995921742959 0 0.29488869394530848 -0.40304470950319288 0 0.29072757129432869 -0.37558483756095329 0 0.29488869394530848 -0.40304470950319288 0 0.29072757129432869 -0.37558483756095329 0 0.27489911573622089 -0.39251282523119252 0 0.29072757129432869 -0.37558483756095329 0 0.26496054516243078 -0.37799496934468518 0 0.27489911573622089 -0.39251282523119252 0 0.26496054516243078 -0.37799496934468518 0 0.25170430493092483 -0.38666982536184669 0 0.27489911573622089 -0.39251282523119252 0 0.26496054516243078 -0.37799496934468518 0 0.25170430493092483 -0.38666982536184669 0 0.23966386937791961 -0.37137054671368019 0 0.25170430493092483 -0.38666982536184669 0 0.27489911573622089 -0.39251282523119252 0 0.25547727316400543 -0.40666305580224382 0 0.28257143088250192 -0.40517079140275147 0 0.27489911573622089 -0.39251282523119252 0 0.27393146920955852 -0.41268801787128268 0 0.27489911573622089 -0.39251282523119252 0 0.27393146920955852 -0.41268801787128268 0 0.25547727316400543 -0.40666305580224382 0 0.27393146920955852 -0.41268801787128268 0 0.26497773712691042 -0.42688558094424728 0 0.28286967948545011 -0.42518246282807659 0 0.28257143088250192 -0.40517079140275147 0 0.27393146920955852 -0.41268801787128268 0 0.28373395717235128 -0.41629331570594891 0 0.27393146920955852 -0.41268801787128268 0 0.28286967948545011 -0.42518246282807659 0 0.28373395717235128 -0.41629331570594891 0 0.25547727316400543 -0.40666305580224382 0 0.26497773712691042 -0.42688558094424728 0 0.24522858943271389 -0.4283948485286031 0 0.27393146920955852 -0.41268801787128268 0 0.25547727316400543 -0.40666305580224382 0 0.26497773712691042 -0.42688558094424728 0 0.26497773712691042 -0.42688558094424728 0 0.2520784615727325 -0.44935118510457089 0 0.24522858943271389 -0.4283948485286031 0 0.26497773712691042 -0.42688558094424728 0 0.28286967948545011 -0.42518246282807659 0 0.27666213733548822 -0.43962718485919811 0 0.29159516065876451 -0.43670723127614652 0 0.28286967948545011 -0.42518246282807659 0 0.27666213733548822 -0.43962718485919811 0 0.29159516065876451 -0.43670723127614652 0 0.29816241803921401 -0.42464850538550031 0 0.30048522423440399 -0.43997705155357081 0 0.29159516065876451 -0.43670723127614652 0 0.28286967948545011 -0.42518246282807659 0 0.29816241803921401 -0.42464850538550031 0 0.28286967948545011 -0.42518246282807659 0 0.29026402676671331 -0.41818025194769892 0 0.29816241803921401 -0.42464850538550031 0 0.28286967948545011 -0.42518246282807659 0 0.28373395717235128 -0.41629331570594891 0 0.29026402676671331 -0.41818025194769892 0 0.28373395717235128 -0.41629331570594891 0 0.28905417121077143 -0.41141956027001708 0 0.29026402676671331 -0.41818025194769892 0 0.28257143088250192 -0.40517079140275147 0 0.28905417121077143 -0.41141956027001708 0 0.29058847697065121 -0.40723875509834778 0 0.28257143088250192 -0.40517079140275147 0 0.28373395717235128 -0.41629331570594891 0 0.28905417121077143 -0.41141956027001708 0 0.28905417121077143 -0.41141956027001708 0 0.2958396118440253 -0.40931995921742959 0 0.29026402676671331 -0.41818025194769892 0 0.28905417121077143 -0.41141956027001708 0 0.29058847697065121 -0.40723875509834778 0 0.2958396118440253 -0.40931995921742959 0 0.28905417121077143 -0.41141956027001708 0 0.2958396118440253 -0.40931995921742959 0 0.29488869394530848 -0.40304470950319288 0 0.29058847697065121 -0.40723875509834778 0 0.2958396118440253 -0.40931995921742959 0 0.2958396118440253 -0.40931995921742959 0 0.29026402676671331 -0.41818025194769892 0 0.29816241803921401 -0.42464850538550031 0 0.2958396118440253 -0.40931995921742959 0 0.29816241803921401 -0.42464850538550031 0 0.2958396118440253 -0.40931995921742959 0 0.30274415268121468 -0.40718350530190861 0 0.29816241803921401 -0.42464850538550031 0 0.30274415268121468 -0.40718350530190861 0 0.31165786604331752 -0.42240055263676662 0 0.29816241803921401 -0.42464850538550031 0 0.29488869394530848 -0.40304470950319288 0 0.2958396118440253 -0.40931995921742959 0 0.30274415268121468 -0.40718350530190861 0 0.2958396118440253 -0.40931995921742959 0 0.30274415268121468 -0.40718350530190861 0 0.31165786604331752 -0.42240055263676662 0 0.31137099642933591 -0.43308046152983098 0 0.29816241803921401 -0.42464850538550031 0 0.29816241803921401 -0.42464850538550031 0 0.30048522423440399 -0.43997705155357081 0 0.31137099642933591 -0.43308046152983098 0 0.29816241803921401 -0.42464850538550031 0 0.30048522423440399 -0.43997705155357081 0 0.30048522423440399 -0.43997705155357081 0 0.3045519919726421 -0.4668142612870414 0 0.29102172617671401 -0.45051641378096569 0 0.30048522423440399 -0.43997705155357081 0 0.31189863307305632 -0.45736924020975328 0 0.3045519919726421 -0.4668142612870414 0 0.30048522423440399 -0.43997705155357081 0 0.3045519919726421 -0.4668142612870414 0 0.31189863307305632 -0.45736924020975328 0 0.3077085286610482 -0.46786474979510162 0 0.3045519919726421 -0.4668142612870414 0 0.3077085286610482 -0.46786474979510162 0 0.3045519919726421 -0.4668142612870414 0 0.3045519919726421 -0.4668142612870414 0 0.27831522677268722 -0.45808272319580662 0 0.2862323896771361 -0.47807725987424032 0 0.3045519919726421 -0.4668142612870414 0 0.29102172617671401 -0.45051641378096569 0 0.27831522677268722 -0.45808272319580662 0 0.3045519919726421 -0.4668142612870414 0 0.27831522677268722 -0.45808272319580662 0 0.29102172617671401 -0.45051641378096569 0 0.27666213733548822 -0.43962718485919811 0 0.27831522677268722 -0.45808272319580662 0 0.29159516065876451 -0.43670723127614652 0 0.30048522423440399 -0.43997705155357081 0 0.29102172617671401 -0.45051641378096569 0 0.29159516065876451 -0.43670723127614652 0 0.30048522423440399 -0.43997705155357081 0 0.29159516065876451 -0.43670723127614652 0 0.29102172617671401 -0.45051641378096569 0 0.27666213733548822 -0.43962718485919811 0 0.27666213733548822 -0.43962718485919811 0 0.2520784615727325 -0.44935118510457089 0 0.27831522677268722 -0.45808272319580662 0 0.26497773712691042 -0.42688558094424728 0 0.27666213733548822 -0.43962718485919811 0 0.2520784615727325 -0.44935118510457089 0 0.2520784615727325 -0.44935118510457089 0 0.27831522677268722 -0.45808272319580662 0 0.2520784615727325 -0.44935118510457089 0 0.27831522677268722 -0.45808272319580662 0 0.2588293283251123 -0.47462188051201698 0 0.2588293283251123 -0.47462188051201698 0 0.27119019255492022 -0.48768568316017907 0 0.2862323896771361 -0.47807725987424032 0 0.27831522677268722 -0.45808272319580662 0 0.2588293283251123 -0.47462188051201698 0 0.2862323896771361 -0.47807725987424032 0 0.2588293283251123 -0.47462188051201698 0 0.25812585945651839 -0.5 0 0.24535983906541109 -0.48633814092309541 0 0.2588293283251123 -0.47462188051201698 0 0.25812585945651839 -0.5 0 0.27119019255492022 -0.48768568316017907 0 0.27119019255492022 -0.48768568316017907 0 0.28385332070772562 -0.5 0 0.2862323896771361 -0.47807725987424032 0 0.25812585945651839 -0.5 0 0.27119019255492022 -0.48768568316017907 0 0.28385332070772562 -0.5 0 0.28385332070772562 -0.5 0 0.2862323896771361 -0.47807725987424032 0 0.30706638696578842 -0.48340713064352142 0 0.3045519919726421 -0.4668142612870414 0 0.2862323896771361 -0.47807725987424032 0 0.30706638696578842 -0.48340713064352142 0 0.3077085286610482 -0.46786474979510162 0 0.3045519919726421 -0.4668142612870414 0 0.30706638696578842 -0.48340713064352142 0 0.3045519919726421 -0.4668142612870414 0 0.30706638696578842 -0.48340713064352142 0 0.31832339355507849 -0.47608776419563142 0 0.3077085286610482 -0.46786474979510162 0 0.30706638696578842 -0.48340713064352142 0 0.30706638696578842 -0.48340713064352142 0 0.30958078195893279 -0.50000000000000155 0 0.28385332070772562 -0.5 0 0.30706638696578842 -0.48340713064352142 0 0.30958078195893279 -0.50000000000000155 0 0.34331997954313742 -0.2995498336147957 0 0.32360899923130648 -0.29746040512864957 0 0.33057104993937392 -0.27965269123372832 0 0.34331997954313742 -0.2995498336147957 0 0.33057104993937392 -0.27965269123372832 0 0.35064129306467101 -0.27330284851238668 0 0.34331997954313742 -0.2995498336147957 0 0.32360899923130648 -0.29746040512864957 0 0.33807331590634082 -0.31812054091454051 0 0.32360899923130648 -0.29746040512864957 0 0.33807331590634082 -0.31812054091454051 0 0.32360899923130648 -0.29746040512864957 0 0.33807331590634082 -0.31812054091454051 0 0.31758330032115001 -0.31953642032860091 0 0.32360899923130648 -0.29746040512864957 0 0.31758330032115001 -0.31953642032860091 0 0.300414923542138 -0.30379144451244128 0 0.32360899923130648 -0.29746040512864957 0 0.3091446825562722 -0.27680026934275892 0 0.32360899923130648 -0.29746040512864957 0 0.33057104993937392 -0.27965269123372832 0 0.3091446825562722 -0.27680026934275892 0 0.32839563971499142 -0.26137828393209223 0 0.33057104993937392 -0.27965269123372832 0 0.3091446825562722 -0.27680026934275892 0 0.31314198633835533 -0.24956525868757071 0 0.33751164888474638 -0.244602004849788 0 0.32839563971499142 -0.26137828393209223 0 0.31314198633835533 -0.24956525868757071 0 0.32839563971499142 -0.26137828393209223 0 0.3091446825562722 -0.27680026934275892 0 0.33751164888474638 -0.244602004849788 0 0.32839563971499142 -0.26137828393209223 0 0.35064129306467101 -0.27330284851238668 0 0.32839563971499142 -0.26137828393209223 0 0.33057104993937392 -0.27965269123372832 0 0.35064129306467101 -0.27330284851238668 0 0.35796260658620471 -0.24705586340997779 0 0.35064129306467101 -0.27330284851238668 0 0.33751164888474638 -0.244602004849788 0 0.35796260658620471 -0.24705586340997779 0 0.35064129306467101 -0.27330284851238668 0 0.35796260658620471 -0.24705586340997779 0 0.35064129306467101 -0.27330284851238668 0 0.37156940573209801 -0.26659112310485839 0 0.35796260658620471 -0.24705586340997779 0 0.37259386068367178 -0.25127866304762542 0 0.37156940573209801 -0.26659112310485839 0 0.37590561275027928 -0.28541093940745887 0 0.35064129306467101 -0.27330284851238668 0 0.37156940573209801 -0.26659112310485839 0 0.37611760612626821 -0.30534017104714889 0 0.37590561275027928 -0.28541093940745887 0 0.36089240925248778 -0.29589436631218052 0 0.37590561275027928 -0.28541093940745887 0 0.35064129306467101 -0.27330284851238668 0 0.36089240925248778 -0.29589436631218052 0 0.34331997954313742 -0.2995498336147957 0 0.35064129306467101 -0.27330284851238668 0 0.34331997954313742 -0.2995498336147957 0 0.35064129306467101 -0.27330284851238668 0 0.36089240925248778 -0.29589436631218052 0 0.34331997954313742 -0.2995498336147957 0 0.36089240925248778 -0.29589436631218052 0 0.35816683282868261 -0.31377092737588202 0 0.34331997954313742 -0.2995498336147957 0 0.35816683282868261 -0.31377092737588202 0 0.33807331590634082 -0.31812054091454051 0 0.37611760612626821 -0.30534017104714889 0 0.36089240925248778 -0.29589436631218052 0 0.35816683282868261 -0.31377092737588202 0 0.37611760612626821 -0.30534017104714889 0 0.37432845728121061 -0.32777836454551179 0 0.35816683282868261 -0.31377092737588202 0 0.37432845728121061 -0.32777836454551179 0 0.35253763258137522 -0.33878067670043133 0 0.35816683282868261 -0.31377092737588202 0 0.37432845728121061 -0.32777836454551179 0 0.36914244380834638 -0.3434837741967624 0 0.35253763258137522 -0.33878067670043133 0 0.35253763258137522 -0.33878067670043133 0 0.33807331590634082 -0.31812054091454051 0 0.35253763258137522 -0.33878067670043133 0 0.35816683282868261 -0.31377092737588202 0 0.33807331590634082 -0.31812054091454051 0 0.35938350212149012 -0.38032076325032649 0 0.36543799827564721 -0.36750956941155899 0 0.36913712183229502 -0.3679657492612568 0 0.35938350212149012 -0.38032076325032649 0 0.36913712183229502 -0.3679657492612568 0 0.36543799827564721 -0.36750956941155899 0 0.36913712183229502 -0.3679657492612568 0 0.36543799827564721 -0.36750956941155899 0 0.36913712183229502 -0.3679657492612568 0 0.36700194925640939 -0.35944081248632198 0 0.36543799827564721 -0.36750956941155899 0 0.36700194925640939 -0.35944081248632198 0 0.35341626832017198 -0.3605599902187725 0 0.36914244380834638 -0.3434837741967624 0 0.35253763258137522 -0.33878067670043133 0 0.36700194925640939 -0.35944081248632198 0 0.38439487480199308 -0.34863859103981021 0 0.36914244380834638 -0.3434837741967624 0 0.36700194925640939 -0.35944081248632198 0 0.38439487480199308 -0.34863859103981021 0 0.36913712183229502 -0.3679657492612568 0 0.36700194925640939 -0.35944081248632198 0 0.35253763258137522 -0.33878067670043133 0 0.36700194925640939 -0.35944081248632198 0 0.35253763258137522 -0.33878067670043133 0 0.36700194925640939 -0.35944081248632198 0 0.35341626832017198 -0.3605599902187725 0 0.35253763258137522 -0.33878067670043133 0 0.35341626832017198 -0.3605599902187725 0 0.33820687609497813 -0.36247655533807588 0 0.34631638271812459 -0.37989200188724742 0 0.35255220550608241 -0.37015177602119631 0 0.33820687609497813 -0.36247655533807588 0 0.36543799827564721 -0.36750956941155899 0 0.35341626832017198 -0.3605599902187725 0 0.35255220550608241 -0.37015177602119631 0 0.35341626832017198 -0.3605599902187725 0 0.35255220550608241 -0.37015177602119631 0 0.33820687609497813 -0.36247655533807588 0 0.35938350212149012 -0.38032076325032649 0 0.36543799827564721 -0.36750956941155899 0 0.35255220550608241 -0.37015177602119631 0 0.34631638271812459 -0.37989200188724742 0 0.3325811510924257 -0.3815948633889078 0 0.33820687609497813 -0.36247655533807588 0 0.35253763258137522 -0.33878067670043133 0 0.33820687609497813 -0.36247655533807588 0 0.33381193555439731 -0.33616155937561831 0 0.33820687609497813 -0.36247655533807588 0 0.33381193555439731 -0.33616155937561831 0 0.31451743820003669 -0.34282274658581541 0 0.33820687609497813 -0.36247655533807588 0 0.31451743820003669 -0.34282274658581541 0 0.31219909583831751 -0.3665062228465813 0 0.3325811510924257 -0.3815948633889078 0 0.33820687609497813 -0.36247655533807588 0 0.31219909583831751 -0.3665062228465813 0 0.33807331590634082 -0.31812054091454051 0 0.33381193555439731 -0.33616155937561831 0 0.31758330032115001 -0.31953642032860091 0 0.35253763258137522 -0.33878067670043133 0 0.33807331590634082 -0.31812054091454051 0 0.33381193555439731 -0.33616155937561831 0 0.33381193555439731 -0.33616155937561831 0 0.31451743820003669 -0.34282274658581541 0 0.31758330032115001 -0.31953642032860091 0 0.31758330032115001 -0.31953642032860091 0 0.30031328881799763 -0.32851054345477598 0 0.300414923542138 -0.30379144451244128 0 0.31451743820003669 -0.34282274658581541 0 0.30031328881799763 -0.32851054345477598 0 0.28656644864335179 -0.34812496561871331 0 0.31451743820003669 -0.34282274658581541 0 0.31758330032115001 -0.31953642032860091 0 0.30031328881799763 -0.32851054345477598 0 0.28240532599237478 -0.32066509367647322 0 0.28656644864335179 -0.34812496561871331 0 0.30031328881799763 -0.32851054345477598 0 0.28240532599237478 -0.32066509367647322 0 0.28656644864335179 -0.34812496561871331 0 0.30031328881799763 -0.32851054345477598 0 0.28240532599237478 -0.32066509367647322 0 0.300414923542138 -0.30379144451244128 0 0.31451743820003669 -0.34282274658581541 0 0.31219909583831751 -0.3665062228465813 0 0.28656644864335179 -0.34812496561871331 0 0.29072757129432869 -0.37558483756095329 0 0.28656644864335179 -0.34812496561871331 0 0.29072757129432869 -0.37558483756095329 0 0.31219909583831751 -0.3665062228465813 0 0.28656644864335179 -0.34812496561871331 0 0.29072757129432869 -0.37558483756095329 0 0.28656644864335179 -0.34812496561871331 0 0.26606532438140701 -0.3607314883466245 0 0.29072757129432869 -0.37558483756095329 0 0.26496054516243078 -0.37799496934468518 0 0.26606532438140701 -0.3607314883466245 0 0.28656644864335179 -0.34812496561871331 0 0.26606532438140701 -0.3607314883466245 0 0.26523489679615392 -0.33706513463316368 0 0.26606532438140701 -0.3607314883466245 0 0.26523489679615392 -0.33706513463316368 0 0.24829923736608531 -0.35139003947974179 0 0.26606532438140701 -0.3607314883466245 0 0.23966386937791961 -0.37137054671368019 0 0.24829923736608531 -0.35139003947974179 0 0.26496054516243078 -0.37799496934468518 0 0.26606532438140701 -0.3607314883466245 0 0.23966386937791961 -0.37137054671368019 0 0.28240532599237478 -0.32066509367647322 0 0.26523489679615392 -0.33706513463316368 0 0.25720162213247533 -0.30700843931555571 0 0.28240532599237478 -0.32066509367647322 0 0.28656644864335179 -0.34812496561871331 0 0.26523489679615392 -0.33706513463316368 0 0.26523489679615392 -0.33706513463316368 0 0.24241252797869409 -0.33153985369053501 0 0.24829923736608531 -0.35139003947974179 0 0.26523489679615392 -0.33706513463316368 0 0.25720162213247533 -0.30700843931555571 0 0.24241252797869409 -0.33153985369053501 0 0.25720162213247533 -0.30700843931555571 0 0.25784058226568318 -0.28809485297156989 0 0.2719907162862566 -0.28247702494057642 0 0.25784058226568318 -0.28809485297156989 0 0.25451141312861209 -0.27179449965914632 0 0.24765857751538889 -0.29109944797100112 0 0.25720162213247533 -0.30700843931555571 0 0.25784058226568318 -0.28809485297156989 0 0.24765857751538889 -0.29109944797100112 0 0.25720162213247533 -0.30700843931555571 0 0.2719907162862566 -0.28247702494057642 0 0.25720162213247533 -0.30700843931555571 0 0.2719907162862566 -0.28247702494057642 0 0.27824420334139788 -0.29320522173423308 0 0.28240532599237478 -0.32066509367647322 0 0.27824420334139788 -0.29320522173423308 0 0.28240532599237478 -0.32066509367647322 0 0.25720162213247533 -0.30700843931555571 0 0.27824420334139788 -0.29320522173423308 0 0.28240532599237478 -0.32066509367647322 0 0.27824420334139788 -0.29320522173423308 0 0.300414923542138 -0.30379144451244128 0 0.27824420334139788 -0.29320522173423308 0 0.29441809975581951 -0.28765017683021221 0 0.300414923542138 -0.30379144451244128 0 0.27824420334139788 -0.29320522173423308 0 0.29441809975581951 -0.28765017683021221 0 0.28986858958347 -0.27680377173141568 0 0.32360899923130648 -0.29746040512864957 0 0.300414923542138 -0.30379144451244128 0 0.3091446825562722 -0.27680026934275892 0 0.29441809975581951 -0.28765017683021221 0 0.300414923542138 -0.30379144451244128 0 0.3091446825562722 -0.27680026934275892 0 0.31314198633835533 -0.24956525868757071 0 0.3091446825562722 -0.27680026934275892 0 0.29526169436595001 -0.25668483292193389 0 0.3091446825562722 -0.27680026934275892 0 0.28986858958347 -0.27680377173141568 0 0.29526169436595001 -0.25668483292193389 0 0.29441809975581951 -0.28765017683021221 0 0.3091446825562722 -0.27680026934275892 0 0.28986858958347 -0.27680377173141568 0 0.28986858958347 -0.27680377173141568 0 0.29526169436595001 -0.25668483292193389 0 0.27408308069042098 -0.26574534979199332 0 0.27983965477651479 -0.24805314350398611 0 0.29526169436595001 -0.25668483292193389 0 0.27408308069042098 -0.26574534979199332 0 0.27983965477651479 -0.24805314350398611 0 0.27408308069042098 -0.26574534979199332 0 0.26389312579297852 -0.25232101815766539 0 0.27824420334139788 -0.29320522173423308 0 0.28986858958347 -0.27680377173141568 0 0.27408308069042098 -0.26574534979199332 0 0.2719907162862566 -0.28247702494057642 0 0.27824420334139788 -0.29320522173423308 0 0.27408308069042098 -0.26574534979199332 0 0.2719907162862566 -0.28247702494057642 0 0.27408308069042098 -0.26574534979199332 0 0.25451141312861209 -0.27179449965914632 0 0.27824420334139788 -0.29320522173423308 0 0.27408308069042098 -0.26574534979199332 0 0.25784058226568318 -0.28809485297156989 0 0.2719907162862566 -0.28247702494057642 0 0.25451141312861209 -0.27179449965914632 0 0.25451141312861209 -0.27179449965914632 0 0.26389312579297852 -0.25232101815766539 0 0.2472694597858873 -0.25498884440800829 0 0.27408308069042098 -0.26574534979199332 0 0.25451141312861209 -0.27179449965914632 0 0.26389312579297852 -0.25232101815766539 0 0.25451141312861209 -0.27179449965914632 0 0.2472694597858873 -0.25498884440800829 0 0.2302536727309708 -0.26924924768236219 0 0.2472694597858873 -0.25498884440800829 0 0.2302536727309708 -0.26924924768236219 0 0.2374339592455737 -0.24533548467781441 0 0.2302536727309708 -0.26924924768236219 0 0.24765857751538889 -0.29109944797100112 0 0.25451141312861209 -0.27179449965914632 0 0.2302536727309708 -0.26924924768236219 0 0.24765857751538889 -0.29109944797100112 0 0.2302536727309708 -0.26924924768236219 0 0.21183330808908599 -0.2711353839535775 0 0.2292529447689092 -0.28669438589452328 0 0.2302536727309708 -0.26924924768236219 0 0.22591209503696619 -0.24952933066920069 0 0.21284876794655119 -0.2473990473937247 0 0.2302536727309708 -0.26924924768236219 0 0.21284876794655119 -0.2473990473937247 0 0.2302536727309708 -0.26924924768236219 0 0.2374339592455737 -0.24533548467781441 0 0.22591209503696619 -0.24952933066920069 0 0.21183330808908599 -0.2711353839535775 0 0.1905410772080848 -0.26400293120773538 0 0.21284876794655119 -0.2473990473937247 0 0.2302536727309708 -0.26924924768236219 0 0.21183330808908599 -0.2711353839535775 0 0.21284876794655119 -0.2473990473937247 0 0.21183330808908599 -0.2711353839535775 0 0.1905410772080848 -0.26400293120773538 0 0.1982482719340509 -0.28530153804722119 0 0.1905410772080848 -0.26400293120773538 0 0.21284876794655119 -0.2473990473937247 0 0.19326859375481301 -0.24659169521124169 0 0.1905410772080848 -0.26400293120773538 0 0.21284876794655119 -0.2473990473937247 0 0.1982482719340509 -0.28530153804722119 0 0.19792841014727031 -0.31833904154362641 0 0.18308089830844829 -0.29947292828268279 0 0.1982482719340509 -0.28530153804722119 0 0.21632991852510911 -0.2970038922896539 0 0.19792841014727031 -0.31833904154362641 0 0.19792841014727031 -0.31833904154362641 0 0.18308089830844829 -0.29947292828268279 0 0.21183330808908599 -0.2711353839535775 0 0.1982482719340509 -0.28530153804722119 0 0.21632991852510911 -0.2970038922896539 0 0.21632991852510911 -0.2970038922896539 0 0.22101051285302589 -0.31806094178011829 0 0.19792841014727031 -0.31833904154362641 0 0.21632991852510911 -0.2970038922896539 0 0.23560578562796419 -0.30621676657220631 0 0.22101051285302589 -0.31806094178011829 0 0.21632991852510911 -0.2970038922896539 0 0.2292529447689092 -0.28669438589452328 0 0.23560578562796419 -0.30621676657220631 0 0.21183330808908599 -0.2711353839535775 0 0.21632991852510911 -0.2970038922896539 0 0.2292529447689092 -0.28669438589452328 0 0.2292529447689092 -0.28669438589452328 0 0.24765857751538889 -0.29109944797100112 0 0.23560578562796419 -0.30621676657220631 0 0.2302536727309708 -0.26924924768236219 0 0.2292529447689092 -0.28669438589452328 0 0.24765857751538889 -0.29109944797100112 0 0.25720162213247533 -0.30700843931555571 0 0.24765857751538889 -0.29109944797100112 0 0.23560578562796419 -0.30621676657220631 0 0.25720162213247533 -0.30700843931555571 0 0.23560578562796419 -0.30621676657220631 0 0.24241252797869409 -0.33153985369053501 0 0.25720162213247533 -0.30700843931555571 0 0.24241252797869409 -0.33153985369053501 0 0.24241252797869409 -0.33153985369053501 0 0.22101051285302589 -0.31806094178011829 0 0.2127759219860923 -0.33720515480456997 0 0.24241252797869409 -0.33153985369053501 0 0.22762343382491329 -0.35607126806551448 0 0.2127759219860923 -0.33720515480456997 0 0.23560578562796419 -0.30621676657220631 0 0.24241252797869409 -0.33153985369053501 0 0.22101051285302589 -0.31806094178011829 0 0.23966386937791961 -0.37137054671368019 0 0.24829923736608531 -0.35139003947974179 0 0.22762343382491329 -0.35607126806551448 0 0.24241252797869409 -0.33153985369053501 0 0.22762343382491329 -0.35607126806551448 0 0.24241252797869409 -0.33153985369053501 0 0.24829923736608531 -0.35139003947974179 0 0.22762343382491329 -0.35607126806551448 0 0.22762343382491329 -0.35607126806551448 0 0.2127759219860923 -0.33720515480456997 0 0.23966386937791961 -0.37137054671368019 0 0.22762343382491329 -0.35607126806551448 0 0.2152969476383684 -0.37651783073428102 0 0.22762343382491329 -0.35607126806551448 0 0.2152969476383684 -0.37651783073428102 0 0.23966386937791961 -0.37137054671368019 0 0.22762343382491329 -0.35607126806551448 0 0.22762343382491329 -0.35607126806551448 0 0.2024253162490568 -0.35680373496611401 0 0.2152969476383684 -0.37651783073428102 0 0.2024253162490568 -0.35680373496611401 0 0.19471355938302731 -0.37303663633880962 0 0.2152969476383684 -0.37651783073428102 0 0.22762343382491329 -0.35607126806551448 0 0.2024253162490568 -0.35680373496611401 0 0.2127759219860923 -0.33720515480456997 0 0.2024253162490568 -0.35680373496611401 0 0.1909427905170602 -0.33686924562210929 0 0.1862946831480847 -0.35247955388266727 0 0.2024253162490568 -0.35680373496611401 0 0.19471355938302731 -0.37303663633880962 0 0.1862946831480847 -0.35247955388266727 0 0.22101051285302589 -0.31806094178011829 0 0.2127759219860923 -0.33720515480456997 0 0.19792841014727031 -0.31833904154362641 0 0.2127759219860923 -0.33720515480456997 0 0.19792841014727031 -0.31833904154362641 0 0.2024253162490568 -0.35680373496611401 0 0.2127759219860923 -0.33720515480456997 0 0.1909427905170602 -0.33686924562210929 0 0.2127759219860923 -0.33720515480456997 0 0.1909427905170602 -0.33686924562210929 0 0.19792841014727031 -0.31833904154362641 0 0.1909427905170602 -0.33686924562210929 0 0.19792841014727031 -0.31833904154362641 0 0.17558243902630741 -0.3183446395607446 0 0.1909427905170602 -0.33686924562210929 0 0.17558243902630741 -0.3183446395607446 0 0.1706499725455502 -0.33804334897493371 0 0.1909427905170602 -0.33686924562210929 0 0.1706499725455502 -0.33804334897493371 0 0.1862946831480847 -0.35247955388266727 0 0.1706499725455502 -0.33804334897493371 0 0.15529941057592839 -0.31736120931432582 0 0.14625389053021251 -0.34158812492135388 0 0.17558243902630741 -0.3183446395607446 0 0.15529941057592839 -0.31736120931432582 0 0.16577468757410629 -0.30311266024585443 0 0.17558243902630741 -0.3183446395607446 0 0.1706499725455502 -0.33804334897493371 0 0.15529941057592839 -0.31736120931432582 0 0.19471355938302731 -0.37303663633880962 0 0.1773146401187933 -0.36449921800722729 0 0.1862946831480847 -0.35247955388266727 0 0.1706499725455502 -0.33804334897493371 0 0.1773146401187933 -0.36449921800722729 0 0.1706499725455502 -0.33804334897493371 0 0.1773146401187933 -0.36449921800722729 0 0.1862946831480847 -0.35247955388266727 0 0.1706499725455502 -0.33804334897493371 0 0.1773146401187933 -0.36449921800722729 0 0.1596735503571681 -0.35549222830123173 0 0.1706499725455502 -0.33804334897493371 0 0.1596735503571681 -0.35549222830123173 0 0.14625389053021251 -0.34158812492135388 0 0.1773146401187933 -0.36449921800722729 0 0.1596735503571681 -0.35549222830123173 0 0.16214399885642261 -0.36552676498139242 0 0.1596735503571681 -0.35549222830123173 0 0.16214399885642261 -0.36552676498139242 0 0.15405360982758309 -0.36460636463853863 0 0.16214399885642261 -0.36552676498139242 0 0.15762067247126599 -0.37226429007613732 0 0.16483677758206899 -0.37318206828849038 0 0.16214399885642261 -0.36552676498139242 0 0.15762067247126599 -0.37226429007613732 0 0.15405360982758309 -0.36460636463853863 0 0.1773146401187933 -0.36449921800722729 0 0.16214399885642261 -0.36552676498139242 0 0.16483677758206899 -0.37318206828849038 0 0.1470337761278121 -0.36897609260164399 0 0.14754201555427579 -0.35794555548343321 0 0.13090160233808809 -0.35731585868283539 0 0.15762067247126599 -0.37226429007613732 0 0.1470337761278121 -0.36897609260164399 0 0.15404808371922599 -0.38143264610283478 0 0.15762067247126599 -0.37226429007613732 0 0.1470337761278121 -0.36897609260164399 0 0.15405360982758309 -0.36460636463853863 0 0.1470337761278121 -0.36897609260164399 0 0.15405360982758309 -0.36460636463853863 0 0.14754201555427579 -0.35794555548343321 0 0.1596735503571681 -0.35549222830123173 0 0.14754201555427579 -0.35794555548343321 0 0.14625389053021251 -0.34158812492135388 0 0.14754201555427579 -0.35794555548343321 0 0.13090160233808809 -0.35731585868283539 0 0.14625389053021251 -0.34158812492135388 0 0.1596735503571681 -0.35549222830123173 0 0.15405360982758309 -0.36460636463853863 0 0.14754201555427579 -0.35794555548343321 0 0.13090160233808809 -0.35731585868283539 0 0.14625389053021251 -0.34158812492135388 0 0.1236404009032393 -0.3382591858841002 0 0.13090160233808809 -0.35731585868283539 0 0.1236404009032393 -0.3382591858841002 0 0.1470337761278121 -0.36897609260164399 0 0.13090160233808809 -0.35731585868283539 0 0.1381628037729368 -0.37637253148157063 0 0.13090160233808809 -0.35731585868283539 0 0.1381628037729368 -0.37637253148157063 0 0.1200631029144158 -0.37666099515359142 0 0.13090160233808809 -0.35731585868283539 0 0.1381628037729368 -0.37637253148157063 0 0.15529941057592839 -0.31736120931432582 0 0.13618829360588811 -0.32472792913266602 0 0.1336639284687961 -0.30633728039749247 0 0.15529941057592839 -0.31736120931432582 0 0.14625389053021251 -0.34158812492135388 0 0.13618829360588811 -0.32472792913266602 0 0.14625389053021251 -0.34158812492135388 0 0.13618829360588811 -0.32472792913266602 0 0.1236404009032393 -0.3382591858841002 0 0.13618829360588811 -0.32472792913266602 0 0.1163791994683858 -0.31920251308536679 0 0.1236404009032393 -0.3382591858841002 0 0.13618829360588811 -0.32472792913266602 0 0.1336639284687961 -0.30633728039749247 0 0.1163791994683858 -0.31920251308536679 0 0.1336639284687961 -0.30633728039749247 0 0.1163791994683858 -0.31920251308536679 0 0.1336639284687961 -0.30633728039749247 0 0.15094865746920719 -0.29347204770961921 0 0.15529941057592839 -0.31736120931432582 0 0.1336639284687961 -0.30633728039749247 0 0.15094865746920719 -0.29347204770961921 0 0.15094865746920719 -0.29347204770961921 0 0.14589395400640681 -0.27762900029615589 0 0.16823338646961819 -0.28060681502174573 0 0.15094865746920719 -0.29347204770961921 0 0.129649768925158 -0.28569441474588969 0 0.14589395400640681 -0.27762900029615589 0 0.1336639284687961 -0.30633728039749247 0 0.15094865746920719 -0.29347204770961921 0 0.129649768925158 -0.28569441474588969 0 0.129649768925158 -0.28569441474588969 0 0.132036697405049 -0.26775833734660293 0 0.11659921375033409 -0.27368960512017892 0 0.129649768925158 -0.28569441474588969 0 0.132036697405049 -0.26775833734660293 0 0.14589395400640681 -0.27762900029615589 0 0.132036697405049 -0.26775833734660293 0 0.13267496847572169 -0.25494978950732577 0 0.15487492269370759 -0.26363277295162407 0 0.132036697405049 -0.26775833734660293 0 0.13267496847572169 -0.25494978950732577 0 0.1165616163499876 -0.25311830346572051 0 0.13267496847572169 -0.25494978950732577 0 0.1165616163499876 -0.25311830346572051 0 0.12805467367690951 -0.24418535849990461 0 0.13267496847572169 -0.25494978950732577 0 0.15487492269370759 -0.26363277295162407 0 0.14151645891778869 -0.24665873088150889 0 0.15487492269370759 -0.26363277295162407 0 0.14151645891778869 -0.24665873088150889 0 0.15487492269370759 -0.26363277295162407 0 0.1537710889854203 -0.25098111681898749 0 0.14151645891778869 -0.24665873088150889 0 0.132036697405049 -0.26775833734660293 0 0.15487492269370759 -0.26363277295162407 0 0.14589395400640681 -0.27762900029615589 0 0.15487492269370759 -0.26363277295162407 0 0.14589395400640681 -0.27762900029615589 0 0.16823338646961819 -0.28060681502174573 0 0.15487492269370759 -0.26363277295162407 0 0.16823338646961819 -0.28060681502174573 0 0.1697923292825973 -0.26274417790601301 0 0.15487492269370759 -0.26363277295162407 0 0.16823338646961819 -0.28060681502174573 0 0.1537710889854203 -0.25098111681898749 0 0.1627958475822632 -0.25339139384796178 0 0.15892649538415149 -0.24675974491835859 0 0.15487492269370759 -0.26363277295162407 0 0.1537710889854203 -0.25098111681898749 0 0.1627958475822632 -0.25339139384796178 0 0.15487492269370759 -0.26363277295162407 0 0.1627958475822632 -0.25339139384796178 0 0.1697923292825973 -0.26274417790601301 0 0.1627958475822632 -0.25339139384796178 0 0.1697923292825973 -0.26274417790601301 0 0.17601056253990499 -0.25048347902003998 0 0.1905410772080848 -0.26400293120773538 0 0.17601056253990499 -0.25048347902003998 0 0.19326859375481301 -0.24659169521124169 0 0.1905410772080848 -0.26400293120773538 0 0.1697923292825973 -0.26274417790601301 0 0.17601056253990499 -0.25048347902003998 0 0.1905410772080848 -0.26400293120773538 0 0.1982482719340509 -0.28530153804722119 0 0.16823338646961819 -0.28060681502174573 0 0.1905410772080848 -0.26400293120773538 0 0.16823338646961819 -0.28060681502174573 0 0.1697923292825973 -0.26274417790601301 0 0.1905410772080848 -0.26400293120773538 0 0.16823338646961819 -0.28060681502174573 0 0.16823338646961819 -0.28060681502174573 0 0.18308089830844829 -0.29947292828268279 0 0.16577468757410629 -0.30311266024585443 0 0.1982482719340509 -0.28530153804722119 0 0.16823338646961819 -0.28060681502174573 0 0.18308089830844829 -0.29947292828268279 0 0.16823338646961819 -0.28060681502174573 0 0.18308089830844829 -0.29947292828268279 0 0.19792841014727031 -0.31833904154362641 0 0.17558243902630741 -0.3183446395607446 0 0.18308089830844829 -0.29947292828268279 0 0.17558243902630741 -0.3183446395607446 0 0.18308089830844829 -0.29947292828268279 0 0.16577468757410629 -0.30311266024585443 0 0.15529941057592839 -0.31736120931432582 0 0.15094865746920719 -0.29347204770961921 0 0.16577468757410629 -0.30311266024585443 0 0.15094865746920719 -0.29347204770961921 0 0.16823338646961819 -0.28060681502174573 0 0.15094865746920719 -0.29347204770961921 0 0.16823338646961819 -0.28060681502174573 0 0.16577468757410629 -0.30311266024585443 0 0.19494179233151901 -0.48358239950105358 0 0.20667093695410399 -0.5 0 0.18094347570289671 -0.50000000000000011 0 0.19494179233151901 -0.48358239950105358 0 0.20783598913832349 -0.46205022006453211 0 0.18947993347756431 -0.46409089782196961 0 0.19494179233151901 -0.48358239950105358 0 0.18947993347756431 -0.46409089782196961 0 0.1785785169912624 -0.47685735771927562 0 0.21435063505375479 -0.48222383105672761 0 0.23208577027470259 -0.4707306831803646 0 0.20783598913832349 -0.46205022006453211 0 0.19494179233151901 -0.48358239950105358 0 0.21435063505375479 -0.48222383105672761 0 0.20783598913832349 -0.46205022006453211 0 0.19494179233151901 -0.48358239950105358 0 0.21435063505375479 -0.48222383105672761 0 0.20667093695410399 -0.5 0 0.21435063505375479 -0.48222383105672761 0 0.20667093695410399 -0.5 0 0.2323983982053113 -0.5 0 0.25812585945651839 -0.5 0 0.2323983982053113 -0.5 0 0.24535983906541109 -0.48633814092309541 0 0.2323983982053113 -0.5 0 0.24535983906541109 -0.48633814092309541 0 0.23208577027470259 -0.4707306831803646 0 0.2588293283251123 -0.47462188051201698 0 0.24535983906541109 -0.48633814092309541 0 0.23208577027470259 -0.4707306831803646 0 0.21435063505375479 -0.48222383105672761 0 0.2323983982053113 -0.5 0 0.23208577027470259 -0.4707306831803646 0 0.23208577027470259 -0.4707306831803646 0 0.22584169637277779 -0.44061964701333528 0 0.20783598913832349 -0.46205022006453211 0 0.2520784615727325 -0.44935118510457089 0 0.2588293283251123 -0.47462188051201698 0 0.23208577027470259 -0.4707306831803646 0 0.2520784615727325 -0.44935118510457089 0 0.23208577027470259 -0.4707306831803646 0 0.22584169637277779 -0.44061964701333528 0 0.2520784615727325 -0.44935118510457089 0 0.22584169637277779 -0.44061964701333528 0 0.24522858943271389 -0.4283948485286031 0 0.2520784615727325 -0.44935118510457089 0 0.22584169637277779 -0.44061964701333528 0 0.22584169637277779 -0.44061964701333528 0 0.20832881152298871 -0.44520573654339551 0 0.20783598913832349 -0.46205022006453211 0 0.22584169637277779 -0.44061964701333528 0 0.20832881152298871 -0.44520573654339551 0 0.1996049311728231 -0.43188810892209972 0 0.20783598913832349 -0.46205022006453211 0 0.18947993347756431 -0.46409089782196961 0 0.19263138888938039 -0.44786209052684378 0 0.20832881152298871 -0.44520573654339551 0 0.19263138888938039 -0.44786209052684378 0 0.1996049311728231 -0.43188810892209972 0 0.20832881152298871 -0.44520573654339551 0 0.20783598913832349 -0.46205022006453211 0 0.19263138888938039 -0.44786209052684378 0 0.19263138888938039 -0.44786209052684378 0 0.1996049311728231 -0.43188810892209972 0 0.1903007027514666 -0.43680159055987039 0 0.1974717929508181 -0.4221005781592691 0 0.1996049311728231 -0.43188810892209972 0 0.20751148775746769 -0.41478173907844401 0 0.1974717929508181 -0.4221005781592691 0 0.1996049311728231 -0.43188810892209972 0 0.19118719277080171 -0.43014684653119201 0 0.1996049311728231 -0.43188810892209972 0 0.19118719277080171 -0.43014684653119201 0 0.1903007027514666 -0.43680159055987039 0 0.1974717929508181 -0.4221005781592691 0 0.19118719277080171 -0.43014684653119201 0 0.19111907828513641 -0.41929691109238298 0 0.19064397526527951 -0.41741095607181428 0 0.19793627476786169 -0.41438928517222712 0 0.20297046145182401 -0.39696439340304768 0 0.19793627476786169 -0.41438928517222712 0 0.20751148775746769 -0.41478173907844401 0 0.20297046145182401 -0.39696439340304768 0 0.19064397526527951 -0.41741095607181428 0 0.20297046145182401 -0.39696439340304768 0 0.19111907828513641 -0.41929691109238298 0 0.19064397526527951 -0.41741095607181428 0 0.19111907828513641 -0.41929691109238298 0 0.19064397526527951 -0.41741095607181428 0 0.19793627476786169 -0.41438928517222712 0 0.1974717929508181 -0.4221005781592691 0 0.19793627476786169 -0.41438928517222712 0 0.20751148775746769 -0.41478173907844401 0 0.1974717929508181 -0.4221005781592691 0 0.19111907828513641 -0.41929691109238298 0 0.19793627476786169 -0.41438928517222712 0 0.20751148775746769 -0.41478173907844401 0 0.22256520071164629 -0.42173894478558632 0 0.22016476019443831 -0.40256298671502361 0 0.22584169637277779 -0.44061964701333528 0 0.1996049311728231 -0.43188810892209972 0 0.22256520071164629 -0.42173894478558632 0 0.1996049311728231 -0.43188810892209972 0 0.20751148775746769 -0.41478173907844401 0 0.22256520071164629 -0.42173894478558632 0 0.22584169637277779 -0.44061964701333528 0 0.1996049311728231 -0.43188810892209972 0 0.22584169637277779 -0.44061964701333528 0 0.24522858943271389 -0.4283948485286031 0 0.22256520071164629 -0.42173894478558632 0 0.25547727316400543 -0.40666305580224382 0 0.24522858943271389 -0.4283948485286031 0 0.2370397393396573 -0.41218633845601221 0 0.24522858943271389 -0.4283948485286031 0 0.2370397393396573 -0.41218633845601221 0 0.22256520071164629 -0.42173894478558632 0 0.2370397393396573 -0.41218633845601221 0 0.22256520071164629 -0.42173894478558632 0 0.22016476019443831 -0.40256298671502361 0 0.2370397393396573 -0.41218633845601221 0 0.22016476019443831 -0.40256298671502361 0 0.2348610818157956 -0.39182471654774548 0 0.25170430493092483 -0.38666982536184669 0 0.25547727316400543 -0.40666305580224382 0 0.2348610818157956 -0.39182471654774548 0 0.25547727316400543 -0.40666305580224382 0 0.2370397393396573 -0.41218633845601221 0 0.2348610818157956 -0.39182471654774548 0 0.25170430493092483 -0.38666982536184669 0 0.23966386937791961 -0.37137054671368019 0 0.2348610818157956 -0.39182471654774548 0 0.25170430493092483 -0.38666982536184669 0 0.23966386937791961 -0.37137054671368019 0 0.22016476019443831 -0.40256298671502361 0 0.2348610818157956 -0.39182471654774548 0 0.2152969476383684 -0.37651783073428102 0 0.23966386937791961 -0.37137054671368019 0 0.2348610818157956 -0.39182471654774548 0 0.2152969476383684 -0.37651783073428102 0 0.19471355938302731 -0.37303663633880962 0 0.2152969476383684 -0.37651783073428102 0 0.20297046145182401 -0.39696439340304768 0 0.2152969476383684 -0.37651783073428102 0 0.20297046145182401 -0.39696439340304768 0 0.20751148775746769 -0.41478173907844401 0 0.22016476019443831 -0.40256298671502361 0 0.20297046145182401 -0.39696439340304768 0 0.22016476019443831 -0.40256298671502361 0 0.2152969476383684 -0.37651783073428102 0 0.20297046145182401 -0.39696439340304768 0 0.19064397526527951 -0.41741095607181428 0 0.20297046145182401 -0.39696439340304768 0 0.18397930769203641 -0.39095508703952081 0 0.19471355938302731 -0.37303663633880962 0 0.20297046145182401 -0.39696439340304768 0 0.18397930769203641 -0.39095508703952081 0 0.1773146401187933 -0.36449921800722729 0 0.16483677758206899 -0.37318206828849038 0 0.18397930769203641 -0.39095508703952081 0 0.1773146401187933 -0.36449921800722729 0 0.18397930769203641 -0.39095508703952081 0 0.19471355938302731 -0.37303663633880962 0 0.1773146401187933 -0.36449921800722729 0 0.18397930769203641 -0.39095508703952081 0 0.18397930769203641 -0.39095508703952081 0 0.17119749819299299 -0.40729812784976321 0 0.18080338754398639 -0.41167529301582378 0 0.19064397526527951 -0.41741095607181428 0 0.18397930769203641 -0.39095508703952081 0 0.18397930769203641 -0.39095508703952081 0 0.1664510235947449 -0.39064169889171518 0 0.17119749819299299 -0.40729812784976321 0 0.15819345078740041 -0.40034056517796718 0 0.1664510235947449 -0.39064169889171518 0 0.17119749819299299 -0.40729812784976321 0 0.15819345078740041 -0.40034056517796718 0 0.1664510235947449 -0.39064169889171518 0 0.15404808371922599 -0.38143264610283478 0 0.16483677758206899 -0.37318206828849038 0 0.1664510235947449 -0.39064169889171518 0 0.15404808371922599 -0.38143264610283478 0 0.16483677758206899 -0.37318206828849038 0 0.18397930769203641 -0.39095508703952081 0 0.1664510235947449 -0.39064169889171518 0 0.16483677758206899 -0.37318206828849038 0 0.15404808371922599 -0.38143264610283478 0 0.15762067247126599 -0.37226429007613732 0 0.16483677758206899 -0.37318206828849038 0 0.15404808371922599 -0.38143264610283478 0 0.15404808371922599 -0.38143264610283478 0 0.1381628037729368 -0.37637253148157063 0 0.13541194282819891 -0.39568450388425291 0 0.15762067247126599 -0.37226429007613732 0 0.15404808371922599 -0.38143264610283478 0 0.1470337761278121 -0.36897609260164399 0 0.15404808371922599 -0.38143264610283478 0 0.1381628037729368 -0.37637253148157063 0 0.15404808371922599 -0.38143264610283478 0 0.13541194282819891 -0.39568450388425291 0 0.13541194282819891 -0.39568450388425291 0 0.1200631029144158 -0.37666099515359142 0 0.1381628037729368 -0.37637253148157063 0 0.13541194282819891 -0.39568450388425291 0 0.1200631029144158 -0.37666099515359142 0 0.13541194282819891 -0.39568450388425291 0 0.14423398337463469 -0.40661863091275602 0 0.1292215946460335 -0.41291302637130251 0 0.13541194282819891 -0.39568450388425291 0 0.14423398337463469 -0.40661863091275602 0 0.15404808371922599 -0.38143264610283478 0 0.13541194282819891 -0.39568450388425291 0 0.14423398337463469 -0.40661863091275602 0 0.15819345078740041 -0.40034056517796718 0 0.15404808371922599 -0.38143264610283478 0 0.14423398337463469 -0.40661863091275602 0 0.15404808371922599 -0.38143264610283478 0 0.14423398337463469 -0.40661863091275602 0 0.14423398337463469 -0.40661863091275602 0 0.16034000051419831 -0.42658059281943822 0 0.15819345078740041 -0.40034056517796718 0 0.14423398337463469 -0.40661863091275602 0 0.16034000051419831 -0.42658059281943822 0 0.14423398337463469 -0.40661863091275602 0 0.14787835932997509 -0.42707156408572639 0 0.16034000051419831 -0.42658059281943822 0 0.14423398337463469 -0.40661863091275602 0 0.13575011168870291 -0.42839084190597571 0 0.14787835932997509 -0.42707156408572639 0 0.1292215946460335 -0.41291302637130251 0 0.13575011168870291 -0.42839084190597571 0 0.11893606517252869 -0.42011113080282231 0 0.13541194282819891 -0.39568450388425291 0 0.1292215946460335 -0.41291302637130251 0 0.1117758701661017 -0.41376002435070658 0 0.14423398337463469 -0.40661863091275602 0 0.1292215946460335 -0.41291302637130251 0 0.13575011168870291 -0.42839084190597571 0 0.14423398337463469 -0.40661863091275602 0 0.13575011168870291 -0.42839084190597571 0 0.13215181980734819 -0.42851599474495727 0 0.134163430879993 -0.43246275041956578 0 0.1156240303061886 -0.4290908507728628 0 0.134163430879993 -0.43246275041956578 0 0.12829686738231361 -0.44751814764916631 0 0.1156240303061886 -0.4290908507728628 0 0.13215181980734819 -0.42851599474495727 0 0.13575011168870291 -0.42839084190597571 0 0.11893606517252869 -0.42011113080282231 0 0.13215181980734819 -0.42851599474495727 0 0.13575011168870291 -0.42839084190597571 0 0.13575011168870291 -0.42839084190597571 0 0.134163430879993 -0.43246275041956578 0 0.14193687556027909 -0.43173143171956518 0 0.13575011168870291 -0.42839084190597571 0 0.134163430879993 -0.43246275041956578 0 0.13215181980734819 -0.42851599474495727 0 0.13575011168870291 -0.42839084190597571 0 0.134163430879993 -0.43246275041956578 0 0.13215181980734819 -0.42851599474495727 0 0.134163430879993 -0.43246275041956578 0 0.14193687556027909 -0.43173143171956518 0 0.14787835932997509 -0.42707156408572639 0 0.14889940142095789 -0.43903730631219762 0 0.134163430879993 -0.43246275041956578 0 0.14193687556027909 -0.43173143171956518 0 0.14889940142095789 -0.43903730631219762 0 0.13575011168870291 -0.42839084190597571 0 0.14193687556027909 -0.43173143171956518 0 0.14787835932997509 -0.42707156408572639 0 0.14787835932997509 -0.42707156408572639 0 0.16034000051419831 -0.42658059281943822 0 0.14889940142095789 -0.43903730631219762 0 0.16034000051419831 -0.42658059281943822 0 0.1774748805649814 -0.4392551958661603 0 0.1622336961091512 -0.44568992609852759 0 0.16034000051419831 -0.42658059281943822 0 0.1622336961091512 -0.44568992609852759 0 0.14889940142095789 -0.43903730631219762 0 0.16034000051419831 -0.42658059281943822 0 0.1746259462116023 -0.421595288989983 0 0.1774748805649814 -0.4392551958661603 0 0.16034000051419831 -0.42658059281943822 0 0.17119749819299299 -0.40729812784976321 0 0.1746259462116023 -0.421595288989983 0 0.15819345078740041 -0.40034056517796718 0 0.16034000051419831 -0.42658059281943822 0 0.17119749819299299 -0.40729812784976321 0 0.19064397526527951 -0.41741095607181428 0 0.18397930769203641 -0.39095508703952081 0 0.18080338754398639 -0.41167529301582378 0 0.1746259462116023 -0.421595288989983 0 0.18080338754398639 -0.41167529301582378 0 0.18088704739646241 -0.42248418348594541 0 0.17119749819299299 -0.40729812784976321 0 0.1746259462116023 -0.421595288989983 0 0.18080338754398639 -0.41167529301582378 0 0.19064397526527951 -0.41741095607181428 0 0.18080338754398639 -0.41167529301582378 0 0.18088704739646241 -0.42248418348594541 0 0.19118719277080171 -0.43014684653119201 0 0.19111907828513641 -0.41929691109238298 0 0.1774748805649814 -0.4392551958661603 0 0.1746259462116023 -0.421595288989983 0 0.18088704739646241 -0.42248418348594541 0 0.1774748805649814 -0.4392551958661603 0 0.19064397526527951 -0.41741095607181428 0 0.1774748805649814 -0.4392551958661603 0 0.19111907828513641 -0.41929691109238298 0 0.19064397526527951 -0.41741095607181428 0 0.1774748805649814 -0.4392551958661603 0 0.19064397526527951 -0.41741095607181428 0 0.18088704739646241 -0.42248418348594541 0 0.1774748805649814 -0.4392551958661603 0 0.19118719277080171 -0.43014684653119201 0 0.1903007027514666 -0.43680159055987039 0 0.1774748805649814 -0.4392551958661603 0 0.19263138888938039 -0.44786209052684378 0 0.1774748805649814 -0.4392551958661603 0 0.17621355827962801 -0.45371471543855107 0 0.1774748805649814 -0.4392551958661603 0 0.17621355827962801 -0.45371471543855107 0 0.1622336961091512 -0.44568992609852759 0 0.19263138888938039 -0.44786209052684378 0 0.1903007027514666 -0.43680159055987039 0 0.1774748805649814 -0.4392551958661603 0 0.17621355827962801 -0.45371471543855107 0 0.16282389725940219 -0.46161309713389609 0 0.1785785169912624 -0.47685735771927562 0 0.18947993347756431 -0.46409089782196961 0 0.17621355827962801 -0.45371471543855107 0 0.1785785169912624 -0.47685735771927562 0 0.18947993347756431 -0.46409089782196961 0 0.19263138888938039 -0.44786209052684378 0 0.17621355827962801 -0.45371471543855107 0 0.17621355827962801 -0.45371471543855107 0 0.1785785169912624 -0.47685735771927562 0 0.17621355827962801 -0.45371471543855107 0 0.16282389725940219 -0.46161309713389609 0 0.1622336961091512 -0.44568992609852759 0 0.16282389725940219 -0.46161309713389609 0 0.1622336961091512 -0.44568992609852759 0 0.1463778520212782 -0.45497516694637702 0 0.134163430879993 -0.43246275041956578 0 0.14889940142095789 -0.43903730631219762 0 0.1463778520212782 -0.45497516694637702 0 0.1622336961091512 -0.44568992609852759 0 0.14889940142095789 -0.43903730631219762 0 0.1463778520212782 -0.45497516694637702 0 0.134163430879993 -0.43246275041956578 0 0.12829686738231361 -0.44751814764916631 0 0.1361168856476658 -0.45420593254508601 0 0.134163430879993 -0.43246275041956578 0 0.1463778520212782 -0.45497516694637702 0 0.134163430879993 -0.43246275041956578 0 0.1361168856476658 -0.45420593254508601 0 0.1463778520212782 -0.45497516694637702 0 0.1259339291688496 -0.45272723384857583 0 0.12829686738231361 -0.44751814764916631 0 0.1361168856476658 -0.45420593254508601 0 0.134163430879993 -0.43246275041956578 0 0.12829686738231361 -0.44751814764916631 0 0.1361168856476658 -0.45420593254508601 0 0.1463778520212782 -0.45497516694637702 0 0.13624382803150711 -0.47636361692429019 0 0.13182581135484539 -0.46623491091120772 0 0.1361168856476658 -0.45420593254508601 0 0.13624382803150711 -0.47636361692429019 0 0.1259339291688496 -0.45272723384857583 0 0.13182581135484539 -0.46623491091120772 0 0.12236899376420519 -0.45881397146871639 0 0.1259339291688496 -0.45272723384857583 0 0.13182581135484539 -0.46623491091120772 0 0.1361168856476658 -0.45420593254508601 0 0.1259339291688496 -0.45272723384857583 0 0.13182581135484539 -0.46623491091120772 0 0.16282389725940219 -0.46161309713389609 0 0.1463778520212782 -0.45497516694637702 0 0.1585922731625638 -0.47748758347318798 0 0.1463778520212782 -0.45497516694637702 0 0.1585922731625638 -0.47748758347318798 0 0.1463778520212782 -0.45497516694637702 0 0.13624382803150711 -0.47636361692429019 0 0.1585922731625638 -0.47748758347318798 0 0.13182581135484539 -0.46623491091120772 0 0.13624382803150711 -0.47636361692429019 0 0.13624382803150711 -0.47636361692429019 0 0.12687083673608529 -0.48419661989714807 0 0.12810871877817531 -0.47035626000235081 0 0.13182581135484539 -0.46623491091120772 0 0.13624382803150711 -0.47636361692429019 0 0.12810871877817531 -0.47035626000235081 0 0.13624382803150711 -0.47636361692429019 0 0.12687083673608529 -0.48419661989714807 0 0.1465537268941661 -0.500000000000004 0 0.12687083673608529 -0.48419661989714807 0 0.1465537268941661 -0.500000000000004 0 0.116930154636934 -0.5 0 0.13624382803150711 -0.47636361692429019 0 0.1465537268941661 -0.500000000000004 0 0.13624382803150711 -0.47636361692429019 0 0.1465537268941661 -0.500000000000004 0 0.1585922731625638 -0.47748758347318798 0 0.17080669430384901 -0.49999999999999911 0 0.1585922731625638 -0.47748758347318798 0 0.1785785169912624 -0.47685735771927562 0 0.17080669430384901 -0.49999999999999911 0 0.1585922731625638 -0.47748758347318798 0 0.1465537268941661 -0.500000000000004 0 0.17080669430384901 -0.49999999999999911 0 0.1585922731625638 -0.47748758347318798 0 0.16282389725940219 -0.46161309713389609 0 0.1585922731625638 -0.47748758347318798 0 0.1785785169912624 -0.47685735771927562 0 0.19494179233151901 -0.48358239950105358 0 0.1785785169912624 -0.47685735771927562 0 0.18094347570289671 -0.50000000000000011 0 0.17080669430384901 -0.49999999999999911 0 0.1785785169912624 -0.47685735771927562 0 0.18094347570289671 -0.50000000000000011 0 0.1785785169912624 -0.47685735771927562 0 0.18094347570289671 -0.50000000000000011 0 0.070517877347228433 -0.47953743551307187 0 0.057683010122469472 -0.5 0 0.070517877347228433 -0.47953743551307187 0 0.08730658237970168 -0.5 0 0.057683010122469472 -0.5 0 0.074919169626794554 -0.47252047729143282 0 0.070517877347228433 -0.47953743551307187 0 0.046384411443737672 -0.47559818226845407 0 0.074919169626794554 -0.47252047729143282 0 0.070517877347228433 -0.47953743551307187 0 0.074919169626794554 -0.47252047729143282 0 0.099313298062701866 -0.47494684775771112 0 0.1031475278428953 -0.469475820034571 0 0.074919169626794554 -0.47252047729143282 0 0.070517877347228433 -0.47953743551307187 0 0.099313298062701866 -0.47494684775771112 0 0.070517877347228433 -0.47953743551307187 0 0.099313298062701866 -0.47494684775771112 0 0.074919169626794554 -0.47252047729143282 0 0.1031475278428953 -0.469475820034571 0 0.070517877347228433 -0.47953743551307187 0 0.08730658237970168 -0.5 0 0.099313298062701866 -0.47494684775771112 0 0.08730658237970168 -0.5 0 0.11334392542161691 -0.48380668821570949 0 0.099313298062701866 -0.47494684775771112 0 0.08730658237970168 -0.5 0 0.116930154636934 -0.5 0 0.11334392542161691 -0.48380668821570949 0 0.12687083673608529 -0.48419661989714807 0 0.116930154636934 -0.5 0 0.11334392542161691 -0.48380668821570949 0 0.12810871877817531 -0.47035626000235081 0 0.099313298062701866 -0.47494684775771112 0 0.1031475278428953 -0.469475820034571 0 0.12810871877817531 -0.47035626000235081 0 0.1169091947496448 -0.47832660396822979 0 0.099313298062701866 -0.47494684775771112 0 0.1169091947496448 -0.47832660396822979 0 0.11334392542161691 -0.48380668821570949 0 0.099313298062701866 -0.47494684775771112 0 0.12810871877817531 -0.47035626000235081 0 0.099313298062701866 -0.47494684775771112 0 0.12687083673608529 -0.48419661989714807 0 0.12810871877817531 -0.47035626000235081 0 0.1169091947496448 -0.47832660396822979 0 0.12687083673608529 -0.48419661989714807 0 0.1169091947496448 -0.47832660396822979 0 0.11334392542161691 -0.48380668821570949 0 0.1031475278428953 -0.469475820034571 0 0.097746628799643867 -0.45974578873213801 0 0.090941219252432898 -0.46360571604121292 0 0.097746628799643867 -0.45974578873213801 0 0.106856810957076 -0.45845844155328958 0 0.1019863474321917 -0.4478130094819251 0 0.1031475278428953 -0.469475820034571 0 0.097746628799643867 -0.45974578873213801 0 0.106856810957076 -0.45845844155328958 0 0.1031475278428953 -0.469475820034571 0 0.106856810957076 -0.45845844155328958 0 0.1164351181923107 -0.46202505594201759 0 0.13182581135484539 -0.46623491091120772 0 0.12810871877817531 -0.47035626000235081 0 0.1031475278428953 -0.469475820034571 0 0.13182581135484539 -0.46623491091120772 0 0.1031475278428953 -0.469475820034571 0 0.13182581135484539 -0.46623491091120772 0 0.1031475278428953 -0.469475820034571 0 0.1164351181923107 -0.46202505594201759 0 0.106856810957076 -0.45845844155328958 0 0.11573104163666439 -0.45407243330656277 0 0.1080483463554686 -0.45080401631681649 0 0.106856810957076 -0.45845844155328958 0 0.1164351181923107 -0.46202505594201759 0 0.11573104163666439 -0.45407243330656277 0 0.1164351181923107 -0.46202505594201759 0 0.11573104163666439 -0.45407243330656277 0 0.12236899376420519 -0.45881397146871639 0 0.1259339291688496 -0.45272723384857583 0 0.11573104163666439 -0.45407243330656277 0 0.12236899376420519 -0.45881397146871639 0 0.13182581135484539 -0.46623491091120772 0 0.1164351181923107 -0.46202505594201759 0 0.12236899376420519 -0.45881397146871639 0 0.1259339291688496 -0.45272723384857583 0 0.1156240303061886 -0.4290908507728628 0 0.1259339291688496 -0.45272723384857583 0 0.1115305374228559 -0.44401285668003021 0 0.1156240303061886 -0.4290908507728628 0 0.1259339291688496 -0.45272723384857583 0 0.12829686738231361 -0.44751814764916631 0 0.1156240303061886 -0.4290908507728628 0 0.1259339291688496 -0.45272723384857583 0 0.11573104163666439 -0.45407243330656277 0 0.1115305374228559 -0.44401285668003021 0 0.11573104163666439 -0.45407243330656277 0 0.1115305374228559 -0.44401285668003021 0 0.1080483463554686 -0.45080401631681649 0 0.1115305374228559 -0.44401285668003021 0 0.1019863474321917 -0.4478130094819251 0 0.1018595296377692 -0.42956959635343972 0 0.1019863474321917 -0.4478130094819251 0 0.088389349632281553 -0.45104503682243607 0 0.1018595296377692 -0.42956959635343972 0 0.088389349632281553 -0.45104503682243607 0 0.1018595296377692 -0.42956959635343972 0 0.1115305374228559 -0.44401285668003021 0 0.1019863474321917 -0.4478130094819251 0 0.1080483463554686 -0.45080401631681649 0 0.106856810957076 -0.45845844155328958 0 0.1019863474321917 -0.4478130094819251 0 0.1080483463554686 -0.45080401631681649 0 0.097746628799643867 -0.45974578873213801 0 0.1019863474321917 -0.4478130094819251 0 0.088389349632281553 -0.45104503682243607 0 0.088389349632281553 -0.45104503682243607 0 0.070976695721059468 -0.4455278797856374 0 0.075973111826723783 -0.43046995652069397 0 0.074919169626794554 -0.47252047729143282 0 0.088389349632281553 -0.45104503682243607 0 0.074919169626794554 -0.47252047729143282 0 0.088389349632281553 -0.45104503682243607 0 0.090941219252432898 -0.46360571604121292 0 0.074919169626794554 -0.47252047729143282 0 0.1031475278428953 -0.469475820034571 0 0.090941219252432898 -0.46360571604121292 0 0.097746628799643867 -0.45974578873213801 0 0.088389349632281553 -0.45104503682243607 0 0.090941219252432898 -0.46360571604121292 0 0.074919169626794554 -0.47252047729143282 0 0.070525807153207734 -0.45771980445474247 0 0.05901714527095412 -0.46497077795127278 0 0.074919169626794554 -0.47252047729143282 0 0.088389349632281553 -0.45104503682243607 0 0.070525807153207734 -0.45771980445474247 0 0.070525807153207734 -0.45771980445474247 0 0.058525506491443682 -0.45434561404956608 0 0.05901714527095412 -0.46497077795127278 0 0.070525807153207734 -0.45771980445474247 0 0.070976695721059468 -0.4455278797856374 0 0.058525506491443682 -0.45434561404956608 0 0.088389349632281553 -0.45104503682243607 0 0.070525807153207734 -0.45771980445474247 0 0.070976695721059468 -0.4455278797856374 0 0.070976695721059468 -0.4455278797856374 0 0.075973111826723783 -0.43046995652069397 0 0.050086694015678349 -0.43137031668794779 0 0.075973111826723783 -0.43046995652069397 0 0.064911828655763115 -0.41638202065255331 0 0.050086694015678349 -0.43137031668794779 0 0.075973111826723783 -0.43046995652069397 0 0.064911828655763115 -0.41638202065255331 0 0.085883579427956866 -0.42250343464344192 0 0.075973111826723783 -0.43046995652069397 0 0.050086694015678349 -0.43137031668794779 0 0.064911828655763115 -0.41638202065255331 0 0.080272601488076814 -0.4086480261123514 0 0.061998252169565303 -0.3942685661916262 0 0.064911828655763115 -0.41638202065255331 0 0.080272601488076814 -0.4086480261123514 0 0.085883579427956866 -0.42250343464344192 0 0.080272601488076814 -0.4086480261123514 0 0.085883579427956866 -0.42250343464344192 0 0.093800596562881006 -0.40943657120842242 0 0.085883579427956866 -0.42250343464344192 0 0.098522622248202046 -0.42389535255906602 0 0.093800596562881006 -0.40943657120842242 0 0.075973111826723783 -0.43046995652069397 0 0.085883579427956866 -0.42250343464344192 0 0.1018595296377692 -0.42956959635343972 0 0.075973111826723783 -0.43046995652069397 0 0.1018595296377692 -0.42956959635343972 0 0.088389349632281553 -0.45104503682243607 0 0.075973111826723783 -0.43046995652069397 0 0.1018595296377692 -0.42956959635343972 0 0.085883579427956866 -0.42250343464344192 0 0.098522622248202046 -0.42389535255906602 0 0.1018595296377692 -0.42956959635343972 0 0.098522622248202046 -0.42389535255906602 0 0.1018595296377692 -0.42956959635343972 0 0.10964703237060749 -0.41538803809445829 0 0.1018595296377692 -0.42956959635343972 0 0.10964703237060749 -0.41538803809445829 0 0.1018595296377692 -0.42956959635343972 0 0.1156240303061886 -0.4290908507728628 0 0.1018595296377692 -0.42956959635343972 0 0.1156240303061886 -0.4290908507728628 0 0.10964703237060749 -0.41538803809445829 0 0.13215181980734819 -0.42851599474495727 0 0.1156240303061886 -0.4290908507728628 0 0.1115305374228559 -0.44401285668003021 0 0.1018595296377692 -0.42956959635343972 0 0.1156240303061886 -0.4290908507728628 0 0.13215181980734819 -0.42851599474495727 0 0.1156240303061886 -0.4290908507728628 0 0.11893606517252869 -0.42011113080282231 0 0.1156240303061886 -0.4290908507728628 0 0.10964703237060749 -0.41538803809445829 0 0.1292215946460335 -0.41291302637130251 0 0.11893606517252869 -0.42011113080282231 0 0.1117758701661017 -0.41376002435070658 0 0.1156240303061886 -0.4290908507728628 0 0.11893606517252869 -0.42011113080282231 0 0.10964703237060749 -0.41538803809445829 0 0.11893606517252869 -0.42011113080282231 0 0.10964703237060749 -0.41538803809445829 0 0.1117758701661017 -0.41376002435070658 0 0.10964703237060749 -0.41538803809445829 0 0.1117758701661017 -0.41376002435070658 0 0.1117758701661017 -0.41376002435070658 0 0.1185175459462277 -0.40301180444433571 0 0.10964703237060749 -0.41538803809445829 0 0.1117758701661017 -0.41376002435070658 0 0.099639613181932402 -0.39244511724782633 0 0.098522622248202046 -0.42389535255906602 0 0.10964703237060749 -0.41538803809445829 0 0.093800596562881006 -0.40943657120842242 0 0.098522622248202046 -0.42389535255906602 0 0.10964703237060749 -0.41538803809445829 0 0.10964703237060749 -0.41538803809445829 0 0.099639613181932402 -0.39244511724782633 0 0.10964703237060749 -0.41538803809445829 0 0.093800596562881006 -0.40943657120842242 0 0.099639613181932402 -0.39244511724782633 0 0.13541194282819891 -0.39568450388425291 0 0.1117758701661017 -0.41376002435070658 0 0.1185175459462277 -0.40301180444433571 0 0.1117758701661017 -0.41376002435070658 0 0.099639613181932402 -0.39244511724782633 0 0.1185175459462277 -0.40301180444433571 0 0.13541194282819891 -0.39568450388425291 0 0.1185175459462277 -0.40301180444433571 0 0.1136802431293448 -0.3895073510721801 0 0.13541194282819891 -0.39568450388425291 0 0.1117758701661017 -0.41376002435070658 0 0.099639613181932402 -0.39244511724782633 0 0.1185175459462277 -0.40301180444433571 0 0.1136802431293448 -0.3895073510721801 0 0.1200631029144158 -0.37666099515359142 0 0.1136802431293448 -0.3895073510721801 0 0.10480350842816399 -0.37326922796925821 0 0.13541194282819891 -0.39568450388425291 0 0.1200631029144158 -0.37666099515359142 0 0.1136802431293448 -0.3895073510721801 0 0.099639613181932402 -0.39244511724782633 0 0.089632193993258905 -0.36950219640119342 0 0.099639613181932402 -0.39244511724782633 0 0.1136802431293448 -0.3895073510721801 0 0.10480350842816399 -0.37326922796925821 0 0.099639613181932402 -0.39244511724782633 0 0.10480350842816399 -0.37326922796925821 0 0.089632193993258905 -0.36950219640119342 0 0.099639613181932402 -0.39244511724782633 0 0.082230465180122503 -0.39288188369553301 0 0.089632193993258905 -0.36950219640119342 0 0.082230465180122503 -0.39288188369553301 0 0.071890247700610949 -0.37574711835357022 0 0.089632193993258905 -0.36950219640119342 0 0.093800596562881006 -0.40943657120842242 0 0.099639613181932402 -0.39244511724782633 0 0.082230465180122503 -0.39288188369553301 0 0.080272601488076814 -0.4086480261123514 0 0.093800596562881006 -0.40943657120842242 0 0.082230465180122503 -0.39288188369553301 0 0.080272601488076814 -0.4086480261123514 0 0.082230465180122503 -0.39288188369553301 0 0.061998252169565303 -0.3942685661916262 0 0.082230465180122503 -0.39288188369553301 0 0.071890247700610949 -0.37574711835357022 0 0.061998252169565303 -0.3942685661916262 0 0.071890247700610949 -0.37574711835357022 0 0.061998252169565303 -0.3942685661916262 0 0.055666818266938839 -0.36439147214702589 0 0.061998252169565303 -0.3942685661916262 0 0.031708861729287691 -0.38222366873949232 0 0.055666818266938839 -0.36439147214702589 0 0.061998252169565303 -0.3942685661916262 0 0.031708861729287691 -0.38222366873949232 0 0.035256733006577598 -0.41103182375925862 0 0.031708861729287691 -0.38222366873949232 0 0.0023911015538050019 -0.38232746550243429 0 0.013642055988939099 -0.36761557643779952 0 0.031708861729287691 -0.38222366873949232 0 0.0023911015538050019 -0.38232746550243429 0 0.007750905191636473 -0.40005586533195869 0 0.031708861729287691 -0.38222366873949232 0 0.007750905191636473 -0.40005586533195869 0 0.031708861729287691 -0.38222366873949232 0 0.007750905191636473 -0.40005586533195869 0 0.035256733006577598 -0.41103182375925862 0 0.007750905191636473 -0.40005586533195869 0 0.0069055634574273434 -0.42168796206344039 0 0.035256733006577598 -0.41103182375925862 0 0.0069055634574273434 -0.42168796206344039 0 0.024200276204632859 -0.4322706768552016 0 0.035256733006577598 -0.41103182375925862 0 0.0069055634574273434 -0.42168796206344039 0 0.024200276204632859 -0.4322706768552016 0 0.0099563000485035635 -0.44077727149734308 0 -0.0066311259499642061 -0.440178816443689 0 0.0069055634574273434 -0.42168796206344039 0 0.0099563000485035635 -0.44077727149734308 0 0.024200276204632859 -0.4322706768552016 0 0.050086694015678349 -0.43137031668794779 0 0.024200276204632859 -0.4322706768552016 0 0.050086694015678349 -0.43137031668794779 0 0.04629093333435283 -0.44747606053669309 0 0.024200276204632859 -0.4322706768552016 0 0.035256733006577598 -0.41103182375925862 0 0.050086694015678349 -0.43137031668794779 0 0.064911828655763115 -0.41638202065255331 0 0.061998252169565303 -0.3942685661916262 0 0.035256733006577598 -0.41103182375925862 0 0.064911828655763115 -0.41638202065255331 0 0.035256733006577598 -0.41103182375925862 0 0.050086694015678349 -0.43137031668794779 0 0.070976695721059468 -0.4455278797856374 0 0.050086694015678349 -0.43137031668794779 0 0.058525506491443682 -0.45434561404956608 0 0.050086694015678349 -0.43137031668794779 0 0.058525506491443682 -0.45434561404956608 0 0.04629093333435283 -0.44747606053669309 0 0.05901714527095412 -0.46497077795127278 0 0.046169786197453752 -0.46108935432571019 0 0.046384411443737672 -0.47559818226845407 0 0.058525506491443682 -0.45434561404956608 0 0.046169786197453752 -0.46108935432571019 0 0.04629093333435283 -0.44747606053669309 0 0.058525506491443682 -0.45434561404956608 0 0.05901714527095412 -0.46497077795127278 0 0.046169786197453752 -0.46108935432571019 0 0.046169786197453752 -0.46108935432571019 0 0.034049779631507987 -0.4544695193511657 0 0.04629093333435283 -0.44747606053669309 0 0.046169786197453752 -0.46108935432571019 0 0.033037210657869111 -0.4660895672193065 0 0.046384411443737672 -0.47559818226845407 0 0.046169786197453752 -0.46108935432571019 0 0.033037210657869111 -0.4660895672193065 0 0.034049779631507987 -0.4544695193511657 0 0.024200276204632859 -0.4322706768552016 0 0.034049779631507987 -0.4544695193511657 0 0.04629093333435283 -0.44747606053669309 0 0.024200276204632859 -0.4322706768552016 0 0.0099563000485035635 -0.44077727149734308 0 0.018955150004637818 -0.45590314296149059 0 0.024200276204632859 -0.4322706768552016 0 0.034049779631507987 -0.4544695193511657 0 0.018955150004637818 -0.45590314296149059 0 -0.0066311259499642061 -0.440178816443689 0 0.0099563000485035635 -0.44077727149734308 0 0.0063516365257839979 -0.45384575916289382 0 0.0099563000485035635 -0.44077727149734308 0 0.0063516365257839979 -0.45384575916289382 0 0.018955150004637818 -0.45590314296149059 0 0.0060305051869878699 -0.46711886282395609 0 0.018955150004637818 -0.45590314296149059 0 0.017849653260680869 -0.4786758872454755 0 -0.0066006157003303222 -0.46336526787431592 0 0.0060305051869878699 -0.46711886282395609 0 0.0063516365257839979 -0.45384575916289382 0 0.0060305051869878699 -0.46711886282395609 0 0.0063516365257839979 -0.45384575916289382 0 0.018955150004637818 -0.45590314296149059 0 0.033037210657869111 -0.4660895672193065 0 0.018955150004637818 -0.45590314296149059 0 0.017849653260680869 -0.4786758872454755 0 0.033037210657869111 -0.4660895672193065 0 0.034049779631507987 -0.4544695193511657 0 0.018955150004637818 -0.45590314296149059 0 -0.01068510492237598 -0.48175359222249692 0 0.017849653260680869 -0.4786758872454755 0 -0.0021303832933065449 -0.49096203967707219 0 -0.01068510492237598 -0.48175359222249692 0 0.017849653260680869 -0.4786758872454755 0 -0.01068510492237598 -0.48175359222249692 0 0.0060305051869878699 -0.46711886282395609 0 0.017849653260680869 -0.4786758872454755 0 -0.0021303832933065449 -0.49096203967707219 0 0.017849653260680869 -0.4786758872454755 0 0.010139796643439111 -0.5 0 0.017849653260680869 -0.4786758872454755 0 0.010139796643439111 -0.5 0 0.033911403382954182 -0.5 0 0.017849653260680869 -0.4786758872454755 0 0.033911403382954182 -0.5 0 0.037109057337782088 -0.48624578056101431 0 0.033911403382954182 -0.5 0 0.037109057337782088 -0.48624578056101431 0 0.057683010122469472 -0.5 0 0.033037210657869111 -0.4660895672193065 0 0.017849653260680869 -0.4786758872454755 0 0.046384411443737672 -0.47559818226845407 0 0.017849653260680869 -0.4786758872454755 0 0.046384411443737672 -0.47559818226845407 0 0.017849653260680869 -0.4786758872454755 0 0.037109057337782088 -0.48624578056101431 0 0.046384411443737672 -0.47559818226845407 0 0.037109057337782088 -0.48624578056101431 0 0.046384411443737672 -0.47559818226845407 0 0.050773784472659247 -0.48268505373633941 0 0.070517877347228433 -0.47953743551307187 0 0.046384411443737672 -0.47559818226845407 0 0.050773784472659247 -0.48268505373633941 0 0.074919169626794554 -0.47252047729143282 0 0.05901714527095412 -0.46497077795127278 0 0.046384411443737672 -0.47559818226845407 0 0.070517877347228433 -0.47953743551307187 0 0.050773784472659247 -0.48268505373633941 0 0.074919169626794554 -0.47252047729143282 0 0.046384411443737672 -0.47559818226845407 0 0.037109057337782088 -0.48624578056101431 0 0.050773784472659247 -0.48268505373633941 0 0.057683010122469472 -0.5 0 0.070517877347228433 -0.47953743551307187 0 0.050773784472659247 -0.48268505373633941 0 0.057683010122469472 -0.5 0 0.081789536854787917 -0.29438928652713531 0 0.087786632216968655 -0.3081493824474561 0 0.1074927147675848 -0.29588036277818941 0 0.081789536854787917 -0.29438928652713531 0 0.087786632216968655 -0.3081493824474561 0 0.066419462926753312 -0.31628489417248501 0 0.081789536854787917 -0.29438928652713531 0 0.066419462926753312 -0.31628489417248501 0 0.056242466284188608 -0.29295320155276572 0 0.081789536854787917 -0.29438928652713531 0 0.078437464275130375 -0.27491469453822731 0 0.056242466284188608 -0.29295320155276572 0 0.073359597179269362 -0.25676759837123497 0 0.078437464275130375 -0.27491469453822731 0 0.060912116409232393 -0.26866771108043241 0 0.078437464275130375 -0.27491469453822731 0 0.056242466284188608 -0.29295320155276572 0 0.060912116409232393 -0.26866771108043241 0 0.078437464275130375 -0.27491469453822731 0 0.098606230066779044 -0.27255821247101369 0 0.089719745365973297 -0.24923606216383809 0 0.073359597179269362 -0.25676759837123497 0 0.078437464275130375 -0.27491469453822731 0 0.089719745365973297 -0.24923606216383809 0 0.081789536854787917 -0.29438928652713531 0 0.078437464275130375 -0.27491469453822731 0 0.098606230066779044 -0.27255821247101369 0 0.098606230066779044 -0.27255821247101369 0 0.11659921375033409 -0.27368960512017892 0 0.1074927147675848 -0.29588036277818941 0 0.098606230066779044 -0.27255821247101369 0 0.1165616163499876 -0.25311830346572051 0 0.10345110704417571 -0.2470852529038263 0 0.098606230066779044 -0.27255821247101369 0 0.089719745365973297 -0.24923606216383809 0 0.10345110704417571 -0.2470852529038263 0 0.098606230066779044 -0.27255821247101369 0 0.089719745365973297 -0.24923606216383809 0 0.132036697405049 -0.26775833734660293 0 0.1165616163499876 -0.25311830346572051 0 0.11659921375033409 -0.27368960512017892 0 0.098606230066779044 -0.27255821247101369 0 0.1165616163499876 -0.25311830346572051 0 0.11659921375033409 -0.27368960512017892 0 0.1336639284687961 -0.30633728039749247 0 0.129649768925158 -0.28569441474588969 0 0.1074927147675848 -0.29588036277818941 0 0.129649768925158 -0.28569441474588969 0 0.11659921375033409 -0.27368960512017892 0 0.1074927147675848 -0.29588036277818941 0 0.081789536854787917 -0.29438928652713531 0 0.098606230066779044 -0.27255821247101369 0 0.1074927147675848 -0.29588036277818941 0 0.098606230066779044 -0.27255821247101369 0 0.1074927147675848 -0.29588036277818941 0 0.087786632216968655 -0.3081493824474561 0 0.1074927147675848 -0.29588036277818941 0 0.099447626022816676 -0.31563885329690139 0 0.1074927147675848 -0.29588036277818941 0 0.1163791994683858 -0.31920251308536679 0 0.099447626022816676 -0.31563885329690139 0 0.1074927147675848 -0.29588036277818941 0 0.1163791994683858 -0.31920251308536679 0 0.1336639284687961 -0.30633728039749247 0 0.1074927147675848 -0.29588036277818941 0 0.1163791994683858 -0.31920251308536679 0 0.1236404009032393 -0.3382591858841002 0 0.098001987136487487 -0.33288089431996259 0 0.1177335653431731 -0.35142159034531117 0 0.1163791994683858 -0.31920251308536679 0 0.1236404009032393 -0.3382591858841002 0 0.1163791994683858 -0.31920251308536679 0 0.1236404009032393 -0.3382591858841002 0 0.098001987136487487 -0.33288089431996259 0 0.1163791994683858 -0.31920251308536679 0 0.098001987136487487 -0.33288089431996259 0 0.1163791994683858 -0.31920251308536679 0 0.098001987136487487 -0.33288089431996259 0 0.099447626022816676 -0.31563885329690139 0 0.1200631029144158 -0.37666099515359142 0 0.1047142630006342 -0.35763748642292881 0 0.10480350842816399 -0.37326922796925821 0 0.13090160233808809 -0.35731585868283539 0 0.1200631029144158 -0.37666099515359142 0 0.1177335653431731 -0.35142159034531117 0 0.1200631029144158 -0.37666099515359142 0 0.1047142630006342 -0.35763748642292881 0 0.1200631029144158 -0.37666099515359142 0 0.1177335653431731 -0.35142159034531117 0 0.1047142630006342 -0.35763748642292881 0 0.13090160233808809 -0.35731585868283539 0 0.1236404009032393 -0.3382591858841002 0 0.1177335653431731 -0.35142159034531117 0 0.098001987136487487 -0.33288089431996259 0 0.1047142630006342 -0.35763748642292881 0 0.079624774804589377 -0.34655927555455879 0 0.098001987136487487 -0.33288089431996259 0 0.1177335653431731 -0.35142159034531117 0 0.1047142630006342 -0.35763748642292881 0 0.1047142630006342 -0.35763748642292881 0 0.10480350842816399 -0.37326922796925821 0 0.089632193993258905 -0.36950219640119342 0 0.071890247700610949 -0.37574711835357022 0 0.089632193993258905 -0.36950219640119342 0 0.079624774804589377 -0.34655927555455879 0 0.1047142630006342 -0.35763748642292881 0 0.089632193993258905 -0.36950219640119342 0 0.079624774804589377 -0.34655927555455879 0 0.089632193993258905 -0.36950219640119342 0 0.079624774804589377 -0.34655927555455879 0 0.079624774804589377 -0.34655927555455879 0 0.055666818266938839 -0.36439147214702589 0 0.079624774804589377 -0.34655927555455879 0 0.055666818266938839 -0.36439147214702589 0 0.061479616646323079 -0.34420170549151391 0 0.071890247700610949 -0.37574711835357022 0 0.079624774804589377 -0.34655927555455879 0 0.055666818266938839 -0.36439147214702589 0 0.087786632216968655 -0.3081493824474561 0 0.099447626022816676 -0.31563885329690139 0 0.082720257454965154 -0.32006299063946292 0 0.098001987136487487 -0.33288089431996259 0 0.099447626022816676 -0.31563885329690139 0 0.082720257454965154 -0.32006299063946292 0 0.087786632216968655 -0.3081493824474561 0 0.082720257454965154 -0.32006299063946292 0 0.066419462926753312 -0.31628489417248501 0 0.082720257454965154 -0.32006299063946292 0 0.083342284565427971 -0.33273131134437689 0 0.073022118865669366 -0.33142208486352281 0 0.098001987136487487 -0.33288089431996259 0 0.079624774804589377 -0.34655927555455879 0 0.083342284565427971 -0.33273131134437689 0 0.098001987136487487 -0.33288089431996259 0 0.079624774804589377 -0.34655927555455879 0 0.098001987136487487 -0.33288089431996259 0 0.082720257454965154 -0.32006299063946292 0 0.083342284565427971 -0.33273131134437689 0 0.079624774804589377 -0.34655927555455879 0 0.083342284565427971 -0.33273131134437689 0 0.073022118865669366 -0.33142208486352281 0 0.079624774804589377 -0.34655927555455879 0 0.073022118865669366 -0.33142208486352281 0 0.061479616646323079 -0.34420170549151391 0 0.073022118865669366 -0.33142208486352281 0 0.053287161064021489 -0.33085752771790411 0 0.061479616646323079 -0.34420170549151391 0 0.079624774804589377 -0.34655927555455879 0 0.073022118865669366 -0.33142208486352281 0 0.073022118865669366 -0.33142208486352281 0 0.066419462926753312 -0.31628489417248501 0 0.082720257454965154 -0.32006299063946292 0 0.073022118865669366 -0.33142208486352281 0 0.066419462926753312 -0.31628489417248501 0 0.082720257454965154 -0.32006299063946292 0 0.066419462926753312 -0.31628489417248501 0 0.073022118865669366 -0.33142208486352281 0 0.066419462926753312 -0.31628489417248501 0 0.053287161064021489 -0.33085752771790411 0 0.066419462926753312 -0.31628489417248501 0 0.053287161064021489 -0.33085752771790411 0 0.044515367755925322 -0.31120809963746848 0 0.066419462926753312 -0.31628489417248501 0 0.044515367755925322 -0.31120809963746848 0 0.053287161064021489 -0.33085752771790411 0 0.03555237387972042 -0.34122763238849169 0 0.061479616646323079 -0.34420170549151391 0 0.03555237387972042 -0.34122763238849169 0 0.020383105064351609 -0.32615209548247542 0 0.044515367755925322 -0.31120809963746848 0 0.053287161064021489 -0.33085752771790411 0 0.03555237387972042 -0.34122763238849169 0 0.044515367755925322 -0.31120809963746848 0 0.03555237387972042 -0.34122763238849169 0 0.055666818266938839 -0.36439147214702589 0 0.061479616646323079 -0.34420170549151391 0 0.03555237387972042 -0.34122763238849169 0 0.055666818266938839 -0.36439147214702589 0 0.033319913105041281 -0.36175491339174892 0 0.031708861729287691 -0.38222366873949232 0 0.055666818266938839 -0.36439147214702589 0 0.031708861729287691 -0.38222366873949232 0 0.055666818266938839 -0.36439147214702589 0 0.033319913105041281 -0.36175491339174892 0 0.031708861729287691 -0.38222366873949232 0 0.033319913105041281 -0.36175491339174892 0 0.013642055988939099 -0.36761557643779952 0 0.03555237387972042 -0.34122763238849169 0 0.033319913105041281 -0.36175491339174892 0 0.016468855876789808 -0.347617039587437 0 0.033319913105041281 -0.36175491339174892 0 0.016468855876789808 -0.347617039587437 0 0.013642055988939099 -0.36761557643779952 0 -0.0052682691972732263 -0.35384403353548421 0 0.016468855876789808 -0.347617039587437 0 0.001183956419959698 -0.33510798628862248 0 -0.0052682691972732263 -0.35384403353548421 0 0.016468855876789808 -0.347617039587437 0 0.013642055988939099 -0.36761557643779952 0 -0.01334471722357446 -0.37255978087622588 0 0.013642055988939099 -0.36761557643779952 0 -0.01334471722357446 -0.37255978087622588 0 0.0023911015538050019 -0.38232746550243429 0 0.013642055988939099 -0.36761557643779952 0 0.020383105064351609 -0.32615209548247542 0 0.022611272585097379 -0.30613130510245212 0 0.044515367755925322 -0.31120809963746848 0 0.020383105064351609 -0.32615209548247542 0 0.0061862888993717497 -0.3179777746951396 0 0.022611272585097379 -0.30613130510245212 0 0.03555237387972042 -0.34122763238849169 0 0.016468855876789808 -0.347617039587437 0 0.020383105064351609 -0.32615209548247542 0 0.016468855876789808 -0.347617039587437 0 0.020383105064351609 -0.32615209548247542 0 0.001183956419959698 -0.33510798628862248 0 0.020383105064351609 -0.32615209548247542 0 0.001183956419959698 -0.33510798628862248 0 0.0061862888993717497 -0.3179777746951396 0 0.00070717741426924805 -0.30105451056743648 0 0.015162192471130509 -0.29738085907618589 0 0.022611272585097379 -0.30613130510245212 0 0.00070717741426924805 -0.30105451056743648 0 0.022611272585097379 -0.30613130510245212 0 0.0061862888993717497 -0.3179777746951396 0 0.00070717741426924805 -0.30105451056743648 0 0.022611272585097379 -0.30613130510245212 0 0.00070717741426924805 -0.30105451056743648 0 0.015162192471130509 -0.29738085907618589 0 -0.011901790062749031 -0.28297017383356582 0 0.00564281301234587 -0.28830513858829032 0 0.016222990511900209 -0.27432685111496052 0 0.00070717741426924805 -0.30105451056743648 0 0.015162192471130509 -0.29738085907618589 0 0.00564281301234587 -0.28830513858829032 0 -0.0050405754245235164 -0.29162417193408269 0 0.00070717741426924805 -0.30105451056743648 0 0.00564281301234587 -0.28830513858829032 0 0.015162192471130509 -0.29738085907618589 0 0.00564281301234587 -0.28830513858829032 0 0.021051018783850711 -0.28715105031171312 0 0.00564281301234587 -0.28830513858829032 0 0.021051018783850711 -0.28715105031171312 0 0.016222990511900209 -0.27432685111496052 0 0.015162192471130509 -0.29738085907618589 0 0.021051018783850711 -0.28715105031171312 0 0.024605741682164881 -0.29694247105266769 0 0.024605741682164881 -0.29694247105266769 0 0.033427266948900393 -0.30060523415248652 0 0.033356372332669429 -0.29151146562616759 0 0.021051018783850711 -0.28715105031171312 0 0.024605741682164881 -0.29694247105266769 0 0.033356372332669429 -0.29151146562616759 0 0.021051018783850711 -0.28715105031171312 0 0.033356372332669429 -0.29151146562616759 0 0.03562902273990249 -0.27863589659918159 0 0.015162192471130509 -0.29738085907618589 0 0.022611272585097379 -0.30613130510245212 0 0.024605741682164881 -0.29694247105266769 0 0.022611272585097379 -0.30613130510245212 0 0.024605741682164881 -0.29694247105266769 0 0.033427266948900393 -0.30060523415248652 0 0.022611272585097379 -0.30613130510245212 0 0.044515367755925322 -0.31120809963746848 0 0.033427266948900393 -0.30060523415248652 0 0.022611272585097379 -0.30613130510245212 0 0.044515367755925322 -0.31120809963746848 0 0.044515367755925322 -0.31120809963746848 0 0.033427266948900393 -0.30060523415248652 0 0.042584958453399963 -0.29683023746985743 0 0.033427266948900393 -0.30060523415248652 0 0.033356372332669429 -0.29151146562616759 0 0.042584958453399963 -0.29683023746985743 0 0.033356372332669429 -0.29151146562616759 0 0.046842522897770252 -0.286663101787622 0 0.03562902273990249 -0.27863589659918159 0 0.033356372332669429 -0.29151146562616759 0 0.046842522897770252 -0.286663101787622 0 0.042584958453399963 -0.29683023746985743 0 0.046842522897770252 -0.286663101787622 0 0.056242466284188608 -0.29295320155276572 0 0.046065469641623648 -0.26962150893304643 0 0.046842522897770252 -0.286663101787622 0 0.042584958453399963 -0.29683023746985743 0 0.056242466284188608 -0.29295320155276572 0 0.056242466284188608 -0.29295320155276572 0 0.046065469641623648 -0.26962150893304643 0 0.044515367755925322 -0.31120809963746848 0 0.042584958453399963 -0.29683023746985743 0 0.056242466284188608 -0.29295320155276572 0 0.066419462926753312 -0.31628489417248501 0 0.044515367755925322 -0.31120809963746848 0 0.056242466284188608 -0.29295320155276572 0 0.066419462926753312 -0.31628489417248501 0 0.056242466284188608 -0.29295320155276572 0 0.073359597179269362 -0.25676759837123497 0 0.045864651653541783 -0.26521735984327871 0 0.073359597179269362 -0.25676759837123497 0 0.060912116409232393 -0.26866771108043241 0 0.045864651653541783 -0.26521735984327871 0 0.073359597179269362 -0.25676759837123497 0 0.056474718530354087 -0.25075095699534211 0 0.045864651653541783 -0.26521735984327871 0 0.056474718530354087 -0.25075095699534211 0 0.045864651653541783 -0.26521735984327871 0 0.044716942306755443 -0.24004689018935441 0 0.056242466284188608 -0.29295320155276572 0 0.060912116409232393 -0.26866771108043241 0 0.046065469641623648 -0.26962150893304643 0 0.060912116409232393 -0.26866771108043241 0 0.046065469641623648 -0.26962150893304643 0 0.045864651653541783 -0.26521735984327871 0 0.046842522897770252 -0.286663101787622 0 0.046065469641623648 -0.26962150893304643 0 0.03562902273990249 -0.27863589659918159 0 0.044347771086552301 -0.26568352839636472 0 0.046065469641623648 -0.26962150893304643 0 0.03562902273990249 -0.27863589659918159 0 0.044347771086552301 -0.26568352839636472 0 0.046065469641623648 -0.26962150893304643 0 0.044347771086552301 -0.26568352839636472 0 0.03562902273990249 -0.27863589659918159 0 0.016222990511900209 -0.27432685111496052 0 0.044347771086552301 -0.26568352839636472 0 0.046065469641623648 -0.26962150893304643 0 0.045864651653541783 -0.26521735984327871 0 0.046065469641623648 -0.26962150893304643 0 0.045864651653541783 -0.26521735984327871 0 0.046842522897770252 -0.286663101787622 0 0.046065469641623648 -0.26962150893304643 0 0.045864651653541783 -0.26521735984327871 0 0.044716942306755443 -0.24004689018935441 0 0.045864651653541783 -0.26521735984327871 0 0.037863317161371632 -0.25218913415187222 0 0.044716942306755443 -0.24004689018935441 0 0.044347771086552301 -0.26568352839636472 0 0.037863317161371632 -0.25218913415187222 0 0.023927315675539119 -0.2517485338050493 0 0.044347771086552301 -0.26568352839636472 0 0.045864651653541783 -0.26521735984327871 0 0.037863317161371632 -0.25218913415187222 0 0.044347771086552301 -0.26568352839636472 0 0.045864651653541783 -0.26521735984327871 0 0.044347771086552301 -0.26568352839636472 0 0.023927315675539119 -0.2517485338050493 0 0.016222990511900209 -0.27432685111496052 0 0.021051018783850711 -0.28715105031171312 0 0.03562902273990249 -0.27863589659918159 0 0.016222990511900209 -0.27432685111496052 0 0.044347771086552301 -0.26568352839636472 0 0.016222990511900209 -0.27432685111496052 0 -0.011901790062749031 -0.28297017383356582 0 0.016222990511900209 -0.27432685111496052 0 -0.011901790062749031 -0.28297017383356582 0 -0.0041159735410178696 -0.25344891444283252 0 0.016222990511900209 -0.27432685111496052 0 -0.0041159735410178696 -0.25344891444283252 0 0.023927315675539119 -0.2517485338050493 0 0.016222990511900209 -0.27432685111496052 0 -0.0041159735410178696 -0.25344891444283252 0 0.023927315675539119 -0.2517485338050493 0 0.01101508814222262 -0.23656624170531881 0 -0.0041159735410178696 -0.25344891444283252 0 -0.0059330273846503086 -0.2231535395972441 0 0.01101508814222262 -0.23656624170531881 0 -0.0059330273846503086 -0.2231535395972441 0 0.01881810278765909 -0.2190149800663371 0 -0.0059330273846503086 -0.2231535395972441 0 0.01101508814222262 -0.23656624170531881 0 0.01881810278765909 -0.2190149800663371 0 0.01881810278765909 -0.2190149800663371 0 0.043569232959968451 -0.21487642053543021 0 0.031321287090069823 -0.2319950085594259 0 0.01101508814222262 -0.23656624170531881 0 0.01881810278765909 -0.2190149800663371 0 0.031321287090069823 -0.2319950085594259 0 0.037863317161371632 -0.25218913415187222 0 0.023927315675539119 -0.2517485338050493 0 0.031321287090069823 -0.2319950085594259 0 0.023927315675539119 -0.2517485338050493 0 0.01101508814222262 -0.23656624170531881 0 0.031321287090069823 -0.2319950085594259 0 -0.011463948180690501 -0.2000694493355635 0 0.0068385699268319151 -0.18854980955585071 0 0.0048315302972443946 -0.20769696661081249 0 0.0068385699268319151 -0.18854980955585071 0 0.0048315302972443946 -0.20769696661081249 0 0.023010439996366368 -0.19824512767107419 0 -0.0059330273846503086 -0.2231535395972441 0 0.01881810278765909 -0.2190149800663371 0 0.0048315302972443946 -0.20769696661081249 0 0.01881810278765909 -0.2190149800663371 0 0.0048315302972443946 -0.20769696661081249 0 0.023010439996366368 -0.19824512767107419 0 0.01881810278765909 -0.2190149800663371 0 0.03055809418234753 -0.20850193058955979 0 0.043569232959968451 -0.21487642053543021 0 0.01881810278765909 -0.2190149800663371 0 0.03055809418234753 -0.20850193058955979 0 0.023010439996366368 -0.19824512767107419 0 0.01881810278765909 -0.2190149800663371 0 0.043569232959968451 -0.21487642053543021 0 0.0068385699268319151 -0.18854980955585071 0 0.023010439996366368 -0.19824512767107419 0 0.024100911397286231 -0.18290893347899501 0 0.023010439996366368 -0.19824512767107419 0 0.039243710026848358 -0.1839368923924361 0 0.024100911397286231 -0.18290893347899501 0 0.03055809418234753 -0.20850193058955979 0 0.023010439996366368 -0.19824512767107419 0 0.036574099021054449 -0.19731621316477829 0 0.023010439996366368 -0.19824512767107419 0 0.036574099021054449 -0.19731621316477829 0 0.039243710026848358 -0.1839368923924361 0 0.045381248866748172 -0.1933792806840412 0 0.052985320642100077 -0.18776521744980271 0 0.039243710026848358 -0.1839368923924361 0 0.045381248866748172 -0.1933792806840412 0 0.036574099021054449 -0.19731621316477829 0 0.039243710026848358 -0.1839368923924361 0 0.045381248866748172 -0.1933792806840412 0 0.036574099021054449 -0.19731621316477829 0 0.043141652373124499 -0.20549912983381741 0 0.043141652373124499 -0.20549912983381741 0 0.043569232959968451 -0.21487642053543021 0 0.048951884815659243 -0.20742000807735811 0 0.03055809418234753 -0.20850193058955979 0 0.043141652373124499 -0.20549912983381741 0 0.043569232959968451 -0.21487642053543021 0 0.043141652373124499 -0.20549912983381741 0 0.043569232959968451 -0.21487642053543021 0 0.03055809418234753 -0.20850193058955979 0 0.036574099021054449 -0.19731621316477829 0 0.043141652373124499 -0.20549912983381741 0 0.043569232959968451 -0.21487642053543021 0 0.071374335057855634 -0.21022721585289841 0 0.043569232959968451 -0.21487642053543021 0 0.060914417693987033 -0.22115363973695079 0 0.06297668721795123 -0.21605563136356479 0 0.043569232959968451 -0.21487642053543021 0 0.06297668721795123 -0.21605563136356479 0 0.071374335057855634 -0.21022721585289841 0 0.043569232959968451 -0.21487642053543021 0 0.056898887273107102 -0.20904991293701611 0 0.071374335057855634 -0.21022721585289841 0 0.056898887273107102 -0.20904991293701611 0 0.052197766656436898 -0.20025456900316871 0 0.059587348682042268 -0.20224578102611249 0 0.056898887273107102 -0.20904991293701611 0 0.059587348682042268 -0.20224578102611249 0 0.064370778501746245 -0.20686063563784851 0 0.043569232959968451 -0.21487642053543021 0 0.056898887273107102 -0.20904991293701611 0 0.048951884815659243 -0.20742000807735811 0 0.056898887273107102 -0.20904991293701611 0 0.048951884815659243 -0.20742000807735811 0 0.052197766656436898 -0.20025456900316871 0 0.043141652373124499 -0.20549912983381741 0 0.048951884815659243 -0.20742000807735811 0 0.052197766656436898 -0.20025456900316871 0 0.045381248866748172 -0.1933792806840412 0 0.043141652373124499 -0.20549912983381741 0 0.052197766656436898 -0.20025456900316871 0 0.059587348682042268 -0.20224578102611249 0 0.060099365899015413 -0.19406350398077751 0 0.066239615985775838 -0.20060434611844069 0 0.052197766656436898 -0.20025456900316871 0 0.059587348682042268 -0.20224578102611249 0 0.060099365899015413 -0.19406350398077751 0 0.052197766656436898 -0.20025456900316871 0 0.060099365899015413 -0.19406350398077751 0 0.052985320642100077 -0.18776521744980271 0 0.060099365899015413 -0.19406350398077751 0 0.052985320642100077 -0.18776521744980271 0 0.062883493903486409 -0.18456263678958579 0 0.045381248866748172 -0.1933792806840412 0 0.052197766656436898 -0.20025456900316871 0 0.052985320642100077 -0.18776521744980271 0 0.037863317161371632 -0.25218913415187222 0 0.044716942306755443 -0.24004689018935441 0 0.031321287090069823 -0.2319950085594259 0 0.043569232959968451 -0.21487642053543021 0 0.044716942306755443 -0.24004689018935441 0 0.043569232959968451 -0.21487642053543021 0 0.044716942306755443 -0.24004689018935441 0 0.031321287090069823 -0.2319950085594259 0 0.043569232959968451 -0.21487642053543021 0 0.060914417693987033 -0.22115363973695079 0 0.056153671149754829 -0.22901139649470109 0 0.043569232959968451 -0.21487642053543021 0 0.044716942306755443 -0.24004689018935441 0 0.056153671149754829 -0.22901139649470109 0 0.060914417693987033 -0.22115363973695079 0 0.056153671149754829 -0.22901139649470109 0 0.068858441526519459 -0.22809116053427081 0 0.056474718530354087 -0.25075095699534211 0 0.044716942306755443 -0.24004689018935441 0 0.062709321261543743 -0.24088887147749941 0 0.044716942306755443 -0.24004689018935441 0 0.056153671149754829 -0.22901139649470109 0 0.062709321261543743 -0.24088887147749941 0 0.073359597179269362 -0.25676759837123497 0 0.062709321261543743 -0.24088887147749941 0 0.075169428365374616 -0.24087397933037469 0 0.073359597179269362 -0.25676759837123497 0 0.056474718530354087 -0.25075095699534211 0 0.062709321261543743 -0.24088887147749941 0 0.062709321261543743 -0.24088887147749941 0 0.075169428365374616 -0.24087397933037469 0 0.068858441526519459 -0.22809116053427081 0 0.073359597179269362 -0.25676759837123497 0 0.075169428365374616 -0.24087397933037469 0 0.089719745365973297 -0.24923606216383809 0 0.075169428365374616 -0.24087397933037469 0 0.089719745365973297 -0.24923606216383809 0 0.08083326066516755 -0.22591391185666251 0 0.089719745365973297 -0.24923606216383809 0 0.08083326066516755 -0.22591391185666251 0 0.089719745365973297 -0.24923606216383809 0 0.08083326066516755 -0.22591391185666251 0 0.097291019849678931 -0.23608803713767779 0 0.077158054649468177 -0.22126859864683779 0 0.073254493767260301 -0.21486094606758629 0 0.100706244454567 -0.22227281743948671 0 0.08083326066516755 -0.22591391185666251 0 0.097291019849678931 -0.23608803713767779 0 0.100706244454567 -0.22227281743948671 0 0.08083326066516755 -0.22591391185666251 0 0.077158054649468177 -0.22126859864683779 0 0.100706244454567 -0.22227281743948671 0 0.077158054649468177 -0.22126859864683779 0 0.068858441526519459 -0.22809116053427081 0 0.068625178099228135 -0.219122411001788 0 0.08083326066516755 -0.22591391185666251 0 0.077158054649468177 -0.22126859864683779 0 0.068858441526519459 -0.22809116053427081 0 0.075169428365374616 -0.24087397933037469 0 0.08083326066516755 -0.22591391185666251 0 0.068858441526519459 -0.22809116053427081 0 0.056153671149754829 -0.22901139649470109 0 0.062709321261543743 -0.24088887147749941 0 0.068858441526519459 -0.22809116053427081 0 0.060914417693987033 -0.22115363973695079 0 0.068858441526519459 -0.22809116053427081 0 0.068625178099228135 -0.219122411001788 0 0.060914417693987033 -0.22115363973695079 0 0.068625178099228135 -0.219122411001788 0 0.06297668721795123 -0.21605563136356479 0 0.06297668721795123 -0.21605563136356479 0 0.069057673535573821 -0.21506655107145931 0 0.071374335057855634 -0.21022721585289841 0 0.068625178099228135 -0.219122411001788 0 0.069057673535573821 -0.21506655107145931 0 0.073254493767260301 -0.21486094606758629 0 0.068625178099228135 -0.219122411001788 0 0.06297668721795123 -0.21605563136356479 0 0.069057673535573821 -0.21506655107145931 0 0.056898887273107102 -0.20904991293701611 0 0.064370778501746245 -0.20686063563784851 0 0.071374335057855634 -0.21022721585289841 0 0.059587348682042268 -0.20224578102611249 0 0.064370778501746245 -0.20686063563784851 0 0.066239615985775838 -0.20060434611844069 0 0.064370778501746245 -0.20686063563784851 0 0.068294159783062178 -0.2058391884023012 0 0.066239615985775838 -0.20060434611844069 0 0.068294159783062178 -0.2058391884023012 0 0.071374335057855634 -0.21022721585289841 0 0.070893983631606025 -0.20375088915249301 0 0.068294159783062178 -0.2058391884023012 0 0.070893983631606025 -0.20375088915249301 0 0.066239615985775838 -0.20060434611844069 0 0.064370778501746245 -0.20686063563784851 0 0.068294159783062178 -0.2058391884023012 0 0.071374335057855634 -0.21022721585289841 0 0.071374335057855634 -0.21022721585289841 0 0.070893983631606025 -0.20375088915249301 0 0.076720190935798363 -0.20204640142628591 0 0.077158054649468177 -0.22126859864683779 0 0.068625178099228135 -0.219122411001788 0 0.073254493767260301 -0.21486094606758629 0 0.069057673535573821 -0.21506655107145931 0 0.071374335057855634 -0.21022721585289841 0 0.073254493767260301 -0.21486094606758629 0 0.060099365899015413 -0.19406350398077751 0 0.069295379805662582 -0.1920109216061088 0 0.062883493903486409 -0.18456263678958579 0 0.069295379805662582 -0.1920109216061088 0 0.066239615985775838 -0.20060434611844069 0 0.071705057758556054 -0.198680240665525 0 0.060099365899015413 -0.19406350398077751 0 0.069295379805662582 -0.1920109216061088 0 0.066239615985775838 -0.20060434611844069 0 0.070893983631606025 -0.20375088915249301 0 0.066239615985775838 -0.20060434611844069 0 0.071705057758556054 -0.198680240665525 0 0.070893983631606025 -0.20375088915249301 0 0.076720190935798363 -0.20204640142628591 0 0.071705057758556054 -0.198680240665525 0 0.076720190935798363 -0.20204640142628591 0 0.075376118433937461 -0.1949886450242968 0 0.080854519338848976 -0.19739834652256291 0 0.076720190935798363 -0.20204640142628591 0 0.071705057758556054 -0.198680240665525 0 0.075376118433937461 -0.1949886450242968 0 0.069295379805662582 -0.1920109216061088 0 0.075376118433937461 -0.1949886450242968 0 0.078721946887200966 -0.18916633554311321 0 0.069295379805662582 -0.1920109216061088 0 0.078721946887200966 -0.18916633554311321 0 0.071956107362086325 -0.18269270086209791 0 0.069295379805662582 -0.1920109216061088 0 0.071705057758556054 -0.198680240665525 0 0.075376118433937461 -0.1949886450242968 0 0.08452637274791798 -0.1925430937756179 0 0.078721946887200966 -0.18916633554311321 0 0.085777303895329754 -0.18315464096459161 0 0.08452637274791798 -0.1925430937756179 0 0.078721946887200966 -0.18916633554311321 0 0.080854519338848976 -0.19739834652256291 0 0.075376118433937461 -0.1949886450242968 0 0.078721946887200966 -0.18916633554311321 0 0.080854519338848976 -0.19739834652256291 0 0.076720190935798363 -0.20204640142628591 0 0.080854519338848976 -0.19739834652256291 0 0.086610942979743297 -0.20178227349402469 0 0.08452637274791798 -0.1925430937756179 0 0.080854519338848976 -0.19739834652256291 0 0.086610942979743297 -0.20178227349402469 0 0.08452637274791798 -0.1925430937756179 0 0.086610942979743297 -0.20178227349402469 0 0.090206651255732226 -0.195696050883754 0 0.086610942979743297 -0.20178227349402469 0 0.093242795521760999 -0.19919441970273011 0 0.099179437155742831 -0.20557801117036659 0 0.086610942979743297 -0.20178227349402469 0 0.093242795521760999 -0.19919441970273011 0 0.090206651255732226 -0.195696050883754 0 0.093242795521760999 -0.19919441970273011 0 0.090206651255732226 -0.195696050883754 0 0.096974150695825656 -0.19372134326277521 0 0.08452637274791798 -0.1925430937756179 0 0.090206651255732226 -0.195696050883754 0 0.085777303895329754 -0.18315464096459161 0 0.096974150695825656 -0.19372134326277521 0 0.085777303895329754 -0.18315464096459161 0 0.090206651255732226 -0.195696050883754 0 0.096974150695825656 -0.19372134326277521 0 0.085777303895329754 -0.18315464096459161 0 0.073254493767260301 -0.21486094606758629 0 0.099179437155742831 -0.20557801117036659 0 0.100706244454567 -0.22227281743948671 0 0.071374335057855634 -0.21022721585289841 0 0.099179437155742831 -0.20557801117036659 0 0.071374335057855634 -0.21022721585289841 0 0.086610942979743297 -0.20178227349402469 0 0.099179437155742831 -0.20557801117036659 0 0.073254493767260301 -0.21486094606758629 0 0.100706244454567 -0.22227281743948671 0 0.071374335057855634 -0.21022721585289841 0 0.073254493767260301 -0.21486094606758629 0 0.099179437155742831 -0.20557801117036659 0 0.071374335057855634 -0.21022721585289841 0 0.076720190935798363 -0.20204640142628591 0 0.086610942979743297 -0.20178227349402469 0 0.10817099749632091 -0.2042880455609595 0 0.11816449631909499 -0.21698636718617689 0 0.100706244454567 -0.22227281743948671 0 0.099179437155742831 -0.20557801117036659 0 0.10817099749632091 -0.2042880455609595 0 0.100706244454567 -0.22227281743948671 0 0.10817099749632091 -0.2042880455609595 0 0.092616748447271718 -0.18452391084035391 0 0.10817099749632091 -0.2042880455609595 0 0.096974150695825656 -0.19372134326277521 0 0.092616748447271718 -0.18452391084035391 0 0.10817099749632091 -0.2042880455609595 0 0.1073194472424828 -0.19050814637588431 0 0.092616748447271718 -0.18452391084035391 0 0.099179437155742831 -0.20557801117036659 0 0.10817099749632091 -0.2042880455609595 0 0.096974150695825656 -0.19372134326277521 0 0.093242795521760999 -0.19919441970273011 0 0.099179437155742831 -0.20557801117036659 0 0.096974150695825656 -0.19372134326277521 0 0.10817099749632091 -0.2042880455609595 0 0.096974150695825656 -0.19372134326277521 0 0.1073194472424828 -0.19050814637588431 0 0.11986376690073509 -0.19676003188273311 0 0.1117910968068858 -0.18543643511137939 0 0.10817099749632091 -0.2042880455609595 0 0.1073194472424828 -0.19050814637588431 0 0.11986376690073509 -0.19676003188273311 0 0.10817099749632091 -0.2042880455609595 0 0.11986376690073509 -0.19676003188273311 0 0.1230140189876729 -0.21829572040899781 0 0.11986376690073509 -0.19676003188273311 0 0.1230140189876729 -0.21829572040899781 0 0.1320790857240032 -0.20622260702259129 0 0.10817099749632091 -0.2042880455609595 0 0.11816449631909499 -0.21698636718617689 0 0.1230140189876729 -0.21829572040899781 0 0.10817099749632091 -0.2042880455609595 0 0.1230140189876729 -0.21829572040899781 0 0.10817099749632091 -0.2042880455609595 0 0.11816449631909499 -0.21698636718617689 0 0.11816449631909499 -0.21698636718617689 0 0.1230140189876729 -0.21829572040899781 0 0.12815799514187259 -0.2296846888113914 0 0.100706244454567 -0.22227281743948671 0 0.12815799514187259 -0.2296846888113914 0 0.11816449631909499 -0.21698636718617689 0 0.12815799514187259 -0.2296846888113914 0 0.11816449631909499 -0.21698636718617689 0 0.100706244454567 -0.22227281743948671 0 0.12815799514187259 -0.2296846888113914 0 0.11174474171851111 -0.23593214132457549 0 0.100706244454567 -0.22227281743948671 0 0.12815799514187259 -0.2296846888113914 0 0.1165616163499876 -0.25311830346572051 0 0.11174474171851111 -0.23593214132457549 0 0.10345110704417571 -0.2470852529038263 0 0.1165616163499876 -0.25311830346572051 0 0.1211962060867795 -0.2395258821134488 0 0.11174474171851111 -0.23593214132457549 0 0.1211962060867795 -0.2395258821134488 0 0.11174474171851111 -0.23593214132457549 0 0.12815799514187259 -0.2296846888113914 0 0.1165616163499876 -0.25311830346572051 0 0.1211962060867795 -0.2395258821134488 0 0.12805467367690951 -0.24418535849990461 0 0.11174474171851111 -0.23593214132457549 0 0.10345110704417571 -0.2470852529038263 0 0.097291019849678931 -0.23608803713767779 0 0.089719745365973297 -0.24923606216383809 0 0.10345110704417571 -0.2470852529038263 0 0.097291019849678931 -0.23608803713767779 0 0.11174474171851111 -0.23593214132457549 0 0.097291019849678931 -0.23608803713767779 0 0.100706244454567 -0.22227281743948671 0 0.10428425202298371 -0.14655606567719551 0 0.1082991608489403 -0.13845171913865709 0 0.1144491531729912 -0.14684914390199469 0 0.10428425202298371 -0.14655606567719551 0 0.1085093204495664 -0.15535403807133419 0 0.1144491531729912 -0.14684914390199469 0 0.10428425202298371 -0.14655606567719551 0 0.1085093204495664 -0.15535403807133419 0 0.097528149362930083 -0.15867477437941621 0 0.10428425202298371 -0.14655606567719551 0 0.097528149362930083 -0.15867477437941621 0 0.093502196982258978 -0.1457393027716809 0 0.10428425202298371 -0.14655606567719551 0 0.1034175313212149 -0.13426741580009019 0 0.093502196982258978 -0.1457393027716809 0 0.1034175313212149 -0.13426741580009019 0 0.093502196982258978 -0.1457393027716809 0 0.1034175313212149 -0.13426741580009019 0 0.093502196982258978 -0.1457393027716809 0 0.08750463653487657 -0.13468084487699991 0 0.1034175313212149 -0.13426741580009019 0 0.089388721415193328 -0.1222425794636796 0 0.10428425202298371 -0.14655606567719551 0 0.1034175313212149 -0.13426741580009019 0 0.1082991608489403 -0.13845171913865709 0 0.1034175313212149 -0.13426741580009019 0 0.1082991608489403 -0.13845171913865709 0 0.1034175313212149 -0.13426741580009019 0 0.1184346111955399 -0.1347216353262676 0 0.1214366175252002 -0.1134196144857848 0 0.1034175313212149 -0.13426741580009019 0 0.1082991608489403 -0.13845171913865709 0 0.1184346111955399 -0.1347216353262676 0 0.1082991608489403 -0.13845171913865709 0 0.1184346111955399 -0.1347216353262676 0 0.1144491531729912 -0.14684914390199469 0 0.1184346111955399 -0.1347216353262676 0 0.1214366175252002 -0.1134196144857848 0 0.13471474342105291 -0.12852203960607009 0 0.1184346111955399 -0.1347216353262676 0 0.1144491531729912 -0.14684914390199469 0 0.12722229411289271 -0.14620122877240729 0 0.1085093204495664 -0.15535403807133419 0 0.1144491531729912 -0.14684914390199469 0 0.118208522431637 -0.15750231733317571 0 0.118208522431637 -0.15750231733317571 0 0.12950223641341091 -0.16016257382628341 0 0.12722229411289271 -0.14620122877240729 0 0.1144491531729912 -0.14684914390199469 0 0.118208522431637 -0.15750231733317571 0 0.12722229411289271 -0.14620122877240729 0 0.118208522431637 -0.15750231733317571 0 0.11912148173316379 -0.16822226518800901 0 0.12950223641341091 -0.16016257382628341 0 0.11912148173316379 -0.16822226518800901 0 0.1095596397385233 -0.16543930858391709 0 0.1125992436255749 -0.1752671049609856 0 0.1085093204495664 -0.15535403807133419 0 0.118208522431637 -0.15750231733317571 0 0.1095596397385233 -0.16543930858391709 0 0.118208522431637 -0.15750231733317571 0 0.11912148173316379 -0.16822226518800901 0 0.1095596397385233 -0.16543930858391709 0 0.11986376690073509 -0.19676003188273311 0 0.1117910968068858 -0.18543643511137939 0 0.12645071140433981 -0.18008712944027799 0 0.11912148173316379 -0.16822226518800901 0 0.1125992436255749 -0.1752671049609856 0 0.12645071140433981 -0.18008712944027799 0 0.1125992436255749 -0.1752671049609856 0 0.1117910968068858 -0.18543643511137939 0 0.1041546265611996 -0.18153230848399601 0 0.1125992436255749 -0.1752671049609856 0 0.1117910968068858 -0.18543643511137939 0 0.12645071140433981 -0.18008712944027799 0 0.1073194472424828 -0.19050814637588431 0 0.1117910968068858 -0.18543643511137939 0 0.1041546265611996 -0.18153230848399601 0 0.1125992436255749 -0.1752671049609856 0 0.1041546265611996 -0.18153230848399601 0 0.10085268058723421 -0.17140630960826059 0 0.096458078813338122 -0.17643409067163379 0 0.10085268058723421 -0.17140630960826059 0 0.088208259657647003 -0.1682738337539251 0 0.1041546265611996 -0.18153230848399601 0 0.096458078813338122 -0.17643409067163379 0 0.10085268058723421 -0.17140630960826059 0 0.1073194472424828 -0.19050814637588431 0 0.1041546265611996 -0.18153230848399601 0 0.092616748447271718 -0.18452391084035391 0 0.1041546265611996 -0.18153230848399601 0 0.096458078813338122 -0.17643409067163379 0 0.092616748447271718 -0.18452391084035391 0 0.1085093204495664 -0.15535403807133419 0 0.1095596397385233 -0.16543930858391709 0 0.097528149362930083 -0.15867477437941621 0 0.1095596397385233 -0.16543930858391709 0 0.10085268058723421 -0.17140630960826059 0 0.097528149362930083 -0.15867477437941621 0 0.1095596397385233 -0.16543930858391709 0 0.1125992436255749 -0.1752671049609856 0 0.10085268058723421 -0.17140630960826059 0 0.10085268058723421 -0.17140630960826059 0 0.097528149362930083 -0.15867477437941621 0 0.088208259657647003 -0.1682738337539251 0 0.097528149362930083 -0.15867477437941621 0 0.088208259657647003 -0.1682738337539251 0 0.083586862643304449 -0.15721118974327281 0 0.088208259657647003 -0.1682738337539251 0 0.083586862643304449 -0.15721118974327281 0 0.077062499398222337 -0.1647597761197484 0 0.088208259657647003 -0.1682738337539251 0 0.083586862643304449 -0.15721118974327281 0 0.083586862643304449 -0.15721118974327281 0 0.077062499398222337 -0.1647597761197484 0 0.088208259657647003 -0.1682738337539251 0 0.092616748447271718 -0.18452391084035391 0 0.077062499398222337 -0.1647597761197484 0 0.092616748447271718 -0.18452391084035391 0 0.077062499398222337 -0.1647597761197484 0 0.092616748447271718 -0.18452391084035391 0 0.079724603211797154 -0.17553044628326209 0 0.077062499398222337 -0.1647597761197484 0 0.096458078813338122 -0.17643409067163379 0 0.088208259657647003 -0.1682738337539251 0 0.092616748447271718 -0.18452391084035391 0 0.096974150695825656 -0.19372134326277521 0 0.092616748447271718 -0.18452391084035391 0 0.085777303895329754 -0.18315464096459161 0 0.092616748447271718 -0.18452391084035391 0 0.079724603211797154 -0.17553044628326209 0 0.085777303895329754 -0.18315464096459161 0 0.079724603211797154 -0.17553044628326209 0 0.085777303895329754 -0.18315464096459161 0 0.078247643241650816 -0.1817397233002532 0 0.078721946887200966 -0.18916633554311321 0 0.085777303895329754 -0.18315464096459161 0 0.078247643241650816 -0.1817397233002532 0 0.078721946887200966 -0.18916633554311321 0 0.078247643241650816 -0.1817397233002532 0 0.071956107362086325 -0.18269270086209791 0 0.078247643241650816 -0.1817397233002532 0 0.071956107362086325 -0.18269270086209791 0 0.07468461544781993 -0.17856763363864209 0 0.071956107362086325 -0.18269270086209791 0 0.07468461544781993 -0.17856763363864209 0 0.06881010797574541 -0.17430766410895521 0 0.079724603211797154 -0.17553044628326209 0 0.07468461544781993 -0.17856763363864209 0 0.06881010797574541 -0.17430766410895521 0 0.079724603211797154 -0.17553044628326209 0 0.078247643241650816 -0.1817397233002532 0 0.07468461544781993 -0.17856763363864209 0 0.069295379805662582 -0.1920109216061088 0 0.071956107362086325 -0.18269270086209791 0 0.062883493903486409 -0.18456263678958579 0 0.071956107362086325 -0.18269270086209791 0 0.06881010797574541 -0.17430766410895521 0 0.062883493903486409 -0.18456263678958579 0 0.083586862643304449 -0.15721118974327281 0 0.073265594026216713 -0.15993520702244879 0 0.077062499398222337 -0.1647597761197484 0 0.073265594026216713 -0.15993520702244879 0 0.077062499398222337 -0.1647597761197484 0 0.068686145533830206 -0.1652162205724283 0 0.073265594026216713 -0.15993520702244879 0 0.077062499398222337 -0.1647597761197484 0 0.06881010797574541 -0.17430766410895521 0 0.077062499398222337 -0.1647597761197484 0 0.06881010797574541 -0.17430766410895521 0 0.077062499398222337 -0.1647597761197484 0 0.068686145533830206 -0.1652162205724283 0 0.079724603211797154 -0.17553044628326209 0 0.06881010797574541 -0.17430766410895521 0 0.077062499398222337 -0.1647597761197484 0 0.06881010797574541 -0.17430766410895521 0 0.068686145533830206 -0.1652162205724283 0 0.057494681201551628 -0.16434298860779201 0 0.073265594026216713 -0.15993520702244879 0 0.068686145533830206 -0.1652162205724283 0 0.064362980390885879 -0.15724559593029561 0 0.068686145533830206 -0.1652162205724283 0 0.064362980390885879 -0.15724559593029561 0 0.057494681201551628 -0.16434298860779201 0 0.083586862643304449 -0.15721118974327281 0 0.073265594026216713 -0.15993520702244879 0 0.077254218719115808 -0.14197393454673329 0 0.073265594026216713 -0.15993520702244879 0 0.067017436720651968 -0.1491446601724257 0 0.077254218719115808 -0.14197393454673329 0 0.073265594026216713 -0.15993520702244879 0 0.064362980390885879 -0.15724559593029561 0 0.067017436720651968 -0.1491446601724257 0 0.067017436720651968 -0.1491446601724257 0 0.077254218719115808 -0.14197393454673329 0 0.060844834922081509 -0.13469565939261699 0 0.083586862643304449 -0.15721118974327281 0 0.077254218719115808 -0.14197393454673329 0 0.083586862643304449 -0.15721118974327281 0 0.077254218719115808 -0.14197393454673329 0 0.093502196982258978 -0.1457393027716809 0 0.077254218719115808 -0.14197393454673329 0 0.093502196982258978 -0.1457393027716809 0 0.08750463653487657 -0.13468084487699991 0 0.083586862643304449 -0.15721118974327281 0 0.093502196982258978 -0.1457393027716809 0 0.097528149362930083 -0.15867477437941621 0 0.083586862643304449 -0.15721118974327281 0 0.093502196982258978 -0.1457393027716809 0 0.077254218719115808 -0.14197393454673329 0 0.08750463653487657 -0.13468084487699991 0 0.076307065114144146 -0.12609583883700101 0 0.1034175313212149 -0.13426741580009019 0 0.08750463653487657 -0.13468084487699991 0 0.089388721415193328 -0.1222425794636796 0 0.08750463653487657 -0.13468084487699991 0 0.076307065114144146 -0.12609583883700101 0 0.089388721415193328 -0.1222425794636796 0 0.077254218719115808 -0.14197393454673329 0 0.060844834922081509 -0.13469565939261699 0 0.067410144158619026 -0.11848755762483219 0 0.077254218719115808 -0.14197393454673329 0 0.067410144158619026 -0.11848755762483219 0 0.077254218719115808 -0.14197393454673329 0 0.076307065114144146 -0.12609583883700101 0 0.067410144158619026 -0.11848755762483219 0 0.077254218719115808 -0.14197393454673329 0 0.076307065114144146 -0.12609583883700101 0 0.060844834922081509 -0.13469565939261699 0 0.055351044472178861 -0.14758890327638341 0 0.042008714613029213 -0.13723880589669529 0 0.060844834922081509 -0.13469565939261699 0 0.042008714613029213 -0.13723880589669529 0 0.048522094559930277 -0.1154943334606529 0 0.055351044472178861 -0.14758890327638341 0 0.045614927737612367 -0.15431423794999191 0 0.057494681201551628 -0.16434298860779201 0 0.055351044472178861 -0.14758890327638341 0 0.045614927737612367 -0.15431423794999191 0 0.042008714613029213 -0.13723880589669529 0 0.067017436720651968 -0.1491446601724257 0 0.060844834922081509 -0.13469565939261699 0 0.055351044472178861 -0.14758890327638341 0 0.064362980390885879 -0.15724559593029561 0 0.067017436720651968 -0.1491446601724257 0 0.055351044472178861 -0.14758890327638341 0 0.045614927737612367 -0.15431423794999191 0 0.042008714613029213 -0.13723880589669529 0 0.030133771806514571 -0.15480569270202729 0 0.052985320642100077 -0.18776521744980271 0 0.053908466455943063 -0.17691846344262349 0 0.039243710026848358 -0.1839368923924361 0 0.052985320642100077 -0.18776521744980271 0 0.062883493903486409 -0.18456263678958579 0 0.053908466455943063 -0.17691846344262349 0 0.06881010797574541 -0.17430766410895521 0 0.062883493903486409 -0.18456263678958579 0 0.053908466455943063 -0.17691846344262349 0 0.064362980390885879 -0.15724559593029561 0 0.055351044472178861 -0.14758890327638341 0 0.057494681201551628 -0.16434298860779201 0 0.053908466455943063 -0.17691846344262349 0 0.057494681201551628 -0.16434298860779201 0 0.043086426594787612 -0.16759479926706131 0 0.06881010797574541 -0.17430766410895521 0 0.053908466455943063 -0.17691846344262349 0 0.057494681201551628 -0.16434298860779201 0 0.045614927737612367 -0.15431423794999191 0 0.057494681201551628 -0.16434298860779201 0 0.043086426594787612 -0.16759479926706131 0 0.045614927737612367 -0.15431423794999191 0 0.043086426594787612 -0.16759479926706131 0 0.030133771806514571 -0.15480569270202729 0 0.043086426594787612 -0.16759479926706131 0 0.030906835012951279 -0.1702838456352104 0 0.030133771806514571 -0.15480569270202729 0 0.053908466455943063 -0.17691846344262349 0 0.043086426594787612 -0.16759479926706131 0 0.039243710026848358 -0.1839368923924361 0 0.043086426594787612 -0.16759479926706131 0 0.039243710026848358 -0.1839368923924361 0 0.030906835012951279 -0.1702838456352104 0 0.039243710026848358 -0.1839368923924361 0 0.024100911397286231 -0.18290893347899501 0 0.030906835012951279 -0.1702838456352104 0 0.0068385699268319151 -0.18854980955585071 0 0.024100911397286231 -0.18290893347899501 0 0.01740090206666951 -0.17030559821398131 0 0.024100911397286231 -0.18290893347899501 0 0.01740090206666951 -0.17030559821398131 0 0.030906835012951279 -0.1702838456352104 0 0.01740090206666951 -0.17030559821398131 0 0.030133771806514571 -0.15480569270202729 0 0.013843108946483971 -0.15038195357897871 0 0.01740090206666951 -0.17030559821398131 0 0.030906835012951279 -0.1702838456352104 0 0.030133771806514571 -0.15480569270202729 0 0.01740090206666951 -0.17030559821398131 0 0.0043372626668415496 -0.1633315661076635 0 0.013843108946483971 -0.15038195357897871 0 -0.01066229010784148 -0.1576742894548647 0 0.0043372626668415496 -0.1633315661076635 0 0.013843108946483971 -0.15038195357897871 0 -0.0032326702379458019 -0.1749644231828294 0 0.01740090206666951 -0.17030559821398131 0 0.0043372626668415496 -0.1633315661076635 0 -0.0032326702379458019 -0.1749644231828294 0 0.0068385699268319151 -0.18854980955585071 0 0.01740090206666951 -0.17030559821398131 0 0.042008714613029213 -0.13723880589669529 0 0.020692895231028151 -0.13465113082570371 0 0.02892805394034997 -0.11824387104033141 0 0.042008714613029213 -0.13723880589669529 0 0.020692895231028151 -0.13465113082570371 0 0.030133771806514571 -0.15480569270202729 0 0.020692895231028151 -0.13465113082570371 0 0.030133771806514571 -0.15480569270202729 0 0.013843108946483971 -0.15038195357897871 0 -0.01066229010784148 -0.1576742894548647 0 0.013843108946483971 -0.15038195357897871 0 0.00046974689834634181 -0.13450195819434799 0 0.020692895231028151 -0.13465113082570371 0 0.00046974689834634181 -0.13450195819434799 0 0.010831052421536889 -0.1158852497747221 0 0.020692895231028151 -0.13465113082570371 0 0.013843108946483971 -0.15038195357897871 0 0.00046974689834634181 -0.13450195819434799 0 -0.011164421983117409 -0.11083099766669 0 0.00046974689834634181 -0.13450195819434799 0 0.010831052421536889 -0.1158852497747221 0 0.020692895231028151 -0.13465113082570371 0 0.010831052421536889 -0.1158852497747221 0 0.02892805394034997 -0.11824387104033141 0 0.010831052421536889 -0.1158852497747221 0 0.02892805394034997 -0.11824387104033141 0 0.022199134631672411 -0.10121357891360459 0 0.02892805394034997 -0.11824387104033141 0 0.022199134631672411 -0.10121357891360459 0 0.035342787958517058 -0.1051431051935455 0 0.022199134631672411 -0.10121357891360459 0 0.035893951333260551 -0.092693976939171058 0 0.035342787958517058 -0.1051431051935455 0 -0.011164421983117409 -0.11083099766669 0 0.010831052421536889 -0.1158852497747221 0 0.0046999500082680447 -0.092895676057009519 0 0.010831052421536889 -0.1158852497747221 0 0.022199134631672411 -0.10121357891360459 0 0.0046999500082680447 -0.092895676057009519 0 0.0046999500082680447 -0.092895676057009519 0 0.00073087841809113107 -0.079097178247617861 0 0.012928277819284441 -0.075492448957098862 0 0.0046999500082680447 -0.092895676057009519 0 0.012928277819284441 -0.075492448957098862 0 0.025634604321823091 -0.084234821765631546 0 0.00073087841809113107 -0.079097178247617861 0 0.012928277819284441 -0.075492448957098862 0 0.0052429822065970201 -0.062096166714421482 0 0.012928277819284441 -0.075492448957098862 0 0.0052429822065970201 -0.062096166714421482 0 0.01669486784944893 -0.061367044712297397 0 0.012928277819284441 -0.075492448957098862 0 0.027649567207539982 -0.070531428848729483 0 0.01669486784944893 -0.061367044712297397 0 0.012928277819284441 -0.075492448957098862 0 0.027649567207539982 -0.070531428848729483 0 0.025634604321823091 -0.084234821765631546 0 0.027649567207539982 -0.070531428848729483 0 0.025634604321823091 -0.084234821765631546 0 0.032088305708952727 -0.078073698381486284 0 0.022199134631672411 -0.10121357891360459 0 0.0046999500082680447 -0.092895676057009519 0 0.025634604321823091 -0.084234821765631546 0 0.022199134631672411 -0.10121357891360459 0 0.025634604321823091 -0.084234821765631546 0 0.035893951333260551 -0.092693976939171058 0 0.025634604321823091 -0.084234821765631546 0 0.034195953346183652 -0.084015704890123652 0 0.032088305708952727 -0.078073698381486284 0 0.035893951333260551 -0.092693976939171058 0 0.034195953346183652 -0.084015704890123652 0 0.040750836373825129 -0.086122147943117636 0 0.025634604321823091 -0.084234821765631546 0 0.035893951333260551 -0.092693976939171058 0 0.034195953346183652 -0.084015704890123652 0 0.034195953346183652 -0.084015704890123652 0 0.03786855691082204 -0.078852718001904118 0 0.032088305708952727 -0.078073698381486284 0 0.034195953346183652 -0.084015704890123652 0 0.03786855691082204 -0.078852718001904118 0 0.040750836373825129 -0.086122147943117636 0 0.03786855691082204 -0.078852718001904118 0 0.044105378567576063 -0.080639955835179994 0 0.040750836373825129 -0.086122147943117636 0 0.044105378567576063 -0.080639955835179994 0 0.040750836373825129 -0.086122147943117636 0 0.048224341689364868 -0.086958408360863687 0 0.044068741382053953 -0.092279496694286769 0 0.040750836373825129 -0.086122147943117636 0 0.048224341689364868 -0.086958408360863687 0 0.035893951333260551 -0.092693976939171058 0 0.044068741382053953 -0.092279496694286769 0 0.040750836373825129 -0.086122147943117636 0 0.040570158260520288 -0.067003278133216396 0 0.053112999603348102 -0.084263226736798064 0 0.040570158260520288 -0.067003278133216396 0 0.045746934978261773 -0.066630430754564915 0 0.053112999603348102 -0.084263226736798064 0 0.044105378567576063 -0.080639955835179994 0 0.040570158260520288 -0.067003278133216396 0 0.053112999603348102 -0.084263226736798064 0 0.027649567207539982 -0.070531428848729483 0 0.035092846758394941 -0.072733818401042621 0 0.040570158260520288 -0.067003278133216396 0 0.03786855691082204 -0.078852718001904118 0 0.035092846758394941 -0.072733818401042621 0 0.040570158260520288 -0.067003278133216396 0 0.027649567207539982 -0.070531428848729483 0 0.035092846758394941 -0.072733818401042621 0 0.032088305708952727 -0.078073698381486284 0 0.03786855691082204 -0.078852718001904118 0 0.035092846758394941 -0.072733818401042621 0 0.032088305708952727 -0.078073698381486284 0 0.03786855691082204 -0.078852718001904118 0 0.044105378567576063 -0.080639955835179994 0 0.040570158260520288 -0.067003278133216396 0 0.045746934978261773 -0.066630430754564915 0 0.055273306537689797 -0.072285283588957999 0 0.053112999603348102 -0.084263226736798064 0 0.045746934978261773 -0.066630430754564915 0 0.053112999603348102 -0.084263226736798064 0 0.045746934978261773 -0.066630430754564915 0 0.055273306537689797 -0.072285283588957999 0 0.056707890898913767 -0.056794884600034012 0 0.055273306537689797 -0.072285283588957999 0 0.062557607249074276 -0.080283121230027982 0 0.062975169061221942 -0.070036102729192556 0 0.055273306537689797 -0.072285283588957999 0 0.056707890898913767 -0.056794884600034012 0 0.062975169061221942 -0.070036102729192556 0 0.053112999603348102 -0.084263226736798064 0 0.066381752212538031 -0.1025220870546963 0 0.063949784695998824 -0.087560903807497592 0 0.053112999603348102 -0.084263226736798064 0 0.066381752212538031 -0.1025220870546963 0 0.048224341689364868 -0.086958408360863687 0 0.053112999603348102 -0.084263226736798064 0 0.057593901052011467 -0.094989554169727514 0 0.048224341689364868 -0.086958408360863687 0 0.057593901052011467 -0.094989554169727514 0 0.044068741382053953 -0.092279496694286769 0 0.048224341689364868 -0.086958408360863687 0 0.057593901052011467 -0.094989554169727514 0 0.044105378567576063 -0.080639955835179994 0 0.048224341689364868 -0.086958408360863687 0 0.053112999603348102 -0.084263226736798064 0 0.055273306537689797 -0.072285283588957999 0 0.053112999603348102 -0.084263226736798064 0 0.062557607249074276 -0.080283121230027982 0 0.053112999603348102 -0.084263226736798064 0 0.063949784695998824 -0.087560903807497592 0 0.062557607249074276 -0.080283121230027982 0 0.053112999603348102 -0.084263226736798064 0 0.057593901052011467 -0.094989554169727514 0 0.057593901052011467 -0.094989554169727514 0 0.066381752212538031 -0.1025220870546963 0 0.057593901052011467 -0.094989554169727514 0 0.048522094559930277 -0.1154943334606529 0 0.044387397048713861 -0.1003975580548324 0 0.053112999603348102 -0.084263226736798064 0 0.057593901052011467 -0.094989554169727514 0 0.066381752212538031 -0.1025220870546963 0 0.044068741382053953 -0.092279496694286769 0 0.057593901052011467 -0.094989554169727514 0 0.044387397048713861 -0.1003975580548324 0 0.060844834922081509 -0.13469565939261699 0 0.048522094559930277 -0.1154943334606529 0 0.067410144158619026 -0.11848755762483219 0 0.057593901052011467 -0.094989554169727514 0 0.048522094559930277 -0.1154943334606529 0 0.067410144158619026 -0.11848755762483219 0 0.042008714613029213 -0.13723880589669529 0 0.02892805394034997 -0.11824387104033141 0 0.048522094559930277 -0.1154943334606529 0 0.02892805394034997 -0.11824387104033141 0 0.048522094559930277 -0.1154943334606529 0 0.035342787958517058 -0.1051431051935455 0 0.035893951333260551 -0.092693976939171058 0 0.035342787958517058 -0.1051431051935455 0 0.044387397048713861 -0.1003975580548324 0 0.035893951333260551 -0.092693976939171058 0 0.044068741382053953 -0.092279496694286769 0 0.044387397048713861 -0.1003975580548324 0 0.048522094559930277 -0.1154943334606529 0 0.035342787958517058 -0.1051431051935455 0 0.044387397048713861 -0.1003975580548324 0 0.031706031824554559 0.0067381481283544653 0 0.022686691925409831 -0.0010303452364502849 0 0.037442181461602872 -0.010241351966007121 0 0.024549213383460049 -0.012437610989204489 0 0.022686691925409831 -0.0010303452364502849 0 0.037442181461602872 -0.010241351966007121 0 0.024549213383460049 -0.012437610989204489 0 0.01182261043660825 -0.0065638948793732737 0 0.014068852231041821 -0.019849148090369442 0 0.024549213383460049 -0.012437610989204489 0 0.022686691925409831 -0.0010303452364502849 0 0.01182261043660825 -0.0065638948793732737 0 0.011939739658363899 0.00194372347938152 0 0.01182261043660825 -0.0065638948793732737 0 0.0034751517980762502 -0.001935438989210144 0 0.011939739658363899 0.00194372347938152 0 0.022686691925409831 -0.0010303452364502849 0 0.01182261043660825 -0.0065638948793732737 0 -1.164161945209005e-05 -0.012508092490703599 0 0.01182261043660825 -0.0065638948793732737 0 0.0034751517980762502 -0.001935438989210144 0 -1.164161945209005e-05 -0.012508092490703599 0 0.01182261043660825 -0.0065638948793732737 0 0.014068852231041821 -0.019849148090369442 0 -0.001067026699009976 -0.024777566455706231 0 0.014068852231041821 -0.019849148090369442 0 0.015484475574864379 -0.032483380926053247 0 -0.001067026699009976 -0.024777566455706231 0 -1.164161945209005e-05 -0.012508092490703599 0 0.014068852231041821 -0.019849148090369442 0 0.014068852231041821 -0.019849148090369442 0 0.015484475574864379 -0.032483380926053247 0 0.033635482309780348 -0.0303243428011758 0 0.024549213383460049 -0.012437610989204489 0 0.014068852231041821 -0.019849148090369442 0 0.033635482309780348 -0.0303243428011758 0 0.015484475574864379 -0.032483380926053247 0 0.028027316917692339 -0.049743329529634818 0 0.033635482309780348 -0.0303243428011758 0 0.015484475574864379 -0.032483380926053247 0 0.0096261950961308729 -0.048971849511602349 0 0.028027316917692339 -0.049743329529634818 0 0.015484475574864379 -0.032483380926053247 0 0.028027316917692339 -0.049743329529634818 0 -0.0021873730807788899 -0.037746531438250158 0 0.015484475574864379 -0.032483380926053247 0 0.0096261950961308729 -0.048971849511602349 0 -0.001067026699009976 -0.024777566455706231 0 -0.0021873730807788899 -0.037746531438250158 0 0.015484475574864379 -0.032483380926053247 0 -0.0075949161188251886 -0.053305872426103879 0 0.0096261950961308729 -0.048971849511602349 0 0.0052429822065970201 -0.062096166714421482 0 0.0096261950961308729 -0.048971849511602349 0 0.0052429822065970201 -0.062096166714421482 0 0.01669486784944893 -0.061367044712297397 0 0.0096261950961308729 -0.048971849511602349 0 0.028027316917692339 -0.049743329529634818 0 0.01669486784944893 -0.061367044712297397 0 0.027649567207539982 -0.070531428848729483 0 0.028027316917692339 -0.049743329529634818 0 0.01669486784944893 -0.061367044712297397 0 0.040570158260520288 -0.067003278133216396 0 0.028027316917692339 -0.049743329529634818 0 0.040570158260520288 -0.067003278133216396 0 0.028027316917692339 -0.049743329529634818 0 0.042173500845029348 -0.053140046391574991 0 0.027649567207539982 -0.070531428848729483 0 0.040570158260520288 -0.067003278133216396 0 0.028027316917692339 -0.049743329529634818 0 0.040570158260520288 -0.067003278133216396 0 0.045746934978261773 -0.066630430754564915 0 0.042173500845029348 -0.053140046391574991 0 0.042173500845029348 -0.053140046391574991 0 0.056707890898913767 -0.056794884600034012 0 0.051578752876294452 -0.039898713500811332 0 0.045746934978261773 -0.066630430754564915 0 0.042173500845029348 -0.053140046391574991 0 0.056707890898913767 -0.056794884600034012 0 0.056707890898913767 -0.056794884600034012 0 0.051578752876294452 -0.039898713500811332 0 0.066793011627625049 -0.038721769849396313 0 0.051578752876294452 -0.039898713500811332 0 0.052457567283222858 -0.022626217905492411 0 0.066793011627625049 -0.038721769849396313 0 0.028027316917692339 -0.049743329529634818 0 0.042173500845029348 -0.053140046391574991 0 0.033635482309780348 -0.0303243428011758 0 0.042173500845029348 -0.053140046391574991 0 0.051578752876294452 -0.039898713500811332 0 0.033635482309780348 -0.0303243428011758 0 0.024549213383460049 -0.012437610989204489 0 0.033635482309780348 -0.0303243428011758 0 0.037442181461602872 -0.010241351966007121 0 0.033635482309780348 -0.0303243428011758 0 0.052457567283222858 -0.022626217905492411 0 0.037442181461602872 -0.010241351966007121 0 0.051578752876294452 -0.039898713500811332 0 0.033635482309780348 -0.0303243428011758 0 0.052457567283222858 -0.022626217905492411 0 0.051604736825136097 0.001642684785768136 0 0.071043291610336387 -0.019203911952345869 0 0.051604736825136097 0.001642684785768136 0 0.052457567283222858 -0.022626217905492411 0 0.071043291610336387 -0.019203911952345869 0 0.051604736825136097 0.001642684785768136 0 0.052457567283222858 -0.022626217905492411 0 0.037442181461602872 -0.010241351966007121 0 0.031706031824554559 0.0067381481283544653 0 0.051604736825136097 0.001642684785768136 0 0.037442181461602872 -0.010241351966007121 0 0.051604736825136097 0.001642684785768136 0 0.076689579952353384 0.01439185719801222 0 0.071043291610336387 -0.019203911952345869 0 0.076689579952353384 0.01439185719801222 0 0.089108002996883734 -0.0060390249898637236 0 0.071043291610336387 -0.019203911952345869 0 0.052457567283222858 -0.022626217905492411 0 0.071043291610336387 -0.019203911952345869 0 0.066793011627625049 -0.038721769849396313 0 0.071043291610336387 -0.019203911952345869 0 0.090481846395536664 -0.040050508690459861 0 0.071043291610336387 -0.019203911952345869 0 0.090128821180698981 -0.022014728701780339 0 0.090481846395536664 -0.040050508690459861 0 0.089108002996883734 -0.0060390249898637236 0 0.071043291610336387 -0.019203911952345869 0 0.090128821180698981 -0.022014728701780339 0 0.071043291610336387 -0.019203911952345869 0 0.090481846395536664 -0.040050508690459861 0 0.066793011627625049 -0.038721769849396313 0 0.090481846395536664 -0.040050508690459861 0 0.066793011627625049 -0.038721769849396313 0 0.072133647928897482 -0.05613261728966755 0 0.056707890898913767 -0.056794884600034012 0 0.066793011627625049 -0.038721769849396313 0 0.072133647928897482 -0.05613261728966755 0 0.056707890898913767 -0.056794884600034012 0 0.072133647928897482 -0.05613261728966755 0 0.062975169061221942 -0.070036102729192556 0 0.090481846395536664 -0.040050508690459861 0 0.072133647928897482 -0.05613261728966755 0 0.09076786380285734 -0.058166890314223008 0 0.090481846395536664 -0.040050508690459861 0 0.09076786380285734 -0.058166890314223008 0 0.1099204011807369 -0.060897105428573843 0 0.090481846395536664 -0.040050508690459861 0 0.1099204011807369 -0.060897105428573843 0 0.1099204011807369 -0.060897105428573843 0 0.11363391961251459 -0.036501570305816522 0 0.12597900400609541 -0.051149188021139429 0 0.1099204011807369 -0.060897105428573843 0 0.12717145368316091 -0.064297347471393096 0 0.12597900400609541 -0.051149188021139429 0 0.090128821180698981 -0.022014728701780339 0 0.090481846395536664 -0.040050508690459861 0 0.11363391961251459 -0.036501570305816522 0 0.090481846395536664 -0.040050508690459861 0 0.1099204011807369 -0.060897105428573843 0 0.11363391961251459 -0.036501570305816522 0 0.090128821180698981 -0.022014728701780339 0 0.11363391961251459 -0.036501570305816522 0 0.1078286228408124 -0.012684051989435551 0 0.11363391961251459 -0.036501570305816522 0 0.1078286228408124 -0.012684051989435551 0 0.136383496900537 -0.01517390075869793 0 0.1210613403930125 0.004795896164540109 0 0.1078286228408124 -0.012684051989435551 0 0.136383496900537 -0.01517390075869793 0 0.089108002996883734 -0.0060390249898637236 0 0.090128821180698981 -0.022014728701780339 0 0.1078286228408124 -0.012684051989435551 0 0.099849699400217512 0.0093157104962309223 0 0.089108002996883734 -0.0060390249898637236 0 0.1078286228408124 -0.012684051989435551 0 0.085901849478878078 -0.094440239860717867 0 0.091888374830530986 -0.1076255259806999 0 0.075359911509172095 -0.11021774312726861 0 0.085901849478878078 -0.094440239860717867 0 0.075359911509172095 -0.11021774312726861 0 0.073746779719034983 -0.083175180208468064 0 0.085901849478878078 -0.094440239860717867 0 0.091888374830530986 -0.1076255259806999 0 0.099848530344118294 -0.094241982705809482 0 0.091888374830530986 -0.1076255259806999 0 0.089388721415193328 -0.1222425794636796 0 0.075359911509172095 -0.11021774312726861 0 0.076307065114144146 -0.12609583883700101 0 0.089388721415193328 -0.1222425794636796 0 0.075359911509172095 -0.11021774312726861 0 0.089388721415193328 -0.1222425794636796 0 0.075359911509172095 -0.11021774312726861 0 0.076307065114144146 -0.12609583883700101 0 0.075359911509172095 -0.11021774312726861 0 0.076307065114144146 -0.12609583883700101 0 0.075359911509172095 -0.11021774312726861 0 0.067410144158619026 -0.11848755762483219 0 0.075359911509172095 -0.11021774312726861 0 0.067410144158619026 -0.11848755762483219 0 0.067510510265576473 -0.1040753480303253 0 0.075359911509172095 -0.11021774312726861 0 0.073746779719034983 -0.083175180208468064 0 0.075359911509172095 -0.11021774312726861 0 0.066381752212538031 -0.1025220870546963 0 0.073746779719034983 -0.083175180208468064 0 0.057593901052011467 -0.094989554169727514 0 0.067410144158619026 -0.11848755762483219 0 0.075359911509172095 -0.11021774312726861 0 0.066381752212538031 -0.1025220870546963 0 0.067510510265576473 -0.1040753480303253 0 0.057593901052011467 -0.094989554169727514 0 0.067410144158619026 -0.11848755762483219 0 0.066381752212538031 -0.1025220870546963 0 0.067410144158619026 -0.11848755762483219 0 0.066381752212538031 -0.1025220870546963 0 0.067510510265576473 -0.1040753480303253 0 0.066381752212538031 -0.1025220870546963 0 0.067510510265576473 -0.1040753480303253 0 0.075359911509172095 -0.11021774312726861 0 0.066381752212538031 -0.1025220870546963 0 0.066381752212538031 -0.1025220870546963 0 0.063949784695998824 -0.087560903807497592 0 0.073746779719034983 -0.083175180208468064 0 0.063949784695998824 -0.087560903807497592 0 0.062557607249074276 -0.080283121230027982 0 0.073746779719034983 -0.083175180208468064 0 0.072133647928897482 -0.05613261728966755 0 0.073746779719034983 -0.083175180208468064 0 0.072133647928897482 -0.05613261728966755 0 0.073746779719034983 -0.083175180208468064 0 0.062975169061221942 -0.070036102729192556 0 0.062557607249074276 -0.080283121230027982 0 0.073746779719034983 -0.083175180208468064 0 0.062975169061221942 -0.070036102729192556 0 0.072133647928897482 -0.05613261728966755 0 0.09076786380285734 -0.058166890314223008 0 0.091755608630821162 -0.075830827563568473 0 0.072133647928897482 -0.05613261728966755 0 0.073746779719034983 -0.083175180208468064 0 0.091755608630821162 -0.075830827563568473 0 0.085901849478878078 -0.094440239860717867 0 0.091755608630821162 -0.075830827563568473 0 0.099848530344118294 -0.094241982705809482 0 0.085901849478878078 -0.094440239860717867 0 0.073746779719034983 -0.083175180208468064 0 0.091755608630821162 -0.075830827563568473 0 0.091755608630821162 -0.075830827563568473 0 0.1127493833670922 -0.082214400409092475 0 0.099848530344118294 -0.094241982705809482 0 0.1099204011807369 -0.060897105428573843 0 0.091755608630821162 -0.075830827563568473 0 0.1127493833670922 -0.082214400409092475 0 0.09076786380285734 -0.058166890314223008 0 0.1099204011807369 -0.060897105428573843 0 0.091755608630821162 -0.075830827563568473 0 0.1099204011807369 -0.060897105428573843 0 0.1293589559659388 -0.081743702166686416 0 0.1099204011807369 -0.060897105428573843 0 0.1293589559659388 -0.081743702166686416 0 0.12717145368316091 -0.064297347471393096 0 0.1099204011807369 -0.060897105428573843 0 0.1127493833670922 -0.082214400409092475 0 0.1293589559659388 -0.081743702166686416 0 0.1127493833670922 -0.082214400409092475 0 0.12743102020405439 -0.085144550996646029 0 0.1293589559659388 -0.081743702166686416 0 0.1127493833670922 -0.082214400409092475 0 0.11763726482362941 -0.095420964841097994 0 0.099848530344118294 -0.094241982705809482 0 0.1127493833670922 -0.082214400409092475 0 0.11763726482362941 -0.095420964841097994 0 0.12743102020405439 -0.085144550996646029 0 0.11763726482362941 -0.095420964841097994 0 0.1063657308996184 -0.10517811692871561 0 0.1214366175252002 -0.1134196144857848 0 0.11763726482362941 -0.095420964841097994 0 0.1063657308996184 -0.10517811692871561 0 0.099848530344118294 -0.094241982705809482 0 0.091888374830530986 -0.1076255259806999 0 0.1063657308996184 -0.10517811692871561 0 0.099848530344118294 -0.094241982705809482 0 0.1034175313212149 -0.13426741580009019 0 0.089388721415193328 -0.1222425794636796 0 0.1018814036704942 -0.11676863847534889 0 0.1034175313212149 -0.13426741580009019 0 0.1018814036704942 -0.11676863847534889 0 0.1214366175252002 -0.1134196144857848 0 0.091888374830530986 -0.1076255259806999 0 0.1063657308996184 -0.10517811692871561 0 0.1018814036704942 -0.11676863847534889 0 0.091888374830530986 -0.1076255259806999 0 0.089388721415193328 -0.1222425794636796 0 0.1018814036704942 -0.11676863847534889 0 0.1034175313212149 -0.13426741580009019 0 0.1214366175252002 -0.1134196144857848 0 0.1063657308996184 -0.10517811692871561 0 0.1018814036704942 -0.11676863847534889 0 0.1214366175252002 -0.1134196144857848 0 0.1214366175252002 -0.1134196144857848 0 0.1370648372613171 -0.10986626940643759 0 0.13471474342105291 -0.12852203960607009 0 0.15297517683700201 -0.107070576433705 0 0.15865902861099809 -0.1131661410042681 0 0.14994117782762759 -0.12677763074074849 0 0.15297517683700201 -0.107070576433705 0 0.13471474342105291 -0.12852203960607009 0 0.15297517683700201 -0.107070576433705 0 0.13471474342105291 -0.12852203960607009 0 0.14994117782762759 -0.12677763074074849 0 0.1370648372613171 -0.10986626940643759 0 0.15297517683700201 -0.107070576433705 0 0.13471474342105291 -0.12852203960607009 0 0.15297517683700201 -0.107070576433705 0 0.15865902861099809 -0.1131661410042681 0 0.1370648372613171 -0.10986626940643759 0 0.15297517683700201 -0.107070576433705 0 0.13945570372918339 -0.092571813171477835 0 0.15297517683700201 -0.107070576433705 0 0.13945570372918339 -0.092571813171477835 0 0.15810664175896841 -0.1010423826725806 0 0.15297517683700201 -0.107070576433705 0 0.15810664175896841 -0.1010423826725806 0 0.15297517683700201 -0.107070576433705 0 0.13945570372918339 -0.092571813171477835 0 0.1214366175252002 -0.1134196144857848 0 0.13945570372918339 -0.092571813171477835 0 0.11763726482362941 -0.095420964841097994 0 0.1214366175252002 -0.1134196144857848 0 0.13945570372918339 -0.092571813171477835 0 0.1214366175252002 -0.1134196144857848 0 0.1370648372613171 -0.10986626940643759 0 0.13945570372918339 -0.092571813171477835 0 0.12743102020405439 -0.085144550996646029 0 0.1293589559659388 -0.081743702166686416 0 0.13945570372918339 -0.092571813171477835 0 0.11763726482362941 -0.095420964841097994 0 0.12743102020405439 -0.085144550996646029 0 0.13945570372918339 -0.092571813171477835 0 0.12743102020405439 -0.085144550996646029 0 0.1293589559659388 -0.081743702166686416 0 0.1293589559659388 -0.081743702166686416 0 0.13945570372918339 -0.092571813171477835 0 0.14231164457308881 -0.079676341641867543 0 0.1293589559659388 -0.081743702166686416 0 0.13945570372918339 -0.092571813171477835 0 0.1293589559659388 -0.081743702166686416 0 0.14362583950628671 -0.071892151371660939 0 0.1432646421267274 -0.057214287108033127 0 0.1293589559659388 -0.081743702166686416 0 0.1432646421267274 -0.057214287108033127 0 0.1293589559659388 -0.081743702166686416 0 0.12717145368316091 -0.064297347471393096 0 0.1432646421267274 -0.057214287108033127 0 0.1293589559659388 -0.081743702166686416 0 0.14362583950628671 -0.071892151371660939 0 0.14231164457308881 -0.079676341641867543 0 0.14992468574570431 -0.064114487926264854 0 0.15680607909094299 -0.07249769985764204 0 0.1560021822588584 -0.054853813367721993 0 0.14362583950628671 -0.071892151371660939 0 0.14992468574570431 -0.064114487926264854 0 0.1432646421267274 -0.057214287108033127 0 0.14362583950628671 -0.071892151371660939 0 0.14231164457308881 -0.079676341641867543 0 0.15680607909094299 -0.07249769985764204 0 0.14362583950628671 -0.071892151371660939 0 0.14992468574570431 -0.064114487926264854 0 0.15680607909094299 -0.07249769985764204 0 0.13945570372918339 -0.092571813171477835 0 0.15680607909094299 -0.07249769985764204 0 0.15810664175896841 -0.1010423826725806 0 0.13945570372918339 -0.092571813171477835 0 0.15680607909094299 -0.07249769985764204 0 0.13945570372918339 -0.092571813171477835 0 0.14231164457308881 -0.079676341641867543 0 0.15680607909094299 -0.07249769985764204 0 0.15680607909094299 -0.07249769985764204 0 0.1722577388411817 -0.084418366637864617 0 0.15810664175896841 -0.1010423826725806 0 0.15680607909094299 -0.07249769985764204 0 0.15810664175896841 -0.1010423826725806 0 0.1722577388411817 -0.084418366637864617 0 0.15810664175896841 -0.1010423826725806 0 0.15680607909094299 -0.07249769985764204 0 0.1560021822588584 -0.054853813367721993 0 0.15680607909094299 -0.07249769985764204 0 0.16426229383160859 -0.063870975854525947 0 0.1560021822588584 -0.054853813367721993 0 0.15680607909094299 -0.07249769985764204 0 0.16426229383160859 -0.063870975854525947 0 0.15680607909094299 -0.07249769985764204 0 0.17218436661942879 -0.070266831267951455 0 0.1722577388411817 -0.084418366637864617 0 0.16426229383160859 -0.063870975854525947 0 0.17218436661942879 -0.070266831267951455 0 0.17699983493345081 -0.059680460829431591 0 0.15680607909094299 -0.07249769985764204 0 0.16426229383160859 -0.063870975854525947 0 0.17218436661942879 -0.070266831267951455 0 0.17218436661942879 -0.070266831267951455 0 0.18640883592339799 -0.067794350603151254 0 0.1722577388411817 -0.084418366637864617 0 0.18640883592339799 -0.067794350603151254 0 0.1722577388411817 -0.084418366637864617 0 0.17218436661942879 -0.070266831267951455 0 0.18640883592339799 -0.067794350603151254 0 0.17699983493345081 -0.059680460829431591 0 0.18640883592339799 -0.067794350603151254 0 0.17699983493345081 -0.059680460829431591 0 0.19226624123808489 -0.062249913139898798 0 0.1722577388411817 -0.084418366637864617 0 0.18209392792016041 -0.1052539527762323 0 0.1922979612778537 -0.087142461963544776 0 0.18640883592339799 -0.067794350603151254 0 0.1722577388411817 -0.084418366637864617 0 0.1922979612778537 -0.087142461963544776 0 0.1722577388411817 -0.084418366637864617 0 0.18209392792016041 -0.1052539527762323 0 0.1688064721089817 -0.10662933650343 0 0.18209392792016041 -0.1052539527762323 0 0.19191932532444059 -0.12253471361345949 0 0.17241280853123089 -0.12791618321626841 0 0.18209392792016041 -0.1052539527762323 0 0.1688064721089817 -0.10662933650343 0 0.17241280853123089 -0.12791618321626841 0 0.15865902861099809 -0.1131661410042681 0 0.1688064721089817 -0.10662933650343 0 0.17241280853123089 -0.12791618321626841 0 0.15865902861099809 -0.1131661410042681 0 0.17241280853123089 -0.12791618321626841 0 0.15297517683700201 -0.107070576433705 0 0.15865902861099809 -0.1131661410042681 0 0.15810664175896841 -0.1010423826725806 0 0.15865902861099809 -0.1131661410042681 0 0.15810664175896841 -0.1010423826725806 0 0.1688064721089817 -0.10662933650343 0 0.15865902861099809 -0.1131661410042681 0 0.15810664175896841 -0.1010423826725806 0 0.1722577388411817 -0.084418366637864617 0 0.15810664175896841 -0.1010423826725806 0 0.1688064721089817 -0.10662933650343 0 0.14395150954340419 0.0067659553444673164 0 0.1531506710964522 -0.0109744290099601 0 0.136383496900537 -0.01517390075869793 0 0.16042986223991529 0.00012293683036693629 0 0.14395150954340419 0.0067659553444673164 0 0.1531506710964522 -0.0109744290099601 0 0.1210613403930125 0.004795896164540109 0 0.14395150954340419 0.0067659553444673164 0 0.136383496900537 -0.01517390075869793 0 0.11363391961251459 -0.036501570305816522 0 0.136383496900537 -0.01517390075869793 0 0.13590460342733701 -0.036835629791880563 0 0.136383496900537 -0.01517390075869793 0 0.15717032828751429 -0.032684872049378838 0 0.1531506710964522 -0.0109744290099601 0 0.136383496900537 -0.01517390075869793 0 0.15717032828751429 -0.032684872049378838 0 0.136383496900537 -0.01517390075869793 0 0.13590460342733701 -0.036835629791880563 0 0.15717032828751429 -0.032684872049378838 0 0.15474935607381399 -0.036955429545691837 0 0.13590460342733701 -0.036835629791880563 0 0.1432646421267274 -0.057214287108033127 0 0.15474935607381399 -0.036955429545691837 0 0.13590460342733701 -0.036835629791880563 0 0.15717032828751429 -0.032684872049378838 0 0.15474935607381399 -0.036955429545691837 0 0.1560021822588584 -0.054853813367721993 0 0.15474935607381399 -0.036955429545691837 0 0.15717032828751429 -0.032684872049378838 0 0.11363391961251459 -0.036501570305816522 0 0.13590460342733701 -0.036835629791880563 0 0.12597900400609541 -0.051149188021139429 0 0.12717145368316091 -0.064297347471393096 0 0.12597900400609541 -0.051149188021139429 0 0.1432646421267274 -0.057214287108033127 0 0.13590460342733701 -0.036835629791880563 0 0.12597900400609541 -0.051149188021139429 0 0.1432646421267274 -0.057214287108033127 0 0.15474935607381399 -0.036955429545691837 0 0.1432646421267274 -0.057214287108033127 0 0.15474935607381399 -0.036955429545691837 0 0.1432646421267274 -0.057214287108033127 0 0.1560021822588584 -0.054853813367721993 0 0.14992468574570431 -0.064114487926264854 0 0.1432646421267274 -0.057214287108033127 0 0.1560021822588584 -0.054853813367721993 0 0.16426229383160859 -0.063870975854525947 0 0.1560021822588584 -0.054853813367721993 0 0.16672937248817299 -0.054250791138568448 0 0.1560021822588584 -0.054853813367721993 0 0.16672937248817299 -0.054250791138568448 0 0.16166426665414779 -0.045381313046523902 0 0.16672937248817299 -0.054250791138568448 0 0.17471828476279941 -0.047467392594638877 0 0.16166426665414779 -0.045381313046523902 0 0.16426229383160859 -0.063870975854525947 0 0.16672937248817299 -0.054250791138568448 0 0.17699983493345081 -0.059680460829431591 0 0.17471828476279941 -0.047467392594638877 0 0.19226624123808489 -0.062249913139898798 0 0.17471828476279941 -0.047467392594638877 0 0.18928063772917661 -0.050826301189529043 0 0.19226624123808489 -0.062249913139898798 0 0.17699983493345081 -0.059680460829431591 0 0.17471828476279941 -0.047467392594638877 0 0.19226624123808489 -0.062249913139898798 0 0.16672937248817299 -0.054250791138568448 0 0.17699983493345081 -0.059680460829431591 0 0.17471828476279941 -0.047467392594638877 0 0.17471828476279941 -0.047467392594638877 0 0.1743975311651374 -0.0300415230276047 0 0.18781404994540141 -0.029651876862383689 0 0.17471828476279941 -0.047467392594638877 0 0.18781404994540141 -0.029651876862383689 0 0.19539710341114239 -0.040726717739387609 0 0.17471828476279941 -0.047467392594638877 0 0.19539710341114239 -0.040726717739387609 0 0.18928063772917661 -0.050826301189529043 0 0.17471828476279941 -0.047467392594638877 0 0.15717032828751429 -0.032684872049378838 0 0.17471828476279941 -0.047467392594638877 0 0.15717032828751429 -0.032684872049378838 0 0.1743975311651374 -0.0300415230276047 0 0.17471828476279941 -0.047467392594638877 0 0.16166426665414779 -0.045381313046523902 0 0.15717032828751429 -0.032684872049378838 0 0.15474935607381399 -0.036955429545691837 0 0.1560021822588584 -0.054853813367721993 0 0.16166426665414779 -0.045381313046523902 0 0.15474935607381399 -0.036955429545691837 0 0.16166426665414779 -0.045381313046523902 0 0.15717032828751429 -0.032684872049378838 0 0.15717032828751429 -0.032684872049378838 0 0.1743975311651374 -0.0300415230276047 0 0.1678181585108903 -0.01390226441655801 0 0.1531506710964522 -0.0109744290099601 0 0.15717032828751429 -0.032684872049378838 0 0.1678181585108903 -0.01390226441655801 0 0.15717032828751429 -0.032684872049378838 0 0.1678181585108903 -0.01390226441655801 0 0.1743975311651374 -0.0300415230276047 0 0.18541943717872511 -0.01410509860334425 0 0.1678181585108903 -0.01390226441655801 0 0.1743975311651374 -0.0300415230276047 0 0.18541943717872511 -0.01410509860334425 0 0.18781404994540141 -0.029651876862383689 0 0.1752759979132742 0.0012444613690271869 0 0.18541943717872511 -0.01410509860334425 0 0.1678181585108903 -0.01390226441655801 0 0.192964588185913 0.001322683898913823 0 0.1752759979132742 0.0012444613690271869 0 0.18541943717872511 -0.01410509860334425 0 0.1752759979132742 0.0012444613690271869 0 0.16042986223991529 0.00012293683036693629 0 0.1678181585108903 -0.01390226441655801 0 0.16042986223991529 0.00012293683036693629 0 0.1531506710964522 -0.0109744290099601 0 0.1678181585108903 -0.01390226441655801 0 0.21623936074239711 -0.007813001722562548 0 0.20901358556395069 -0.019947829518333501 0 0.22136261380699759 -0.019075659472615851 0 0.21623936074239711 -0.007813001722562548 0 0.20184946900942399 -0.0084713435655084986 0 0.20901358556395069 -0.019947829518333501 0 0.20771419223716811 0.0058451178476065114 0 0.21623936074239711 -0.007813001722562548 0 0.20184946900942399 -0.0084713435655084986 0 0.18541943717872511 -0.01410509860334425 0 0.20184946900942399 -0.0084713435655084986 0 0.19736781159037489 -0.019914439973990939 0 0.192964588185913 0.001322683898913823 0 0.18541943717872511 -0.01410509860334425 0 0.20184946900942399 -0.0084713435655084986 0 0.20771419223716811 0.0058451178476065114 0 0.192964588185913 0.001322683898913823 0 0.20184946900942399 -0.0084713435655084986 0 0.20184946900942399 -0.0084713435655084986 0 0.19736781159037489 -0.019914439973990939 0 0.20901358556395069 -0.019947829518333501 0 0.18541943717872511 -0.01410509860334425 0 0.19736781159037489 -0.019914439973990939 0 0.18781404994540141 -0.029651876862383689 0 0.19736781159037489 -0.019914439973990939 0 0.18781404994540141 -0.029651876862383689 0 0.2026665328052297 -0.03093314914352022 0 0.19736781159037489 -0.019914439973990939 0 0.2026665328052297 -0.03093314914352022 0 0.20901358556395069 -0.019947829518333501 0 0.2026665328052297 -0.03093314914352022 0 0.20901358556395069 -0.019947829518333501 0 0.21727186113597469 -0.030896463332464229 0 0.20901358556395069 -0.019947829518333501 0 0.21727186113597469 -0.030896463332464229 0 0.22136261380699759 -0.019075659472615851 0 0.21727186113597469 -0.030896463332464229 0 0.20901662021202561 -0.042599354647258128 0 0.22477629037909469 -0.044244223095008688 0 0.2026665328052297 -0.03093314914352022 0 0.21727186113597469 -0.030896463332464229 0 0.20901662021202561 -0.042599354647258128 0 0.2026665328052297 -0.03093314914352022 0 0.20901662021202561 -0.042599354647258128 0 0.19539710341114239 -0.040726717739387609 0 0.18781404994540141 -0.029651876862383689 0 0.2026665328052297 -0.03093314914352022 0 0.19539710341114239 -0.040726717739387609 0 0.20901662021202561 -0.042599354647258128 0 0.19539710341114239 -0.040726717739387609 0 0.2019102152559257 -0.055052751456291779 0 0.19539710341114239 -0.040726717739387609 0 0.18928063772917661 -0.050826301189529043 0 0.2019102152559257 -0.055052751456291779 0 0.18928063772917661 -0.050826301189529043 0 0.19226624123808489 -0.062249913139898798 0 0.2019102152559257 -0.055052751456291779 0 0.20901662021202561 -0.042599354647258128 0 0.21645643291992689 -0.057604621551973323 0 0.22477629037909469 -0.044244223095008688 0 0.20901662021202561 -0.042599354647258128 0 0.2019102152559257 -0.055052751456291779 0 0.21645643291992689 -0.057604621551973323 0 0.22929081900993881 -0.058797077822034922 0 0.24363606603041749 -0.048629932833656617 0 0.22477629037909469 -0.044244223095008688 0 0.21645643291992689 -0.057604621551973323 0 0.22929081900993881 -0.058797077822034922 0 0.22477629037909469 -0.044244223095008688 0 0.25221133895635578 -0.067258602420323332 0 0.24363606603041749 -0.048629932833656617 0 0.23805737528996651 -0.071510891805241367 0 0.22929081900993881 -0.058797077822034922 0 0.24363606603041749 -0.048629932833656617 0 0.23805737528996651 -0.071510891805241367 0 0.24363606603041749 -0.048629932833656617 0 0.23375588465445729 -0.027660721598119959 0 0.24906327622952931 -0.02860119719721484 0 0.21727186113597469 -0.030896463332464229 0 0.22477629037909469 -0.044244223095008688 0 0.23375588465445729 -0.027660721598119959 0 0.24363606603041749 -0.048629932833656617 0 0.22477629037909469 -0.044244223095008688 0 0.23375588465445729 -0.027660721598119959 0 0.21727186113597469 -0.030896463332464229 0 0.23375588465445729 -0.027660721598119959 0 0.22136261380699759 -0.019075659472615851 0 0.23375588465445729 -0.027660721598119959 0 0.22136261380699759 -0.019075659472615851 0 0.23053237693820861 -0.0090602811915990143 0 0.23375588465445729 -0.027660721598119959 0 0.24753703956254999 -0.01020949756924389 0 0.23053237693820861 -0.0090602811915990143 0 0.23375588465445729 -0.027660721598119959 0 0.24906327622952931 -0.02860119719721484 0 0.24753703956254999 -0.01020949756924389 0 0.2395762574609204 0.002991689319715289 0 0.24753703956254999 -0.01020949756924389 0 0.23053237693820861 -0.0090602811915990143 0 0.22525144146039569 0.0086877435239835279 0 0.21623936074239711 -0.007813001722562548 0 0.23053237693820861 -0.0090602811915990143 0 0.21623936074239711 -0.007813001722562548 0 0.22136261380699759 -0.019075659472615851 0 0.23053237693820861 -0.0090602811915990143 0 0.20806006220728709 -0.094222272158152404 0 0.2065514084936784 -0.112112625778723 0 0.2232847401693665 -0.1128993882692975 0 0.20806006220728709 -0.094222272158152404 0 0.2065514084936784 -0.112112625778723 0 0.19602163138682691 -0.1038360849446104 0 0.2065514084936784 -0.112112625778723 0 0.21078985497757369 -0.1238227938050239 0 0.2232847401693665 -0.1128993882692975 0 0.18209392792016041 -0.1052539527762323 0 0.19191932532444059 -0.12253471361345949 0 0.19602163138682691 -0.1038360849446104 0 0.2065514084936784 -0.112112625778723 0 0.19191932532444059 -0.12253471361345949 0 0.19602163138682691 -0.1038360849446104 0 0.2065514084936784 -0.112112625778723 0 0.21078985497757369 -0.1238227938050239 0 0.19191932532444059 -0.12253471361345949 0 0.20806006220728709 -0.094222272158152404 0 0.19602163138682691 -0.1038360849446104 0 0.1922979612778537 -0.087142461963544776 0 0.18209392792016041 -0.1052539527762323 0 0.19602163138682691 -0.1038360849446104 0 0.1922979612778537 -0.087142461963544776 0 0.1922979612778537 -0.087142461963544776 0 0.19655999626255699 -0.074719119796506916 0 0.20981419771337029 -0.077032433685158788 0 0.19226624123808489 -0.062249913139898798 0 0.2019102152559257 -0.055052751456291779 0 0.20981419771337029 -0.077032433685158788 0 0.18640883592339799 -0.067794350603151254 0 0.1922979612778537 -0.087142461963544776 0 0.19655999626255699 -0.074719119796506916 0 0.19226624123808489 -0.062249913139898798 0 0.20981419771337029 -0.077032433685158788 0 0.19226624123808489 -0.062249913139898798 0 0.19655999626255699 -0.074719119796506916 0 0.20981419771337029 -0.077032433685158788 0 0.18640883592339799 -0.067794350603151254 0 0.19226624123808489 -0.062249913139898798 0 0.19655999626255699 -0.074719119796506916 0 0.21645643291992689 -0.057604621551973323 0 0.20981419771337029 -0.077032433685158788 0 0.2237611869808854 -0.072409915609044986 0 0.2019102152559257 -0.055052751456291779 0 0.21645643291992689 -0.057604621551973323 0 0.20981419771337029 -0.077032433685158788 0 0.20806006220728709 -0.094222272158152404 0 0.20981419771337029 -0.077032433685158788 0 0.2273621541886558 -0.091814954230418772 0 0.20806006220728709 -0.094222272158152404 0 0.1922979612778537 -0.087142461963544776 0 0.20981419771337029 -0.077032433685158788 0 0.20981419771337029 -0.077032433685158788 0 0.2273621541886558 -0.091814954230418772 0 0.2273621541886558 -0.091814954230418772 0 0.2237611869808854 -0.072409915609044986 0 0.23805737528996651 -0.071510891805241367 0 0.20981419771337029 -0.077032433685158788 0 0.2273621541886558 -0.091814954230418772 0 0.2237611869808854 -0.072409915609044986 0 0.21645643291992689 -0.057604621551973323 0 0.22929081900993881 -0.058797077822034922 0 0.2237611869808854 -0.072409915609044986 0 0.22929081900993881 -0.058797077822034922 0 0.2237611869808854 -0.072409915609044986 0 0.23805737528996651 -0.071510891805241367 0 0.25208268657354588 -0.090154867915969661 0 0.25221133895635578 -0.067258602420323332 0 0.23805737528996651 -0.071510891805241367 0 0.25208268657354588 -0.090154867915969661 0 0.2273621541886558 -0.091814954230418772 0 0.23805737528996651 -0.071510891805241367 0 0.25208268657354588 -0.090154867915969661 0 0.2273621541886558 -0.091814954230418772 0 0.24205332124073201 -0.109454436840509 0 0.2273621541886558 -0.091814954230418772 0 0.2232847401693665 -0.1128993882692975 0 0.24205332124073201 -0.109454436840509 0 0.20806006220728709 -0.094222272158152404 0 0.2273621541886558 -0.091814954230418772 0 0.2232847401693665 -0.1128993882692975 0 0.2232847401693665 -0.1128993882692975 0 0.24205332124073201 -0.109454436840509 0 0.2282122774762389 -0.13162706200610011 0 0.21078985497757369 -0.1238227938050239 0 0.2232847401693665 -0.1128993882692975 0 0.2282122774762389 -0.13162706200610011 0 0.25403700729592121 -0.1246845662904464 0 0.24205332124073201 -0.109454436840509 0 0.2282122774762389 -0.13162706200610011 0 0.25403700729592121 -0.1246845662904464 0 0.24085401083076899 -0.14725923797183901 0 0.2282122774762389 -0.13162706200610011 0 0.25403700729592121 -0.1246845662904464 0 0.2282122774762389 -0.13162706200610011 0 0.26006545064579711 -0.14768455072516859 0 0.24085401083076899 -0.14725923797183901 0 0.24462922542526189 -0.1680610887697877 0 0.24085401083076899 -0.14725923797183901 0 0.2282122774762389 -0.13162706200610011 0 0.22431022189382441 -0.15959928488962619 0 0.2282122774762389 -0.13162706200610011 0 0.2080662100371562 -0.15178338098423991 0 0.22431022189382441 -0.15959928488962619 0 0.2282122774762389 -0.13162706200610011 0 0.20238754765655659 -0.13856955772175381 0 0.21078985497757369 -0.1238227938050239 0 0.2282122774762389 -0.13162706200610011 0 0.20238754765655659 -0.13856955772175381 0 0.2282122774762389 -0.13162706200610011 0 0.2080662100371562 -0.15178338098423991 0 0.20238754765655659 -0.13856955772175381 0 0.2080662100371562 -0.15178338098423991 0 0.20238754765655659 -0.13856955772175381 0 0.1861665884514668 -0.14266622542826571 0 0.2080662100371562 -0.15178338098423991 0 0.19467834220944649 -0.16008125218302691 0 0.1861665884514668 -0.14266622542826571 0 0.21078985497757369 -0.1238227938050239 0 0.19191932532444059 -0.12253471361345949 0 0.20238754765655659 -0.13856955772175381 0 0.19191932532444059 -0.12253471361345949 0 0.20238754765655659 -0.13856955772175381 0 0.1861665884514668 -0.14266622542826571 0 0.19352675219531359 -0.17544680846434851 0 0.19468780326090079 -0.19100124378681571 0 0.17881071147652719 -0.18356144371117661 0 0.19352675219531359 -0.17544680846434851 0 0.2070712165785088 -0.18395408664277649 0 0.19468780326090079 -0.19100124378681571 0 0.19352675219531359 -0.17544680846434851 0 0.19467834220944649 -0.16008125218302691 0 0.18093515735675539 -0.16353845397810921 0 0.19352675219531359 -0.17544680846434851 0 0.19467834220944649 -0.16008125218302691 0 0.20964773610857881 -0.1695320452239007 0 0.2080662100371562 -0.15178338098423991 0 0.19467834220944649 -0.16008125218302691 0 0.20964773610857881 -0.1695320452239007 0 0.2080662100371562 -0.15178338098423991 0 0.20964773610857881 -0.1695320452239007 0 0.22431022189382441 -0.15959928488962619 0 0.20964773610857881 -0.1695320452239007 0 0.2070712165785088 -0.18395408664277649 0 0.22684638382860181 -0.18583184885967199 0 0.19352675219531359 -0.17544680846434851 0 0.20964773610857881 -0.1695320452239007 0 0.2070712165785088 -0.18395408664277649 0 0.20964773610857881 -0.1695320452239007 0 0.22684638382860181 -0.18583184885967199 0 0.22431022189382441 -0.15959928488962619 0 0.22684638382860181 -0.18583184885967199 0 0.22431022189382441 -0.15959928488962619 0 0.24462922542526189 -0.1680610887697877 0 0.24085401083076899 -0.14725923797183901 0 0.22431022189382441 -0.15959928488962619 0 0.24462922542526189 -0.1680610887697877 0 0.25112293762544419 -0.19362497304091861 0 0.22684638382860181 -0.18583184885967199 0 0.24462922542526189 -0.1680610887697877 0 0.25112293762544419 -0.19362497304091861 0 0.22684638382860181 -0.18583184885967199 0 0.2355677151233109 -0.2036246642743483 0 0.2355677151233109 -0.2036246642743483 0 0.2285797671569208 -0.2185797940281187 0 0.24938548672807259 -0.22020432604376991 0 0.25112293762544419 -0.19362497304091861 0 0.2355677151233109 -0.2036246642743483 0 0.24938548672807259 -0.22020432604376991 0 0.21974766438036489 -0.20812575328763039 0 0.2285797671569208 -0.2185797940281187 0 0.2123831119193276 -0.22457899369134071 0 0.2355677151233109 -0.2036246642743483 0 0.21974766438036489 -0.20812575328763039 0 0.2285797671569208 -0.2185797940281187 0 0.22684638382860181 -0.18583184885967199 0 0.2355677151233109 -0.2036246642743483 0 0.21974766438036489 -0.20812575328763039 0 0.2489702938113785 -0.2367608979880374 0 0.2374339592455737 -0.24533548467781441 0 0.2253656209882883 -0.23808260240358131 0 0.2472694597858873 -0.25498884440800829 0 0.2489702938113785 -0.2367608979880374 0 0.2374339592455737 -0.24533548467781441 0 0.2285797671569208 -0.2185797940281187 0 0.24938548672807259 -0.22020432604376991 0 0.2253656209882883 -0.23808260240358131 0 0.24938548672807259 -0.22020432604376991 0 0.2253656209882883 -0.23808260240358131 0 0.2489702938113785 -0.2367608979880374 0 0.24938548672807259 -0.22020432604376991 0 0.2253656209882883 -0.23808260240358131 0 0.2285797671569208 -0.2185797940281187 0 0.2253656209882883 -0.23808260240358131 0 0.2123831119193276 -0.22457899369134071 0 0.2374339592455737 -0.24533548467781441 0 0.2253656209882883 -0.23808260240358131 0 0.22862941630130479 -0.24276629359128871 0 0.2253656209882883 -0.23808260240358131 0 0.21284876794655119 -0.2473990473937247 0 0.2253656209882883 -0.23808260240358131 0 0.22591209503696619 -0.24952933066920069 0 0.21284876794655119 -0.2473990473937247 0 0.2374339592455737 -0.24533548467781441 0 0.22591209503696619 -0.24952933066920069 0 0.22862941630130479 -0.24276629359128871 0 0.2253656209882883 -0.23808260240358131 0 0.22591209503696619 -0.24952933066920069 0 0.22862941630130479 -0.24276629359128871 0 0.2253656209882883 -0.23808260240358131 0 0.21284876794655119 -0.2473990473937247 0 0.20407378879433841 -0.23638289680976951 0 0.2253656209882883 -0.23808260240358131 0 0.20407378879433841 -0.23638289680976951 0 0.21284876794655119 -0.2473990473937247 0 0.20407378879433841 -0.23638289680976951 0 0.19326859375481301 -0.24659169521124169 0 0.21284876794655119 -0.2473990473937247 0 0.20407378879433841 -0.23638289680976951 0 0.2253656209882883 -0.23808260240358131 0 0.20407378879433841 -0.23638289680976951 0 0.2123831119193276 -0.22457899369134071 0 0.20407378879433841 -0.23638289680976951 0 0.2123831119193276 -0.22457899369134071 0 0.19621967060281181 -0.22652279945783679 0 0.2123831119193276 -0.22457899369134071 0 0.19621967060281181 -0.22652279945783679 0 0.20379485862077029 -0.2127346912622198 0 0.20407378879433841 -0.23638289680976951 0 0.19621967060281181 -0.22652279945783679 0 0.18286877228518539 -0.23469012162493899 0 0.19621967060281181 -0.22652279945783679 0 0.18902706859949631 -0.2159015357643706 0 0.18286877228518539 -0.23469012162493899 0 0.20407378879433841 -0.23638289680976951 0 0.19621967060281181 -0.22652279945783679 0 0.20407378879433841 -0.23638289680976951 0 0.19326859375481301 -0.24659169521124169 0 0.18286877228518539 -0.23469012162493899 0 0.20407378879433841 -0.23638289680976951 0 0.18286877228518539 -0.23469012162493899 0 0.2070712165785088 -0.18395408664277649 0 0.22684638382860181 -0.18583184885967199 0 0.20938172667826629 -0.1974068792517204 0 0.22684638382860181 -0.18583184885967199 0 0.21974766438036489 -0.20812575328763039 0 0.20938172667826629 -0.1974068792517204 0 0.2070712165785088 -0.18395408664277649 0 0.20938172667826629 -0.1974068792517204 0 0.19468780326090079 -0.19100124378681571 0 0.21974766438036489 -0.20812575328763039 0 0.2123831119193276 -0.22457899369134071 0 0.20379485862077029 -0.2127346912622198 0 0.21974766438036489 -0.20812575328763039 0 0.20938172667826629 -0.1974068792517204 0 0.20379485862077029 -0.2127346912622198 0 0.20379485862077029 -0.2127346912622198 0 0.19600990954435499 -0.20387218612042021 0 0.18902706859949631 -0.2159015357643706 0 0.20938172667826629 -0.1974068792517204 0 0.20379485862077029 -0.2127346912622198 0 0.19600990954435499 -0.20387218612042021 0 0.19621967060281181 -0.22652279945783679 0 0.20379485862077029 -0.2127346912622198 0 0.18902706859949631 -0.2159015357643706 0 0.19600990954435499 -0.20387218612042021 0 0.18902706859949631 -0.2159015357643706 0 0.1833265030924342 -0.20176605853045229 0 0.19600990954435499 -0.20387218612042021 0 0.19468780326090079 -0.19100124378681571 0 0.1833265030924342 -0.20176605853045229 0 0.20938172667826629 -0.1974068792517204 0 0.19600990954435499 -0.20387218612042021 0 0.19468780326090079 -0.19100124378681571 0 0.1833265030924342 -0.20176605853045229 0 0.16265576546777041 -0.20088631679864949 0 0.17881071147652719 -0.18356144371117661 0 0.19468780326090079 -0.19100124378681571 0 0.1833265030924342 -0.20176605853045229 0 0.17881071147652719 -0.18356144371117661 0 0.1833265030924342 -0.20176605853045229 0 0.1754304098077433 -0.21679591980114701 0 0.16265576546777041 -0.20088631679864949 0 0.18902706859949631 -0.2159015357643706 0 0.1833265030924342 -0.20176605853045229 0 0.1754304098077433 -0.21679591980114701 0 0.1754304098077433 -0.21679591980114701 0 0.16265576546777041 -0.20088631679864949 0 0.1627832213582735 -0.2200990519864775 0 0.16265576546777041 -0.20088631679864949 0 0.1627832213582735 -0.2200990519864775 0 0.15119601446799361 -0.2153052212560283 0 0.17601056253990499 -0.25048347902003998 0 0.18286877228518539 -0.23469012162493899 0 0.17056381318741071 -0.24052683487915191 0 0.17601056253990499 -0.25048347902003998 0 0.19326859375481301 -0.24659169521124169 0 0.18286877228518539 -0.23469012162493899 0 0.1754304098077433 -0.21679591980114701 0 0.18286877228518539 -0.23469012162493899 0 0.1706865398068087 -0.2261456099631681 0 0.18902706859949631 -0.2159015357643706 0 0.1754304098077433 -0.21679591980114701 0 0.18286877228518539 -0.23469012162493899 0 0.18286877228518539 -0.23469012162493899 0 0.16166375577603259 -0.23299734644010889 0 0.18286877228518539 -0.23469012162493899 0 0.1706865398068087 -0.2261456099631681 0 0.16166375577603259 -0.23299734644010889 0 0.1706865398068087 -0.2261456099631681 0 0.1627832213582735 -0.2200990519864775 0 0.16166375577603259 -0.23299734644010889 0 0.1754304098077433 -0.21679591980114701 0 0.1706865398068087 -0.2261456099631681 0 0.1627832213582735 -0.2200990519864775 0 0.1627832213582735 -0.2200990519864775 0 0.16166375577603259 -0.23299734644010889 0 0.153713861016745 -0.22428447252726749 0 0.18286877228518539 -0.23469012162493899 0 0.16166375577603259 -0.23299734644010889 0 0.17056381318741071 -0.24052683487915191 0 0.17056381318741071 -0.24052683487915191 0 0.1614171063463839 -0.2386645260902365 0 0.16594276500802291 -0.24596519575114981 0 0.16166375577603259 -0.23299734644010889 0 0.17056381318741071 -0.24052683487915191 0 0.1614171063463839 -0.2386645260902365 0 0.1614171063463839 -0.2386645260902365 0 0.15892649538415149 -0.24675974491835859 0 0.15074172034919059 -0.24446294149548439 0 0.1614171063463839 -0.2386645260902365 0 0.15892649538415149 -0.24675974491835859 0 0.16594276500802291 -0.24596519575114981 0 0.1627958475822632 -0.25339139384796178 0 0.15892649538415149 -0.24675974491835859 0 0.16594276500802291 -0.24596519575114981 0 0.17601056253990499 -0.25048347902003998 0 0.17056381318741071 -0.24052683487915191 0 0.16594276500802291 -0.24596519575114981 0 0.1627958475822632 -0.25339139384796178 0 0.17601056253990499 -0.25048347902003998 0 0.16594276500802291 -0.24596519575114981 0 0.1614171063463839 -0.2386645260902365 0 0.15074172034919059 -0.24446294149548439 0 0.13785704047902461 -0.23230339525703619 0 0.1614171063463839 -0.2386645260902365 0 0.13785704047902461 -0.23230339525703619 0 0.1537710889854203 -0.25098111681898749 0 0.14151645891778869 -0.24665873088150889 0 0.15074172034919059 -0.24446294149548439 0 0.1537710889854203 -0.25098111681898749 0 0.15892649538415149 -0.24675974491835859 0 0.15074172034919059 -0.24446294149548439 0 0.14151645891778869 -0.24665873088150889 0 0.15074172034919059 -0.24446294149548439 0 0.13785704047902461 -0.23230339525703619 0 0.15074172034919059 -0.24446294149548439 0 0.13785704047902461 -0.23230339525703619 0 0.1614171063463839 -0.2386645260902365 0 0.13785704047902461 -0.23230339525703619 0 0.14045873926687971 -0.23130457125527881 0 0.16166375577603259 -0.23299734644010889 0 0.14045873926687971 -0.23130457125527881 0 0.16166375577603259 -0.23299734644010889 0 0.15047473936370931 -0.22805395116934851 0 0.14045873926687971 -0.23130457125527881 0 0.16166375577603259 -0.23299734644010889 0 0.1614171063463839 -0.2386645260902365 0 0.14045873926687971 -0.23130457125527881 0 0.15047473936370931 -0.22805395116934851 0 0.14606260139517971 -0.22362941445473891 0 0.14045873926687971 -0.23130457125527881 0 0.16166375577603259 -0.23299734644010889 0 0.15047473936370931 -0.22805395116934851 0 0.153713861016745 -0.22428447252726749 0 0.153713861016745 -0.22428447252726749 0 0.14606260139517971 -0.22362941445473891 0 0.15119601446799361 -0.2153052212560283 0 0.1627832213582735 -0.2200990519864775 0 0.153713861016745 -0.22428447252726749 0 0.15119601446799361 -0.2153052212560283 0 0.15047473936370931 -0.22805395116934851 0 0.153713861016745 -0.22428447252726749 0 0.14606260139517971 -0.22362941445473891 0 0.14606260139517971 -0.22362941445473891 0 0.14045873926687971 -0.23130457125527881 0 0.13891196037786521 -0.2184466919745342 0 0.14606260139517971 -0.22362941445473891 0 0.15119601446799361 -0.2153052212560283 0 0.13891196037786521 -0.2184466919745342 0 0.1230140189876729 -0.21829572040899781 0 0.13785704047902461 -0.23230339525703619 0 0.13891196037786521 -0.2184466919745342 0 0.1230140189876729 -0.21829572040899781 0 0.13785704047902461 -0.23230339525703619 0 0.1230140189876729 -0.21829572040899781 0 0.12815799514187259 -0.2296846888113914 0 0.13785704047902461 -0.23230339525703619 0 0.13785704047902461 -0.23230339525703619 0 0.14045873926687971 -0.23130457125527881 0 0.13891196037786521 -0.2184466919745342 0 0.12815799514187259 -0.2296846888113914 0 0.13785704047902461 -0.23230339525703619 0 0.14151645891778869 -0.24665873088150889 0 0.12815799514187259 -0.2296846888113914 0 0.13785704047902461 -0.23230339525703619 0 0.14151645891778869 -0.24665873088150889 0 0.12815799514187259 -0.2296846888113914 0 0.12805467367690951 -0.24418535849990461 0 0.14151645891778869 -0.24665873088150889 0 0.12815799514187259 -0.2296846888113914 0 0.1211962060867795 -0.2395258821134488 0 0.12815799514187259 -0.2296846888113914 0 0.12805467367690951 -0.24418535849990461 0 0.13267496847572169 -0.25494978950732577 0 0.14151645891778869 -0.24665873088150889 0 0.12805467367690951 -0.24418535849990461 0 0.14471368680862681 -0.20307224642145691 0 0.13389199554511591 -0.19453834442523429 0 0.14565778043365191 -0.18572686364124091 0 0.16265576546777041 -0.20088631679864949 0 0.14471368680862681 -0.20307224642145691 0 0.14565778043365191 -0.18572686364124091 0 0.16265576546777041 -0.20088631679864949 0 0.14471368680862681 -0.20307224642145691 0 0.15119601446799361 -0.2153052212560283 0 0.14471368680862681 -0.20307224642145691 0 0.15119601446799361 -0.2153052212560283 0 0.13891196037786521 -0.2184466919745342 0 0.1230140189876729 -0.21829572040899781 0 0.13891196037786521 -0.2184466919745342 0 0.1320790857240032 -0.20622260702259129 0 0.14471368680862681 -0.20307224642145691 0 0.13891196037786521 -0.2184466919745342 0 0.1320790857240032 -0.20622260702259129 0 0.11986376690073509 -0.19676003188273311 0 0.13389199554511591 -0.19453834442523429 0 0.12645071140433981 -0.18008712944027799 0 0.11986376690073509 -0.19676003188273311 0 0.1320790857240032 -0.20622260702259129 0 0.13389199554511591 -0.19453834442523429 0 0.14471368680862681 -0.20307224642145691 0 0.1320790857240032 -0.20622260702259129 0 0.13389199554511591 -0.19453834442523429 0 0.12645071140433981 -0.18008712944027799 0 0.14565778043365191 -0.18572686364124091 0 0.14491100352721051 -0.1641308865613047 0 0.13389199554511591 -0.19453834442523429 0 0.12645071140433981 -0.18008712944027799 0 0.14565778043365191 -0.18572686364124091 0 0.14565778043365191 -0.18572686364124091 0 0.14491100352721051 -0.1641308865613047 0 0.16132351984884821 -0.17164625820052229 0 0.14491100352721051 -0.1641308865613047 0 0.1599912742299259 -0.14240619960239501 0 0.16132351984884821 -0.17164625820052229 0 0.12645071140433981 -0.18008712944027799 0 0.14491100352721051 -0.1641308865613047 0 0.12950223641341091 -0.16016257382628341 0 0.11912148173316379 -0.16822226518800901 0 0.12645071140433981 -0.18008712944027799 0 0.12950223641341091 -0.16016257382628341 0 0.14491100352721051 -0.1641308865613047 0 0.12950223641341091 -0.16016257382628341 0 0.14109940527122139 -0.1448316156625257 0 0.12950223641341091 -0.16016257382628341 0 0.12722229411289271 -0.14620122877240729 0 0.14109940527122139 -0.1448316156625257 0 0.12722229411289271 -0.14620122877240729 0 0.13471474342105291 -0.12852203960607009 0 0.14109940527122139 -0.1448316156625257 0 0.1184346111955399 -0.1347216353262676 0 0.12722229411289271 -0.14620122877240729 0 0.13471474342105291 -0.12852203960607009 0 0.15865902861099809 -0.1131661410042681 0 0.14994117782762759 -0.12677763074074849 0 0.1599912742299259 -0.14240619960239501 0 0.14994117782762759 -0.12677763074074849 0 0.14109940527122139 -0.1448316156625257 0 0.1599912742299259 -0.14240619960239501 0 0.13471474342105291 -0.12852203960607009 0 0.14994117782762759 -0.12677763074074849 0 0.14109940527122139 -0.1448316156625257 0 0.14491100352721051 -0.1641308865613047 0 0.14109940527122139 -0.1448316156625257 0 0.1599912742299259 -0.14240619960239501 0 0.1599912742299259 -0.14240619960239501 0 0.17216586968364539 -0.14963466408511211 0 0.16132351984884821 -0.17164625820052229 0 0.15865902861099809 -0.1131661410042681 0 0.1599912742299259 -0.14240619960239501 0 0.17241280853123089 -0.12791618321626841 0 0.15865902861099809 -0.1131661410042681 0 0.1599912742299259 -0.14240619960239501 0 0.1599912742299259 -0.14240619960239501 0 0.17241280853123089 -0.12791618321626841 0 0.17216586968364539 -0.14963466408511211 0 0.17241280853123089 -0.12791618321626841 0 0.17216586968364539 -0.14963466408511211 0 0.1861665884514668 -0.14266622542826571 0 0.19191932532444059 -0.12253471361345949 0 0.17241280853123089 -0.12791618321626841 0 0.1861665884514668 -0.14266622542826571 0 0.17241280853123089 -0.12791618321626841 0 0.1861665884514668 -0.14266622542826571 0 0.19467834220944649 -0.16008125218302691 0 0.1861665884514668 -0.14266622542826571 0 0.18093515735675539 -0.16353845397810921 0 0.17216586968364539 -0.14963466408511211 0 0.1861665884514668 -0.14266622542826571 0 0.18093515735675539 -0.16353845397810921 0 0.18093515735675539 -0.16353845397810921 0 0.17881071147652719 -0.18356144371117661 0 0.16132351984884821 -0.17164625820052229 0 0.19352675219531359 -0.17544680846434851 0 0.18093515735675539 -0.16353845397810921 0 0.17881071147652719 -0.18356144371117661 0 0.16265576546777041 -0.20088631679864949 0 0.16132351984884821 -0.17164625820052229 0 0.16265576546777041 -0.20088631679864949 0 0.14565778043365191 -0.18572686364124091 0 0.16132351984884821 -0.17164625820052229 0 0.16265576546777041 -0.20088631679864949 0 0.17881071147652719 -0.18356144371117661 0 0.16132351984884821 -0.17164625820052229 0 0.17216586968364539 -0.14963466408511211 0 0.18093515735675539 -0.16353845397810921 0 0.16132351984884821 -0.17164625820052229 0 0.1599912742299259 -0.14240619960239501 0 0.16132351984884821 -0.17164625820052229 0 
</DataArray>
</Points>
<Cells>
<DataArray type="UInt32" Name="connectivity" format="ascii">
0 1 2 3 4 5 6 7 8 9 10 11 12 13 14 15 16 17 18 19 20 21 22 23 24 25 26 27 28 29 30 31 32 33 34 35 36 37 38 39 40 41 42 43 44 45 46 47 48 49 50 51 52 53 54 55 56 57 58 59 60 61 62 63 64 65 66 67 68 69 70 71 72 73 74 75 76 77 78 79 80 81 82 83 84 85 86 87 88 89 90 91 92 93 94 95 96 97 98 99 100 101 102 103 104 105 106 107 108 109 110 111 112 113 114 115 116 117 118 119 120 121 122 123 124 125 126 127 128 129 130 131 132 133 134 135 136 137 138 139 140 141 142 143 144 145 146 147 148 149 150 151 152 153 154 155 156 157 158 159 160 161 162 163 164 165 166 167 168 169 170 171 172 173 174 175 176 177 178 179 180 181 182 183 184 185 186 187 188 189 190 191 192 193 194 195 196 197 198 199 200 201 202 203 204 205 206 207 208 209 210 211 212 213 214 215 216 217 218 219 220 221 222 223 224 225 226 227 228 229 230 231 232 233 234 235 236 237 238 239 240 241 242 243 244 245 246 247 248 249 250 251 252 253 254 255 256 257 258 259 260 261 262 263 264 265 266 267 268 269 270 271 272 273 274 275 276 277 278 279 280 281 282 283 284 285 286 287 288 289 290 291 292 293 294 295 296 297 298 299 300 301 302 303 304 305 306 307 308 309 310 311 312 313 314 315 316 317 318 319 320 321 322 323 324 325 326 327 328 329 330 331 332 333 334 335 336 337 338 339 340 341 342 343 344 345 346 347 348 349 350 351 352 353 354 355 356 357 358 359 360 361 362 363 364 365 366 367 368 369 370 371 372 373 374 375 376 377 378 379 380 381 382 383 384 385 386 387 388 389 390 391 392 393 394 395 396 397 398 399 400 401 402 403 404 405 406 407 408 409 410 411 412 413 414 415 416 417 418 419 420 421 422 423 424 425 426 427 428 429 430 431 432 433 434 435 436 437 438 439 440 441 442 443 444 445 446 447 448 449 450 451 452 453 454 455 456 457 458 459 460 461 462 463 464 465 466 467 468 469 470 471 472 473 474 475 476 477 478 479 480 481 482 483 484 485 486 487 488 489 490 491 492 493 494 495 496 497 498 499 500 501 502 503 504 505 506 507 508 509 510 511 512 513 514 515 516 517 518 519 520 521 522 523 524 525 526 527 528 529 530 531 532 533 534 535 536 537 538 539 540 541 542 543 544 545 546 547 548 549 550 551 552 553 554 555 556 557 558 559 560 561 562 563 564 565 566 567 568 569 570 571 572 573 574 575 576 577 578 579 580 581 582 583 584 585 586 587 588 589 590 591 592 593 594 595 596 597 598 599 600 601 602 603 604 605 606 607 608 609 610 611 612 613 614 615 616 617 618 619 620 621 622 623 624 625 626 627 628 629 630 631 632 633 634 635 636 637 638 639 640 641 642 643 644 645 646 647 648 649 650 651 652 653 654 655 656 657 658 659 660 661 662 663 664 665 666 667 668 669 670 671 672 673 674 675 676 677 678 679 680 681 682 683 684 685 686 687 688 689 690 691 692 693 694 695 696 697 698 699 700 701 702 703 704 705 706 707 708 709 710 711 712 713 714 715 716 717 718 719 720 721 722 723 724 725 726 727 728 729 730 731 732 733 734 735 736 737 738 739 740 741 742 743 744 745 746 747 748 749 750 751 752 753 754 755 756 757 758 759 760 761 762 763 764 765 766 767 768 769 770 771 772 773 774 775 776 777 778 779 780 781 782 783 784 785 786 787 788 789 790 791 792 793 794 795 796 797 798 799 800 801 802 803 804 805 806 807 808 809 810 811 812 813 814 815 816 817 818 819 820 821 822 823 824 825 826 827 828 829 830 831 832 833 834 835 836 837 838 839 840 841 842 843 844 845 846 847 848 849 850 851 852 853 854 855 856 857 858 859 860 861 862 863 864 865 866 867 868 869 870 871 872 873 874 875 876 877 878 879 880 881 882 883 884 885 886 887 888 889 890 891 892 893 894 895 896 897 898 899 900 901 902 903 904 905 906 907 908 909 910 911 912 913 914 915 916 917 918 919 920 921 922 923 924 925 926 927 928 929 930 931 932 933 934 935 936 937 938 939 940 941 942 943 944 945 946 947 948 949 950 951 952 953 954 955 956 957 958 959 960 961 962 963 964 965 966 967 968 969 970 971 972 973 974 975 976 977 978 979 980 981 982 983 984 985 986 987 988 989 990 991 992 993 994 995 996 997 998 999 1000 1001 1002 1003 1004 1005 1006 1007 1008 1009 1010 1011 1012 1013 1014 1015 1016 1017 1018 1019 1020 1021 1022 1023 1024 1025 1026 1027 1028 1029 1030 1031 1032 1033 1034 1035 1036 1037 1038 1039 1040 1041 1042 1043 1044 1045 1046 1047 1048 1049 1050 1051 1052 1053 1054 1055 1056 1057 1058 1059 1060 1061 1062 1063 1064 1065 1066 1067 1068 1069 1070 1071 1072 1073 1074 1075 1076 1077 1078 1079 1080 1081 1082 1083 1084 1085 1086 1087 1088 1089 1090 1091 1092 1093 1094 1095 1096 1097 1098 1099 1100 1101 1102 1103 1104 1105 1106 1107 1108 1109 1110 1111 1112 1113 1114 1115 1116 1117 1118 1119 1120 1121 1122 1123 1124 1125 1126 1127 1128 1129 1130 1131 1132 1133 1134 1135 1136 1137 1138 1139 1140 1141 1142 1143 1144 1145 1146 1147 1148 1149 1150 1151 1152 1153 1154 1155 1156 1157 1158 1159 1160 1161 1162 1163 1164 1165 1166 1167 1168 1169 1170 1171 1172 1173 1174 1175 1176 1177 1178 1179 1180 1181 1182 1183 1184 1185 1186 1187 1188 1189 1190 1191 1192 1193 1194 1195 1196 1197 1198 1199 1200 1201 1202 1203 1204 1205 1206 1207 1208 1209 1210 1211 1212 1213 1214 1215 1216 1217 1218 1219 1220 1221 1222 1223 1224 1225 1226 1227 1228 1229 1230 1231 1232 1233 1234 1235 1236 1237 1238 1239 1240 1241 1242 1243 1244 1245 1246 1247 1248 1249 1250 1251 1252 1253 1254 1255 1256 1257 1258 1259 1260 1261 1262 1263 1264 1265 1266 1267 1268 1269 1270 1271 1272 1273 1274 1275 1276 1277 1278 1279 1280 1281 1282 1283 1284 1285 1286 1287 1288 1289 1290 1291 1292 1293 1294 1295 1296 1297 1298 1299 1300 1301 1302 1303 1304 1305 1306 1307 1308 1309 1310 1311 1312 1313 1314 1315 1316 1317 1318 1319 1320 1321 1322 1323 1324 1325 1326 1327 1328 1329 1330 1331 1332 1333 1334 1335 1336 1337 1338 1339 1340 1341 1342 1343 1344 1345 1346 1347 1348 1349 1350 1351 1352 1353 1354 1355 1356 1357 1358 1359 1360 1361 1362 1363 1364 1365 1366 1367 1368 1369 1370 1371 1372 1373 1374 1375 1376 1377 1378 1379 1380 1381 1382 1383 1384 1385 1386 1387 1388 1389 1390 1391 1392 1393 1394 1395 1396 1397 1398 1399 1400 1401 1402 1403 1404 1405 1406 1407 1408 1409 1410 1411 1412 1413 1414 1415 1416 1417 1418 1419 1420 1421 1422 1423 1424 1425 1426 1427 1428 1429 1430 1431 1432 1433 1434 1435 1436 1437 1438 1439 1440 1441 1442 1443 1444 1445 1446 1447 1448 1449 1450 1451 1452 1453 1454 1455 1456 1457 1458 1459 1460 1461 1462 1463 1464 1465 1466 1467 1468 1469 1470 1471 1472 1473 1474 1475 1476 1477 1478 1479 1480 1481 1482 1483 1484 1485 1486 1487 1488 1489 1490 1491 1492 1493 1494 1495 1496 1497 1498 1499 1500 1501 1502 1503 1504 1505 1506 1507 1508 1509 1510 1511 1512 1513 1514 1515 1516 1517 1518 1519 1520 1521 1522 1523 1524 1525 1526 1527 1528 1529 1530 1531 1532 1533 1534 1535 1536 1537 1538 1539 1540 1541 1542 1543 1544 1545 1546 1547 1548 1549 1550 1551 1552 1553 1554 1555 1556 1557 1558 1559 1560 1561 1562 1563 1564 1565 1566 1567 1568 1569 1570 1571 1572 1573 1574 1575 1576 1577 1578 1579 1580 1581 1582 1583 1584 1585 1586 1587 1588 1589 1590 1591 1592 1593 1594 1595 1596 1597 1598 1599 1600 1601 1602 1603 1604 1605 1606 1607 1608 1609 1610 1611 1612 1613 1614 1615 1616 1617 1618 1619 1620 1621 1622 1623 1624 1625 1626 1627 1628 1629 1630 1631 1632 1633 1634 1635 1636 1637 1638 1639 1640 1641 1642 1643 1644 1645 1646 1647 1648 1649 1650 1651 1652 1653 1654 1655 1656 1657 1658 1659 1660 1661 1662 1663 1664 1665 1666 1667 1668 1669 1670 1671 1672 1673 1674 1675 1676 1677 1678 1679 1680 1681 1682 1683 1684 1685 1686 1687 1688 1689 1690 1691 1692 1693 1694 1695 1696 1697 1698 1699 1700 1701 1702 1703 1704 1705 1706 1707 1708 1709 1710 1711 1712 1713 1714 1715 1716 1717 1718 1719 1720 1721 1722 1723 1724 1725 1726 1727 1728 1729 1730 1731 1732 1733 1734 1735 1736 1737 1738 1739 1740 1741 1742 1743 1744 1745 1746 1747 1748 1749 1750 1751 1752 1753 1754 1755 1756 1757 1758 1759 1760 1761 1762 1763 1764 1765 1766 1767 1768 1769 1770 1771 1772 1773 1774 1775 1776 1777 1778 1779 1780 1781 1782 1783 1784 1785 1786 1787 1788 1789 1790 1791 1792 1793 1794 1795 1796 1797 1798 1799 1800 1801 1802 1803 1804 1805 1806 1807 1808 1809 1810 1811 1812 1813 1814 1815 1816 1817 1818 1819 1820 1821 1822 1823 1824 1825 1826 1827 1828 1829 1830 1831 1832 1833 1834 1835 1836 1837 1838 1839 1840 1841 1842 1843 1844 1845 1846 1847 1848 1849 1850 1851 1852 1853 1854 1855 1856 1857 1858 1859 1860 1861 1862 1863 1864 1865 1866 1867 1868 1869 1870 1871 1872 1873 1874 1875 1876 1877 1878 1879 1880 1881 1882 1883 1884 1885 1886 1887 1888 1889 1890 1891 1892 1893 1894 1895 1896 1897 1898 1899 1900 1901 1902 1903 1904 1905 1906 1907 1908 1909 1910 1911 1912 1913 1914 1915 1916 1917 1918 1919 1920 1921 1922 1923 1924 1925 1926 1927 1928 1929 1930 1931 1932 1933 1934 1935 1936 1937 1938 1939 1940 1941 1942 1943 1944 1945 1946 1947 1948 1949 1950 1951 1952 1953 1954 1955 1956 1957 1958 1959 1960 1961 1962 1963 1964 1965 1966 1967 1968 1969 1970 1971 1972 1973 1974 1975 1976 1977 1978 1979 1980 1981 1982 1983 1984 1985 1986 1987 1988 1989 1990 1991 1992 1993 1994 1995 1996 1997 1998 1999 2000 2001 2002 2003 2004 2005 2006 2007 2008 2009 2010 2011 2012 2013 2014 2015 2016 2017 2018 2019 2020 2021 2022 2023 2024 2025 2026 2027 2028 2029 2030 2031 2032 2033 2034 2035 2036 2037 2038 2039 2040 2041 2042 2043 2044 2045 2046 2047 2048 2049 2050 2051 2052 2053 2054 2055 2056 2057 2058 2059 2060 2061 2062 2063 2064 2065 2066 2067 2068 2069 2070 2071 2072 2073 2074 2075 2076 2077 2078 2079 2080 2081 2082 2083 2084 2085 2086 2087 2088 2089 2090 2091 2092 2093 2094 2095 2096 2097 2098 2099 2100 2101 2102 2103 2104 2105 2106 2107 2108 2109 2110 2111 2112 2113 2114 2115 2116 2117 2118 2119 2120 2121 2122 2123 2124 2125 2126 2127 2128 2129 2130 2131 2132 2133 2134 2135 2136 2137 2138 2139 2140 2141 2142 2143 2144 2145 2146 2147 2148 2149 2150 2151 2152 2153 2154 2155 2156 2157 2158 2159 2160 2161 2162 2163 2164 2165 2166 2167 2168 2169 2170 2171 2172 2173 2174 2175 2176 2177 2178 2179 2180 2181 2182 2183 2184 2185 2186 2187 2188 2189 2190 2191 2192 2193 2194 2195 2196 2197 2198 2199 2200 2201 2202 2203 2204 2205 2206 2207 2208 2209 2210 2211 2212 2213 2214 2215 2216 2217 2218 2219 2220 2221 2222 2223 2224 2225 2226 2227 2228 2229 2230 2231 2232 2233 2234 2235 2236 2237 2238 2239 2240 2241 2242 2243 2244 2245 2246 2247 2248 2249 2250 2251 2252 2253 2254 2255 2256 2257 2258 2259 2260 2261 2262 2263 2264 2265 2266 2267 2268 2269 2270 2271 2272 2273 2274 2275 2276 2277 2278 2279 2280 2281 2282 2283 2284 2285 2286 2287 2288 2289 2290 2291 2292 2293 2294 2295 2296 2297 2298 2299 2300 2301 2302 2303 2304 2305 2306 2307 2308 2309 2310 2311 2312 2313 2314 2315 2316 2317 2318 2319 2320 2321 2322 2323 2324 2325 2326 2327 2328 2329 2330 2331 2332 2333 2334 2335 2336 2337 2338 2339 2340 2341 2342 2343 2344 2345 2346 2347 2348 2349 2350 2351 2352 2353 2354 2355 2356 2357 2358 2359 2360 2361 2362 2363 2364 2365 2366 2367 2368 2369 2370 2371 2372 2373 2374 2375 2376 2377 2378 2379 2380 2381 2382 2383 2384 2385 2386 2387 2388 2389 2390 2391 2392 2393 2394 2395 2396 2397 2398 2399 2400 2401 2402 2403 2404 2405 2406 2407 2408 2409 2410 2411 2412 2413 2414 2415 2416 2417 2418 2419 2420 2421 2422 2423 2424 2425 2426 2427 2428 2429 2430 2431 2432 2433 2434 2435 2436 2437 2438 2439 2440 2441 2442 2443 2444 2445 2446 2447 2448 2449 2450 2451 2452 2453 2454 2455 2456 2457 2458 2459 2460 2461 2462 2463 2464 2465 2466 2467 2468 2469 2470 2471 2472 2473 2474 2475 2476 2477 2478 2479 2480 2481 2482 2483 2484 2485 2486 2487 2488 2489 2490 2491 2492 2493 2494 2495 2496 2497 2498 2499 2500 2501 2502 2503 2504 2505 2506 2507 2508 2509 2510 2511 2512 2513 2514 2515 2516 2517 2518 2519 2520 2521 2522 2523 2524 2525 2526 2527 2528 2529 2530 2531 2532 2533 2534 2535 2536 2537 2538 2539 2540 2541 2542 2543 2544 2545 2546 2547 2548 2549 2550 2551 2552 2553 2554 2555 2556 2557 2558 2559 2560 2561 2562 2563 2564 2565 2566 2567 2568 2569 2570 2571 2572 2573 2574 2575 2576 2577 2578 2579 2580 2581 2582 2583 2584 2585 2586 2587 2588 2589 2590 2591 2592 2593 2594 2595 2596 2597 2598 2599 2600 2601 2602 2603 2604 2605 2606 2607 2608 2609 2610 2611 2612 2613 2614 2615 2616 2617 2618 2619 2620 2621 2622 2623 2624 2625 2626 2627 2628 2629 2630 2631 2632 2633 2634 2635 2636 2637 2638 2639 2640 2641 2642 2643 2644 2645 2646 2647 2648 2649 2650 2651 2652 2653 2654 2655 2656 2657 2658 2659 2660 2661 2662 2663 2664 2665 2666 2667 2668 2669 2670 2671 2672 2673 2674 2675 2676 2677 2678 2679 2680 2681 2682 2683 2684 2685 2686 2687 2688 2689 2690 2691 2692 2693 2694 2695 2696 2697 2698 2699 2700 2701 2702 2703 2704 2705 2706 2707 2708 2709 2710 2711 2712 2713 2714 2715 2716 2717 2718 2719 2720 2721 2722 2723 2724 2725 2726 2727 2728 2729 2730 2731 2732 2733 2734 2735 2736 2737 2738 2739 2740 2741 2742 2743 2744 2745 2746 2747 2748 2749 2750 2751 2752 2753 2754 2755 2756 2757 2758 2759 2760 2761 2762 2763 2764 2765 2766 2767 2768 2769 2770 2771 2772 2773 2774 2775 2776 2777 2778 2779 2780 2781 2782 2783 2784 2785 2786 2787 2788 2789 2790 2791 2792 2793 2794 2795 2796 2797 2798 2799 2800 2801 2802 2803 2804 2805 2806 2807 2808 2809 2810 2811 2812 2813 2814 2815 2816 2817 2818 2819 2820 2821 2822 2823 2824 2825 2826 2827 2828 2829 2830 2831 2832 2833 2834 2835 2836 2837 2838 2839 2840 2841 2842 2843 2844 2845 2846 2847 2848 2849 2850 2851 2852 2853 2854 2855 2856 2857 2858 2859 2860 2861 2862 2863 2864 2865 2866 2867 2868 2869 2870 2871 2872 2873 2874 2875 2876 2877 2878 2879 2880 2881 2882 2883 2884 2885 2886 2887 2888 2889 2890 2891 2892 2893 2894 2895 2896 2897 2898 2899 2900 2901 2902 2903 2904 2905 2906 2907 2908 2909 2910 2911 2912 2913 2914 2915 2916 2917 2918 2919 2920 2921 2922 2923 2924 2925 2926 2927 2928 2929 2930 2931 2932 2933 2934 2935 2936 2937 2938 2939 2940 2941 2942 2943 2944 2945 2946 2947 2948 2949 2950 2951 2952 2953 2954 2955 2956 2957 2958 2959 2960 2961 2962 2963 2964 2965 2966 2967 2968 2969 2970 2971 2972 2973 2974 2975 2976 2977 2978 2979 2980 2981 2982 2983 2984 2985 2986 2987 2988 2989 2990 2991 2992 2993 2994 2995 2996 2997 2998 2999 3000 3001 3002 3003 3004 3005 3006 3007 3008 3009 3010 3011 3012 3013 3014 3015 3016 3017 3018 3019 3020 3021 3022 3023 3024 3025 3026 3027 3028 3029 3030 3031 3032 3033 3034 3035 3036 3037 3038 3039 3040 3041 3042 3043 3044 3045 3046 3047 3048 3049 3050 3051 3052 3053 3054 3055 3056 3057 3058 3059 3060 3061 3062 3063 3064 3065 3066 3067 3068 3069 3070 3071 3072 3073 3074 3075 3076 3077 3078 3079 3080 3081 3082 3083 3084 3085 3086 3087 3088 3089 3090 3091 3092 3093 3094 3095 3096 3097 3098 3099 3100 3101 3102 3103 3104 3105 3106 3107 3108 3109 3110 3111 3112 3113 3114 3115 3116 3117 3118 3119 3120 3121 3122 3123 3124 3125 3126 3127 3128 3129 3130 3131 3132 3133 3134 3135 3136 3137 3138 3139 3140 3141 3142 3143 3144 3145 3146 3147 3148 3149 3150 3151 3152 3153 3154 3155 3156 3157 3158 3159 3160 3161 3162 3163 3164 3165 3166 3167 3168 3169 3170 3171 3172 3173 3174 3175 3176 3177 3178 3179 3180 3181 3182 3183 3184 3185 3186 3187 3188 3189 3190 3191 3192 3193 3194 3195 3196 3197 3198 3199 3200 3201 3202 3203 3204 3205 3206 3207 3208 3209 3210 3211 3212 3213 3214 3215 3216 3217 3218 3219 3220 3221 3222 3223 3224 3225 3226 3227 3228 3229 3230 3231 3232 3233 3234 3235 3236 3237 3238 3239 3240 3241 3242 3243 3244 3245 3246 3247 3248 3249 3250 3251 3252 3253 3254 3255 3256 3257 3258 3259 3260 3261 3262 3263 3264 3265 3266 3267 3268 3269 3270 3271 3272 3273 3274 3275 3276 3277 3278 3279 3280 3281 3282 3283 3284 3285 3286 3287 3288 3289 3290 3291 3292 3293 3294 3295 3296 3297 3298 3299 3300 3301 3302 3303 3304 3305 3306 3307 3308 3309 3310 3311 3312 3313 3314 3315 3316 3317 3318 3319 3320 3321 3322 3323 3324 3325 3326 3327 3328 3329 3330 3331 3332 3333 3334 3335 3336 3337 3338 3339 3340 3341 3342 3343 3344 3345 3346 3347 3348 3349 3350 3351 3352 3353 3354 3355 3356 3357 3358 3359 3360 3361 3362 3363 3364 3365 3366 3367 3368 3369 3370 3371 3372 3373 3374 3375 3376 3377 3378 3379 3380 3381 3382 3383 3384 3385 3386 3387 3388 3389 3390 3391 3392 3393 3394 3395 3396 3397 3398 3399 3400 3401 3402 3403 3404 3405 3406 3407 3408 3409 3410 3411 3412 3413 3414 3415 3416 3417 3418 3419 3420 3421 3422 3423 3424 3425 3426 3427 3428 3429 3430 3431 3432 3433 3434 3435 3436 3437 3438 3439 3440 3441 3442 3443 3444 3445 3446 3447 3448 3449 3450 3451 3452 3453 3454 3455 3456 3457 3458 3459 3460 3461 3462 3463 3464 3465 3466 3467 3468 3469 3470 3471 3472 3473 3474 3475 3476 3477 3478 3479 3480 3481 3482 3483 3484 3485 3486 3487 3488 3489 3490 3491 3492 3493 3494 3495 3496 3497 3498 3499 3500 3501 3502 3503 3504 3505 3506 3507 3508 3509 3510 3511 3512 3513 3514 3515 3516 3517 3518 3519 3520 3521 3522 3523 3524 3525 3526 3527 3528 3529 3530 3531 3532 3533 3534 3535 3536 3537 3538 3539 3540 3541 3542 3543 3544 3545 3546 3547 3548 3549 3550 3551 3552 3553 3554 3555 3556 3557 3558 3559 3560 3561 3562 3563 3564 3565 3566 3567 3568 3569 3570 3571 3572 3573 3574 3575 3576 3577 3578 3579 3580 3581 3582 3583 3584 3585 3586 3587 3588 3589 3590 3591 3592 3593 3594 3595 3596 3597 3598 3599 3600 3601 3602 3603 3604 3605 3606 3607 3608 3609 3610 3611 3612 3613 3614 3615 3616 3617 3618 3619 3620 3621 3622 3623 3624 3625 3626 3627 3628 3629 3630 3631 3632 3633 3634 3635 3636 3637 3638 3639 3640 3641 3642 3643 3644 3645 3646 3647 3648 3649 3650 3651 3652 3653 3654 3655 3656 3657 3658 3659 3660 3661 3662 3663 3664 3665 3666 3667 3668 3669 3670 3671 3672 3673 3674 3675 3676 3677 3678 3679 3680 3681 3682 3683 3684 3685 3686 3687 3688 3689 3690 3691 3692 3693 3694 3695 3696 3697 3698 3699 3700 3701 3702 3703 3704 3705 3706 3707 3708 3709 3710 3711 3712 3713 3714 3715 3716 3717 3718 3719 3720 3721 3722 3723 3724 3725 3726 3727 3728 3729 3730 3731 3732 3733 3734 3735 3736 3737 3738 3739 3740 3741 3742 3743 3744 3745 3746 3747 3748 3749 3750 3751 3752 3753 3754 3755 3756 3757 3758 3759 3760 3761 3762 3763 3764 3765 3766 3767 3768 3769 3770 3771 3772 3773 3774 3775 3776 3777 3778 3779 3780 3781 3782 3783 3784 3785 3786 3787 3788 3789 3790 3791 3792 3793 3794 3795 3796 3797 3798 3799 3800 3801 3802 3803 3804 3805 3806 3807 3808 3809 3810 3811 3812 3813 3814 3815 3816 3817 3818 3819 3820 3821 3822 3823 3824 3825 3826 3827 3828 3829 3830 3831 3832 3833 3834 3835 3836 3837 3838 3839 3840 3841 3842 3843 3844 3845 3846 3847 3848 3849 3850 3851 3852 3853 3854 3855 3856 3857 3858 3859 3860 3861 3862 3863 3864 3865 3866 3867 3868 3869 3870 3871 3872 3873 3874 3875 3876 3877 3878 3879 3880 3881 3882 3883 3884 3885 3886 3887 3888 3889 3890 3891 3892 3893 3894 3895 3896 3897 3898 3899 3900 3901 3902 3903 3904 3905 3906 3907 3908 3909 3910 3911 3912 3913 3914 3915 3916 3917 3918 3919 3920 3921 3922 3923 3924 3925 3926 3927 3928 3929 3930 3931 3932 3933 3934 3935 3936 3937 3938 3939 3940 3941 3942 3943 3944 3945 3946 3947 3948 3949 3950 3951 3952 3953 3954 3955 3956 3957 3958 3959 3960 3961 3962 3963 3964 3965 3966 3967 3968 3969 3970 3971 3972 3973 3974 3975 3976 3977 3978 3979 3980 3981 3982 3983 3984 3985 3986 3987 3988 3989 3990 3991 3992 3993 3994 3995 3996 3997 3998 3999 4000 4001 4002 4003 4004 4005 4006 4007 4008 4009 4010 4011 4012 4013 4014 4015 4016 4017 4018 4019 4020 4021 4022 4023 4024 4025 4026 4027 4028 4029 4030 4031 4032 4033 4034 4035 4036 4037 4038 4039 4040 4041 4042 4043 4044 4045 4046 4047 4048 4049 4050 4051 4052 4053 4054 4055 4056 4057 4058 4059 4060 4061 4062 4063 4064 4065 4066 4067 4068 4069 4070 4071 4072 4073 4074 4075 4076 4077 4078 4079 4080 4081 4082 4083 4084 4085 4086 4087 4088 4089 4090 4091 4092 4093 4094 4095 4096 4097 4098 4099 4100 4101 4102 4103 4104 4105 4106 4107 4108 4109 4110 4111 4112 4113 4114 4115 4116 4117 4118 4119 4120 4121 4122 4123 4124 4125 4126 4127 4128 4129 4130 4131 4132 4133 4134 4135 4136 4137 4138 4139 4140 4141 4142 4143 4144 4145 4146 4147 4148 4149 4150 4151 4152 4153 4154 4155 4156 4157 4158 4159 4160 4161 4162 4163 4164 4165 4166 4167 4168 4169 4170 4171 4172 4173 4174 4175 4176 4177 4178 4179 4180 4181 4182 4183 4184 4185 4186 4187 4188 4189 4190 4191 4192 4193 4194 4195 4196 4197 4198 4199 4200 4201 4202 4203 4204 4205 4206 4207 4208 4209 4210 4211 4212 4213 4214 4215 4216 4217 4218 4219 4220 4221 4222 4223 4224 4225 4226 4227 4228 4229 4230 4231 4232 4233 4234 4235 4236 4237 4238 4239 4240 4241 4242 4243 4244 4245 4246 4247 4248 4249 4250 4251 4252 4253 4254 4255 4256 4257 4258 4259 4260 4261 4262 4263 4264 4265 4266 4267 4268 4269 4270 4271 4272 4273 4274 4275 4276 4277 4278 4279 4280 4281 4282 4283 4284 4285 4286 4287 4288 4289 4290 4291 4292 4293 4294 4295 4296 4297 4298 4299 4300 4301 4302 4303 4304 4305 4306 4307 4308 4309 4310 4311 4312 4313 4314 4315 4316 4317 4318 4319 4320 4321 4322 4323 4324 4325 4326 4327 4328 4329 4330 4331 4332 4333 4334 4335 4336 4337 4338 4339 4340 4341 4342 4343 4344 4345 4346 4347 4348 4349 4350 4351 4352 4353 4354 4355 4356 4357 4358 4359 4360 4361 4362 4363 4364 4365 4366 4367 4368 4369 4370 4371 4372 4373 4374 4375 4376 4377 4378 4379 4380 4381 4382 4383 4384 4385 4386 4387 4388 4389 4390 4391 4392 4393 4394 4395 4396 4397 4398 4399 4400 4401 4402 4403 4404 4405 4406 4407 4408 4409 4410 4411 4412 4413 4414 4415 4416 4417 4418 4419 4420 4421 4422 4423 4424 4425 4426 4427 4428 4429 4430 4431 4432 4433 4434 4435 4436 4437 4438 4439 4440 4441 4442 4443 4444 4445 4446 4447 4448 4449 4450 4451 4452 4453 4454 4455 4456 4457 4458 4459 4460 4461 4462 4463 4464 4465 4466 4467 4468 4469 4470 4471 4472 4473 4474 4475 4476 4477 4478 4479 4480 4481 4482 4483 4484 4485 4486 4487 4488 4489 4490 4491 4492 4493 4494 4495 4496 4497 4498 4499 4500 4501 4502 4503 4504 4505 4506 4507 4508 4509 4510 4511 4512 4513 4514 4515 4516 4517 4518 4519 4520 4521 4522 4523 4524 4525 4526 4527 4528 4529 4530 4531 4532 4533 4534 4535 4536 4537 4538 4539 4540 4541 4542 4543 4544 4545 4546 4547 4548 4549 4550 4551 4552 4553 4554 4555 4556 4557 4558 4559 4560 4561 4562 4563 4564 4565 4566 4567 4568 4569 4570 4571 4572 4573 4574 4575 4576 4577 4578 4579 4580 4581 4582 4583 4584 4585 4586 4587 4588 4589 4590 4591 4592 4593 4594 4595 4596 4597 4598 4599 4600 4601 4602 4603 4604 4605 4606 4607 4608 4609 4610 4611 4612 4613 4614 4615 4616 4617 4618 4619 4620 4621 4622 4623 4624 4625 4626 4627 4628 4629 4630 4631 4632 4633 4634 4635 4636 4637 4638 4639 4640 4641 4642 4643 4644 4645 4646 4647 4648 4649 4650 4651 4652 4653 4654 4655 4656 4657 4658 4659 4660 4661 4662 4663 4664 4665 4666 4667 4668 4669 4670 4671 4672 4673 4674 4675 4676 4677 4678 4679 4680 4681 4682 4683 4684 4685 4686 4687 4688 4689 4690 4691 4692 4693 4694 4695 4696 4697 4698 4699 4700 4701 4702 4703 4704 4705 4706 4707 4708 4709 4710 4711 4712 4713 4714 4715 4716 4717 4718 4719 4720 4721 4722 4723 4724 4725 4726 4727 4728 4729 4730 4731 4732 4733 4734 4735 4736 4737 4738 4739 4740 4741 4742 4743 4744 4745 4746 4747 4748 4749 4750 4751 4752 4753 4754 4755 4756 4757 4758 4759 4760 4761 4762 4763 4764 4765 4766 4767 4768 4769 4770 4771 4772 4773 4774 4775 4776 4777 4778 4779 4780 4781 4782 4783 4784 4785 4786 4787 4788 4789 4790 4791 4792 4793 4794 4795 4796 4797 4798 4799 4800 4801 4802 4803 4804 4805 4806 4807 4808 4809 4810 4811 4812 4813 4814 4815 4816 4817 4818 4819 4820 4821 4822 4823 4824 4825 4826 4827 4828 4829 4830 4831 4832 4833 4834 4835 4836 4837 4838 4839 4840 4841 4842 4843 4844 4845 4846 4847 4848 4849 4850 4851 4852 4853 4854 4855 4856 4857 4858 4859 4860 4861 4862 4863 4864 4865 4866 4867 4868 4869 4870 4871 4872 4873 4874 4875 4876 4877 4878 4879 4880 4881 4882 4883 4884 4885 4886 4887 4888 4889 4890 4891 4892 4893 4894 4895 4896 4897 4898 4899 4900 4901 4902 4903 4904 4905 4906 4907 4908 4909 4910 4911 4912 4913 4914 4915 4916 4917 4918 4919 4920 4921 4922 4923 4924 4925 4926 4927 4928 4929 4930 4931 4932 4933 4934 4935 4936 4937 4938 4939 4940 4941 4942 4943 4944 4945 4946 4947 4948 4949 4950 4951 4952 4953 4954 4955 4956 4957 4958 4959 4960 4961 4962 4963 4964 4965 4966 4967 4968 4969 4970 4971 4972 4973 4974 4975 4976 4977 4978 4979 4980 4981 4982 4983 4984 4985 4986 4987 4988 4989 4990 4991 4992 4993 4994 4995 4996 4997 4998 4999 5000 5001 5002 5003 5004 5005 5006 5007 5008 5009 5010 5011 5012 5013 5014 5015 5016 5017 5018 5019 5020 5021 5022 5023 5024 5025 5026 5027 5028 5029 5030 5031 5032 5033 5034 5035 5036 5037 5038 5039 5040 5041 5042 5043 5044 5045 5046 5047 5048 5049 5050 5051 5052 5053 5054 5055 5056 5057 5058 5059 5060 5061 5062 5063 5064 5065 5066 5067 5068 5069 5070 5071 5072 5073 5074 5075 5076 5077 5078 5079 5080 5081 5082 5083 5084 5085 5086 5087 5088 5089 5090 5091 5092 5093 5094 5095 5096 5097 5098 5099 5100 5101 5102 5103 5104 5105 5106 5107 5108 5109 5110 5111 5112 5113 5114 5115 5116 5117 5118 5119 5120 5121 5122 5123 5124 5125 5126 5127 5128 5129 5130 5131 5132 5133 5134 5135 5136 5137 5138 5139 5140 5141 5142 5143 5144 5145 5146 5147 5148 5149 5150 5151 5152 5153 5154 5155 5156 5157 5158 5159 5160 5161 5162 5163 5164 5165 5166 5167 5168 5169 5170 5171 5172 5173 5174 5175 5176 5177 5178 5179 5180 5181 5182 5183 5184 5185 5186 5187 5188 5189 5190 5191 5192 5193 5194 5195 5196 5197 5198 5199 5200 5201 5202 5203 5204 5205 5206 5207 5208 5209 5210 5211 5212 5213 5214 5215 5216 5217 5218 5219 5220 5221 5222 5223 5224 5225 5226 5227 5228 5229 5230 5231 5232 5233 5234 5235 5236 5237 5238 5239 5240 5241 5242 5243 5244 5245 5246 5247 5248 5249 5250 5251 5252 5253 5254 5255 5256 5257 5258 5259 5260 5261 5262 5263 5264 5265 5266 5267 5268 5269 5270 5271 5272 5273 5274 5275 5276 5277 5278 5279 5280 5281 5282 5283 5284 5285 5286 5287 5288 5289 5290 5291 5292 5293 5294 5295 5296 5297 5298 5299 5300 5301 5302 5303 5304 5305 5306 5307 5308 5309 5310 5311 5312 5313 5314 5315 5316 5317 5318 5319 5320 5321 5322 5323 5324 5325 5326 5327 5328 5329 5330 5331 5332 5333 5334 5335 5336 5337 5338 5339 5340 5341 5342 5343 5344 5345 5346 5347 5348 5349 5350 5351 5352 5353 5354 5355 5356 5357 5358 5359 5360 5361 5362 5363 5364 5365 5366 5367 5368 5369 5370 5371 5372 5373 5374 5375 5376 5377 5378 5379 5380 5381 5382 5383 5384 5385 5386 5387 5388 5389 5390 5391 5392 5393 5394 5395 5396 5397 5398 5399 5400 5401 5402 5403 5404 5405 5406 5407 5408 5409 5410 5411 5412 5413 5414 5415 5416 5417 5418 5419 5420 5421 5422 5423 5424 5425 5426 5427 5428 5429 5430 5431 5432 5433 5434 5435 5436 5437 5438 5439 5440 5441 5442 5443 5444 5445 5446 5447 5448 5449 5450 5451 5452 5453 5454 5455 5456 5457 5458 5459 5460 5461 5462 5463 5464 5465 5466 5467 5468 5469 5470 5471 5472 5473 5474 5475 5476 5477 5478 5479 5480 5481 5482 5483 5484 5485 5486 5487 5488 5489 5490 5491 5492 5493 5494 5495 5496 5497 5498 5499 5500 5501 5502 5503 5504 5505 5506 5507 5508 5509 5510 5511 5512 5513 5514 5515 5516 5517 5518 5519 5520 5521 5522 5523 5524 5525 5526 5527 5528 5529 5530 5531 5532 5533 5534 5535 5536 5537 5538 5539 5540 5541 5542 5543 5544 5545 5546 5547 5548 5549 5550 5551 5552 5553 5554 5555 5556 5557 5558 5559 5560 5561 5562 5563 5564 5565 5566 5567 5568 5569 5570 5571 5572 5573 5574 5575 5576 5577 5578 5579 5580 5581 5582 5583 5584 5585 5586 5587 5588 5589 5590 5591 5592 5593 5594 5595 5596 5597 5598 5599 5600 5601 5602 5603 5604 5605 5606 5607 5608 5609 5610 5611 5612 5613 5614 5615 5616 5617 5618 5619 5620 5621 5622 5623 5624 5625 5626 5627 5628 5629 5630 5631 5632 5633 5634 5635 5636 5637 5638 5639 5640 5641 5642 5643 5644 5645 5646 5647 5648 5649 5650 5651 5652 5653 5654 5655 5656 5657 5658 5659 5660 5661 5662 5663 5664 5665 5666 5667 5668 5669 5670 5671 5672 5673 5674 5675 5676 5677 5678 5679 5680 5681 5682 5683 5684 5685 5686 5687 5688 5689 5690 5691 5692 5693 5694 5695 5696 5697 5698 5699 5700 5701 5702 5703 5704 5705 5706 5707 5708 5709 5710 5711 5712 5713 5714 5715 5716 5717 5718 5719 5720 5721 5722 5723 5724 5725 5726 5727 5728 5729 5730 5731 5732 5733 5734 5735 5736 5737 5738 5739 5740 5741 5742 5743 5744 5745 5746 5747 5748 5749 5750 5751 5752 5753 5754 5755 5756 5757 5758 5759 5760 5761 5762 5763 5764 5765 5766 5767 5768 5769 5770 5771 5772 5773 5774 5775 5776 5777 5778 5779 5780 5781 5782 5783 5784 5785 5786 5787 5788 5789 5790 5791 5792 5793 5794 5795 5796 5797 5798 5799 5800 5801 5802 5803 5804 5805 5806 5807 5808 5809 5810 5811 5812 5813 5814 5815 5816 5817 5818 5819 5820 5821 5822 5823 5824 5825 5826 5827 5828 5829 5830 5831 5832 5833 5834 5835 5836 5837 5838 5839 5840 5841 5842 5843 5844 5845 5846 5847 5848 5849 5850 5851 5852 5853 5854 5855 5856 5857 5858 5859 5860 5861 5862 5863 5864 5865 5866 5867 5868 5869 5870 5871 5872 5873 5874 5875 5876 5877 5878 5879 5880 5881 5882 5883 5884 5885 5886 5887 5888 5889 5890 5891 5892 5893 5894 5895 5896 5897 5898 5899 5900 5901 5902 5903 5904 5905 5906 5907 5908 5909 5910 5911 5912 5913 5914 5915 5916 5917 5918 5919 5920 5921 5922 5923 5924 5925 5926 5927 5928 5929 5930 5931 5932 5933 5934 5935 5936 5937 5938 5939 5940 5941 5942 5943 5944 5945 5946 5947 5948 5949 5950 5951 5952 5953 5954 5955 5956 5957 5958 5959 5960 5961 5962 5963 5964 5965 5966 5967 5968 5969 5970 5971 5972 5973 5974 5975 5976 5977 5978 5979 5980 5981 5982 5983 5984 5985 5986 5987 5988 5989 5990 5991 5992 5993 5994 5995 5996 5997 5998 5999 6000 6001 6002 6003 6004 6005 6006 6007 6008 6009 6010 6011 6012 6013 6014 6015 6016 6017 6018 6019 6020 6021 6022 6023 6024 6025 6026 6027 6028 6029 6030 6031 6032 6033 6034 6035 6036 6037 6038 6039 6040 6041 6042 6043 6044 6045 6046 6047 6048 6049 6050 6051 6052 6053 6054 6055 6056 6057 6058 6059 6060 6061 6062 6063 6064 6065 6066 6067 6068 6069 6070 6071 6072 6073 6074 6075 6076 6077 6078 6079 6080 6081 6082 6083 6084 6085 6086 6087 6088 6089 6090 6091 6092 6093 6094 6095 6096 6097 6098 6099 6100 6101 6102 6103 6104 6105 6106 6107 6108 6109 6110 6111 6112 6113 6114 6115 6116 6117 6118 6119 6120 6121 6122 6123 6124 6125 6126 6127 6128 6129 6130 6131 6132 6133 6134 6135 6136 6137 6138 6139 6140 6141 6142 6143 6144 6145 6146 6147 6148 6149 6150 6151 6152 6153 6154 6155 6156 6157 6158 6159 6160 6161 6162 6163 6164 6165 6166 6167 6168 6169 6170 6171 6172 6173 6174 6175 6176 6177 6178 6179 6180 6181 6182 6183 6184 6185 6186 6187 6188 6189 6190 6191 6192 6193 6194 6195 6196 6197 6198 6199 6200 6201 6202 6203 6204 6205 6206 6207 6208 6209 6210 6211 6212 6213 6214 6215 6216 6217 6218 6219 6220 6221 6222 6223 6224 6225 6226 6227 6228 6229 6230 6231 6232 6233 6234 6235 6236 6237 6238 6239 6240 6241 6242 6243 6244 6245 6246 6247 6248 6249 6250 6251 6252 6253 6254 6255 6256 6257 6258 6259 6260 6261 6262 6263 6264 6265 6266 6267 6268 6269 6270 6271 6272 6273 6274 6275 6276 6277 6278 6279 6280 6281 6282 6283 6284 6285 6286 6287 6288 6289 6290 6291 6292 6293 6294 6295 6296 6297 6298 6299 6300 6301 6302 6303 6304 6305 6306 6307 6308 6309 6310 6311 6312 6313 6314 6315 6316 6317 6318 6319 6320 6321 6322 6323 6324 6325 6326 6327 6328 6329 6330 6331 6332 6333 6334 6335 6336 6337 6338 6339 6340 6341 6342 6343 6344 6345 6346 6347 6348 6349 6350 6351 6352 6353 6354 6355 6356 6357 6358 6359 6360 6361 6362 6363 6364 6365 6366 6367 6368 6369 6370 6371 6372 6373 6374 6375 6376 6377 6378 6379 6380 6381 6382 6383 6384 6385 6386 6387 6388 6389 6390 6391 6392 6393 6394 6395 6396 6397 6398 6399 6400 6401 6402 6403 6404 6405 6406 6407 6408 6409 6410 6411 6412 6413 6414 6415 6416 6417 6418 6419 6420 6421 6422 6423 6424 6425 6426 6427 6428 6429 6430 6431 6432 6433 6434 6435 6436 6437 6438 6439 6440 6441 6442 6443 6444 6445 6446 6447 6448 6449 6450 6451 6452 6453 6454 6455 6456 6457 6458 6459 6460 6461 6462 6463 6464 6465 6466 6467 6468 6469 6470 6471 6472 6473 6474 6475 6476 6477 6478 6479 6480 6481 6482 6483 6484 6485 6486 6487 6488 6489 6490 6491 6492 6493 6494 6495 6496 6497 6498 6499 6500 6501 6502 6503 6504 6505 6506 6507 6508 6509 6510 6511 6512 6513 6514 6515 6516 6517 6518 6519 6520 6521 6522 6523 6524 6525 6526 6527 6528 6529 6530 6531 6532 6533 6534 6535 6536 6537 6538 6539 6540 6541 6542 6543 6544 6545 6546 6547 6548 6549 6550 6551 6552 6553 6554 6555 6556 6557 6558 6559 6560 6561 6562 6563 6564 6565 6566 6567 6568 6569 6570 6571 6572 6573 6574 6575 6576 6577 6578 6579 6580 6581 6582 6583 6584 6585 6586 6587 6588 6589 6590 6591 6592 6593 6594 6595 6596 6597 6598 6599 6600 6601 6602 6603 6604 6605 6606 6607 6608 6609 6610 6611 6612 6613 6614 6615 6616 6617 6618 6619 6620 6621 6622 6623 6624 6625 6626 6627 6628 6629 6630 6631 6632 6633 6634 6635 6636 6637 6638 6639 6640 6641 6642 6643 6644 6645 6646 6647 6648 6649 6650 6651 6652 6653 6654 6655 6656 6657 6658 6659 6660 6661 6662 6663 6664 6665 6666 6667 6668 6669 6670 6671 6672 6673 6674 6675 6676 6677 6678 6679 6680 6681 6682 6683 6684 6685 6686 6687 6688 6689 6690 6691 6692 6693 6694 6695 6696 6697 6698 6699 6700 6701 6702 6703 6704 6705 6706 6707 6708 6709 6710 6711 6712 6713 6714 6715 6716 6717 6718 6719 6720 6721 6722 6723 6724 6725 6726 6727 6728 6729 6730 6731 6732 6733 6734 6735 6736 6737 6738 6739 6740 6741 6742 6743 6744 6745 6746 6747 6748 6749 6750 6751 6752 6753 6754 6755 6756 6757 6758 6759 6760 6761 6762 6763 6764 6765 6766 6767 6768 6769 6770 6771 6772 6773 6774 6775 6776 6777 6778 6779 6780 6781 6782 6783 6784 6785 6786 6787 6788 6789 6790 6791 6792 6793 6794 6795 6796 6797 6798 6799 6800 6801 6802 6803 6804 6805 6806 6807 6808 6809 6810 6811 6812 6813 6814 6815 6816 6817 6818 6819 6820 6821 6822 6823 6824 6825 6826 6827 6828 6829 6830 6831 6832 6833 6834 6835 6836 6837 6838 6839 6840 6841 6842 6843 6844 6845 6846 6847 6848 6849 6850 6851 6852 6853 6854 6855 6856 6857 6858 6859 6860 6861 6862 6863 6864 6865 6866 6867 6868 6869 6870 6871 6872 6873 6874 6875 6876 6877 6878 6879 6880 6881 6882 6883 6884 6885 6886 6887 6888 6889 6890 6891 6892 6893 6894 6895 6896 6897 6898 6899 6900 6901 6902 6903 6904 6905 6906 6907 6908 6909 6910 6911 6912 6913 6914 6915 6916 6917 6918 6919 6920 6921 6922 6923 6924 6925 6926 6927 6928 6929 6930 6931 6932 6933 6934 6935 6936 6937 6938 6939 6940 6941 6942 6943 6944 6945 6946 6947 6948 6949 6950 6951 6952 6953 6954 6955 6956 6957 6958 6959 6960 6961 6962 6963 6964 6965 6966 6967 6968 6969 6970 6971 6972 6973 6974 6975 6976 6977 6978 6979 6980 6981 6982 6983 6984 6985 6986 6987 6988 6989 6990 6991 6992 6993 6994 6995 6996 6997 6998 6999 7000 7001 7002 7003 7004 7005 7006 7007 7008 7009 7010 7011 7012 7013 7014 7015 7016 7017 7018 7019 7020 7021 7022 7023 7024 7025 7026 7027 7028 7029 7030 7031 7032 7033 7034 7035 7036 7037 7038 7039 7040 7041 7042 7043 7044 7045 7046 7047 7048 7049 7050 7051 7052 7053 7054 7055 7056 7057 7058 7059 7060 7061 7062 7063 7064 7065 7066 7067 7068 7069 7070 7071 7072 7073 7074 7075 7076 7077 7078 7079 7080 7081 7082 7083 7084 7085 7086 7087 7088 7089 7090 7091 7092 7093 7094 7095 7096 7097 7098 7099 7100 7101 7102 7103 7104 7105 7106 7107 7108 7109 7110 7111 7112 7113 7114 7115 7116 7117 7118 7119 7120 7121 7122 7123 7124 7125 7126 7127 7128 7129 7130 7131 7132 7133 7134 7135 7136 7137 7138 7139 7140 7141 7142 7143 7144 7145 7146 7147 7148 7149 7150 7151 7152 7153 7154 7155 7156 7157 7158 7159 7160 7161 7162 7163 7164 7165 7166 7167 7168 7169 7170 7171 7172 7173 7174 7175 7176 7177 7178 7179 7180 7181 7182 7183 7184 7185 7186 7187 7188 7189 7190 7191 7192 7193 7194 7195 7196 7197 7198 7199 7200 7201 7202 7203 7204 7205 7206 7207 7208 7209 7210 7211 7212 7213 7214 7215 7216 7217 7218 7219 7220 7221 7222 7223 7224 7225 7226 7227 7228 7229 7230 7231 7232 7233 7234 7235 7236 7237 7238 7239 7240 7241 7242 7243 7244 7245 7246 7247 7248 7249 7250 7251 7252 7253 7254 7255 7256 7257 7258 7259 7260 7261 7262 7263 7264 7265 7266 7267 7268 7269 7270 7271 7272 7273 7274 7275 7276 7277 7278 7279 7280 7281 7282 7283 7284 7285 7286 7287 7288 7289 7290 7291 7292 7293 7294 7295 7296 7297 7298 7299 7300 7301 7302 7303 7304 7305 7306 7307 7308 7309 7310 7311 7312 7313 7314 7315 7316 7317 7318 7319 7320 7321 7322 7323 7324 7325 7326 7327 7328 7329 7330 7331 7332 7333 7334 7335 7336 7337 7338 7339 7340 7341 7342 7343 7344 7345 7346 7347 7348 7349 7350 7351 7352 7353 7354 7355 7356 7357 7358 7359 7360 7361 7362 7363 7364 7365 7366 7367 7368 7369 7370 7371 7372 7373 7374 7375 7376 7377 7378 7379 7380 7381 7382 7383 7384 7385 7386 7387 7388 7389 7390 7391 7392 7393 7394 7395 7396 7397 7398 7399 7400 7401 7402 7403 7404 7405 7406 7407 7408 7409 7410 7411 7412 7413 7414 7415 7416 7417 7418 7419 7420 7421 7422 7423 7424 7425 7426 7427 7428 7429 7430 7431 7432 7433 7434 7435 7436 7437 7438 7439 7440 7441 7442 7443 7444 7445 7446 7447 7448 7449 7450 7451 7452 7453 7454 7455 7456 7457 7458 7459 7460 7461 7462 7463 7464 7465 7466 7467 7468 7469 7470 7471 7472 7473 7474 7475 7476 7477 7478 7479 7480 7481 7482 7483 7484 7485 7486 7487 7488 7489 7490 7491 7492 7493 7494 7495 7496 7497 7498 7499 7500 7501 7502 7503 7504 7505 7506 7507 7508 7509 7510 7511 7512 7513 7514 7515 7516 7517 7518 7519 7520 7521 7522 7523 7524 7525 7526 7527 7528 7529 7530 7531 7532 7533 7534 7535 7536 7537 7538 7539 7540 7541 7542 7543 7544 7545 7546 7547 7548 7549 7550 7551 7552 7553 7554 7555 7556 7557 7558 7559 7560 7561 7562 7563 7564 7565 7566 7567 7568 7569 7570 7571 7572 7573 7574 7575 7576 7577 7578 7579 7580 7581 7582 7583 7584 7585 7586 7587 7588 7589 7590 7591 7592 7593 7594 7595 7596 7597 7598 7599 7600 7601 7602 7603 7604 7605 7606 7607 7608 7609 7610 7611 7612 7613 7614 7615 7616 7617 7618 7619 7620 7621 7622 7623 7624 7625 7626 7627 7628 7629 7630 7631 7632 7633 7634 7635 7636 7637 7638 7639 7640 7641 7642 7643 7644 7645 7646 7647 7648 7649 7650 7651 7652 7653 7654 7655 7656 7657 7658 7659 7660 7661 7662 7663 7664 7665 7666 7667 7668 7669 7670 7671 7672 7673 7674 7675 7676 7677 7678 7679 7680 7681 7682 7683 7684 7685 7686 7687 7688 7689 7690 7691 7692 7693 7694 7695 7696 7697 7698 7699 7700 7701 7702 7703 7704 7705 7706 7707 7708 7709 7710 7711 7712 7713 7714 7715 7716 7717 7718 7719 7720 7721 7722 7723 7724 7725 7726 7727 7728 7729 7730 7731 7732 7733 7734 7735 7736 7737 7738 7739 7740 7741 7742 7743 7744 7745 7746 7747 7748 7749 7750 7751 7752 7753 7754 7755 7756 7757 7758 7759 7760 7761 7762 7763 7764 7765 7766 7767 7768 7769 7770 7771 7772 7773 7774 7775 7776 7777 7778 7779 7780 7781 7782 7783 7784 7785 7786 7787 7788 7789 7790 7791 7792 7793 7794 7795 7796 7797 7798 7799 7800 7801 7802 7803 7804 7805 7806 7807 7808 7809 7810 7811 7812 7813 7814 7815 7816 7817 7818 7819 7820 7821 7822 7823 7824 7825 7826 7827 7828 7829 7830 7831 7832 7833 7834 7835 7836 7837 7838 7839 7840 7841 7842 7843 7844 7845 7846 7847 7848 7849 7850 7851 7852 7853 7854 7855 7856 7857 7858 7859 7860 7861 7862 7863 7864 7865 7866 7867 7868 7869 7870 7871 7872 7873 7874 7875 7876 7877 7878 7879 7880 7881 7882 7883 7884 7885 7886 7887 7888 7889 7890 7891 7892 7893 7894 7895 7896 7897 7898 7899 7900 7901 7902 7903 7904 7905 7906 7907 7908 7909 7910 7911 7912 7913 7914 7915 7916 7917 7918 7919 7920 7921 7922 7923 7924 7925 7926 7927 7928 7929 7930 7931 7932 7933 7934 7935 7936 7937 7938 7939 7940 7941 7942 7943 7944 7945 7946 7947 7948 7949 7950 7951 7952 7953 7954 7955 7956 7957 7958 7959 7960 7961 7962 7963 7964 7965 7966 7967 7968 7969 7970 7971 7972 7973 7974 7975 7976 7977 7978 7979 7980 7981 7982 7983 7984 7985 7986 7987 7988 7989 7990 7991 7992 7993 7994 7995 7996 7997 7998 7999 8000 8001 8002 8003 8004 8005 8006 8007 8008 8009 8010 8011 8012 8013 8014 8015 8016 8017 8018 8019 8020 8021 8022 8023 8024 8025 8026 8027 8028 8029 8030 8031 8032 8033 8034 8035 8036 8037 8038 8039 8040 8041 8042 8043 8044 8045 8046 8047 8048 8049 8050 8051 8052 8053 8054 8055 8056 8057 8058 8059 8060 8061 8062 8063 8064 8065 8066 8067 8068 8069 8070 8071 8072 8073 8074 8075 8076 8077 8078 8079 8080 8081 8082 8083 8084 8085 8086 8087 8088 8089 8090 8091 8092 8093 8094 8095 8096 8097 8098 8099 8100 8101 8102 8103 8104 8105 8106 8107 8108 8109 8110 8111 8112 8113 8114 8115 8116 8117 8118 8119 8120 8121 8122 8123 8124 8125 8126 8127 8128 8129 8130 8131 8132 8133 8134 8135 8136 8137 8138 8139 8140 8141 8142 8143 8144 8145 8146 8147 8148 8149 8150 8151 8152 8153 8154 8155 8156 8157 8158 8159 8160 8161 8162 8163 8164 8165 8166 8167 8168 8169 8170 8171 8172 8173 8174 8175 8176 8177 8178 8179 8180 8181 8182 8183 8184 8185 8186 8187 8188 8189 8190 8191 8192 8193 8194 8195 8196 8197 8198 8199 8200 8201 8202 8203 8204 8205 8206 8207 8208 8209 8210 8211 8212 8213 8214 8215 8216 8217 8218 8219 8220 8221 8222 8223 8224 8225 8226 8227 8228 8229 8230 8231 8232 8233 8234 8235 8236 8237 8238 8239 8240 8241 8242 8243 8244 8245 8246 8247 8248 8249 8250 8251 8252 8253 8254 8255 8256 8257 8258 8259 8260 8261 8262 8263 8264 8265 8266 8267 8268 8269 8270 8271 8272 8273 8274 8275 8276 8277 8278 8279 8280 8281 8282 8283 8284 8285 8286 8287 8288 8289 8290 8291 8292 8293 8294 8295 8296 8297 8298 8299 8300 8301 8302 8303 8304 8305 8306 8307 8308 8309 8310 8311 8312 8313 8314 8315 8316 8317 8318 8319 8320 8321 8322 8323 8324 8325 8326 8327 8328 8329 8330 8331 8332 8333 8334 8335 8336 8337 8338 8339 8340 8341 8342 8343 8344 8345 8346 8347 8348 8349 8350 8351 8352 8353 8354 8355 8356 8357 8358 8359 8360 8361 8362 8363 8364 8365 8366 8367 8368 8369 8370 8371 8372 8373 8374 8375 8376 8377 8378 8379 8380 8381 8382 8383 8384 8385 8386 8387 8388 8389 8390 8391 8392 8393 8394 8395 8396 8397 8398 8399 8400 8401 8402 8403 8404 8405 8406 8407 8408 8409 8410 8411 8412 8413 8414 8415 8416 8417 8418 8419 8420 8421 8422 8423 8424 8425 8426 8427 8428 8429 8430 8431 8432 8433 8434 8435 8436 8437 8438 8439 8440 8441 8442 8443 8444 8445 8446 8447 8448 8449 8450 8451 8452 8453 8454 8455 8456 8457 8458 8459 8460 8461 8462 8463 8464 8465 8466 8467 8468 8469 8470 8471 8472 8473 8474 8475 8476 8477 8478 8479 8480 8481 8482 8483 8484 8485 8486 8487 8488 8489 8490 8491 8492 8493 8494 8495 8496 8497 8498 8499 8500 8501 8502 8503 8504 8505 8506 8507 8508 8509 8510 8511 8512 8513 8514 8515 8516 8517 8518 8519 8520 8521 8522 8523 8524 8525 8526 8527 8528 8529 8530 8531 8532 8533 8534 8535 8536 8537 8538 8539 8540 8541 8542 8543 8544 8545 8546 8547 8548 8549 8550 8551 8552 8553 8554 8555 8556 8557 8558 8559 8560 8561 8562 8563 8564 8565 8566 8567 8568 8569 8570 8571 8572 8573 8574 8575 8576 8577 8578 8579 8580 8581 8582 8583 8584 8585 8586 8587 8588 8589 8590 8591 8592 8593 8594 8595 8596 8597 8598 8599 8600 8601 8602 8603 8604 8605 8606 8607 8608 8609 8610 8611 8612 8613 8614 8615 8616 8617 8618 8619 8620 8621 8622 8623 8624 8625 8626 8627 8628 8629 8630 8631 8632 8633 8634 8635 8636 8637 8638 8639 8640 8641 8642 8643 8644 8645 8646 8647 8648 8649 8650 8651 8652 8653 8654 8655 8656 8657 8658 8659 8660 8661 8662 8663 8664 8665 8666 8667 8668 8669 8670 8671 8672 8673 8674 8675 8676 8677 8678 8679 8680 8681 8682 8683 8684 8685 8686 8687 8688 8689 8690 8691 8692 8693 8694 8695 8696 8697 8698 8699 8700 8701 8702 8703 8704 8705 8706 8707 8708 8709 8710 8711 8712 8713 8714 8715 8716 8717 8718 8719 8720 8721 8722 8723 8724 8725 8726 8727 8728 8729 8730 8731 8732 8733 8734 8735 8736 8737 8738 8739 8740 8741 8742 8743 8744 8745 8746 8747 8748 8749 8750 8751 8752 8753 8754 8755 8756 8757 8758 8759 8760 8761 8762 8763 8764 8765 8766 8767 8768 8769 8770 8771 8772 8773 8774 8775 8776 8777 8778 8779 8780 8781 8782 8783 8784 8785 8786 8787 8788 8789 8790 8791 8792 8793 8794 8795 8796 8797 8798 8799 8800 8801 8802 8803 8804 8805 8806 8807 8808 8809 8810 8811 8812 8813 8814 8815 8816 8817 8818 8819 8820 8821 8822 8823 8824 8825 8826 8827 8828 8829 8830 8831 8832 8833 8834 8835 8836 8837 8838 8839 8840 8841 8842 8843 8844 8845 8846 8847 8848 8849 8850 8851 8852 8853 8854 8855 8856 8857 8858 8859 8860 8861 8862 8863 8864 8865 8866 8867 8868 8869 8870 8871 8872 8873 8874 8875 8876 8877 8878 8879 8880 8881 8882 8883 8884 8885 8886 8887 8888 8889 8890 8891 8892 8893 8894 8895 8896 8897 8898 8899 8900 8901 8902 8903 8904 8905 8906 8907 8908 8909 8910 8911 8912 8913 8914 8915 8916 8917 8918 8919 8920 8921 8922 8923 8924 8925 8926 8927 8928 8929 8930 8931 8932 8933 8934 8935 8936 8937 8938 8939 8940 8941 8942 8943 8944 8945 8946 8947 8948 8949 8950 8951 8952 8953 8954 8955 8956 8957 8958 8959 8960 8961 8962 8963 8964 8965 8966 8967 8968 8969 8970 8971 8972 8973 8974 8975 8976 8977 8978 8979 8980 8981 8982 8983 8984 8985 8986 8987 8988 8989 8990 8991 8992 8993 8994 8995 8996 8997 8998 8999 9000 9001 9002 9003 9004 9005 9006 9007 9008 9009 9010 9011 9012 9013 9014 9015 9016 9017 9018 9019 9020 9021 9022 9023 9024 9025 9026 9027 9028 9029 9030 9031 9032 9033 9034 9035 9036 9037 9038 9039 9040 9041 9042 9043 9044 9045 9046 9047 9048 9049 9050 9051 9052 9053 9054 9055 9056 9057 9058 9059 9060 9061 9062 9063 9064 9065 9066 9067 9068 9069 9070 9071 9072 9073 9074 9075 9076 9077 9078 9079 9080 9081 9082 9083 9084 9085 9086 9087 9088 9089 9090 9091 9092 9093 9094 9095 9096 9097 9098 9099 9100 9101 9102 9103 9104 9105 9106 9107 9108 9109 9110 9111 9112 9113 9114 9115 9116 9117 9118 9119 9120 9121 9122 9123 9124 9125 9126 9127 9128 9129 9130 9131 9132 9133 9134 9135 9136 9137 9138 9139 9140 9141 9142 9143 9144 9145 9146 9147 9148 9149 9150 9151 9152 9153 9154 9155 9156 9157 9158 9159 9160 9161 9162 9163 9164 9165 9166 9167 9168 9169 9170 9171 9172 9173 9174 9175 9176 9177 9178 9179 9180 9181 9182 9183 9184 9185 9186 9187 9188 9189 9190 9191 9192 9193 9194 9195 9196 9197 9198 9199 9200 9201 9202 9203 9204 9205 9206 9207 9208 9209 9210 9211 9212 9213 9214 9215 9216 9217 9218 9219 9220 9221 9222 9223 9224 9225 9226 9227 9228 9229 9230 9231 9232 9233 9234 9235 9236 9237 9238 9239 9240 9241 9242 9243 9244 9245 9246 9247 9248 9249 9250 9251 9252 9253 9254 9255 9256 9257 9258 9259 9260 9261 9262 9263 9264 9265 9266 9267 9268 9269 9270 9271 9272 9273 9274 9275 9276 9277 9278 9279 9280 9281 9282 9283 9284 9285 9286 9287 9288 9289 9290 9291 9292 9293 9294 9295 9296 9297 9298 9299 9300 9301 9302 9303 9304 9305 9306 9307 9308 9309 9310 9311 9312 9313 9314 9315 9316 9317 9318 9319 9320 9321 9322 9323 9324 9325 9326 9327 9328 9329 9330 9331 9332 9333 9334 9335 9336 9337 9338 9339 9340 9341 9342 9343 9344 9345 9346 9347 9348 9349 9350 9351 9352 9353 9354 9355 9356 9357 9358 9359 9360 9361 9362 9363 9364 9365 9366 9367 9368 9369 9370 9371 9372 9373 9374 9375 9376 9377 9378 9379 9380 9381 9382 9383 9384 9385 9386 9387 9388 9389 9390 9391 9392 9393 9394 9395 9396 9397 9398 9399 9400 9401 9402 9403 9404 9405 9406 9407 9408 9409 9410 9411 9412 9413 9414 9415 9416 9417 9418 9419 9420 9421 9422 9423 9424 9425 9426 9427 9428 9429 9430 9431 9432 9433 9434 9435 9436 9437 9438 9439 9440 9441 9442 9443 9444 9445 9446 9447 9448 9449 9450 9451 9452 9453 9454 9455 9456 9457 9458 9459 9460 9461 9462 9463 9464 9465 9466 9467 9468 9469 9470 9471 9472 9473 9474 9475 9476 9477 9478 9479 9480 9481 9482 9483 9484 9485 9486 9487 9488 9489 9490 9491 9492 9493 9494 9495 9496 9497 9498 9499 9500 9501 9502 9503 9504 9505 9506 9507 9508 9509 9510 9511 9512 9513 9514 9515 9516 9517 9518 9519 9520 9521 9522 9523 9524 9525 9526 9527 9528 9529 9530 9531 9532 9533 9534 9535 9536 9537 9538 9539 9540 9541 9542 9543 9544 9545 9546 9547 9548 9549 9550 9551 9552 9553 9554 9555 9556 9557 9558 9559 9560 9561 9562 9563 9564 9565 9566 9567 9568 9569 9570 9571 9572 9573 9574 9575 9576 9577 9578 9579 9580 9581 9582 9583 9584 9585 9586 9587 9588 9589 9590 9591 9592 9593 9594 9595 9596 9597 9598 9599 9600 9601 9602 9603 9604 9605 9606 9607 9608 9609 9610 9611 9612 9613 9614 9615 9616 9617 9618 9619 9620 9621 9622 9623 9624 9625 9626 9627 9628 9629 9630 9631 9632 9633 9634 9635 9636 9637 9638 9639 9640 9641 9642 9643 9644 9645 9646 9647 9648 9649 9650 9651 9652 9653 9654 9655 9656 9657 9658 9659 9660 9661 9662 9663 9664 9665 9666 9667 9668 9669 9670 9671 9672 9673 9674 9675 9676 9677 9678 9679 9680 9681 9682 9683 9684 9685 9686 9687 9688 9689 9690 9691 9692 9693 9694 9695 9696 9697 9698 9699 9700 9701 9702 9703 9704 9705 9706 9707 9708 9709 9710 9711 9712 9713 9714 9715 9716 9717 9718 9719 9720 9721 9722 9723 9724 9725 9726 9727 9728 9729 9730 9731 9732 9733 9734 9735 9736 9737 9738 9739 9740 9741 9742 9743 9744 9745 9746 9747 9748 9749 9750 9751 9752 9753 9754 9755 9756 9757 9758 9759 9760 9761 9762 9763 9764 9765 9766 9767 9768 9769 9770 9771 9772 9773 9774 9775 9776 9777 9778 9779 9780 9781 9782 9783 9784 9785 9786 9787 9788 9789 9790 9791 9792 9793 9794 9795 9796 9797 9798 9799 9800 9801 9802 9803 9804 9805 9806 9807 9808 9809 9810 9811 9812 9813 9814 9815 9816 9817 9818 9819 9820 9821 9822 9823 9824 9825 9826 9827 9828 9829 9830 9831 9832 9833 9834 9835 9836 9837 9838 9839 9840 9841 9842 9843 9844 9845 9846 9847 9848 9849 9850 9851 9852 9853 9854 9855 9856 9857 9858 9859 9860 9861 9862 9863 9864 9865 9866 9867 9868 9869 9870 9871 9872 9873 9874 9875 9876 9877 9878 9879 9880 9881 9882 9883 9884 9885 9886 9887 9888 9889 9890 9891 9892 9893 9894 9895 9896 9897 9898 9899 9900 9901 9902 9903 9904 9905 9906 9907 9908 9909 9910 9911 9912 9913 9914 9915 9916 9917 9918 9919 9920 9921 9922 9923 9924 9925 9926 9927 9928 9929 9930 9931 9932 9933 9934 9935 9936 9937 9938 9939 9940 9941 9942 9943 9944 9945 9946 9947 9948 9949 9950 9951 9952 9953 9954 9955 9956 9957 9958 9959 9960 9961 9962 9963 9964 9965 9966 9967 9968 9969 9970 9971 9972 9973 9974 9975 9976 9977 9978 9979 9980 9981 9982 9983 9984 9985 9986 9987 9988 9989 9990 9991 9992 9993 9994 9995 9996 9997 9998 9999 10000 10001 10002 10003 10004 10005 10006 10007 10008 10009 10010 10011 10012 10013 10014 10015 10016 10017 10018 10019 10020 10021 10022 10023 10024 10025 10026 10027 10028 10029 10030 10031 10032 10033 10034 10035 10036 10037 10038 10039 10040 10041 10042 10043 10044 10045 10046 10047 10048 10049 10050 10051 10052 10053 10054 10055 10056 10057 10058 10059 10060 10061 10062 10063 10064 10065 10066 10067 10068 10069 10070 10071 10072 10073 10074 10075 10076 10077 10078 10079 10080 10081 10082 10083 10084 10085 10086 10087 10088 10089 10090 10091 10092 10093 10094 10095 10096 10097 10098 10099 10100 10101 10102 10103 10104 10105 10106 10107 10108 10109 10110 10111 10112 10113 10114 10115 10116 10117 10118 10119 10120 10121 10122 10123 10124 10125 10126 10127 10128 10129 10130 10131 10132 10133 10134 10135 10136 10137 10138 10139 10140 10141 10142 10143 10144 10145 10146 10147 10148 10149 10150 10151 10152 10153 10154 10155 10156 10157 10158 10159 10160 10161 10162 10163 10164 10165 10166 10167 10168 10169 10170 10171 10172 10173 10174 10175 10176 10177 10178 10179 10180 10181 10182 10183 10184 10185 10186 10187 10188 10189 10190 10191 10192 10193 10194 10195 10196 10197 10198 10199 10200 10201 10202 10203 10204 10205 10206 10207 10208 10209 10210 10211 10212 10213 10214 10215 10216 10217 10218 10219 10220 10221 10222 10223 10224 10225 10226 10227 10228 10229 10230 10231 10232 10233 10234 10235 10236 10237 10238 10239 10240 10241 10242 10243 10244 10245 10246 10247 10248 10249 10250 10251 10252 10253 10254 10255 10256 10257 10258 10259 10260 10261 10262 10263 10264 10265 10266 10267 10268 10269 10270 10271 10272 10273 10274 10275 10276 10277 10278 10279 10280 10281 10282 10283 10284 10285 10286 10287 10288 10289 10290 10291 10292 10293 10294 10295 10296 10297 10298 10299 10300 10301 10302 10303 10304 10305 10306 10307 10308 10309 10310 10311 10312 10313 10314 10315 10316 10317 10318 10319 10320 10321 10322 10323 10324 10325 10326 10327 10328 10329 10330 10331 10332 10333 10334 10335 10336 10337 10338 10339 10340 10341 10342 10343 10344 10345 10346 10347 10348 10349 10350 10351 10352 10353 10354 10355 10356 10357 10358 10359 10360 10361 10362 10363 10364 10365 10366 10367 10368 10369 10370 10371 10372 10373 10374 10375 10376 10377 10378 10379 10380 10381 10382 10383 10384 10385 10386 10387 10388 10389 10390 10391 10392 10393 10394 10395 10396 10397 10398 10399 10400 10401 10402 10403 10404 10405 10406 10407 10408 10409 10410 10411 10412 10413 10414 10415 10416 10417 10418 10419 10420 10421 10422 10423 10424 10425 10426 10427 10428 10429 10430 10431 10432 10433 10434 10435 10436 10437 10438 10439 10440 10441 10442 10443 10444 10445 10446 10447 10448 10449 10450 10451 10452 10453 10454 10455 10456 10457 10458 10459 10460 10461 10462 10463 10464 10465 10466 10467 10468 10469 10470 10471 10472 10473 10474 10475 10476 10477 10478 10479 10480 10481 10482 10483 10484 10485 10486 10487 10488 10489 10490 10491 10492 10493 10494 10495 10496 10497 10498 10499 10500 10501 10502 10503 10504 10505 10506 10507 10508 10509 10510 10511 10512 10513 10514 10515 10516 10517 10518 10519 10520 10521 10522 10523 10524 10525 10526 10527 10528 10529 10530 10531 10532 10533 10534 10535 10536 10537 10538 10539 10540 10541 10542 10543 10544 10545 10546 10547 10548 10549 10550 10551 10552 10553 10554 10555 10556 10557 10558 10559 10560 10561 10562 10563 10564 10565 10566 10567 10568 10569 10570 10571 10572 10573 10574 10575 10576 10577 10578 10579 10580 10581 10582 10583 10584 10585 10586 10587 10588 10589 10590 10591 10592 10593 10594 10595 10596 10597 10598 10599 10600 10601 10602 10603 10604 10605 10606 10607 10608 10609 10610 10611 10612 10613 10614 10615 10616 10617 10618 10619 10620 10621 10622 10623 10624 10625 10626 10627 10628 10629 10630 10631 10632 10633 10634 10635 10636 10637 10638 10639 10640 10641 10642 10643 10644 10645 10646 10647 10648 10649 10650 10651 10652 10653 10654 10655 10656 10657 10658 10659 10660 10661 10662 10663 10664 10665 10666 10667 10668 10669 10670 10671 10672 10673 10674 10675 10676 10677 10678 10679 10680 10681 10682 10683 10684 10685 10686 10687 10688 10689 10690 10691 10692 10693 10694 10695 10696 10697 10698 10699 10700 10701 10702 10703 10704 10705 10706 10707 10708 10709 10710 10711 10712 10713 10714 10715 10716 10717 10718 10719 10720 10721 10722 10723 10724 10725 10726 10727 10728 10729 10730 10731 10732 10733 10734 10735 10736 10737 10738 10739 10740 10741 10742 10743 10744 10745 10746 10747 10748 10749 10750 10751 10752 10753 10754 10755 10756 10757 10758 10759 10760 10761 10762 10763 10764 10765 10766 10767 10768 10769 10770 10771 10772 10773 10774 10775 10776 10777 10778 10779 10780 10781 10782 10783 10784 10785 10786 10787 10788 10789 10790 10791 10792 10793 10794 10795 10796 10797 10798 10799 10800 10801 10802 10803 10804 10805 10806 10807 10808 10809 10810 10811 10812 10813 10814 10815 10816 10817 10818 10819 10820 10821 10822 10823 10824 10825 10826 10827 10828 10829 10830 10831 10832 10833 10834 10835 10836 10837 10838 10839 10840 10841 10842 10843 10844 10845 10846 10847 10848 10849 10850 10851 10852 10853 10854 10855 10856 10857 10858 10859 10860 10861 10862 10863 10864 10865 10866 10867 10868 10869 10870 10871 10872 10873 10874 10875 10876 10877 10878 10879 10880 10881 10882 10883 10884 10885 10886 10887 10888 10889 10890 10891 10892 10893 10894 10895 10896 10897 10898 10899 10900 10901 10902 10903 10904 10905 10906 10907 10908 10909 10910 10911 10912 10913 10914 10915 10916 10917 10918 10919 10920 10921 10922 10923 10924 10925 10926 10927 10928 10929 10930 10931 10932 10933 10934 10935 10936 10937 10938 10939 10940 10941 10942 10943 10944 10945 10946 10947 10948 10949 10950 10951 10952 10953 10954 10955 10956 10957 10958 10959 10960 10961 10962 10963 10964 10965 10966 10967 10968 10969 10970 10971 10972 10973 10974 10975 10976 10977 10978 10979 10980 10981 10982 10983 10984 10985 10986 10987 10988 10989 10990 10991 10992 10993 10994 10995 10996 10997 10998 10999 11000 11001 11002 11003 11004 11005 11006 11007 11008 11009 11010 11011 11012 11013 11014 11015 11016 11017 11018 11019 11020 11021 11022 11023 11024 11025 11026 11027 11028 11029 11030 11031 11032 11033 11034 11035 11036 11037 11038 11039 11040 11041 11042 11043 11044 11045 11046 11047 11048 11049 11050 11051 11052 11053 11054 11055 11056 11057 11058 11059 11060 11061 11062 11063 11064 11065 11066 11067 11068 11069 11070 11071 11072 11073 11074 11075 11076 11077 11078 11079 11080 11081 11082 11083 11084 11085 11086 11087 11088 11089 11090 11091 11092 11093 11094 11095 11096 11097 11098 11099 11100 11101 11102 11103 11104 11105 11106 11107 11108 11109 11110 11111 11112 11113 11114 11115 11116 11117 11118 11119 11120 11121 11122 11123 11124 11125 11126 11127 11128 11129 11130 11131 11132 11133 11134 11135 11136 11137 11138 11139 11140 11141 11142 11143 11144 11145 11146 11147 11148 11149 11150 11151 11152 11153 11154 11155 11156 11157 11158 11159 11160 11161 11162 11163 11164 11165 11166 11167 11168 11169 11170 11171 11172 11173 11174 11175 11176 11177 11178 11179 11180 11181 11182 11183 11184 11185 11186 11187 11188 11189 11190 11191 11192 11193 11194 11195 11196 11197 11198 11199 11200 11201 11202 11203 11204 11205 11206 11207 11208 11209 11210 11211 11212 11213 11214 11215 11216 11217 11218 11219 11220 11221 11222 11223 11224 11225 11226 11227 11228 11229 11230 11231 11232 11233 11234 11235 11236 11237 11238 11239 11240 11241 11242 11243 11244 11245 11246 11247 11248 11249 11250 11251 11252 11253 11254 11255 11256 11257 11258 11259 11260 11261 11262 11263 11264 11265 11266 11267 11268 11269 11270 11271 11272 11273 11274 11275 11276 11277 11278 11279 11280 11281 11282 11283 11284 11285 11286 11287 11288 11289 11290 11291 11292 11293 11294 11295 11296 11297 11298 11299 11300 11301 11302 11303 11304 11305 11306 11307 11308 11309 11310 11311 11312 11313 11314 11315 11316 11317 11318 11319 11320 11321 11322 11323 11324 11325 11326 11327 11328 11329 11330 11331 11332 11333 11334 11335 11336 11337 11338 11339 11340 11341 11342 11343 11344 11345 11346 11347 11348 11349 11350 11351 11352 11353 11354 11355 11356 11357 11358 11359 11360 11361 11362 11363 11364 11365 11366 11367 11368 11369 11370 11371 11372 11373 11374 11375 11376 11377 11378 11379 11380 11381 11382 11383 11384 11385 11386 11387 11388 11389 11390 11391 11392 11393 11394 11395 11396 11397 11398 11399 11400 11401 11402 11403 11404 11405 11406 11407 11408 11409 11410 11411 11412 11413 11414 11415 11416 11417 11418 11419 11420 11421 11422 11423 11424 11425 11426 11427 11428 11429 11430 11431 11432 11433 11434 11435 11436 11437 11438 11439 11440 11441 11442 11443 11444 11445 11446 11447 11448 11449 11450 11451 11452 11453 11454 11455 11456 11457 11458 11459 11460 11461 11462 11463 11464 11465 11466 11467 11468 11469 11470 11471 11472 11473 11474 11475 11476 11477 11478 11479 11480 11481 11482 11483 11484 11485 11486 11487 11488 11489 11490 11491 11492 11493 11494 11495 11496 11497 11498 11499 11500 11501 11502 11503 11504 11505 11506 11507 11508 11509 11510 11511 11512 11513 11514 11515 11516 11517 11518 11519 11520 11521 11522 11523 11524 11525 11526 11527 11528 11529 11530 11531 11532 11533 11534 11535 11536 11537 11538 11539 11540 11541 11542 11543 11544 11545 11546 11547 11548 11549 11550 11551 11552 11553 11554 11555 11556 11557 11558 11559 11560 11561 11562 11563 11564 11565 11566 11567 11568 11569 11570 11571 11572 11573 11574 11575 11576 11577 11578 11579 11580 11581 11582 11583 11584 11585 11586 11587 11588 11589 11590 11591 11592 11593 11594 11595 11596 11597 11598 11599 11600 11601 11602 11603 11604 11605 11606 11607 11608 11609 11610 11611 11612 11613 11614 11615 11616 11617 11618 11619 11620 11621 11622 11623 11624 11625 11626 11627 11628 11629 11630 11631 11632 11633 11634 11635 11636 11637 11638 11639 11640 11641 11642 11643 11644 11645 11646 11647 11648 11649 11650 11651 11652 11653 11654 11655 11656 11657 11658 11659 11660 11661 11662 11663 11664 11665 11666 11667 11668 11669 11670 11671 11672 11673 11674 11675 11676 11677 11678 11679 11680 11681 11682 11683 11684 11685 11686 11687 11688 11689 11690 11691 11692 11693 11694 11695 11696 11697 11698 11699 11700 11701 11702 11703 11704 11705 11706 11707 11708 11709 11710 11711 11712 11713 11714 11715 11716 11717 11718 11719 11720 11721 11722 11723 11724 11725 11726 11727 11728 11729 11730 11731 11732 11733 11734 11735 11736 11737 11738 11739 11740 11741 11742 11743 11744 11745 11746 11747 11748 11749 11750 11751 11752 11753 11754 11755 11756 11757 11758 11759 11760 11761 11762 11763 11764 11765 11766 11767 11768 11769 11770 11771 11772 11773 11774 11775 11776 11777 11778 11779 11780 11781 11782 11783 11784 11785 11786 11787 11788 11789 11790 11791 11792 11793 11794 11795 11796 11797 11798 11799 11800 11801 11802 11803 11804 11805 11806 11807 11808 11809 11810 11811 11812 11813 11814 11815 11816 11817 11818 11819 11820 11821 11822 11823 11824 11825 11826 11827 11828 11829 11830 11831 11832 11833 11834 11835 11836 11837 11838 11839 11840 11841 11842 11843 11844 11845 11846 11847 11848 11849 11850 11851 11852 11853 11854 11855 11856 11857 11858 11859 11860 11861 11862 11863 11864 11865 11866 11867 11868 11869 11870 11871 11872 11873 11874 11875 11876 11877 11878 11879 11880 11881 11882 11883 11884 11885 11886 11887 11888 11889 11890 11891 11892 11893 11894 11895 11896 11897 11898 11899 11900 11901 11902 11903 11904 11905 11906 11907 11908 11909 11910 11911 11912 11913 11914 11915 11916 11917 11918 11919 11920 11921 11922 11923 11924 11925 11926 11927 11928 11929 11930 11931 11932 11933 11934 11935 11936 11937 11938 11939 11940 11941 11942 11943 11944 11945 11946 11947 11948 11949 11950 11951 11952 11953 11954 11955 11956 11957 11958 11959 11960 11961 11962 11963 11964 11965 11966 11967 11968 11969 11970 11971 11972 11973 11974 11975 11976 11977 11978 11979 11980 11981 11982 11983 11984 11985 11986 11987 11988 11989 11990 11991 11992 11993 11994 11995 11996 11997 11998 11999 12000 12001 12002 12003 12004 12005 12006 12007 12008 12009 12010 12011 12012 12013 12014 12015 12016 12017 12018 12019 12020 12021 12022 12023 12024 12025 12026 12027 12028 12029 12030 12031 12032 12033 12034 12035 12036 12037 12038 12039 12040 12041 12042 12043 12044 12045 12046 12047 12048 12049 12050 12051 12052 12053 12054 12055 12056 12057 12058 12059 12060 12061 12062 12063 12064 12065 12066 12067 12068 12069 12070 12071 12072 12073 12074 12075 12076 12077 12078 12079 12080 12081 12082 12083 12084 12085 12086 12087 12088 12089 12090 12091 12092 12093 12094 12095 12096 12097 12098 12099 12100 12101 12102 12103 12104 12105 12106 12107 12108 12109 12110 12111 12112 12113 12114 12115 12116 12117 12118 12119 12120 12121 12122 12123 12124 12125 12126 12127 12128 12129 12130 12131 12132 12133 12134 12135 12136 12137 12138 12139 12140 12141 12142 12143 12144 12145 12146 12147 12148 12149 12150 12151 12152 12153 12154 12155 12156 12157 12158 12159 12160 12161 12162 12163 12164 12165 12166 12167 12168 12169 12170 12171 12172 12173 12174 12175 12176 12177 12178 12179 12180 12181 12182 12183 12184 12185 12186 12187 12188 12189 12190 12191 12192 12193 12194 12195 12196 12197 12198 12199 12200 12201 12202 12203 12204 12205 12206 12207 12208 12209 12210 12211 12212 12213 12214 12215 12216 12217 12218 12219 12220 12221 12222 12223 12224 12225 12226 12227 12228 12229 12230 12231 12232 12233 12234 12235 12236 12237 12238 12239 12240 12241 12242 12243 12244 12245 12246 12247 12248 12249 12250 12251 12252 12253 12254 12255 12256 12257 12258 12259 12260 12261 12262 12263 12264 12265 12266 12267 12268 12269 12270 12271 12272 12273 12274 12275 12276 12277 12278 12279 12280 12281 12282 12283 12284 12285 12286 12287 12288 12289 12290 12291 12292 12293 12294 12295 12296 12297 12298 12299 12300 12301 12302 12303 12304 12305 12306 12307 12308 12309 12310 12311 12312 12313 12314 12315 12316 12317 12318 12319 12320 12321 12322 12323 12324 12325 12326 12327 12328 12329 12330 12331 12332 12333 12334 12335 12336 12337 12338 12339 12340 12341 12342 12343 12344 12345 12346 12347 12348 12349 12350 12351 12352 12353 12354 12355 12356 12357 12358 12359 12360 12361 12362 12363 12364 12365 12366 12367 12368 12369 12370 12371 12372 12373 12374 12375 12376 12377 12378 12379 12380 12381 12382 12383 12384 12385 12386 12387 12388 12389 12390 12391 12392 12393 12394 12395 12396 12397 12398 12399 12400 12401 12402 12403 12404 12405 12406 12407 12408 12409 12410 12411 12412 12413 12414 12415 12416 12417 12418 12419 12420 12421 12422 12423 12424 12425 12426 12427 12428 12429 12430 12431 12432 12433 12434 12435 12436 12437 12438 12439 12440 12441 12442 12443 12444 12445 12446 12447 12448 12449 12450 12451 12452 12453 12454 12455 12456 12457 12458 12459 12460 12461 12462 12463 12464 12465 12466 12467 12468 12469 12470 12471 12472 12473 12474 12475 12476 12477 12478 12479 12480 12481 12482 12483 12484 12485 12486 12487 12488 12489 12490 12491 12492 12493 12494 12495 12496 12497 12498 12499 12500 12501 12502 12503 12504 12505 12506 12507 12508 12509 12510 12511 12512 12513 12514 12515 12516 12517 12518 12519 12520 12521 12522 12523 12524 12525 12526 12527 12528 12529 12530 12531 12532 12533 12534 12535 12536 12537 12538 12539 12540 12541 12542 12543 12544 12545 12546 12547 12548 12549 12550 12551 12552 12553 12554 12555 12556 12557 12558 12559 12560 12561 12562 12563 12564 12565 12566 12567 12568 12569 12570 12571 12572 12573 12574 12575 12576 12577 12578 12579 12580 12581 12582 12583 12584 12585 12586 12587 12588 12589 12590 12591 12592 12593 12594 12595 12596 12597 12598 12599 12600 12601 12602 12603 12604 12605 12606 12607 12608 12609 12610 12611 12612 12613 12614 12615 12616 12617 12618 12619 12620 12621 12622 12623 12624 12625 12626 12627 12628 12629 12630 12631 12632 12633 12634 12635 12636 12637 12638 12639 12640 12641 12642 12643 12644 12645 12646 12647 12648 12649 12650 12651 12652 12653 12654 12655 12656 12657 12658 12659 12660 12661 12662 12663 12664 12665 12666 12667 12668 12669 12670 12671 12672 12673 12674 12675 12676 12677 12678 12679 12680 12681 12682 12683 12684 12685 12686 12687 12688 12689 12690 12691 12692 12693 12694 12695 12696 12697 12698 12699 12700 12701 12702 12703 12704 12705 12706 12707 12708 12709 12710 12711 12712 12713 12714 12715 12716 12717 12718 12719 12720 12721 12722 12723 12724 12725 12726 12727 12728 12729 12730 12731 12732 12733 12734 12735 12736 12737 12738 12739 12740 12741 12742 12743 12744 12745 12746 12747 12748 12749 12750 12751 12752 12753 12754 12755 12756 12757 12758 12759 12760 12761 12762 12763 12764 12765 12766 12767 12768 12769 12770 12771 12772 12773 12774 12775 12776 12777 12778 12779 12780 12781 12782 12783 12784 12785 12786 12787 12788 12789 12790 12791 12792 12793 12794 12795 12796 12797 12798 12799 12800 12801 12802 12803 12804 12805 12806 12807 12808 12809 12810 12811 12812 12813 12814 12815 12816 12817 12818 12819 12820 12821 12822 12823 12824 12825 12826 12827 12828 12829 12830 12831 12832 12833 12834 12835 12836 12837 12838 12839 12840 12841 12842 12843 12844 12845 12846 12847 12848 12849 12850 12851 12852 12853 12854 12855 12856 12857 12858 12859 12860 12861 12862 12863 12864 12865 12866 12867 12868 12869 12870 12871 12872 12873 12874 12875 12876 12877 12878 12879 12880 12881 12882 12883 12884 12885 12886 12887 12888 12889 12890 12891 12892 12893 12894 12895 12896 12897 12898 12899 12900 12901 12902 12903 12904 12905 12906 12907 12908 12909 12910 12911 12912 12913 12914 12915 12916 12917 12918 12919 12920 12921 12922 12923 12924 12925 12926 12927 12928 12929 12930 12931 12932 12933 12934 12935 12936 12937 12938 12939 12940 12941 12942 12943 12944 12945 12946 12947 12948 12949 12950 12951 12952 12953 12954 12955 12956 12957 12958 12959 12960 12961 12962 12963 12964 12965 12966 12967 12968 12969 12970 12971 12972 12973 12974 12975 12976 12977 12978 12979 12980 12981 12982 12983 12984 12985 12986 12987 12988 12989 12990 12991 12992 12993 12994 12995 12996 12997 12998 12999 13000 13001 13002 13003 13004 13005 13006 13007 13008 13009 13010 13011 13012 13013 13014 13015 13016 13017 13018 13019 13020 13021 13022 13023 13024 13025 13026 13027 13028 13029 13030 13031 13032 13033 13034 13035 13036 13037 13038 13039 13040 13041 13042 13043 13044 13045 13046 13047 13048 13049 13050 13051 13052 13053 13054 13055 13056 13057 13058 13059 13060 13061 13062 13063 13064 13065 13066 13067 13068 13069 13070 13071 13072 13073 13074 13075 13076 13077 13078 13079 13080 13081 13082 13083 13084 13085 13086 13087 13088 13089 13090 13091 13092 13093 13094 13095 13096 13097 13098 13099 13100 13101 13102 13103 13104 13105 13106 13107 13108 13109 13110 13111 13112 13113 13114 13115 13116 13117 13118 13119 13120 13121 13122 13123 13124 13125 13126 13127 13128 13129 13130 13131 13132 13133 13134 13135 13136 13137 13138 13139 13140 13141 13142 13143 13144 13145 13146 13147 13148 13149 13150 13151 13152 13153 13154 13155 13156 13157 13158 13159 13160 13161 13162 13163 13164 13165 13166 13167 13168 13169 13170 13171 13172 13173 13174 13175 13176 13177 13178 13179 13180 13181 13182 13183 13184 13185 13186 13187 13188 13189 13190 13191 13192 13193 13194 13195 13196 13197 13198 13199 13200 13201 13202 13203 13204 13205 13206 13207 13208 13209 13210 13211 13212 13213 13214 13215 13216 13217 13218 13219 13220 13221 13222 13223 13224 13225 13226 13227 13228 13229 13230 13231 13232 13233 13234 13235 13236 13237 13238 13239 13240 13241 13242 13243 13244 13245 13246 13247 13248 13249 13250 13251 13252 13253 13254 13255 13256 13257 13258 13259 13260 13261 13262 13263 13264 13265 13266 13267 13268 13269 13270 13271 13272 13273 13274 13275 13276 13277 13278 13279 13280 13281 13282 13283 13284 13285 13286 13287 13288 13289 13290 13291 13292 13293 13294 13295 13296 13297 13298 13299 13300 13301 13302 13303 13304 13305 13306 13307 13308 13309 13310 13311 13312 13313 13314 13315 13316 13317 13318 13319 13320 13321 13322 13323 13324 13325 13326 13327 13328 13329 13330 13331 13332 13333 13334 13335 13336 13337 13338 13339 13340 13341 13342 13343 13344 13345 13346 13347 13348 13349 13350 13351 13352 13353 13354 13355 13356 13357 13358 13359 13360 13361 13362 13363 13364 13365 13366 13367 13368 13369 13370 13371 13372 13373 13374 13375 13376 13377 13378 13379 13380 13381 13382 13383 13384 13385 13386 13387 13388 13389 13390 13391 13392 13393 13394 13395 13396 13397 13398 13399 13400 13401 13402 13403 13404 13405 13406 13407 13408 13409 13410 13411 13412 13413 13414 13415 13416 13417 13418 13419 13420 13421 13422 13423 13424 13425 13426 13427 13428 13429 13430 13431 13432 13433 13434 13435 13436 13437 13438 13439 13440 13441 13442 13443 13444 13445 13446 13447 13448 13449 13450 13451 13452 13453 13454 13455 13456 13457 13458 13459 13460 13461 13462 13463 13464 13465 13466 13467 13468 13469 13470 13471 13472 13473 13474 13475 13476 13477 13478 13479 13480 13481 13482 13483 13484 13485 13486 13487 13488 13489 13490 13491 13492 13493 13494 13495 13496 13497 13498 13499 13500 13501 13502 13503 13504 13505 13506 13507 13508 13509 13510 13511 13512 13513 13514 13515 13516 13517 13518 13519 13520 13521 13522 13523 13524 13525 13526 13527 13528 13529 13530 13531 13532 13533 13534 13535 13536 13537 13538 13539 13540 13541 13542 13543 13544 13545 13546 13547 13548 13549 13550 13551 13552 13553 13554 13555 13556 13557 13558 13559 13560 13561 13562 13563 13564 13565 13566 13567 13568 13569 13570 13571 13572 13573 13574 13575 13576 13577 13578 13579 13580 13581 13582 13583 13584 13585 13586 13587 13588 13589 13590 13591 13592 13593 13594 13595 13596 13597 13598 13599 13600 13601 13602 13603 13604 13605 13606 13607 13608 13609 13610 13611 13612 13613 13614 13615 13616 13617 13618 13619 13620 13621 13622 13623 13624 13625 13626 13627 13628 13629 13630 13631 13632 13633 13634 13635 13636 13637 13638 13639 13640 13641 13642 13643 13644 13645 13646 13647 13648 13649 13650 13651 13652 13653 13654 13655 13656 13657 13658 13659 13660 13661 13662 13663 13664 13665 13666 13667 13668 13669 13670 13671 13672 13673 13674 13675 13676 13677 13678 13679 13680 13681 13682 13683 13684 13685 13686 13687 13688 13689 13690 13691 13692 13693 13694 13695 13696 13697 13698 13699 13700 13701 13702 13703 13704 13705 13706 13707 13708 13709 13710 13711 13712 13713 13714 13715 13716 13717 13718 13719 13720 13721 13722 13723 13724 13725 13726 13727 13728 13729 13730 13731 13732 13733 13734 13735 13736 13737 13738 13739 13740 13741 13742 13743 13744 13745 13746 13747 13748 13749 13750 13751 13752 13753 13754 13755 13756 13757 13758 13759 13760 13761 13762 13763 13764 13765 13766 13767 13768 13769 13770 13771 13772 13773 13774 13775 13776 13777 13778 13779 13780 13781 13782 13783 13784 13785 13786 13787 13788 13789 13790 13791 13792 13793 13794 13795 13796 13797 13798 13799 13800 13801 13802 13803 13804 13805 13806 13807 13808 13809 13810 13811 13812 13813 13814 13815 13816 13817 13818 13819 13820 13821 13822 13823 13824 13825 13826 13827 13828 13829 13830 13831 13832 13833 13834 13835 13836 13837 13838 13839 13840 13841 13842 13843 13844 13845 13846 13847 13848 13849 13850 13851 13852 13853 13854 13855 13856 13857 13858 13859 13860 13861 13862 13863 13864 13865 13866 13867 13868 13869 13870 13871 13872 13873 13874 13875 13876 13877 13878 13879 13880 13881 13882 13883 13884 13885 13886 13887 13888 13889 13890 13891 13892 13893 13894 13895 13896 13897 13898 13899 13900 13901 13902 13903 13904 13905 13906 13907 13908 13909 13910 13911 13912 13913 13914 13915 13916 13917 13918 13919 13920 13921 13922 13923 13924 13925 13926 13927 13928 13929 13930 13931 13932 13933 13934 13935 13936 13937 13938 13939 13940 13941 13942 13943 13944 13945 13946 13947 13948 13949 13950 13951 13952 13953 13954 13955 13956 13957 13958 13959 13960 13961 13962 13963 13964 13965 13966 13967 13968 13969 13970 13971 13972 13973 13974 13975 13976 13977 13978 13979 13980 13981 13982 13983 13984 13985 13986 13987 13988 13989 13990 13991 13992 13993 13994 13995 13996 13997 13998 13999 14000 14001 14002 14003 14004 14005 14006 14007 14008 14009 14010 14011 14012 14013 14014 14015 14016 14017 14018 14019 14020 14021 14022 14023 14024 14025 14026 14027 14028 14029 14030 14031 14032 14033 14034 14035 14036 14037 14038 14039 14040 14041 14042 14043 14044 14045 14046 14047 14048 14049 14050 14051 14052 14053 14054 14055 14056 14057 14058 14059 14060 14061 14062 14063 14064 14065 14066 14067 14068 14069 14070 14071 14072 14073 14074 14075 14076 14077 14078 14079 14080 14081 14082 14083 14084 14085 14086 14087 14088 14089 14090 14091 14092 14093 14094 14095 14096 14097 14098 14099 14100 14101 14102 14103 14104 14105 14106 14107 14108 14109 14110 14111 14112 14113 14114 14115 14116 14117 14118 14119 14120 14121 14122 14123 14124 14125 14126 14127 14128 14129 14130 14131 14132 14133 14134 14135 14136 14137 14138 14139 14140 14141 14142 14143 14144 14145 14146 14147 14148 14149 14150 14151 14152 14153 14154 14155 14156 14157 14158 14159 14160 14161 14162 14163 14164 14165 14166 14167 14168 14169 14170 14171 14172 14173 14174 14175 14176 14177 14178 14179 14180 14181 14182 14183 14184 14185 14186 14187 14188 14189 14190 14191 14192 14193 14194 14195 14196 14197 14198 14199 14200 14201 14202 14203 14204 14205 14206 14207 14208 14209 14210 14211 14212 14213 14214 14215 14216 14217 14218 14219 14220 14221 14222 14223 14224 14225 14226 14227 14228 14229 14230 14231 14232 14233 14234 14235 14236 14237 14238 14239 14240 14241 14242 14243 14244 14245 14246 14247 14248 14249 14250 14251 14252 14253 14254 14255 14256 14257 14258 14259 14260 14261 14262 14263 14264 14265 14266 14267 14268 14269 14270 14271 14272 14273 14274 14275 14276 14277 14278 14279 14280 14281 14282 14283 14284 14285 14286 14287 14288 14289 14290 14291 14292 14293 14294 14295 14296 14297 14298 14299 14300 14301 14302 14303 14304 14305 14306 14307 14308 14309 14310 14311 14312 14313 14314 14315 14316 14317 14318 14319 14320 14321 14322 14323 14324 14325 14326 14327 14328 14329 14330 14331 14332 14333 14334 14335 14336 14337 14338 14339 14340 14341 14342 14343 14344 14345 14346 14347 14348 14349 14350 14351 14352 14353 14354 14355 14356 14357 14358 14359 14360 14361 14362 14363 14364 14365 14366 14367 14368 14369 14370 14371 14372 14373 14374 14375 14376 14377 14378 14379 14380 14381 14382 14383 14384 14385 14386 14387 14388 14389 14390 14391 14392 14393 14394 14395 14396 14397 14398 14399 14400 14401 14402 14403 14404 14405 14406 14407 14408 14409 14410 14411 14412 14413 14414 14415 14416 14417 14418 14419 14420 14421 14422 14423 14424 14425 14426 14427 14428 14429 14430 14431 14432 14433 14434 14435 14436 14437 14438 14439 14440 14441 14442 14443 14444 14445 14446 14447 14448 14449 14450 14451 14452 14453 14454 14455 14456 14457 14458 14459 14460 14461 14462 14463 14464 14465 14466 14467 14468 14469 14470 14471 14472 14473 14474 14475 14476 14477 14478 14479 14480 14481 14482 14483 14484 14485 14486 14487 14488 14489 14490 14491 14492 14493 14494 14495 14496 14497 14498 14499 14500 14501 14502 14503 14504 14505 14506 14507 14508 14509 14510 14511 14512 14513 14514 14515 14516 14517 14518 14519 14520 14521 14522 14523 14524 14525 14526 14527 14528 14529 14530 14531 14532 14533 14534 14535 14536 14537 14538 14539 14540 14541 14542 14543 14544 14545 14546 14547 14548 14549 14550 14551 14552 14553 14554 14555 14556 14557 14558 14559 14560 14561 14562 14563 14564 14565 14566 14567 14568 14569 14570 14571 14572 14573 14574 14575 14576 14577 14578 14579 14580 14581 14582 14583 14584 14585 14586 14587 14588 14589 14590 14591 14592 14593 14594 14595 14596 14597 14598 14599 14600 14601 14602 14603 14604 14605 14606 14607 14608 14609 14610 14611 14612 14613 14614 14615 14616 14617 14618 14619 14620 14621 14622 14623 14624 14625 14626 14627 14628 14629 14630 14631 14632 14633 14634 14635 14636 14637 14638 14639 14640 14641 14642 14643 14644 14645 14646 14647 14648 14649 14650 14651 14652 14653 14654 14655 14656 14657 14658 14659 14660 14661 14662 14663 14664 14665 14666 14667 14668 14669 14670 14671 14672 14673 14674 14675 14676 14677 14678 14679 14680 14681 14682 14683 14684 14685 14686 14687 14688 14689 14690 14691 14692 14693 14694 14695 14696 14697 14698 14699 14700 14701 14702 14703 14704 14705 14706 14707 14708 14709 14710 14711 14712 14713 14714 14715 14716 14717 14718 14719 14720 14721 14722 14723 14724 14725 14726 14727 14728 14729 14730 14731 14732 14733 14734 14735 14736 14737 14738 14739 14740 14741 14742 14743 14744 14745 14746 14747 14748 14749 14750 14751 14752 14753 14754 14755 14756 14757 14758 14759 14760 14761 14762 14763 14764 14765 14766 14767 14768 14769 14770 14771 14772 14773 14774 14775 14776 14777 14778 14779 14780 14781 14782 14783 14784 14785 14786 14787 14788 14789 14790 14791 14792 14793 14794 14795 14796 14797 14798 14799 14800 14801 14802 14803 14804 14805 14806 14807 14808 14809 14810 14811 14812 14813 14814 14815 14816 14817 14818 14819 14820 14821 14822 14823 14824 14825 14826 14827 14828 14829 14830 14831 14832 14833 14834 14835 14836 14837 14838 14839 14840 14841 14842 14843 14844 14845 14846 14847 14848 14849 14850 14851 14852 14853 14854 14855 14856 14857 14858 14859 14860 14861 14862 14863 14864 14865 14866 14867 14868 14869 14870 14871 14872 14873 14874 14875 14876 14877 14878 14879 14880 14881 14882 14883 14884 14885 14886 14887 14888 14889 14890 14891 14892 14893 14894 14895 14896 14897 14898 14899 14900 14901 14902 14903 14904 14905 14906 14907 14908 14909 14910 14911 14912 14913 14914 14915 14916 14917 14918 14919 14920 14921 14922 14923 14924 14925 14926 14927 14928 14929 14930 14931 14932 14933 14934 14935 14936 14937 14938 14939 14940 14941 14942 14943 14944 14945 14946 14947 14948 14949 14950 14951 14952 14953 14954 14955 14956 14957 14958 14959 14960 14961 14962 14963 14964 14965 14966 14967 14968 14969 14970 14971 14972 14973 14974 14975 14976 14977 14978 14979 14980 14981 14982 14983 14984 14985 14986 14987 14988 14989 14990 14991 14992 14993 14994 14995 14996 14997 14998 14999 15000 15001 15002 15003 15004 15005 15006 15007 15008 15009 15010 15011 15012 15013 15014 15015 15016 15017 15018 15019 15020 15021 15022 15023 15024 15025 15026 15027 15028 15029 15030 15031 15032 15033 15034 15035 15036 15037 15038 15039 15040 15041 15042 15043 15044 15045 15046 15047 15048 15049 15050 15051 15052 15053 15054 15055 15056 15057 15058 15059 15060 15061 15062 15063 15064 15065 15066 15067 15068 15069 15070 15071 15072 15073 15074 15075 15076 15077 15078 15079 15080 15081 15082 15083 15084 15085 15086 15087 15088 15089 15090 15091 15092 15093 15094 15095 15096 15097 15098 15099 15100 15101 15102 15103 15104 15105 15106 15107 15108 15109 15110 15111 15112 15113 15114 15115 15116 15117 15118 15119 15120 15121 15122 15123 15124 15125 15126 15127 15128 15129 15130 15131 15132 15133 15134 15135 15136 15137 15138 15139 15140 15141 15142 15143 15144 15145 15146 15147 15148 15149 15150 15151 15152 15153 15154 15155 15156 15157 15158 15159 15160 15161 15162 15163 15164 15165 15166 15167 15168 15169 15170 15171 15172 15173 15174 15175 15176 15177 15178 15179 15180 15181 15182 15183 15184 15185 15186 15187 15188 15189 15190 15191 15192 15193 15194 15195 15196 15197 15198 15199 15200 15201 15202 15203 15204 15205 15206 15207 15208 15209 15210 15211 15212 15213 15214 15215 15216 15217 15218 15219 15220 15221 15222 15223 15224 15225 15226 15227 15228 15229 15230 15231 15232 15233 15234 15235 15236 15237 15238 15239 15240 15241 15242 15243 15244 15245 15246 15247 15248 15249 15250 15251 15252 15253 15254 15255 15256 15257 15258 15259 15260 15261 15262 15263 15264 15265 15266 15267 15268 15269 15270 15271 15272 15273 15274 15275 15276 15277 15278 15279 15280 15281 15282 15283 15284 15285 15286 15287 15288 15289 15290 15291 15292 15293 15294 15295 15296 15297 15298 15299 15300 15301 15302 15303 15304 15305 15306 15307 15308 15309 15310 15311 15312 15313 15314 15315 15316 15317 15318 15319 15320 15321 15322 15323 15324 15325 15326 15327 15328 15329 15330 15331 15332 15333 15334 15335 15336 15337 15338 15339 15340 15341 15342 15343 15344 15345 15346 15347 15348 15349 15350 15351 15352 15353 15354 15355 15356 15357 15358 15359 15360 15361 15362 15363 15364 15365 15366 15367 15368 15369 15370 15371 15372 15373 15374 15375 15376 15377 15378 15379 15380 15381 15382 15383 15384 15385 15386 15387 15388 15389 15390 15391 15392 15393 15394 15395 15396 15397 15398 15399 15400 15401 15402 15403 15404 15405 15406 15407 15408 15409 15410 15411 15412 15413 15414 15415 15416 15417 15418 15419 15420 15421 15422 15423 15424 15425 15426 15427 15428 15429 15430 15431 15432 15433 15434 15435 15436 15437 15438 15439 15440 15441 15442 15443 15444 15445 15446 15447 15448 15449 15450 15451 15452 15453 15454 15455 15456 15457 15458 15459 15460 15461 15462 15463 15464 15465 15466 15467 15468 15469 15470 15471 15472 15473 15474 15475 15476 15477 15478 15479 15480 15481 15482 15483 15484 15485 15486 15487 15488 15489 15490 15491 15492 15493 15494 15495 15496 15497 15498 15499 15500 15501 15502 15503 15504 15505 15506 15507 15508 15509 15510 15511 15512 15513 15514 15515 15516 15517 15518 15519 15520 15521 15522 15523 15524 15525 15526 15527 15528 15529 15530 15531 15532 15533 15534 15535 15536 15537 15538 15539 15540 15541 15542 15543 15544 15545 15546 15547 15548 15549 15550 15551 15552 15553 15554 15555 15556 15557 15558 15559 15560 15561 15562 15563 15564 15565 15566 15567 15568 15569 15570 15571 15572 15573 15574 15575 15576 15577 15578 15579 15580 15581 15582 15583 15584 15585 15586 15587 15588 15589 15590 15591 15592 15593 15594 15595 15596 15597 15598 15599 15600 15601 15602 15603 15604 15605 15606 15607 15608 15609 15610 15611 15612 15613 15614 15615 15616 15617 15618 15619 15620 15621 15622 15623 15624 15625 15626 15627 15628 15629 15630 15631 15632 15633 15634 15635 15636 15637 15638 15639 15640 15641 15642 15643 15644 15645 15646 15647 15648 15649 15650 15651 15652 15653 15654 15655 15656 15657 15658 15659 15660 15661 15662 15663 15664 15665 15666 15667 15668 15669 15670 15671 15672 15673 15674 15675 15676 15677 15678 15679 15680 15681 15682 15683 15684 15685 15686 15687 15688 15689 15690 15691 15692 15693 15694 15695 15696 15697 15698 15699 15700 15701 15702 15703 15704 15705 15706 15707 15708 15709 15710 15711 15712 15713 15714 15715 15716 15717 15718 15719 15720 15721 15722 15723 15724 15725 15726 15727 15728 15729 15730 15731 15732 15733 15734 15735 15736 15737 15738 15739 15740 15741 15742 15743 15744 15745 15746 15747 15748 15749 15750 15751 15752 15753 15754 15755 15756 15757 15758 15759 15760 15761 15762 15763 15764 15765 15766 15767 15768 15769 15770 15771 15772 15773 15774 15775 15776 15777 15778 15779 15780 15781 15782 15783 15784 15785 15786 15787 15788 15789 15790 15791 15792 15793 15794 15795 15796 15797 15798 15799 15800 15801 15802 15803 15804 15805 15806 15807 15808 15809 15810 15811 15812 15813 15814 15815 15816 15817 15818 15819 15820 15821 15822 15823 15824 15825 15826 15827 15828 15829 15830 15831 15832 15833 15834 15835 15836 15837 15838 15839 15840 15841 15842 15843 15844 15845 15846 15847 15848 15849 15850 15851 15852 15853 15854 15855 15856 15857 15858 15859 15860 15861 15862 15863 15864 15865 15866 15867 15868 15869 15870 15871 15872 15873 15874 15875 15876 15877 15878 15879 15880 15881 15882 15883 15884 15885 15886 15887 15888 15889 15890 15891 15892 15893 15894 15895 15896 15897 15898 15899 15900 15901 15902 15903 15904 15905 15906 15907 15908 15909 15910 15911 15912 15913 15914 15915 15916 15917 15918 15919 15920 15921 15922 15923 15924 15925 15926 15927 15928 15929 15930 15931 15932 15933 15934 15935 15936 15937 15938 15939 15940 15941 15942 15943 15944 15945 15946 15947 15948 15949 15950 15951 15952 15953 15954 15955 15956 15957 15958 15959 15960 15961 15962 15963 15964 15965 15966 15967 15968 15969 15970 15971 15972 15973 15974 15975 15976 15977 15978 15979 15980 15981 15982 15983 15984 15985 15986 15987 15988 15989 15990 15991 15992 15993 15994 15995 15996 15997 15998 15999 16000 16001 16002 16003 16004 16005 16006 16007 16008 16009 16010 16011 16012 16013 16014 16015 16016 16017 16018 16019 16020 16021 16022 16023 16024 16025 16026 16027 16028 16029 16030 16031 16032 16033 16034 16035 16036 16037 16038 16039 16040 16041 16042 16043 16044 16045 16046 16047 16048 16049 16050 16051 16052 16053 16054 16055 16056 16057 16058 16059 16060 16061 16062 16063 16064 16065 16066 16067 16068 16069 16070 16071 16072 16073 16074 16075 16076 16077 16078 16079 16080 16081 16082 16083 16084 16085 16086 16087 16088 16089 16090 16091 16092 16093 16094 16095 16096 16097 16098 16099 16100 16101 16102 16103 16104 16105 16106 16107 16108 16109 16110 16111 16112 16113 16114 16115 16116 16117 16118 16119 16120 16121 16122 16123 16124 16125 16126 16127 16128 16129 16130 16131 16132 16133 16134 16135 16136 16137 16138 16139 16140 16141 16142 16143 16144 16145 16146 16147 16148 16149 16150 16151 16152 16153 16154 16155 16156 16157 16158 16159 16160 16161 16162 16163 16164 16165 16166 16167 16168 16169 16170 16171 16172 16173 16174 16175 16176 16177 16178 16179 16180 16181 16182 16183 16184 16185 16186 16187 16188 16189 16190 16191 16192 16193 16194 16195 16196 16197 16198 16199 16200 16201 16202 16203 16204 16205 16206 16207 16208 16209 16210 16211 16212 16213 16214 16215 16216 16217 16218 16219 16220 16221 16222 16223 16224 16225 16226 16227 16228 16229 16230 16231 16232 16233 16234 16235 16236 16237 16238 16239 16240 16241 16242 16243 16244 16245 16246 16247 16248 16249 16250 16251 16252 16253 16254 16255 16256 16257 16258 16259 16260 16261 16262 16263 16264 16265 16266 16267 16268 16269 16270 16271 16272 16273 16274 16275 16276 16277 16278 16279 16280 16281 16282 16283 16284 16285 16286 16287 16288 16289 16290 16291 16292 16293 16294 16295 16296 16297 16298 16299 16300 16301 16302 16303 16304 16305 16306 16307 16308 16309 16310 16311 16312 16313 16314 16315 16316 16317 16318 16319 16320 16321 16322 16323 16324 16325 16326 16327 16328 16329 16330 16331 16332 16333 16334 16335 16336 16337 16338 16339 16340 16341 16342 16343 16344 16345 16346 16347 16348 16349 16350 16351 16352 16353 16354 16355 16356 16357 16358 16359 16360 16361 16362 16363 16364 16365 16366 16367 16368 16369 16370 16371 16372 16373 16374 16375 16376 16377 16378 16379 16380 16381 16382 16383 16384 16385 16386 16387 16388 16389 16390 16391 16392 16393 16394 16395 16396 16397 16398 16399 16400 16401 16402 16403 16404 16405 16406 16407 16408 16409 16410 16411 16412 16413 16414 16415 16416 16417 16418 16419 16420 16421 16422 16423 16424 16425 16426 16427 16428 16429 16430 16431 16432 16433 16434 16435 16436 16437 16438 16439 16440 16441 16442 16443 16444 16445 16446 16447 16448 16449 16450 16451 16452 16453 16454 16455 16456 16457 16458 16459 16460 16461 16462 16463 16464 16465 16466 16467 16468 16469 16470 16471 16472 16473 16474 16475 16476 16477 16478 16479 16480 16481 16482 16483 16484 16485 16486 16487 16488 16489 16490 16491 16492 16493 16494 16495 16496 16497 16498 16499 16500 16501 16502 16503 16504 16505 16506 16507 16508 16509 16510 16511 16512 16513 16514 16515 16516 16517 16518 16519 16520 16521 16522 16523 16524 16525 16526 16527 16528 16529 16530 16531 16532 16533 16534 16535 16536 16537 16538 16539 16540 16541 16542 16543 16544 16545 16546 16547 16548 16549 16550 16551 16552 16553 16554 16555 16556 16557 16558 16559 16560 16561 16562 16563 16564 16565 16566 16567 16568 16569 16570 16571 16572 16573 16574 16575 16576 16577 16578 16579 16580 16581 16582 16583 16584 16585 16586 16587 16588 16589 16590 16591 16592 16593 16594 16595 16596 16597 16598 16599 16600 16601 16602 16603 16604 16605 16606 16607 16608 16609 16610 16611 16612 16613 16614 16615 16616 16617 16618 16619 16620 16621 16622 16623 16624 16625 16626 16627 16628 16629 16630 16631 16632 16633 16634 16635 16636 16637 16638 16639 16640 16641 16642 16643 16644 16645 16646 16647 16648 16649 16650 16651 16652 16653 16654 16655 16656 16657 16658 16659 16660 16661 16662 16663 16664 16665 16666 16667 16668 16669 16670 16671 16672 16673 16674 16675 16676 16677 16678 16679 16680 16681 16682 16683 16684 16685 16686 16687 16688 16689 16690 16691 16692 16693 16694 16695 16696 16697 16698 16699 16700 16701 16702 16703 16704 16705 16706 16707 16708 16709 16710 16711 16712 16713 16714 16715 16716 16717 16718 16719 16720 16721 16722 16723 16724 16725 16726 16727 16728 16729 16730 16731 16732 16733 16734 16735 16736 16737 16738 16739 16740 16741 16742 16743 16744 16745 16746 16747 16748 16749 16750 16751 16752 16753 16754 16755 16756 16757 16758 16759 16760 16761 16762 16763 16764 16765 16766 16767 16768 16769 16770 16771 16772 16773 16774 16775 16776 16777 16778 16779 16780 16781 16782 16783 16784 16785 16786 16787 16788 16789 16790 16791 16792 16793 16794 16795 16796 16797 16798 16799 16800 16801 16802 16803 16804 16805 16806 16807 16808 16809 16810 16811 16812 16813 16814 16815 16816 16817 16818 16819 16820 16821 16822 16823 16824 16825 16826 16827 16828 16829 16830 16831 16832 16833 16834 16835 16836 16837 16838 16839 16840 16841 16842 16843 16844 16845 16846 16847 16848 16849 16850 16851 16852 16853 16854 16855 16856 16857 16858 16859 16860 16861 16862 16863 16864 16865 16866 16867 16868 16869 16870 16871 16872 16873 16874 16875 16876 16877 16878 16879 16880 16881 16882 16883 16884 16885 16886 16887 16888 16889 16890 16891 16892 16893 16894 16895 16896 16897 16898 16899 16900 16901 16902 16903 16904 16905 16906 16907 16908 16909 16910 16911 16912 16913 16914 16915 16916 16917 16918 16919 16920 16921 16922 16923 16924 16925 16926 16927 16928 16929 16930 16931 16932 16933 16934 16935 16936 16937 16938 16939 16940 16941 16942 16943 16944 16945 16946 16947 16948 16949 16950 16951 16952 16953 16954 16955 16956 16957 16958 16959 16960 16961 16962 16963 16964 16965 16966 16967 16968 16969 16970 16971 16972 16973 16974 16975 16976 16977 16978 16979 16980 16981 16982 16983 16984 16985 16986 16987 16988 16989 16990 16991 16992 16993 16994 16995 16996 16997 16998 16999 17000 17001 17002 17003 17004 17005 17006 17007 17008 17009 17010 17011 17012 17013 17014 17015 17016 17017 17018 17019 17020 17021 17022 17023 17024 17025 17026 17027 17028 17029 17030 17031 17032 17033 17034 17035 17036 17037 17038 17039 17040 17041 17042 17043 17044 17045 17046 17047 17048 17049 17050 17051 17052 17053 17054 17055 17056 17057 17058 17059 17060 17061 17062 17063 17064 17065 17066 17067 17068 17069 17070 17071 17072 17073 17074 17075 17076 17077 17078 17079 17080 17081 17082 17083 17084 17085 17086 17087 17088 17089 17090 17091 17092 17093 17094 17095 17096 17097 17098 17099 17100 17101 17102 17103 17104 17105 17106 17107 17108 17109 17110 17111 17112 17113 17114 17115 17116 17117 17118 17119 17120 17121 17122 17123 17124 17125 17126 17127 17128 17129 17130 17131 17132 17133 17134 17135 17136 17137 17138 17139 17140 17141 17142 17143 17144 17145 17146 17147 17148 17149 17150 17151 17152 17153 17154 17155 17156 17157 17158 17159 17160 17161 17162 17163 17164 17165 17166 17167 17168 17169 17170 17171 17172 17173 17174 17175 17176 17177 17178 17179 17180 17181 17182 17183 17184 17185 17186 17187 17188 17189 17190 17191 17192 17193 17194 17195 17196 17197 17198 17199 17200 17201 17202 17203 17204 17205 17206 17207 17208 17209 17210 17211 17212 17213 17214 17215 17216 17217 17218 17219 17220 17221 17222 17223 17224 17225 17226 17227 17228 17229 17230 17231 17232 17233 17234 17235 17236 17237 17238 17239 17240 17241 17242 17243 17244 17245 17246 17247 17248 17249 17250 17251 17252 17253 17254 17255 17256 17257 17258 17259 17260 17261 17262 17263 17264 17265 17266 17267 17268 17269 17270 17271 17272 17273 17274 17275 17276 17277 17278 17279 17280 17281 17282 17283 17284 17285 17286 17287 17288 17289 17290 17291 17292 17293 17294 17295 17296 17297 17298 17299 17300 17301 17302 17303 17304 17305 17306 17307 17308 17309 17310 17311 17312 17313 17314 17315 17316 17317 17318 17319 17320 17321 17322 17323 17324 17325 17326 17327 17328 17329 17330 17331 17332 17333 17334 17335 17336 17337 17338 17339 17340 17341 17342 17343 17344 17345 17346 17347 17348 17349 17350 17351 17352 17353 17354 17355 17356 17357 17358 17359 17360 17361 17362 17363 17364 17365 17366 17367 17368 17369 17370 17371 17372 17373 17374 17375 17376 17377 17378 17379 17380 17381 17382 17383 17384 17385 17386 17387 17388 17389 17390 17391 17392 17393 17394 17395 17396 17397 17398 17399 17400 17401 17402 17403 17404 17405 17406 17407 17408 17409 17410 17411 17412 17413 17414 17415 17416 17417 17418 17419 17420 17421 17422 17423 17424 17425 17426 17427 17428 17429 17430 17431 17432 17433 17434 17435 17436 17437 17438 17439 17440 17441 17442 17443 17444 17445 17446 17447 17448 17449 17450 17451 17452 17453 17454 17455 17456 17457 17458 17459 17460 17461 17462 17463 17464 17465 17466 17467 17468 17469 17470 17471 17472 17473 17474 17475 17476 17477 17478 17479 17480 17481 17482 17483 17484 17485 17486 17487 17488 17489 17490 17491 17492 17493 17494 17495 17496 17497 17498 17499 17500 17501 17502 17503 17504 17505 17506 17507 17508 17509 17510 17511 17512 17513 17514 17515 17516 17517 17518 17519 17520 17521 17522 17523 17524 17525 17526 17527 17528 17529 17530 17531 17532 17533 17534 17535 17536 17537 17538 17539 17540 17541 17542 17543 17544 17545 17546 17547 17548 17549 17550 17551 17552 17553 17554 17555 17556 17557 17558 17559 17560 17561 17562 17563 17564 17565 17566 17567 17568 17569 17570 17571 17572 17573 17574 17575 17576 17577 17578 17579 17580 17581 17582 17583 17584 17585 17586 17587 17588 17589 17590 17591 17592 17593 17594 17595 17596 17597 17598 17599 17600 17601 17602 17603 17604 17605 17606 17607 17608 17609 17610 17611 17612 17613 17614 17615 17616 17617 17618 17619 17620 17621 17622 17623 17624 17625 17626 17627 17628 17629 17630 17631 17632 17633 17634 17635 17636 17637 17638 17639 17640 17641 17642 17643 17644 17645 17646 17647 17648 17649 17650 17651 17652 17653 17654 17655 17656 17657 17658 17659 17660 17661 17662 17663 17664 17665 17666 17667 17668 17669 17670 17671 17672 17673 17674 17675 17676 17677 17678 17679 17680 17681 17682 17683 17684 17685 17686 17687 17688 17689 17690 17691 17692 17693 17694 17695 17696 17697 17698 17699 17700 17701 17702 17703 17704 17705 17706 17707 17708 17709 17710 17711 17712 17713 17714 17715 17716 17717 17718 17719 17720 17721 17722 17723 17724 17725 17726 17727 17728 17729 17730 17731 17732 17733 17734 17735 17736 17737 17738 17739 17740 17741 17742 17743 17744 17745 17746 17747 17748 17749 17750 17751 17752 17753 17754 17755 17756 17757 17758 17759 17760 17761 17762 17763 17764 17765 17766 17767 17768 17769 17770 17771 17772 17773 17774 17775 17776 17777 17778 17779 17780 17781 17782 17783 17784 17785 17786 17787 17788 17789 17790 17791 17792 17793 17794 17795 17796 17797 17798 17799 17800 17801 17802 17803 17804 17805 17806 17807 17808 17809 17810 17811 17812 17813 17814 17815 17816 17817 17818 17819 17820 17821 17822 17823 17824 17825 17826 17827 17828 17829 17830 17831 17832 17833 17834 17835 17836 17837 17838 17839 17840 17841 17842 17843 17844 17845 17846 17847 17848 17849 17850 17851 17852 17853 17854 17855 17856 17857 17858 17859 17860 17861 17862 17863 17864 17865 17866 17867 17868 17869 17870 17871 17872 17873 17874 17875 17876 17877 17878 17879 17880 17881 17882 17883 17884 17885 17886 17887 17888 17889 17890 17891 17892 17893 17894 17895 17896 17897 17898 17899 17900 17901 17902 17903 17904 17905 17906 17907 17908 17909 17910 17911 17912 17913 17914 17915 17916 17917 17918 17919 17920 17921 17922 17923 17924 17925 17926 17927 17928 17929 17930 17931 17932 17933 17934 17935 17936 17937 17938 17939 17940 17941 17942 17943 17944 17945 17946 17947 17948 17949 17950 17951 17952 17953 17954 17955 17956 17957 17958 17959 17960 17961 17962 17963 17964 17965 17966 17967 17968 17969 17970 17971 17972 17973 17974 17975 17976 17977 17978 17979 17980 17981 17982 17983 17984 17985 17986 17987 17988 17989 17990 17991 17992 17993 17994 17995 17996 17997 17998 17999 18000 18001 18002 18003 18004 18005 18006 18007 18008 18009 18010 18011 18012 18013 18014 18015 18016 18017 18018 18019 18020 18021 18022 18023 18024 18025 18026 18027 18028 18029 18030 18031 18032 18033 18034 18035 18036 18037 18038 18039 18040 18041 18042 18043 18044 18045 18046 18047 18048 18049 18050 18051 18052 18053 18054 18055 18056 18057 18058 18059 18060 18061 18062 18063 18064 18065 18066 18067 18068 18069 18070 18071 18072 18073 18074 18075 18076 18077 18078 18079 18080 18081 18082 18083 18084 18085 18086 18087 18088 18089 18090 18091 18092 18093 18094 18095 18096 18097 18098 18099 18100 18101 18102 18103 18104 18105 18106 18107 18108 18109 18110 18111 18112 18113 18114 18115 18116 18117 18118 18119 18120 18121 18122 18123 18124 18125 18126 18127 18128 18129 18130 18131 18132 18133 18134 18135 18136 18137 18138 18139 18140 18141 18142 18143 18144 18145 18146 18147 18148 18149 18150 18151 18152 18153 18154 18155 18156 18157 18158 18159 18160 18161 18162 18163 18164 18165 18166 18167 18168 18169 18170 18171 18172 18173 18174 18175 18176 18177 18178 18179 18180 18181 18182 18183 18184 18185 18186 18187 18188 18189 18190 18191 18192 18193 18194 18195 18196 18197 18198 18199 18200 18201 18202 18203 18204 18205 18206 18207 18208 18209 18210 18211 18212 18213 18214 18215 18216 18217 18218 18219 18220 18221 18222 18223 18224 18225 18226 18227 18228 18229 18230 18231 18232 18233 18234 18235 18236 18237 18238 18239 18240 18241 18242 18243 18244 18245 18246 18247 18248 18249 18250 18251 18252 18253 18254 18255 18256 18257 18258 18259 18260 18261 18262 18263 18264 18265 18266 18267 18268 18269 18270 18271 18272 18273 18274 18275 18276 18277 18278 18279 18280 18281 18282 18283 18284 18285 18286 18287 18288 18289 18290 18291 18292 18293 18294 18295 18296 18297 18298 18299 18300 18301 18302 18303 18304 18305 18306 18307 18308 18309 18310 18311 18312 18313 18314 18315 18316 18317 18318 18319 18320 18321 18322 18323 18324 18325 18326 18327 18328 18329 18330 18331 18332 18333 18334 18335 18336 18337 18338 18339 18340 18341 18342 18343 18344 18345 18346 18347 18348 18349 18350 18351 18352 18353 18354 18355 18356 18357 18358 18359 18360 18361 18362 18363 18364 18365 18366 18367 18368 18369 18370 18371 18372 18373 18374 18375 18376 18377 18378 18379 18380 18381 18382 18383 18384 18385 18386 18387 18388 18389 18390 18391 18392 18393 18394 18395 18396 18397 18398 18399 18400 18401 18402 18403 18404 18405 18406 18407 18408 18409 18410 18411 18412 18413 18414 18415 18416 18417 18418 18419 18420 18421 18422 18423 18424 18425 18426 18427 18428 18429 18430 18431 18432 18433 18434 18435 18436 18437 18438 18439 18440 18441 18442 18443 18444 18445 18446 18447 18448 18449 18450 18451 18452 18453 18454 18455 18456 18457 18458 18459 18460 18461 18462 18463 18464 18465 18466 18467 18468 18469 18470 18471 18472 18473 18474 18475 18476 18477 18478 18479 18480 18481 18482 18483 18484 18485 18486 18487 18488 18489 18490 18491 18492 18493 18494 18495 18496 18497 18498 18499 18500 18501 18502 18503 18504 18505 18506 18507 18508 18509 18510 18511 18512 18513 18514 18515 18516 18517 18518 18519 18520 18521 18522 18523 18524 18525 18526 18527 18528 18529 18530 18531 18532 18533 18534 18535 18536 18537 18538 18539 18540 18541 18542 18543 18544 18545 18546 18547 18548 18549 18550 18551 18552 18553 18554 18555 18556 18557 18558 18559 18560 18561 18562 18563 18564 18565 18566 18567 18568 18569 18570 18571 18572 18573 18574 18575 18576 18577 18578 18579 18580 18581 18582 18583 18584 18585 18586 18587 18588 18589 18590 18591 18592 18593 18594 18595 18596 18597 18598 18599 18600 18601 18602 18603 18604 18605 18606 18607 18608 18609 18610 18611 18612 18613 18614 18615 18616 18617 18618 18619 18620 18621 18622 18623 18624 18625 18626 18627 18628 18629 18630 18631 18632 18633 18634 18635 18636 18637 18638 18639 18640 18641 18642 18643 18644 18645 18646 18647 18648 18649 18650 18651 18652 18653 18654 18655 18656 18657 18658 18659 18660 18661 18662 18663 18664 18665 18666 18667 18668 18669 18670 18671 18672 18673 18674 18675 18676 18677 18678 18679 18680 18681 18682 18683 18684 18685 18686 18687 18688 18689 18690 18691 18692 18693 18694 18695 18696 18697 18698 18699 18700 18701 18702 18703 18704 18705 18706 18707 18708 18709 18710 18711 18712 18713 18714 18715 18716 18717 18718 18719 18720 18721 18722 18723 18724 18725 18726 18727 18728 18729 18730 18731 18732 18733 18734 18735 18736 18737 18738 18739 18740 18741 18742 18743 18744 18745 18746 18747 18748 18749 18750 18751 18752 18753 18754 18755 18756 18757 18758 18759 18760 18761 18762 18763 18764 18765 18766 18767 18768 18769 18770 18771 18772 18773 18774 18775 18776 18777 18778 18779 18780 18781 18782 18783 18784 18785 18786 18787 18788 18789 18790 18791 18792 18793 18794 18795 18796 18797 18798 18799 18800 18801 18802 18803 18804 18805 18806 18807 18808 18809 18810 18811 18812 18813 18814 18815 18816 18817 18818 18819 18820 18821 18822 18823 18824 18825 18826 18827 18828 18829 18830 18831 18832 18833 18834 18835 18836 18837 18838 18839 18840 18841 18842 18843 18844 18845 18846 18847 18848 18849 18850 18851 18852 18853 18854 18855 18856 18857 18858 18859 18860 18861 18862 18863 18864 18865 18866 18867 18868 18869 18870 18871 18872 18873 18874 18875 18876 18877 18878 18879 18880 18881 18882 18883 18884 18885 18886 18887 18888 18889 18890 18891 18892 18893 18894 18895 18896 18897 18898 18899 18900 18901 18902 18903 18904 18905 18906 18907 18908 18909 18910 18911 18912 18913 18914 18915 18916 18917 18918 18919 18920 18921 18922 18923 18924 18925 18926 18927 18928 18929 18930 18931 18932 18933 18934 18935 18936 18937 18938 18939 18940 18941 18942 18943 18944 18945 18946 18947 18948 18949 18950 18951 18952 18953 18954 18955 18956 18957 18958 18959 18960 18961 18962 18963 18964 18965 18966 18967 18968 18969 18970 18971 18972 18973 18974 18975 18976 18977 18978 18979 18980 18981 18982 18983 18984 18985 18986 18987 18988 18989 18990 18991 18992 18993 18994 18995 18996 18997 18998 18999 19000 19001 19002 19003 19004 19005 19006 19007 19008 19009 19010 19011 19012 19013 19014 19015 19016 19017 19018 19019 19020 19021 19022 19023 19024 19025 19026 19027 19028 19029 19030 19031 19032 19033 19034 19035 19036 19037 19038 19039 19040 19041 19042 19043 19044 19045 19046 19047 19048 19049 19050 19051 19052 19053 19054 19055 19056 19057 19058 19059 19060 19061 19062 19063 19064 19065 19066 19067 19068 19069 19070 19071 19072 19073 19074 19075 19076 19077 19078 19079 19080 19081 19082 19083 19084 19085 19086 19087 19088 19089 19090 19091 19092 19093 19094 19095 19096 19097 19098 19099 19100 19101 19102 19103 19104 19105 19106 19107 19108 19109 19110 19111 19112 19113 19114 19115 19116 19117 19118 19119 19120 19121 19122 19123 19124 19125 19126 19127 19128 19129 19130 19131 19132 19133 19134 19135 19136 19137 19138 19139 19140 19141 19142 19143 19144 19145 19146 19147 19148 19149 19150 19151 19152 19153 19154 19155 19156 19157 19158 19159 19160 19161 19162 19163 19164 19165 19166 19167 19168 19169 19170 19171 19172 19173 19174 19175 19176 19177 19178 19179 19180 19181 19182 19183 19184 19185 19186 19187 19188 19189 19190 19191 19192 19193 19194 19195 19196 19197 19198 19199 19200 19201 19202 19203 19204 19205 19206 19207 19208 19209 19210 19211 19212 19213 19214 19215 19216 19217 19218 19219 19220 19221 19222 19223 19224 19225 19226 19227 19228 19229 19230 19231 19232 19233 19234 19235 19236 19237 19238 19239 19240 19241 19242 19243 19244 19245 19246 19247 19248 19249 19250 19251 19252 19253 19254 19255 19256 19257 19258 19259 19260 19261 19262 19263 19264 19265 19266 19267 19268 19269 19270 19271 19272 19273 19274 19275 19276 19277 19278 19279 19280 19281 19282 19283 19284 19285 19286 19287 19288 19289 19290 19291 19292 19293 19294 19295 19296 19297 19298 19299 19300 19301 19302 19303 19304 19305 19306 19307 19308 19309 19310 19311 19312 19313 19314 19315 19316 19317 19318 19319 19320 19321 19322 19323 19324 19325 19326 19327 19328 19329 19330 19331 19332 19333 19334 19335 19336 19337 19338 19339 19340 19341 19342 19343 19344 19345 19346 19347 19348 19349 19350 19351 19352 19353 19354 19355 19356 19357 19358 19359 19360 19361 19362 19363 19364 19365 19366 19367 19368 19369 19370 19371 19372 19373 19374 19375 19376 19377 19378 19379 19380 19381 19382 19383 19384 19385 19386 19387 19388 19389 19390 19391 19392 19393 19394 19395 19396 19397 19398 19399 19400 19401 19402 19403 19404 19405 19406 19407 19408 19409 19410 19411 19412 19413 19414 19415 19416 19417 19418 19419 19420 19421 19422 19423 19424 19425 19426 19427 19428 19429 19430 19431 19432 19433 19434 19435 19436 19437 19438 19439 19440 19441 19442 19443 19444 19445 19446 19447 19448 19449 19450 19451 19452 19453 19454 19455 19456 19457 19458 19459 19460 19461 19462 19463 19464 19465 19466 19467 19468 19469 19470 19471 19472 19473 19474 19475 19476 19477 19478 19479 19480 19481 19482 19483 19484 19485 19486 19487 19488 19489 19490 19491 19492 19493 19494 19495 19496 19497 19498 19499 19500 19501 19502 19503 19504 19505 19506 19507 19508 19509 19510 19511 19512 19513 19514 19515 19516 19517 19518 19519 19520 19521 19522 19523 19524 19525 19526 19527 19528 19529 19530 19531 19532 19533 19534 19535 19536 19537 19538 19539 19540 19541 19542 19543 19544 19545 19546 19547 19548 19549 19550 19551 19552 19553 19554 19555 19556 19557 19558 19559 19560 19561 19562 19563 19564 19565 19566 19567 19568 19569 19570 19571 19572 19573 19574 19575 19576 19577 19578 19579 19580 19581 19582 19583 19584 19585 19586 19587 19588 19589 19590 19591 19592 19593 19594 19595 19596 19597 19598 19599 19600 19601 19602 19603 19604 19605 19606 19607 19608 19609 19610 19611 19612 19613 19614 19615 19616 19617 19618 19619 19620 19621 19622 19623 19624 19625 19626 19627 19628 19629 19630 19631 19632 19633 19634 19635 19636 19637 19638 19639 19640 19641 19642 19643 19644 19645 19646 19647 19648 19649 19650 19651 19652 19653 19654 19655 19656 19657 19658 19659 19660 19661 19662 19663 19664 19665 19666 19667 19668 19669 19670 19671 19672 19673 19674 19675 19676 19677 19678 19679 19680 19681 19682 19683 19684 19685 19686 19687 19688 19689 19690 19691 19692 19693 19694 19695 19696 19697 19698 19699 19700 19701 19702 19703 19704 19705 19706 19707 19708 19709 19710 19711 19712 19713 19714 19715 19716 19717 19718 19719 19720 19721 19722 19723 19724 19725 19726 19727 19728 19729 19730 19731 19732 19733 19734 19735 19736 19737 19738 19739 19740 19741 19742 19743 19744 19745 19746 19747 19748 19749 19750 19751 19752 19753 19754 19755 19756 19757 19758 19759 19760 19761 19762 19763 19764 19765 19766 19767 19768 19769 19770 19771 19772 19773 19774 19775 19776 19777 19778 19779 19780 19781 19782 19783 19784 19785 19786 19787 19788 19789 19790 19791 19792 19793 19794 19795 19796 19797 19798 19799 19800 19801 19802 19803 19804 19805 19806 19807 19808 19809 19810 19811 19812 19813 19814 19815 19816 19817 19818 19819 19820 19821 19822 19823 19824 19825 19826 19827 19828 19829 19830 19831 19832 19833 19834 19835 19836 19837 19838 19839 19840 19841 19842 19843 19844 19845 19846 19847 19848 19849 19850 19851 19852 19853 19854 19855 19856 19857 19858 19859 19860 19861 19862 19863 19864 19865 19866 19867 19868 19869 19870 19871 19872 19873 19874 19875 19876 19877 19878 19879 19880 19881 19882 19883 19884 19885 19886 19887 19888 19889 19890 19891 19892 19893 19894 19895 19896 19897 19898 19899 19900 19901 19902 19903 19904 19905 19906 19907 19908 19909 19910 19911 19912 19913 19914 19915 19916 19917 19918 19919 19920 19921 19922 19923 19924 19925 19926 19927 19928 19929 19930 19931 19932 19933 19934 19935 19936 19937 19938 19939 19940 19941 19942 19943 19944 19945 19946 19947 19948 19949 19950 19951 19952 19953 19954 19955 19956 19957 19958 19959 19960 19961 19962 19963 19964 19965 19966 19967 19968 19969 19970 19971 19972 19973 19974 19975 19976 19977 19978 19979 19980 19981 19982 19983 19984 19985 19986 19987 19988 19989 19990 19991 19992 19993 19994 19995 19996 19997 19998 19999 20000 20001 20002 20003 20004 20005 20006 20007 20008 20009 20010 20011 20012 20013 20014 20015 20016 20017 20018 20019 20020 20021 20022 20023 20024 20025 20026 20027 20028 20029 20030 20031 20032 20033 20034 20035 20036 20037 20038 20039 20040 20041 20042 20043 20044 20045 20046 20047 20048 20049 20050 20051 20052 20053 20054 20055 20056 20057 20058 20059 20060 20061 20062 20063 20064 20065 20066 20067 20068 20069 20070 20071 20072 20073 20074 20075 20076 20077 20078 20079 20080 20081 20082 20083 20084 20085 20086 20087 20088 20089 20090 20091 20092 20093 20094 20095 20096 20097 20098 20099 20100 20101 20102 20103 20104 20105 20106 20107 20108 20109 20110 20111 20112 20113 20114 20115 20116 20117 20118 20119 20120 20121 20122 20123 20124 20125 20126 20127 20128 20129 20130 20131 20132 20133 20134 20135 20136 20137 20138 20139 20140 20141 20142 20143 20144 20145 20146 20147 20148 20149 20150 20151 20152 20153 20154 20155 20156 20157 20158 20159 20160 20161 20162 20163 20164 20165 20166 20167 20168 20169 20170 20171 20172 20173 20174 20175 20176 20177 20178 20179 20180 20181 20182 20183 20184 20185 20186 20187 20188 20189 20190 20191 20192 20193 20194 20195 20196 20197 20198 20199 20200 20201 20202 20203 20204 20205 20206 20207 20208 20209 20210 20211 20212 20213 20214 20215 20216 20217 20218 20219 20220 20221 20222 20223 20224 20225 20226 20227 20228 20229 20230 20231 20232 20233 20234 20235 20236 20237 20238 20239 20240 20241 20242 20243 20244 20245 20246 20247 20248 20249 20250 20251 20252 20253 20254 20255 20256 20257 20258 20259 20260 20261 20262 20263 20264 20265 20266 20267 20268 20269 20270 20271 20272 20273 20274 20275 20276 20277 20278 20279 20280 20281 20282 20283 20284 20285 20286 20287 20288 20289 20290 20291 20292 20293 20294 20295 20296 20297 20298 20299 20300 20301 20302 20303 20304 20305 20306 20307 20308 20309 20310 20311 20312 20313 20314 20315 20316 20317 20318 20319 20320 20321 20322 20323 20324 20325 20326 20327 20328 20329 20330 20331 20332 20333 20334 20335 20336 20337 20338 20339 20340 20341 20342 20343 20344 20345 20346 20347 20348 20349 20350 20351 20352 20353 20354 20355 20356 20357 20358 20359 20360 20361 20362 20363 20364 20365 20366 20367 20368 20369 20370 20371 20372 20373 20374 20375 20376 20377 20378 20379 20380 20381 20382 20383 20384 20385 20386 20387 20388 20389 20390 20391 20392 20393 20394 20395 20396 20397 20398 20399 20400 20401 20402 20403 20404 20405 20406 20407 20408 20409 20410 20411 20412 20413 20414 20415 20416 20417 20418 20419 20420 20421 20422 20423 20424 20425 20426 20427 20428 20429 20430 20431 20432 20433 20434 20435 20436 20437 20438 20439 20440 20441 20442 20443 20444 20445 20446 20447 20448 20449 20450 20451 20452 20453 20454 20455 20456 20457 20458 20459 20460 20461 20462 20463 20464 20465 20466 20467 20468 20469 20470 20471 20472 20473 20474 20475 20476 20477 20478 20479 20480 20481 20482 20483 20484 20485 20486 20487 20488 20489 20490 20491 20492 20493 20494 20495 20496 20497 20498 20499 20500 20501 20502 20503 20504 20505 20506 20507 20508 20509 20510 20511 20512 20513 20514 20515 20516 20517 20518 20519 20520 20521 20522 20523 20524 20525 20526 20527 20528 20529 20530 20531 20532 20533 20534 20535 20536 20537 20538 20539 20540 20541 20542 20543 20544 20545 20546 20547 20548 20549 20550 20551 20552 20553 20554 20555 20556 20557 20558 20559 20560 20561 20562 20563 20564 20565 20566 20567 20568 20569 20570 20571 20572 20573 20574 20575 20576 20577 20578 20579 20580 20581 20582 20583 20584 20585 20586 20587 20588 20589 20590 20591 20592 20593 20594 20595 20596 20597 20598 20599 20600 20601 20602 20603 20604 20605 20606 20607 20608 20609 20610 20611 20612 20613 20614 20615 20616 20617 20618 20619 20620 20621 20622 20623 20624 20625 20626 20627 20628 20629 20630 20631 20632 20633 20634 20635 20636 20637 20638 20639 20640 20641 20642 20643 20644 20645 20646 20647 20648 20649 20650 20651 20652 20653 20654 20655 20656 20657 20658 20659 20660 20661 20662 20663 20664 20665 20666 20667 20668 20669 20670 20671 20672 20673 20674 20675 20676 20677 20678 20679 20680 20681 20682 20683 20684 20685 20686 20687 20688 20689 20690 20691 20692 20693 20694 20695 20696 20697 20698 20699 20700 20701 20702 20703 20704 20705 20706 20707 20708 20709 20710 20711 20712 20713 20714 20715 20716 20717 20718 20719 20720 20721 20722 20723 20724 20725 20726 20727 20728 20729 20730 20731 20732 20733 20734 20735 20736 20737 20738 20739 20740 20741 20742 20743 20744 20745 20746 20747 20748 20749 20750 20751 20752 20753 20754 20755 20756 20757 20758 20759 20760 20761 20762 20763 20764 20765 20766 20767 20768 20769 20770 20771 20772 20773 20774 20775 20776 20777 20778 20779 20780 20781 20782 20783 20784 20785 20786 20787 20788 20789 20790 20791 20792 20793 20794 20795 20796 20797 20798 20799 20800 20801 20802 20803 20804 20805 20806 20807 20808 20809 20810 20811 20812 20813 20814 20815 20816 20817 20818 20819 20820 20821 20822 20823 20824 20825 20826 20827 20828 20829 20830 20831 20832 20833 20834 20835 20836 20837 20838 20839 20840 20841 20842 20843 20844 20845 20846 20847 20848 20849 20850 20851 20852 20853 20854 20855 20856 20857 20858 20859 20860 20861 20862 20863 20864 20865 20866 20867 20868 20869 20870 20871 20872 20873 20874 20875 20876 20877 20878 20879 20880 20881 20882 20883 20884 20885 20886 20887 20888 20889 20890 20891 20892 20893 20894 20895 20896 20897 20898 20899 20900 20901 20902 20903 20904 20905 20906 20907 20908 20909 20910 20911 20912 20913 20914 20915 20916 20917 20918 20919 20920 20921 20922 20923 20924 20925 20926 20927 20928 20929 20930 20931 20932 20933 20934 20935 20936 20937 20938 20939 20940 20941 20942 20943 20944 20945 20946 20947 20948 20949 20950 20951 20952 20953 20954 20955 20956 20957 20958 20959 20960 20961 20962 20963 20964 20965 20966 20967 20968 20969 20970 20971 20972 20973 20974 20975 20976 20977 20978 20979 20980 20981 20982 20983 20984 20985 20986 20987 20988 20989 20990 20991 20992 20993 20994 20995 20996 20997 20998 20999 21000 21001 21002 21003 21004 21005 21006 21007 21008 21009 21010 21011 21012 21013 21014 21015 21016 21017 21018 21019 21020 21021 21022 21023 21024 21025 21026 21027 21028 21029 21030 21031 21032 21033 21034 21035 21036 21037 21038 21039 21040 21041 21042 21043 21044 21045 21046 21047 21048 21049 21050 21051 21052 21053 21054 21055 21056 21057 21058 21059 21060 21061 21062 21063 21064 21065 21066 21067 21068 21069 21070 21071 21072 21073 21074 21075 21076 21077 21078 21079 21080 21081 21082 21083 21084 21085 21086 21087 21088 21089 21090 21091 21092 21093 21094 21095 21096 21097 21098 21099 21100 21101 21102 21103 21104 21105 21106 21107 21108 21109 21110 21111 21112 21113 21114 21115 21116 21117 21118 21119 21120 21121 21122 21123 21124 21125 21126 21127 21128 21129 21130 21131 21132 21133 21134 21135 21136 21137 21138 21139 21140 21141 21142 21143 21144 21145 21146 21147 21148 21149 21150 21151 21152 21153 21154 21155 21156 21157 21158 21159 21160 21161 21162 21163 21164 21165 21166 21167 21168 21169 21170 21171 21172 21173 21174 21175 21176 21177 21178 21179 21180 21181 21182 21183 21184 21185 21186 21187 21188 21189 21190 21191 21192 21193 21194 21195 21196 21197 21198 21199 21200 21201 21202 21203 21204 21205 21206 21207 21208 21209 21210 21211 21212 21213 21214 21215 21216 21217 21218 21219 21220 21221 21222 21223 21224 21225 21226 21227 21228 21229 21230 21231 21232 21233 21234 21235 21236 21237 21238 21239 21240 21241 21242 21243 21244 21245 21246 21247 21248 21249 21250 21251 21252 21253 21254 21255 21256 21257 21258 21259 21260 21261 21262 21263 21264 21265 21266 21267 21268 21269 21270 21271 21272 21273 21274 21275 21276 21277 21278 21279 21280 21281 21282 21283 21284 21285 21286 21287 21288 21289 21290 21291 21292 21293 21294 21295 21296 21297 21298 21299 21300 21301 21302 21303 21304 21305 21306 21307 21308 21309 21310 21311 21312 21313 21314 21315 21316 21317 21318 21319 21320 21321 21322 21323 21324 21325 21326 21327 21328 21329 21330 21331 21332 21333 21334 21335 21336 21337 21338 21339 21340 21341 21342 21343 21344 21345 21346 21347 21348 21349 21350 21351 21352 21353 21354 21355 21356 21357 21358 21359 21360 21361 21362 21363 21364 21365 21366 21367 21368 21369 21370 21371 21372 21373 21374 21375 21376 21377 21378 21379 21380 21381 21382 21383 21384 21385 21386 21387 21388 21389 21390 21391 21392 21393 21394 21395 21396 21397 21398 21399 21400 21401 21402 21403 21404 21405 21406 21407 21408 21409 21410 21411 21412 21413 21414 21415 21416 21417 21418 21419 21420 21421 21422 21423 21424 21425 21426 21427 21428 21429 21430 21431 21432 21433 21434 21435 21436 21437 21438 21439 21440 21441 21442 21443 21444 21445 21446 21447 21448 21449 21450 21451 21452 21453 21454 21455 21456 21457 21458 21459 21460 21461 21462 21463 21464 21465 21466 21467 21468 21469 21470 21471 21472 21473 21474 21475 21476 21477 21478 21479 21480 21481 21482 21483 21484 21485 21486 21487 21488 21489 21490 21491 21492 21493 21494 21495 21496 21497 21498 21499 21500 21501 21502 21503 21504 21505 21506 21507 21508 21509 21510 21511 21512 21513 21514 21515 21516 21517 21518 21519 21520 21521 21522 21523 21524 21525 21526 21527 21528 21529 21530 21531 21532 21533 21534 21535 21536 21537 21538 21539 21540 21541 21542 21543 21544 21545 21546 21547 21548 21549 21550 21551 21552 21553 21554 21555 21556 21557 21558 21559 21560 21561 21562 21563 21564 21565 21566 21567 21568 21569 21570 21571 21572 21573 21574 21575 21576 21577 21578 21579 21580 21581 21582 21583 21584 21585 21586 21587 21588 21589 21590 21591 21592 21593 21594 21595 21596 21597 21598 21599 21600 21601 21602 21603 21604 21605 21606 21607 21608 21609 21610 21611 21612 21613 21614 21615 21616 21617 21618 21619 21620 21621 21622 21623 21624 21625 21626 21627 21628 21629 21630 21631 21632 21633 21634 21635 21636 21637 21638 21639 21640 21641 21642 21643 21644 21645 21646 21647 21648 21649 21650 21651 21652 21653 21654 21655 21656 21657 21658 21659 21660 21661 21662 21663 21664 21665 21666 21667 21668 21669 21670 21671 21672 21673 21674 21675 21676 21677 21678 21679 21680 21681 21682 21683 21684 21685 21686 21687 21688 21689 21690 21691 21692 21693 21694 21695 21696 21697 21698 21699 21700 21701 21702 21703 21704 21705 21706 21707 21708 21709 21710 21711 21712 21713 21714 21715 21716 21717 21718 21719 21720 21721 21722 21723 21724 21725 21726 21727 21728 21729 21730 21731 21732 21733 21734 21735 21736 21737 21738 21739 21740 21741 21742 21743 21744 21745 21746 21747 21748 21749 21750 21751 21752 21753 21754 21755 21756 21757 21758 21759 21760 21761 21762 21763 21764 21765 21766 21767 21768 21769 21770 21771 21772 21773 21774 21775 21776 21777 21778 21779 21780 21781 21782 21783 21784 21785 21786 21787 21788 21789 21790 21791 21792 21793 21794 21795 21796 21797 21798 21799 21800 21801 21802 21803 21804 21805 21806 21807 21808 21809 21810 21811 21812 21813 21814 21815 21816 21817 21818 21819 21820 21821 21822 21823 21824 21825 21826 21827 21828 21829 21830 21831 21832 21833 21834 21835 21836 21837 21838 21839 21840 21841 21842 21843 21844 21845 21846 21847 21848 21849 21850 21851 21852 21853 21854 21855 21856 21857 21858 21859 21860 21861 21862 21863 21864 21865 21866 21867 21868 21869 21870 21871 21872 21873 21874 21875 21876 21877 21878 21879 21880 21881 21882 21883 21884 21885 21886 21887 21888 21889 21890 21891 21892 21893 21894 21895 21896 21897 21898 21899 21900 21901 21902 21903 21904 21905 21906 21907 21908 21909 21910 21911 21912 21913 21914 21915 21916 21917 21918 21919 21920 21921 21922 21923 21924 21925 21926 21927 21928 21929 21930 21931 21932 21933 21934 21935 21936 21937 21938 21939 21940 21941 21942 21943 21944 21945 21946 21947 21948 21949 21950 21951 21952 21953 21954 21955 21956 21957 21958 21959 21960 21961 21962 21963 21964 21965 21966 21967 21968 21969 21970 21971 21972 21973 21974 21975 21976 21977 21978 21979 21980 21981 21982 21983 21984 21985 21986 21987 21988 21989 21990 21991 21992 21993 21994 21995 21996 21997 21998 21999 22000 22001 22002 22003 22004 22005 22006 22007 22008 22009 22010 22011 22012 22013 22014 22015 22016 22017 22018 22019 22020 22021 22022 22023 22024 22025 22026 22027 22028 22029 22030 22031 22032 22033 22034 22035 22036 22037 22038 22039 22040 22041 22042 22043 22044 22045 22046 22047 22048 22049 22050 22051 22052 22053 22054 22055 22056 22057 22058 22059 22060 22061 22062 22063 22064 22065 22066 22067 22068 22069 22070 22071 22072 22073 22074 22075 22076 22077 22078 22079 22080 22081 22082 22083 22084 22085 22086 22087 22088 22089 22090 22091 22092 22093 22094 22095 22096 22097 22098 22099 22100 22101 22102 22103 22104 22105 22106 22107 22108 22109 22110 22111 22112 22113 22114 22115 22116 22117 22118 22119 22120 22121 22122 22123 22124 22125 22126 22127 22128 22129 22130 22131 22132 22133 22134 22135 22136 22137 22138 22139 22140 22141 22142 22143 22144 22145 22146 22147 22148 22149 22150 22151 22152 22153 22154 22155 22156 22157 22158 22159 22160 22161 22162 22163 22164 22165 22166 22167 22168 22169 22170 22171 22172 22173 22174 22175 22176 22177 22178 22179 22180 22181 22182 22183 22184 22185 22186 22187 22188 22189 22190 22191 22192 22193 22194 22195 22196 22197 22198 22199 22200 22201 22202 22203 22204 22205 22206 22207 22208 22209 22210 22211 22212 22213 22214 22215 22216 22217 22218 22219 22220 22221 22222 22223 22224 22225 22226 22227 22228 22229 22230 22231 22232 22233 22234 22235 22236 22237 22238 22239 22240 22241 22242 22243 22244 22245 22246 22247 22248 22249 22250 22251 22252 22253 22254 22255 22256 22257 22258 22259 22260 22261 22262 22263 22264 22265 22266 22267 22268 22269 22270 22271 22272 22273 22274 22275 22276 22277 22278 22279 22280 22281 22282 22283 22284 22285 22286 22287 22288 22289 22290 22291 22292 22293 22294 22295 22296 22297 22298 22299 22300 22301 22302 22303 22304 22305 22306 22307 22308 22309 22310 22311 22312 22313 22314 22315 22316 22317 22318 22319 22320 22321 22322 22323 22324 22325 22326 22327 22328 22329 22330 22331 22332 22333 22334 22335 22336 22337 22338 22339 22340 22341 22342 22343 22344 22345 22346 22347 22348 22349 22350 22351 22352 22353 22354 22355 22356 22357 22358 22359 22360 22361 22362 22363 22364 22365 22366 22367 22368 22369 22370 22371 22372 22373 22374 22375 22376 22377 22378 22379 22380 22381 22382 22383 22384 22385 22386 22387 22388 22389 22390 22391 22392 22393 22394 22395 22396 22397 22398 22399 22400 22401 22402 22403 22404 22405 22406 22407 22408 22409 22410 22411 22412 22413 22414 22415 22416 22417 22418 22419 22420 22421 22422 22423 22424 22425 22426 22427 22428 22429 22430 22431 22432 22433 22434 22435 22436 22437 22438 22439 22440 22441 22442 22443 22444 22445 22446 22447 22448 22449 22450 22451 22452 22453 22454 22455 22456 22457 22458 22459 22460 22461 22462 22463 22464 22465 22466 22467 22468 22469 22470 22471 22472 22473 22474 22475 22476 22477 22478 22479 22480 22481 22482 22483 22484 22485 22486 22487 22488 22489 22490 22491 22492 22493 22494 22495 22496 22497 22498 22499 22500 22501 22502 22503 22504 22505 22506 22507 22508 22509 22510 22511 22512 22513 22514 22515 22516 22517 22518 22519 22520 22521 22522 22523 22524 22525 22526 22527 22528 22529 22530 22531 22532 22533 22534 22535 22536 22537 22538 22539 22540 22541 22542 22543 22544 22545 22546 22547 22548 22549 22550 22551 22552 22553 22554 22555 22556 22557 22558 22559 22560 22561 22562 22563 22564 22565 22566 22567 22568 22569 22570 22571 22572 22573 22574 22575 22576 22577 22578 22579 22580 22581 22582 22583 22584 22585 22586 22587 22588 22589 22590 22591 22592 22593 22594 22595 22596 22597 22598 22599 22600 22601 22602 22603 22604 22605 22606 22607 22608 22609 22610 22611 22612 22613 22614 22615 22616 22617 22618 22619 22620 22621 22622 22623 22624 22625 22626 22627 22628 22629 22630 22631 22632 22633 22634 22635 22636 22637 22638 22639 22640 22641 22642 22643 22644 22645 22646 22647 22648 22649 22650 22651 22652 22653 22654 22655 22656 22657 22658 22659 22660 22661 22662 22663 22664 22665 22666 22667 22668 22669 22670 22671 22672 22673 22674 22675 22676 22677 22678 22679 22680 22681 22682 22683 22684 22685 22686 22687 22688 22689 22690 22691 22692 22693 22694 22695 22696 22697 22698 22699 22700 22701 22702 22703 22704 22705 22706 22707 22708 22709 22710 22711 22712 22713 22714 22715 22716 22717 22718 22719 22720 22721 22722 22723 22724 22725 22726 22727 22728 22729 22730 22731 22732 22733 22734 22735 22736 22737 22738 22739 22740 22741 22742 22743 22744 22745 22746 22747 22748 22749 22750 22751 22752 22753 22754 22755 22756 22757 22758 22759 22760 22761 22762 22763 22764 22765 22766 22767 22768 22769 22770 22771 22772 22773 22774 22775 22776 22777 22778 22779 22780 22781 22782 22783 22784 22785 22786 22787 22788 22789 22790 22791 22792 22793 22794 22795 22796 22797 22798 22799 22800 22801 22802 22803 22804 22805 22806 22807 22808 22809 22810 22811 22812 22813 22814 22815 22816 22817 22818 22819 22820 22821 22822 22823 22824 22825 22826 22827 22828 22829 22830 22831 22832 22833 22834 22835 22836 22837 22838 22839 22840 22841 22842 22843 22844 22845 22846 22847 22848 22849 22850 22851 22852 22853 22854 22855 22856 22857 22858 22859 22860 22861 22862 22863 22864 22865 22866 22867 22868 22869 22870 22871 22872 22873 22874 22875 22876 22877 22878 22879 22880 22881 22882 22883 22884 22885 22886 22887 22888 22889 22890 22891 22892 22893 22894 22895 22896 22897 22898 22899 22900 22901 22902 22903 22904 22905 22906 22907 22908 22909 22910 22911 22912 22913 22914 22915 22916 22917 22918 22919 22920 22921 22922 22923 22924 22925 22926 22927 22928 22929 22930 22931 22932 22933 22934 22935 22936 22937 22938 22939 22940 22941 22942 22943 22944 22945 22946 22947 22948 22949 22950 22951 22952 22953 22954 22955 22956 22957 22958 22959 22960 22961 22962 22963 22964 22965 22966 22967 22968 22969 22970 22971 22972 22973 22974 22975 22976 22977 22978 22979 22980 22981 22982 22983 22984 22985 22986 22987 22988 22989 22990 22991 22992 22993 22994 22995 22996 22997 22998 22999 23000 23001 23002 23003 23004 23005 23006 23007 23008 23009 23010 23011 23012 23013 23014 23015 23016 23017 23018 23019 23020 23021 23022 23023 23024 23025 23026 23027 23028 23029 23030 23031 23032 23033 23034 23035 23036 23037 23038 23039 23040 23041 23042 23043 23044 23045 23046 23047 23048 23049 23050 23051 23052 23053 23054 23055 23056 23057 23058 23059 23060 23061 23062 23063 23064 23065 23066 23067 23068 23069 23070 23071 23072 23073 23074 23075 23076 23077 23078 23079 23080 23081 23082 23083 23084 23085 23086 23087 23088 23089 23090 23091 23092 23093 23094 23095 23096 23097 23098 23099 23100 23101 23102 23103 23104 23105 23106 23107 23108 23109 23110 23111 23112 23113 23114 23115 23116 23117 23118 23119 23120 23121 23122 23123 23124 23125 23126 23127 23128 23129 23130 23131 23132 23133 23134 23135 23136 23137 23138 23139 23140 23141 23142 23143 23144 23145 23146 23147 23148 23149 23150 23151 23152 23153 23154 23155 23156 23157 23158 23159 23160 23161 23162 23163 23164 23165 23166 23167 23168 23169 23170 23171 23172 23173 23174 23175 23176 23177 23178 23179 23180 23181 23182 23183 23184 23185 23186 23187 23188 23189 23190 23191 23192 23193 23194 23195 23196 23197 23198 23199 23200 23201 23202 23203 23204 23205 23206 23207 23208 23209 23210 23211 23212 23213 23214 23215 23216 23217 23218 23219 23220 23221 23222 23223 23224 23225 23226 23227 23228 23229 23230 23231 23232 23233 23234 23235 23236 23237 23238 23239 23240 23241 23242 23243 23244 23245 23246 23247 23248 23249 23250 23251 23252 23253 23254 23255 23256 23257 23258 23259 23260 23261 23262 23263 23264 23265 23266 23267 23268 23269 23270 23271 23272 23273 23274 23275 23276 23277 23278 23279 23280 23281 23282 23283 23284 23285 23286 23287 23288 23289 23290 23291 23292 23293 23294 23295 23296 23297 23298 23299 23300 23301 23302 23303 23304 23305 23306 23307 23308 23309 23310 23311 23312 23313 23314 23315 23316 23317 23318 23319 23320 23321 23322 23323 23324 23325 23326 23327 23328 23329 23330 23331 23332 23333 23334 23335 23336 23337 23338 23339 23340 23341 23342 23343 23344 23345 23346 23347 23348 23349 23350 23351 23352 23353 23354 23355 23356 23357 23358 23359 23360 23361 23362 23363 23364 23365 23366 23367 23368 23369 23370 23371 23372 23373 23374 23375 23376 23377 23378 23379 23380 23381 23382 23383 23384 23385 23386 23387 23388 23389 23390 23391 23392 23393 23394 23395 23396 23397 23398 23399 23400 23401 23402 23403 23404 23405 23406 23407 23408 23409 23410 23411 23412 23413 23414 23415 23416 23417 23418 23419 23420 23421 23422 23423 23424 23425 23426 23427 23428 23429 23430 23431 23432 23433 23434 23435 23436 23437 23438 23439 23440 23441 23442 23443 23444 23445 23446 23447 23448 23449 23450 23451 23452 23453 23454 23455 23456 23457 23458 23459 23460 23461 23462 23463 23464 23465 23466 23467 23468 23469 23470 23471 23472 23473 23474 23475 23476 23477 23478 23479 23480 23481 23482 23483 23484 23485 23486 23487 23488 23489 23490 23491 23492 23493 23494 23495 23496 23497 23498 23499 23500 23501 23502 23503 23504 23505 23506 23507 23508 23509 23510 23511 23512 23513 23514 23515 23516 23517 23518 23519 23520 23521 23522 23523 23524 23525 23526 23527 23528 23529 23530 23531 23532 23533 23534 23535 23536 23537 23538 23539 23540 23541 23542 23543 23544 23545 23546 23547 23548 23549 23550 23551 23552 23553 23554 23555 23556 23557 23558 23559 23560 23561 23562 23563 23564 23565 23566 23567 23568 23569 23570 23571 23572 23573 23574 23575 23576 23577 23578 23579 23580 23581 23582 23583 23584 23585 23586 23587 23588 23589 23590 23591 23592 23593 23594 23595 23596 23597 23598 23599 23600 23601 23602 23603 23604 23605 23606 23607 23608 23609 23610 23611 23612 23613 23614 23615 23616 23617 23618 23619 23620 23621 23622 23623 23624 23625 23626 23627 23628 23629 23630 23631 23632 23633 23634 23635 23636 23637 23638 23639 23640 23641 23642 23643 23644 23645 23646 23647 23648 23649 23650 23651 23652 23653 23654 23655 23656 23657 23658 23659 23660 23661 23662 23663 23664 23665 23666 23667 23668 23669 23670 23671 23672 23673 23674 23675 23676 23677 23678 23679 23680 23681 23682 23683 23684 23685 23686 23687 23688 23689 23690 23691 23692 23693 23694 23695 23696 23697 23698 23699 23700 23701 23702 23703 23704 23705 23706 23707 23708 23709 23710 23711 23712 23713 23714 23715 23716 23717 23718 23719 23720 23721 23722 23723 23724 23725 23726 23727 23728 23729 23730 23731 23732 23733 23734 23735 23736 23737 23738 23739 23740 23741 23742 23743 23744 23745 23746 23747 23748 23749 23750 23751 23752 23753 23754 23755 23756 23757 23758 23759 23760 23761 23762 23763 23764 23765 23766 23767 23768 23769 23770 23771 23772 23773 23774 23775 23776 23777 23778 23779 23780 23781 23782 23783 23784 23785 23786 23787 23788 23789 23790 23791 23792 23793 23794 23795 23796 23797 23798 23799 23800 23801 23802 23803 23804 23805 23806 23807 23808 23809 23810 23811 23812 23813 23814 23815 23816 23817 23818 23819 23820 23821 23822 23823 23824 23825 23826 23827 23828 23829 23830 23831 23832 23833 23834 23835 23836 23837 23838 23839 23840 23841 23842 23843 23844 23845 23846 23847 23848 23849 23850 23851 23852 23853 23854 23855 23856 23857 23858 23859 23860 23861 23862 23863 23864 23865 23866 23867 23868 23869 23870 23871 23872 23873 23874 23875 23876 23877 23878 23879 23880 23881 23882 23883 23884 23885 23886 23887 23888 23889 23890 23891 23892 23893 23894 23895 23896 23897 23898 23899 23900 23901 23902 23903 23904 23905 23906 23907 23908 23909 23910 23911 23912 23913 23914 23915 23916 23917 23918 23919 23920 23921 23922 23923 23924 23925 23926 23927 23928 23929 23930 23931 23932 23933 23934 23935 23936 23937 23938 23939 23940 23941 23942 23943 23944 23945 23946 23947 23948 23949 23950 23951 23952 23953 23954 23955 23956 23957 23958 23959 23960 23961 23962 23963 23964 23965 23966 23967 23968 23969 23970 23971 23972 23973 23974 23975 23976 23977 23978 23979 23980 23981 23982 23983 23984 23985 23986 23987 23988 23989 23990 23991 23992 23993 23994 23995 23996 23997 23998 23999 24000 24001 24002 24003 24004 24005 24006 24007 24008 24009 24010 24011 24012 24013 24014 24015 24016 24017 24018 24019 24020 24021 24022 24023 24024 24025 24026 24027 24028 24029 24030 24031 24032 24033 24034 24035 24036 24037 24038 24039 24040 24041 24042 24043 24044 24045 24046 24047 24048 24049 24050 24051 24052 24053 24054 24055 24056 24057 24058 24059 24060 24061 24062 24063 24064 24065 24066 24067 24068 24069 24070 24071 24072 24073 24074 24075 24076 24077 24078 24079 24080 24081 24082 24083 24084 24085 24086 24087 24088 24089 24090 24091 24092 24093 24094 24095 24096 24097 24098 24099 24100 24101 24102 24103 24104 24105 24106 24107 24108 24109 24110 24111 24112 24113 24114 24115 24116 24117 24118 24119 24120 24121 24122 24123 24124 24125 24126 24127 24128 24129 24130 24131 24132 24133 24134 24135 24136 24137 24138 24139 24140 24141 24142 24143 24144 24145 24146 24147 24148 24149 24150 24151 24152 24153 24154 24155 24156 24157 24158 24159 24160 24161 24162 24163 24164 24165 24166 24167 24168 24169 24170 24171 24172 24173 24174 24175 24176 24177 24178 24179 24180 24181 24182 24183 24184 24185 24186 24187 24188 24189 24190 24191 24192 24193 24194 24195 24196 24197 24198 24199 24200 24201 24202 24203 24204 24205 24206 24207 24208 24209 24210 24211 24212 24213 24214 24215 24216 24217 24218 24219 24220 24221 24222 24223 24224 24225 24226 24227 24228 24229 24230 24231 24232 24233 24234 24235 24236 24237 24238 24239 24240 24241 24242 24243 24244 24245 24246 24247 24248 24249 24250 24251 24252 24253 24254 24255 24256 24257 24258 24259 24260 24261 24262 24263 24264 24265 24266 24267 24268 24269 24270 24271 24272 24273 24274 24275 24276 24277 24278 24279 24280 24281 24282 24283 24284 24285 24286 24287 24288 24289 24290 24291 24292 24293 24294 24295 24296 24297 24298 24299 24300 24301 24302 24303 24304 24305 24306 24307 24308 24309 24310 24311 24312 24313 24314 24315 24316 24317 24318 24319 24320 24321 24322 24323 24324 24325 24326 24327 24328 24329 24330 24331 24332 24333 24334 24335 24336 24337 24338 24339 24340 24341 24342 24343 24344 24345 24346 24347 24348 24349 24350 24351 24352 24353 24354 24355 24356 24357 24358 24359 24360 24361 24362 24363 24364 24365 24366 24367 24368 24369 24370 24371 24372 24373 24374 24375 24376 24377 24378 24379 24380 24381 24382 24383 24384 24385 24386 24387 24388 24389 24390 24391 24392 24393 24394 24395 24396 24397 24398 24399 24400 24401 24402 24403 24404 24405 24406 24407 24408 24409 24410 24411 24412 24413 24414 24415 24416 24417 24418 24419 24420 24421 24422 24423 24424 24425 24426 24427 24428 24429 24430 24431 24432 24433 24434 24435 24436 24437 24438 24439 24440 24441 24442 24443 24444 24445 24446 24447 24448 24449 24450 24451 24452 24453 24454 24455 24456 24457 24458 24459 24460 24461 24462 24463 24464 24465 24466 24467 24468 24469 24470 24471 24472 24473 24474 24475 24476 24477 24478 24479 24480 24481 24482 24483 24484 24485 24486 24487 24488 24489 24490 24491 24492 24493 24494 24495 24496 24497 24498 24499 24500 24501 24502 24503 24504 24505 24506 24507 24508 24509 24510 24511 24512 24513 24514 24515 24516 24517 24518 24519 24520 24521 24522 24523 24524 24525 24526 24527 24528 24529 24530 24531 24532 24533 24534 24535 24536 24537 24538 24539 24540 24541 24542 24543 24544 24545 24546 24547 24548 24549 24550 24551 24552 24553 24554 24555 24556 24557 24558 24559 24560 24561 24562 24563 24564 24565 24566 24567 24568 24569 24570 24571 24572 24573 24574 24575 24576 24577 24578 24579 24580 24581 24582 24583 24584 24585 24586 24587 24588 24589 24590 24591 24592 24593 24594 24595 24596 24597 24598 24599 24600 24601 24602 24603 24604 24605 24606 24607 24608 24609 24610 24611 24612 24613 24614 24615 24616 24617 24618 24619 24620 24621 24622 24623 24624 24625 24626 24627 24628 24629 24630 24631 24632 24633 24634 24635 24636 24637 24638 24639 24640 24641 24642 24643 24644 24645 24646 24647 24648 24649 24650 24651 24652 24653 24654 24655 24656 24657 24658 24659 24660 24661 24662 24663 24664 24665 24666 24667 24668 24669 24670 24671 24672 24673 24674 24675 24676 24677 24678 24679 24680 24681 24682 24683 24684 24685 24686 24687 24688 24689 24690 24691 24692 24693 24694 24695 24696 24697 24698 24699 24700 24701 24702 24703 24704 24705 24706 24707 24708 24709 24710 24711 24712 24713 24714 24715 24716 24717 24718 24719 24720 24721 24722 24723 24724 24725 24726 24727 24728 24729 24730 24731 24732 24733 24734 24735 24736 24737 24738 24739 24740 24741 24742 24743 24744 24745 24746 24747 24748 24749 24750 24751 24752 24753 24754 24755 24756 24757 24758 24759 24760 24761 24762 24763 24764 24765 24766 24767 24768 24769 24770 24771 24772 24773 24774 24775 24776 24777 24778 24779 24780 24781 24782 24783 24784 24785 24786 24787 24788 24789 24790 24791 24792 24793 24794 24795 24796 24797 24798 24799 24800 24801 24802 24803 24804 24805 24806 24807 24808 24809 24810 24811 24812 24813 24814 24815 24816 24817 24818 24819 24820 24821 24822 24823 24824 24825 24826 24827 24828 24829 24830 24831 24832 24833 24834 24835 24836 24837 24838 24839 24840 24841 24842 24843 24844 24845 24846 24847 24848 24849 24850 24851 24852 24853 24854 24855 24856 24857 24858 24859 24860 24861 24862 24863 24864 24865 24866 24867 24868 24869 24870 24871 24872 24873 24874 24875 24876 24877 24878 24879 24880 24881 24882 24883 24884 24885 24886 24887 24888 24889 24890 24891 24892 24893 24894 24895 24896 24897 24898 24899 24900 24901 24902 24903 24904 24905 24906 24907 24908 24909 24910 24911 24912 24913 24914 24915 24916 24917 24918 24919 24920 24921 24922 24923 24924 24925 24926 24927 24928 24929 24930 24931 24932 24933 24934 24935 24936 24937 24938 24939 24940 24941 24942 24943 24944 24945 24946 24947 24948 24949 24950 24951 24952 24953 24954 24955 24956 24957 24958 24959 24960 24961 24962 24963 24964 24965 24966 24967 24968 24969 24970 24971 24972 24973 24974 24975 24976 24977 24978 24979 24980 24981 24982 24983 24984 24985 24986 24987 24988 24989 24990 24991 24992 24993 24994 24995 24996 24997 24998 24999 25000 25001 25002 25003 25004 25005 25006 25007 25008 25009 25010 25011 25012 25013 25014 25015 25016 25017 25018 25019 25020 25021 25022 25023 25024 25025 25026 25027 25028 25029 25030 25031 25032 25033 25034 25035 25036 25037 25038 25039 25040 25041 25042 25043 25044 25045 25046 25047 25048 25049 25050 25051 25052 25053 25054 25055 25056 25057 25058 25059 25060 25061 25062 25063 25064 25065 25066 25067 25068 25069 25070 25071 25072 25073 25074 25075 25076 25077 25078 25079 25080 25081 25082 25083 25084 25085 25086 25087 25088 25089 25090 25091 25092 25093 25094 25095 25096 25097 25098 25099 25100 25101 25102 25103 25104 25105 25106 25107 25108 25109 25110 25111 25112 25113 25114 25115 25116 25117 25118 25119 25120 25121 25122 25123 25124 25125 25126 25127 25128 25129 25130 25131 25132 25133 25134 25135 25136 25137 25138 25139 25140 25141 25142 25143 25144 25145 25146 25147 25148 25149 25150 25151 25152 25153 25154 25155 25156 25157 25158 25159 25160 25161 25162 25163 25164 25165 25166 25167 25168 25169 25170 25171 25172 25173 25174 25175 25176 25177 25178 25179 25180 25181 25182 25183 25184 25185 25186 25187 25188 25189 25190 25191 25192 25193 25194 25195 25196 25197 25198 25199 25200 25201 25202 25203 25204 25205 25206 25207 25208 25209 25210 25211 25212 25213 25214 25215 25216 25217 25218 25219 25220 25221 25222 25223 25224 25225 25226 25227 25228 25229 25230 25231 25232 25233 25234 25235 25236 25237 25238 25239 25240 25241 25242 25243 25244 25245 25246 25247 25248 25249 25250 25251 25252 25253 25254 25255 25256 25257 25258 25259 25260 25261 25262 25263 25264 25265 25266 25267 25268 25269 25270 25271 25272 25273 25274 25275 25276 25277 25278 25279 25280 25281 25282 25283 25284 25285 25286 25287 25288 25289 25290 25291 25292 25293 25294 25295 25296 25297 25298 25299 25300 25301 25302 25303 25304 25305 25306 25307 25308 25309 25310 25311 25312 25313 25314 25315 25316 25317 25318 25319 25320 25321 25322 25323 25324 25325 25326 25327 25328 25329 25330 25331 25332 25333 25334 25335 25336 25337 25338 25339 25340 25341 25342 25343 25344 25345 25346 25347 25348 25349 25350 25351 25352 25353 25354 25355 25356 25357 25358 25359 25360 25361 25362 25363 25364 25365 25366 25367 25368 25369 25370 25371 25372 25373 25374 25375 25376 25377 25378 25379 25380 25381 25382 25383 25384 25385 25386 25387 25388 25389 25390 25391 25392 25393 25394 25395 25396 25397 25398 25399 25400 25401 25402 25403 25404 25405 25406 25407 25408 25409 25410 25411 25412 25413 25414 25415 25416 25417 25418 25419 25420 25421 25422 25423 25424 25425 25426 25427 25428 25429 25430 25431 25432 25433 25434 25435 25436 25437 25438 25439 25440 25441 25442 25443 25444 25445 25446 25447 25448 25449 25450 25451 25452 25453 25454 25455 25456 25457 25458 25459 25460 25461 25462 25463 25464 25465 25466 25467 25468 25469 25470 25471 25472 25473 25474 25475 25476 25477 25478 25479 25480 25481 25482 25483 25484 25485 25486 25487 25488 25489 25490 25491 25492 25493 25494 25495 25496 25497 25498 25499 25500 25501 25502 25503 25504 25505 25506 25507 25508 25509 25510 25511 25512 25513 25514 25515 25516 25517 25518 25519 25520 25521 25522 25523 25524 25525 25526 25527 25528 25529 25530 25531 25532 25533 25534 25535 25536 25537 25538 25539 25540 25541 25542 25543 25544 25545 25546 25547 25548 25549 25550 25551 25552 25553 25554 25555 25556 25557 25558 25559 25560 25561 25562 25563 25564 25565 25566 25567 25568 25569 25570 25571 25572 25573 25574 25575 25576 25577 25578 25579 25580 25581 25582 25583 25584 25585 25586 25587 25588 25589 25590 25591 25592 25593 25594 25595 25596 25597 25598 25599 25600 25601 25602 25603 25604 25605 25606 25607 25608 25609 25610 25611 25612 25613 25614 25615 25616 25617 25618 25619 25620 25621 25622 25623 25624 25625 25626 25627 25628 25629 25630 25631 25632 25633 25634 25635 25636 25637 25638 25639 25640 25641 25642 25643 25644 25645 25646 25647 25648 25649 25650 25651 25652 25653 25654 25655 25656 25657 25658 25659 25660 25661 25662 25663 25664 25665 25666 25667 25668 25669 25670 25671 25672 25673 25674 25675 25676 25677 25678 25679 25680 25681 25682 25683 25684 25685 25686 25687 25688 25689 25690 25691 25692 25693 25694 25695 25696 25697 25698 25699 25700 25701 25702 25703 25704 25705 25706 25707 25708 25709 25710 25711 25712 25713 25714 25715 25716 25717 25718 25719 25720 25721 25722 25723 25724 25725 25726 25727 25728 25729 25730 25731 25732 25733 25734 25735 25736 25737 25738 25739 25740 25741 25742 25743 25744 25745 25746 25747 25748 25749 25750 25751 25752 25753 25754 25755 25756 25757 25758 25759 25760 25761 25762 25763 25764 25765 25766 25767 25768 25769 25770 25771 25772 25773 25774 25775 25776 25777 25778 25779 25780 25781 25782 25783 25784 25785 25786 25787 25788 25789 25790 25791 25792 25793 25794 25795 25796 25797 25798 25799 25800 25801 25802 25803 25804 25805 25806 25807 25808 25809 25810 25811 25812 25813 25814 25815 25816 25817 25818 25819 25820 25821 25822 25823 25824 25825 25826 25827 25828 25829 25830 25831 25832 25833 25834 25835 25836 25837 25838 25839 25840 25841 25842 25843 25844 25845 25846 25847 25848 25849 25850 25851 25852 25853 25854 25855 25856 25857 25858 25859 25860 25861 25862 25863 25864 25865 25866 25867 25868 25869 25870 25871 25872 25873 25874 25875 25876 25877 25878 25879 25880 25881 25882 25883 25884 25885 25886 25887 25888 25889 25890 25891 25892 25893 25894 25895 25896 25897 25898 25899 25900 25901 25902 25903 25904 25905 25906 25907 25908 25909 25910 25911 25912 25913 25914 25915 25916 25917 25918 25919 25920 25921 25922 25923 25924 25925 25926 25927 25928 25929 25930 25931 25932 25933 25934 25935 25936 25937 25938 25939 25940 25941 25942 25943 25944 25945 25946 25947 25948 25949 25950 25951 25952 25953 25954 25955 25956 25957 25958 25959 25960 25961 25962 25963 25964 25965 25966 25967 25968 25969 25970 25971 25972 25973 25974 25975 25976 25977 25978 25979 25980 25981 25982 25983 25984 25985 25986 25987 25988 25989 25990 25991 25992 25993 25994 25995 25996 25997 25998 25999 26000 26001 26002 26003 26004 26005 26006 26007 26008 26009 26010 26011 26012 26013 26014 26015 26016 26017 26018 26019 26020 26021 26022 26023 26024 26025 26026 26027 26028 26029 26030 26031 26032 26033 26034 26035 26036 26037 26038 26039 26040 26041 26042 26043 26044 26045 26046 26047 26048 26049 26050 26051 26052 26053 26054 26055 26056 26057 26058 26059 26060 26061 26062 26063 26064 26065 26066 26067 26068 26069 26070 26071 26072 26073 26074 26075 26076 26077 26078 26079 26080 26081 26082 26083 26084 26085 26086 26087 26088 26089 26090 26091 26092 26093 26094 26095 26096 26097 26098 26099 26100 26101 26102 26103 26104 26105 26106 26107 26108 26109 26110 26111 26112 26113 26114 26115 26116 26117 26118 26119 26120 26121 26122 26123 26124 26125 26126 26127 26128 26129 26130 26131 26132 26133 26134 26135 26136 26137 26138 26139 26140 26141 26142 26143 26144 26145 26146 26147 26148 26149 26150 26151 26152 26153 26154 26155 26156 26157 26158 26159 26160 26161 26162 26163 26164 26165 26166 26167 26168 26169 26170 26171 26172 26173 26174 26175 26176 26177 26178 26179 26180 26181 26182 26183 26184 26185 26186 26187 26188 26189 26190 26191 26192 26193 26194 26195 26196 26197 26198 26199 26200 26201 26202 26203 26204 26205 26206 26207 26208 26209 26210 26211 26212 26213 26214 26215 26216 26217 26218 26219 26220 26221 26222 26223 26224 26225 26226 26227 26228 26229 26230 26231 26232 26233 26234 26235 26236 26237 26238 26239 26240 26241 26242 26243 26244 26245 26246 26247 26248 26249 26250 26251 26252 26253 26254 26255 26256 26257 26258 26259 26260 26261 26262 26263 26264 26265 26266 26267 26268 26269 26270 26271 26272 26273 26274 26275 26276 26277 26278 26279 26280 26281 26282 26283 26284 26285 26286 26287 26288 26289 26290 26291 26292 26293 26294 26295 26296 26297 26298 26299 26300 26301 26302 26303 26304 26305 26306 26307 26308 26309 26310 26311 26312 26313 26314 26315 26316 26317 26318 26319 26320 26321 26322 26323 26324 26325 26326 26327 26328 26329 26330 26331 26332 26333 26334 26335 26336 26337 26338 26339 26340 26341 26342 26343 26344 26345 26346 26347 26348 26349 26350 26351 26352 26353 26354 26355 26356 26357 26358 26359 26360 26361 26362 26363 26364 26365 26366 26367 26368 26369 26370 26371 26372 26373 26374 26375 26376 26377 26378 26379 26380 26381 26382 26383 26384 26385 26386 26387 26388 26389 26390 26391 26392 26393 26394 26395 26396 26397 26398 26399 26400 26401 26402 26403 26404 26405 26406 26407 26408 26409 26410 26411 26412 26413 26414 26415 26416 26417 26418 26419 26420 26421 26422 26423 26424 26425 26426 26427 26428 26429 26430 26431 26432 26433 26434 26435 26436 26437 26438 26439 26440 26441 26442 26443 26444 26445 26446 26447 26448 26449 26450 26451 26452 26453 26454 26455 26456 26457 26458 26459 26460 26461 26462 26463 26464 26465 26466 26467 26468 26469 26470 26471 26472 26473 26474 26475 26476 26477 26478 26479 26480 26481 26482 26483 26484 26485 26486 26487 26488 26489 26490 26491 26492 26493 26494 26495 26496 26497 26498 26499 26500 26501 26502 26503 26504 26505 26506 26507 26508 26509 26510 26511 26512 26513 26514 26515 26516 26517 26518 26519 26520 26521 26522 26523 26524 26525 26526 26527 26528 26529 26530 26531 26532 26533 26534 26535 26536 26537 26538 26539 26540 26541 26542 26543 26544 26545 26546 26547 26548 26549 26550 26551 26552 26553 26554 26555 26556 26557 26558 26559 26560 26561 26562 26563 26564 26565 26566 26567 26568 26569 26570 26571 26572 26573 26574 26575 26576 26577 26578 26579 26580 26581 26582 26583 26584 26585 26586 26587 26588 26589 26590 26591 26592 26593 26594 26595 26596 26597 26598 26599 26600 26601 26602 26603 26604 26605 26606 26607 26608 26609 26610 26611 26612 26613 26614 26615 26616 26617 26618 26619 26620 26621 26622 26623 26624 26625 26626 26627 26628 26629 26630 26631 26632 26633 26634 26635 26636 26637 26638 26639 26640 26641 26642 26643 26644 26645 26646 26647 26648 26649 26650 26651 26652 26653 26654 26655 26656 26657 26658 26659 26660 26661 26662 26663 26664 26665 26666 26667 26668 26669 26670 26671 26672 26673 26674 26675 26676 26677 26678 26679 26680 26681 26682 26683 26684 26685 26686 26687 26688 26689 26690 26691 26692 26693 26694 26695 26696 26697 26698 26699 26700 26701 26702 26703 26704 26705 26706 26707 26708 26709 26710 26711 26712 26713 26714 26715 26716 26717 26718 26719 26720 26721 26722 26723 26724 26725 26726 26727 26728 26729 26730 26731 26732 26733 26734 26735 26736 26737 26738 26739 26740 26741 26742 26743 26744 26745 26746 26747 26748 26749 26750 26751 26752 26753 26754 26755 26756 26757 26758 26759 26760 26761 26762 26763 26764 26765 26766 26767 26768 26769 26770 26771 26772 26773 26774 26775 26776 26777 26778 26779 26780 26781 26782 26783 26784 26785 26786 26787 26788 26789 26790 26791 26792 26793 26794 26795 26796 26797 26798 26799 26800 26801 26802 26803 26804 26805 26806 26807 26808 26809 26810 26811 26812 26813 26814 26815 26816 26817 26818 26819 26820 26821 26822 26823 26824 26825 26826 26827 26828 26829 26830 26831 26832 26833 26834 26835 26836 26837 26838 26839 26840 26841 26842 26843 26844 26845 26846 26847 26848 26849 26850 26851 26852 26853 26854 26855 26856 26857 26858 26859 26860 26861 26862 26863 26864 26865 26866 26867 26868 26869 26870 26871 26872 26873 26874 26875 26876 26877 26878 26879 26880 26881 26882 26883 26884 26885 26886 26887 26888 26889 26890 26891 26892 26893 26894 26895 26896 26897 26898 26899 26900 26901 26902 26903 26904 26905 26906 26907 26908 26909 26910 26911 26912 26913 26914 26915 26916 26917 26918 26919 26920 26921 26922 26923 26924 26925 26926 26927 26928 26929 26930 26931 26932 26933 26934 26935 26936 26937 26938 26939 26940 26941 26942 26943 26944 26945 26946 26947 26948 26949 26950 26951 26952 26953 26954 26955 26956 26957 26958 26959 26960 26961 26962 26963 26964 26965 26966 26967 26968 26969 26970 26971 26972 26973 26974 26975 26976 26977 26978 26979 26980 26981 26982 26983 26984 26985 26986 26987 26988 26989 26990 26991 26992 26993 26994 26995 26996 26997 26998 26999 27000 27001 27002 27003 27004 27005 27006 27007 27008 27009 27010 27011 27012 27013 27014 27015 27016 27017 27018 27019 27020 27021 27022 27023 27024 27025 27026 27027 27028 27029 27030 27031 27032 27033 27034 27035 27036 27037 27038 27039 27040 27041 27042 27043 27044 27045 27046 27047 27048 27049 27050 27051 27052 27053 27054 27055 27056 27057 27058 27059 27060 27061 27062 27063 27064 27065 27066 27067 27068 27069 27070 27071 27072 27073 27074 27075 27076 27077 27078 27079 27080 27081 27082 27083 27084 27085 27086 27087 27088 27089 27090 27091 27092 27093 27094 27095 27096 27097 27098 27099 27100 27101 27102 27103 27104 27105 27106 27107 27108 27109 27110 27111 27112 27113 27114 27115 27116 27117 27118 27119 27120 27121 27122 27123 27124 27125 27126 27127 27128 27129 27130 27131 27132 27133 27134 27135 27136 27137 27138 27139 27140 27141 27142 27143 27144 27145 27146 27147 27148 27149 27150 27151 27152 27153 27154 27155 27156 27157 27158 27159 27160 27161 27162 27163 27164 27165 27166 27167 27168 27169 27170 27171 27172 27173 27174 27175 27176 27177 27178 27179 27180 27181 27182 27183 27184 27185 27186 27187 27188 27189 27190 27191 27192 27193 27194 27195 27196 27197 27198 27199 27200 27201 27202 27203 27204 27205 27206 27207 27208 27209 27210 27211 27212 27213 27214 27215 27216 27217 27218 27219 27220 27221 27222 27223 27224 27225 27226 27227 27228 27229 27230 27231 27232 27233 27234 27235 27236 27237 27238 27239 27240 27241 27242 27243 27244 27245 27246 27247 27248 27249 27250 27251 27252 27253 27254 27255 27256 27257 27258 27259 27260 27261 27262 27263 27264 27265 27266 27267 27268 27269 27270 27271 27272 27273 27274 27275 27276 27277 27278 27279 27280 27281 27282 27283 27284 27285 27286 27287 27288 27289 27290 27291 27292 27293 27294 27295 27296 27297 27298 27299 27300 27301 27302 27303 27304 27305 27306 27307 27308 27309 27310 27311 27312 27313 27314 27315 27316 27317 27318 27319 27320 27321 27322 27323 27324 27325 27326 27327 27328 27329 27330 27331 27332 27333 27334 27335 27336 27337 27338 27339 27340 27341 27342 27343 27344 27345 27346 27347 27348 27349 27350 27351 27352 27353 27354 27355 27356 27357 27358 27359 27360 27361 27362 27363 27364 27365 27366 27367 27368 27369 27370 27371 27372 27373 27374 27375 27376 27377 27378 27379 27380 27381 27382 27383 27384 27385 27386 27387 27388 27389 27390 27391 27392 27393 27394 27395 27396 27397 27398 27399 27400 27401 27402 27403 27404 27405 27406 27407 27408 27409 27410 27411 27412 27413 27414 27415 27416 27417 27418 27419 27420 27421 27422 27423 27424 27425 27426 27427 27428 27429 27430 27431 27432 27433 27434 27435 27436 27437 27438 27439 27440 27441 27442 27443 27444 27445 27446 27447 27448 27449 27450 27451 27452 27453 27454 27455 27456 27457 27458 27459 27460 27461 27462 27463 27464 27465 27466 27467 27468 27469 27470 27471 27472 27473 27474 27475 27476 27477 27478 27479 27480 27481 27482 27483 27484 27485 27486 27487 27488 27489 27490 27491 27492 27493 27494 27495 27496 27497 27498 27499 27500 27501 27502 27503 27504 27505 27506 27507 27508 27509 27510 27511 27512 27513 27514 27515 27516 27517 27518 27519 27520 27521 27522 27523 27524 27525 27526 27527 27528 27529 27530 27531 27532 27533 27534 27535 27536 27537 27538 27539 27540 27541 27542 27543 27544 27545 27546 27547 27548 27549 27550 27551 27552 27553 27554 27555 27556 27557 27558 27559 27560 27561 27562 27563 27564 27565 27566 27567 27568 27569 27570 27571 27572 27573 27574 27575 27576 27577 27578 27579 27580 27581 27582 27583 27584 27585 27586 27587 27588 27589 27590 27591 27592 27593 27594 27595 27596 27597 27598 27599 27600 27601 27602 27603 27604 27605 27606 27607 27608 27609 27610 27611 27612 27613 27614 27615 27616 27617 27618 27619 27620 27621 27622 27623 27624 27625 27626 27627 27628 27629 27630 27631 27632 27633 27634 27635 27636 27637 27638 27639 27640 27641 27642 27643 27644 27645 27646 27647 27648 27649 27650 27651 27652 27653 27654 27655 27656 27657 27658 27659 27660 27661 27662 27663 27664 27665 27666 27667 27668 27669 27670 27671 27672 27673 27674 27675 27676 27677 27678 27679 27680 27681 27682 27683 27684 27685 27686 27687 27688 27689 27690 27691 27692 27693 27694 27695 27696 27697 27698 27699 27700 27701 27702 27703 27704 27705 27706 27707 27708 27709 27710 27711 27712 27713 27714 27715 27716 27717 27718 27719 27720 27721 27722 27723 27724 27725 27726 27727 27728 27729 27730 27731 27732 27733 27734 27735 27736 27737 27738 27739 27740 27741 27742 27743 27744 27745 27746 27747 27748 27749 27750 27751 27752 27753 27754 27755 27756 27757 27758 27759 27760 27761 27762 27763 27764 27765 27766 27767 27768 27769 27770 27771 27772 27773 27774 27775 27776 27777 27778 27779 27780 27781 27782 27783 27784 27785 27786 27787 27788 27789 27790 27791 27792 27793 27794 27795 27796 27797 27798 27799 27800 27801 27802 27803 27804 27805 27806 27807 27808 27809 27810 27811 27812 27813 27814 27815 27816 27817 27818 27819 27820 27821 27822 27823 27824 27825 27826 27827 27828 27829 27830 27831 27832 27833 27834 27835 27836 27837 27838 27839 27840 27841 27842 27843 27844 27845 27846 27847 27848 27849 27850 27851 27852 27853 27854 27855 27856 27857 27858 27859 27860 27861 27862 27863 27864 27865 27866 27867 27868 27869 27870 27871 27872 27873 27874 27875 27876 27877 27878 27879 27880 27881 27882 27883 27884 27885 27886 27887 27888 27889 27890 27891 27892 27893 27894 27895 27896 27897 27898 27899 27900 27901 27902 27903 27904 27905 27906 27907 27908 27909 27910 27911 27912 27913 27914 27915 27916 27917 27918 27919 27920 27921 27922 27923 27924 27925 27926 27927 27928 27929 27930 27931 27932 27933 27934 27935 27936 27937 27938 27939 27940 27941 27942 27943 27944 27945 27946 27947 27948 27949 27950 27951 27952 27953 27954 27955 27956 27957 27958 27959 27960 27961 27962 27963 27964 27965 27966 27967 27968 27969 27970 27971 27972 27973 27974 27975 27976 27977 27978 27979 27980 27981 27982 27983 27984 27985 27986 27987 27988 27989 27990 27991 27992 27993 27994 27995 27996 27997 27998 27999 28000 28001 28002 28003 28004 28005 28006 28007 28008 28009 28010 28011 28012 28013 28014 28015 28016 28017 28018 28019 28020 28021 28022 28023 28024 28025 28026 28027 28028 28029 28030 28031 28032 28033 28034 28035 28036 28037 28038 28039 28040 28041 28042 28043 28044 28045 28046 28047 28048 28049 28050 28051 28052 28053 28054 28055 28056 28057 28058 28059 28060 28061 28062 28063 28064 28065 28066 28067 28068 28069 28070 28071 28072 28073 28074 28075 28076 28077 28078 28079 28080 28081 28082 28083 28084 28085 28086 28087 28088 28089 28090 28091 28092 28093 28094 28095 28096 28097 28098 28099 28100 28101 28102 28103 28104 28105 28106 28107 28108 28109 28110 28111 28112 28113 28114 28115 28116 28117 28118 28119 28120 28121 28122 28123 28124 28125 28126 28127 28128 28129 28130 28131 28132 28133 28134 28135 28136 28137 28138 28139 28140 28141 28142 28143 28144 28145 28146 28147 28148 28149 28150 28151 28152 28153 28154 28155 28156 28157 28158 28159 28160 28161 28162 28163 28164 28165 28166 28167 28168 28169 28170 28171 28172 28173 28174 28175 28176 28177 28178 28179 28180 28181 28182 28183 28184 28185 28186 28187 28188 28189 28190 28191 28192 28193 28194 28195 28196 28197 28198 28199 28200 28201 28202 28203 28204 28205 28206 28207 28208 28209 28210 28211 28212 28213 28214 28215 28216 28217 28218 28219 28220 28221 28222 28223 28224 28225 28226 28227 28228 28229 28230 28231 28232 28233 28234 28235 28236 28237 28238 28239 28240 28241 28242 28243 28244 28245 28246 28247 28248 28249 28250 28251 28252 28253 28254 28255 28256 28257 28258 28259 28260 28261 28262 28263 28264 28265 28266 28267 28268 28269 28270 28271 28272 28273 28274 28275 28276 28277 28278 28279 28280 28281 28282 28283 28284 28285 28286 28287 28288 28289 28290 28291 28292 28293 28294 28295 28296 28297 28298 28299 28300 28301 28302 28303 28304 28305 28306 28307 28308 28309 28310 28311 28312 28313 28314 28315 28316 28317 28318 28319 28320 28321 28322 28323 28324 28325 28326 28327 28328 28329 28330 28331 28332 28333 28334 28335 28336 28337 28338 28339 28340 28341 28342 28343 28344 28345 28346 28347 28348 28349 28350 28351 28352 28353 28354 28355 28356 28357 28358 28359 28360 28361 28362 28363 28364 28365 28366 28367 28368 28369 28370 28371 28372 28373 28374 28375 28376 28377 28378 28379 28380 28381 28382 28383 28384 28385 28386 28387 28388 28389 28390 28391 28392 28393 28394 28395 28396 28397 28398 28399 28400 28401 28402 28403 28404 28405 28406 28407 28408 28409 28410 28411 28412 28413 28414 28415 28416 28417 28418 28419 28420 28421 28422 28423 28424 28425 28426 28427 28428 28429 28430 28431 28432 28433 28434 28435 28436 28437 28438 28439 28440 28441 28442 28443 28444 28445 28446 28447 28448 28449 28450 28451 28452 28453 28454 28455 28456 28457 28458 28459 28460 28461 28462 28463 28464 28465 28466 28467 28468 28469 28470 28471 28472 28473 28474 28475 28476 28477 28478 28479 28480 28481 28482 28483 28484 28485 28486 28487 28488 28489 28490 28491 28492 28493 28494 28495 28496 28497 28498 28499 28500 28501 28502 28503 28504 28505 28506 28507 28508 28509 28510 28511 28512 28513 28514 28515 28516 28517 28518 28519 28520 28521 28522 28523 28524 28525 28526 28527 28528 28529 28530 28531 28532 28533 28534 28535 28536 28537 28538 28539 28540 28541 28542 28543 28544 28545 28546 28547 28548 28549 28550 28551 28552 28553 28554 28555 28556 28557 28558 28559 28560 28561 28562 28563 28564 28565 28566 28567 28568 28569 28570 28571 28572 28573 28574 28575 28576 28577 28578 28579 28580 28581 28582 28583 28584 28585 28586 28587 28588 28589 28590 28591 28592 28593 28594 28595 28596 28597 28598 28599 28600 28601 28602 28603 28604 28605 28606 28607 28608 28609 28610 28611 28612 28613 28614 28615 28616 28617 28618 28619 28620 28621 28622 28623 28624 28625 28626 28627 28628 28629 28630 28631 28632 28633 28634 28635 28636 28637 28638 28639 28640 28641 28642 28643 28644 28645 28646 28647 28648 28649 28650 28651 28652 28653 28654 28655 28656 28657 28658 28659 28660 28661 28662 28663 28664 28665 28666 28667 28668 28669 28670 28671 28672 28673 28674 28675 28676 28677 28678 28679 28680 28681 28682 28683 28684 28685 28686 28687 28688 28689 28690 28691 28692 28693 28694 28695 28696 28697 28698 28699 28700 28701 28702 28703 28704 28705 28706 28707 28708 28709 28710 28711 28712 28713 28714 28715 28716 28717 28718 28719 28720 28721 28722 28723 28724 28725 28726 28727 28728 28729 28730 28731 28732 28733 28734 28735 28736 28737 28738 28739 28740 28741 28742 28743 28744 28745 28746 28747 28748 28749 28750 28751 28752 28753 28754 28755 28756 28757 28758 28759 28760 28761 28762 28763 28764 28765 28766 28767 28768 28769 28770 28771 28772 28773 28774 28775 28776 28777 28778 28779 28780 28781 28782 28783 28784 28785 28786 28787 28788 28789 28790 28791 28792 28793 28794 28795 28796 28797 28798 28799 28800 28801 28802 28803 28804 28805 28806 28807 28808 28809 28810 28811 28812 28813 28814 28815 28816 28817 28818 28819 28820 28821 28822 28823 28824 28825 28826 28827 28828 28829 28830 28831 28832 28833 28834 28835 28836 28837 28838 28839 28840 28841 28842 28843 28844 28845 28846 28847 28848 28849 28850 28851 28852 28853 28854 28855 28856 28857 28858 28859 28860 28861 28862 28863 28864 28865 28866 28867 28868 28869 28870 28871 28872 28873 28874 28875 28876 28877 28878 28879 28880 28881 28882 28883 28884 28885 28886 28887 28888 28889 28890 28891 28892 28893 28894 28895 28896 28897 28898 28899 28900 28901 28902 28903 28904 28905 28906 28907 28908 28909 28910 28911 28912 28913 28914 28915 28916 28917 28918 28919 28920 28921 28922 28923 28924 28925 28926 28927 28928 28929 28930 28931 28932 28933 28934 28935 28936 28937 28938 28939 28940 28941 28942 28943 28944 28945 28946 28947 28948 28949 28950 28951 28952 28953 28954 28955 28956 28957 28958 28959 28960 28961 28962 28963 28964 28965 28966 28967 28968 28969 28970 28971 28972 28973 28974 28975 28976 28977 28978 28979 28980 28981 28982 28983 28984 28985 28986 28987 28988 28989 28990 28991 28992 28993 28994 28995 28996 28997 28998 28999 29000 29001 29002 29003 29004 29005 29006 29007 29008 29009 29010 29011 29012 29013 29014 29015 29016 29017 29018 29019 29020 29021 29022 29023 29024 29025 29026 29027 29028 29029 29030 29031 29032 29033 29034 29035 29036 29037 29038 29039 29040 29041 29042 29043 29044 29045 29046 29047 29048 29049 29050 29051 29052 29053 29054 29055 29056 29057 29058 29059 29060 29061 29062 29063 29064 29065 29066 29067 29068 29069 29070 29071 29072 29073 29074 29075 29076 29077 29078 29079 29080 29081 29082 29083 29084 29085 29086 29087 29088 29089 29090 29091 29092 29093 29094 29095 29096 29097 29098 29099 29100 29101 29102 29103 29104 29105 29106 29107 29108 29109 29110 29111 29112 29113 29114 29115 29116 29117 29118 29119 29120 29121 29122 29123 29124 29125 29126 29127 29128 29129 29130 29131 29132 29133 29134 29135 29136 29137 29138 29139 29140 29141 29142 29143 29144 29145 29146 29147 29148 29149 29150 29151 29152 29153 29154 29155 29156 29157 29158 29159 29160 29161 29162 29163 29164 29165 29166 29167 29168 29169 29170 29171 29172 29173 29174 29175 29176 29177 29178 29179 29180 29181 29182 29183 29184 29185 29186 29187 29188 29189 29190 29191 29192 29193 29194 29195 29196 29197 29198 29199 29200 29201 29202 29203 29204 29205 29206 29207 29208 29209 29210 29211 29212 29213 29214 29215 29216 29217 29218 29219 29220 29221 29222 29223 29224 29225 29226 29227 29228 29229 29230 29231 29232 29233 29234 29235 29236 29237 29238 29239 29240 29241 29242 29243 29244 29245 29246 29247 29248 29249 29250 29251 29252 29253 29254 29255 29256 29257 29258 29259 29260 29261 29262 29263 29264 29265 29266 29267 29268 29269 29270 29271 29272 29273 29274 29275 29276 29277 29278 29279 29280 29281 29282 29283 29284 29285 29286 29287 29288 29289 29290 29291 29292 29293 29294 29295 29296 29297 29298 29299 29300 29301 29302 29303 29304 29305 29306 29307 29308 29309 29310 29311 29312 29313 29314 29315 29316 29317 29318 29319 29320 29321 29322 29323 29324 29325 29326 29327 29328 29329 29330 29331 29332 29333 29334 29335 29336 29337 29338 29339 29340 29341 29342 29343 29344 29345 29346 29347 29348 29349 29350 29351 29352 29353 29354 29355 29356 29357 29358 29359 29360 29361 29362 29363 29364 29365 29366 29367 29368 29369 29370 29371 29372 29373 29374 29375 29376 29377 29378 29379 29380 29381 29382 29383 29384 29385 29386 29387 29388 29389 29390 29391 29392 29393 29394 29395 29396 29397 29398 29399 29400 29401 29402 29403 29404 29405 29406 29407 29408 29409 29410 29411 29412 29413 29414 29415 29416 29417 29418 29419 29420 29421 29422 29423 29424 29425 29426 29427 29428 29429 29430 29431 29432 29433 29434 29435 29436 29437 29438 29439 29440 29441 29442 29443 29444 29445 29446 29447 29448 29449 29450 29451 29452 29453 29454 29455 29456 29457 29458 29459 29460 29461 29462 29463 29464 29465 29466 29467 29468 29469 29470 29471 29472 29473 29474 29475 29476 29477 29478 29479 29480 29481 29482 29483 29484 29485 29486 29487 29488 29489 29490 29491 29492 29493 29494 29495 29496 29497 29498 29499 29500 29501 29502 29503 29504 29505 29506 29507 29508 29509 29510 29511 29512 29513 29514 29515 29516 29517 29518 29519 29520 29521 29522 29523 29524 29525 29526 29527 29528 29529 29530 29531 29532 29533 29534 29535 29536 29537 29538 29539 29540 29541 29542 29543 29544 29545 29546 29547 29548 29549 29550 29551 29552 29553 29554 29555 29556 29557 29558 29559 29560 29561 29562 29563 29564 29565 29566 29567 29568 29569 29570 29571 29572 29573 29574 29575 29576 29577 29578 29579 29580 29581 29582 29583 29584 29585 29586 29587 29588 29589 29590 29591 29592 29593 29594 29595 29596 29597 29598 29599 29600 29601 29602 29603 29604 29605 29606 29607 29608 29609 29610 29611 29612 29613 29614 29615 29616 29617 29618 29619 29620 29621 29622 29623 29624 29625 29626 29627 29628 29629 29630 29631 29632 29633 29634 29635 29636 29637 29638 29639 29640 29641 29642 29643 29644 29645 29646 29647 29648 29649 29650 29651 29652 29653 29654 29655 29656 29657 29658 29659 29660 29661 29662 29663 29664 29665 29666 29667 29668 29669 29670 29671 29672 29673 29674 29675 29676 29677 29678 29679 29680 29681 29682 29683 29684 29685 29686 29687 29688 29689 29690 29691 29692 29693 29694 29695 29696 29697 29698 29699 29700 29701 29702 29703 29704 29705 29706 29707 29708 29709 29710 29711 29712 29713 29714 29715 29716 29717 29718 29719 29720 29721 29722 29723 29724 29725 29726 29727 29728 29729 29730 29731 29732 29733 29734 29735 29736 29737 29738 29739 29740 29741 29742 29743 29744 29745 29746 29747 29748 29749 29750 29751 29752 29753 29754 29755 29756 29757 29758 29759 29760 29761 29762 29763 29764 29765 29766 29767 29768 29769 29770 29771 29772 29773 29774 29775 29776 29777 29778 29779 29780 29781 29782 29783 29784 29785 29786 29787 29788 29789 29790 29791 29792 29793 29794 29795 29796 29797 29798 29799 29800 29801 29802 29803 29804 29805 29806 29807 29808 29809 29810 29811 29812 29813 29814 29815 29816 29817 29818 29819 29820 29821 29822 29823 29824 29825 29826 29827 29828 29829 29830 29831 29832 29833 29834 29835 29836 29837 29838 29839 29840 29841 29842 29843 29844 29845 29846 29847 29848 29849 29850 29851 29852 29853 29854 29855 29856 29857 29858 29859 29860 29861 29862 29863 29864 29865 29866 29867 29868 29869 29870 29871 29872 29873 29874 29875 29876 29877 29878 29879 29880 29881 29882 29883 29884 29885 29886 29887 29888 29889 29890 29891 29892 29893 29894 29895 29896 29897 29898 29899 29900 29901 29902 29903 29904 29905 29906 29907 29908 29909 29910 29911 29912 29913 29914 29915 29916 29917 29918 29919 29920 29921 29922 29923 29924 29925 29926 29927 29928 29929 29930 29931 29932 29933 29934 29935 29936 29937 29938 29939 29940 29941 29942 29943 29944 29945 29946 29947 29948 29949 29950 29951 29952 29953 29954 29955 29956 29957 29958 29959 29960 29961 29962 29963 29964 29965 29966 29967 29968 29969 29970 29971 29972 29973 29974 29975 29976 29977 29978 29979 29980 29981 29982 29983 29984 29985 29986 29987 29988 29989 29990 29991 29992 29993 29994 29995 29996 29997 29998 29999 30000 30001 30002 30003 30004 30005 30006 30007 30008 30009 30010 30011 30012 30013 30014 30015 30016 30017 30018 30019 30020 30021 30022 30023 30024 30025 30026 30027 30028 30029 30030 30031 30032 30033 30034 30035 30036 30037 30038 30039 30040 30041 30042 30043 30044 30045 30046 30047 30048 30049 30050 30051 30052 30053 30054 30055 30056 30057 30058 30059 30060 30061 30062 30063 30064 30065 30066 30067 30068 30069 30070 30071 30072 30073 30074 30075 30076 30077 30078 30079 30080 30081 30082 30083 30084 30085 30086 30087 30088 30089 30090 30091 30092 30093 30094 30095 30096 30097 30098 30099 30100 30101 30102 30103 30104 30105 30106 30107 30108 30109 30110 30111 30112 30113 30114 30115 30116 30117 30118 30119 30120 30121 30122 30123 30124 30125 30126 30127 30128 30129 30130 30131 30132 30133 30134 30135 30136 30137 30138 30139 30140 30141 30142 30143 30144 30145 30146 30147 30148 30149 30150 30151 30152 30153 30154 30155 30156 30157 30158 30159 30160 30161 30162 30163 30164 30165 30166 30167 30168 30169 30170 30171 30172 30173 30174 30175 30176 30177 30178 30179 30180 30181 30182 30183 30184 30185 30186 30187 30188 30189 30190 30191 30192 30193 30194 30195 30196 30197 30198 30199 30200 30201 30202 30203 30204 30205 30206 30207 30208 30209 30210 30211 30212 30213 30214 30215 30216 30217 30218 30219 30220 30221 30222 30223 30224 30225 30226 30227 30228 30229 30230 30231 30232 30233 30234 30235 30236 30237 30238 30239 30240 30241 30242 30243 30244 30245 30246 30247 30248 30249 30250 30251 30252 30253 30254 30255 30256 30257 30258 30259 30260 30261 30262 30263 30264 30265 30266 30267 30268 30269 30270 30271 30272 30273 30274 30275 30276 30277 30278 30279 30280 30281 30282 30283 30284 30285 30286 30287 30288 30289 30290 30291 30292 30293 30294 30295 30296 30297 30298 30299 30300 30301 30302 30303 30304 30305 30306 30307 30308 30309 30310 30311 30312 30313 30314 30315 30316 30317 30318 30319 30320 30321 30322 30323 30324 30325 30326 30327 30328 30329 30330 30331 30332 30333 30334 30335 30336 30337 30338 30339 30340 30341 30342 30343 30344 30345 30346 30347 30348 30349 30350 30351 30352 30353 30354 30355 30356 30357 30358 30359 30360 30361 30362 30363 30364 30365 30366 30367 30368 30369 30370 30371 30372 30373 30374 30375 30376 30377 30378 30379 30380 30381 30382 30383 30384 30385 30386 30387 30388 30389 30390 30391 30392 30393 30394 30395 30396 30397 30398 30399 30400 30401 30402 30403 30404 30405 30406 30407 30408 30409 30410 30411 30412 30413 30414 30415 30416 30417 30418 30419 30420 30421 30422 30423 30424 30425 30426 30427 30428 30429 30430 30431 30432 30433 30434 30435 30436 30437 30438 30439 30440 30441 30442 30443 30444 30445 30446 30447 30448 30449 30450 30451 30452 30453 30454 30455 30456 30457 30458 30459 30460 30461 30462 30463 30464 30465 30466 30467 30468 30469 30470 30471 30472 30473 30474 30475 30476 30477 30478 30479 30480 30481 30482 30483 30484 30485 30486 30487 30488 30489 30490 30491 30492 30493 30494 30495 30496 30497 30498 30499 30500 30501 30502 30503 30504 30505 30506 30507 30508 30509 30510 30511 30512 30513 30514 30515 30516 30517 30518 30519 30520 30521 30522 30523 30524 30525 30526 30527 30528 30529 30530 30531 30532 30533 30534 30535 30536 30537 30538 30539 30540 30541 30542 30543 30544 30545 30546 30547 30548 30549 30550 30551 30552 30553 30554 30555 30556 30557 30558 30559 30560 30561 30562 30563 30564 30565 30566 30567 30568 30569 30570 30571 30572 30573 30574 30575 30576 30577 30578 30579 30580 30581 30582 30583 30584 30585 30586 30587 30588 30589 30590 30591 30592 30593 30594 30595 30596 30597 30598 30599 30600 30601 30602 30603 30604 30605 30606 30607 30608 30609 30610 30611 30612 30613 30614 30615 30616 30617 30618 30619 30620 30621 30622 30623 30624 30625 30626 30627 30628 30629 30630 30631 30632 30633 30634 30635 30636 30637 30638 30639 30640 30641 30642 30643 30644 30645 30646 30647 30648 30649 30650 30651 30652 30653 30654 30655 30656 30657 30658 30659 30660 30661 30662 30663 30664 30665 30666 30667 30668 30669 30670 30671 30672 30673 30674 30675 30676 30677 30678 30679 30680 30681 30682 30683 30684 30685 30686 30687 30688 30689 30690 30691 30692 30693 30694 30695 30696 30697 30698 30699 30700 30701 30702 30703 30704 30705 30706 30707 30708 30709 30710 30711 30712 30713 30714 30715 30716 30717 30718 30719 30720 30721 30722 30723 30724 30725 30726 30727 30728 30729 30730 30731 30732 30733 30734 30735 30736 30737 30738 30739 30740 30741 30742 30743 30744 30745 30746 30747 30748 30749 30750 30751 30752 30753 30754 30755 30756 30757 30758 30759 30760 30761 30762 30763 30764 30765 30766 30767 30768 30769 30770 30771 30772 30773 30774 30775 30776 30777 30778 30779 30780 30781 30782 30783 30784 30785 30786 30787 30788 30789 30790 30791 30792 30793 
</DataArray>
<DataArray type="UInt32" Name="offsets" format="ascii">
3 6 8 11 14 17 20 23 26 29 32 35 37 40 43 46 48 50 53 56 59 61 64 67 69 72 74 77 80 83 86 89 92 95 98 101 104 107 109 112 115 118 121 124 127 130 133 135 138 140 143 146 149 152 155 158 160 163 166 169 172 175 178 181 184 187 190 193 196 199 202 205 208 211 214 217 220 223 226 229 231 234 237 240 243 246 249 251 254 257 260 262 264 267 270 272 275 277 280 283 286 289 292 295 298 301 304 307 310 313 315 318 321 324 327 330 333 336 339 342 345 348 351 353 355 358 360 363 366 369 372 375 378 380 383 386 389 392 395 398 401 404 407 410 413 416 419 422 425 428 431 434 436 439 442 444 447 450 453 456 459 462 465 467 470 473 476 478 481 484 487 490 493 496 499 502 505 508 511 514 517 520 523 526 529 532 535 538 541 544 547 549 552 555 558 561 564 567 570 573 576 579 582 585 588 590 593 596 599 602 604 607 610 613 616 619 622 624 627 630 633 636 639 642 644 646 649 652 654 657 660 663 665 667 669 672 674 677 680 682 685 688 691 694 697 700 702 704 707 710 713 716 719 722 725 728 731 734 737 740 743 746 749 752 755 757 760 763 766 769 772 775 777 780 783 786 788 791 794 797 800 803 805 807 810 812 815 818 820 823 826 828 831 834 837 840 843 846 849 852 855 857 860 863 866 869 872 874 877 880 883 886 888 891 894 897 899 902 904 907 910 913 916 919 922 925 928 931 934 936 939 942 945 948 951 954 956 959 962 965 968 971 974 977 980 982 985 988 991 994 997 999 1002 1005 1008 1011 1014 1017 1020 1023 1026 1029 1031 1034 1036 1039 1042 1045 1048 1051 1054 1057 1060 1063 1066 1069 1072 1075 1078 1081 1084 1087 1090 1093 1096 1099 1102 1105 1108 1110 1113 1116 1118 1121 1124 1127 1130 1133 1136 1139 1142 1144 1147 1150 1153 1156 1158 1161 1164 1167 1170 1173 1176 1179 1182 1185 1188 1191 1194 1197 1200 1202 1205 1208 1211 1214 1217 1220 1223 1226 1228 1231 1234 1237 1240 1243 1246 1249 1252 1255 1257 1260 1263 1266 1269 1272 1275 1278 1281 1283 1286 1289 1292 1295 1298 1301 1304 1307 1310 1313 1316 1319 1322 1325 1328 1331 1334 1337 1340 1343 1346 1349 1352 1355 1358 1361 1363 1366 1369 1372 1375 1378 1381 1384 1387 1390 1393 1395 1398 1401 1404 1407 1410 1412 1415 1418 1421 1424 1427 1430 1432 1435 1438 1441 1443 1446 1448 1451 1454 1457 1459 1462 1465 1468 1471 1474 1477 1480 1483 1486 1489 1492 1495 1498 1501 1504 1507 1510 1513 1516 1519 1522 1524 1527 1530 1532 1535 1538 1541 1544 1547 1550 1553 1556 1559 1562 1565 1568 1570 1573 1576 1579 1581 1583 1586 1589 1592 1595 1598 1600 1603 1605 1608 1611 1614 1616 1619 1622 1624 1627 1630 1633 1636 1639 1642 1645 1648 1650 1653 1656 1659 1662 1665 1668 1671 1673 1676 1678 1680 1683 1686 1688 1690 1693 1696 1699 1702 1705 1708 1711 1714 1717 1720 1723 1725 1728 1731 1733 1735 1738 1741 1744 1747 1750 1753 1756 1759 1762 1765 1768 1771 1774 1777 1780 1783 1785 1788 1791 1794 1797 1800 1803 1806 1809 1812 1814 1817 1819 1822 1825 1828 1831 1834 1837 1840 1843 1846 1849 1852 1855 1858 1861 1864 1867 1870 1873 1875 1878 1881 1884 1887 1889 1892 1895 1897 1900 1903 1905 1908 1910 1913 1916 1919 1922 1925 1928 1931 1934 1937 1939 1942 1945 1947 1950 1953 1956 1959 1962 1965 1968 1971 1974 1977 1980 1983 1986 1989 1992 1995 1998 2001 2004 2006 2009 2012 2015 2017 2020 2023 2026 2029 2032 2035 2038 2041 2044 2047 2050 2053 2056 2059 2062 2065 2068 2071 2074 2077 2080 2083 2086 2089 2092 2095 2098 2101 2104 2107 2109 2112 2115 2117 2120 2123 2126 2128 2131 2134 2137 2139 2142 2145 2147 2149 2151 2154 2157 2160 2163 2166 2169 2172 2175 2178 2181 2184 2187 2190 2193 2196 2199 2202 2204 2206 2209 2212 2214 2217 2220 2223 2225 2227 2229 2232 2235 2238 2240 2243 2245 2248 2250 2253 2256 2259 2262 2264 2267 2270 2273 2276 2279 2282 2285 2288 2291 2294 2297 2300 2303 2306 2309 2312 2315 2318 2321 2323 2326 2328 2331 2334 2337 2340 2343 2346 2349 2352 2355 2358 2361 2364 2367 2370 2373 2376 2379 2382 2385 2388 2391 2394 2397 2400 2402 2405 2408 2410 2413 2416 2418 2421 2424 2427 2430 2432 2435 2437 2440 2442 2445 2447 2450 2453 2456 2459 2461 2464 2467 2469 2472 2474 2476 2479 2482 2485 2488 2491 2494 2497 2500 2503 2506 2509 2512 2515 2518 2521 2524 2527 2530 2533 2536 2539 2542 2545 2548 2551 2554 2557 2560 2563 2566 2569 2572 2575 2578 2581 2584 2587 2590 2593 2596 2599 2602 2605 2608 2611 2614 2617 2620 2622 2625 2627 2630 2633 2636 2638 2641 2643 2646 2649 2652 2655 2658 2661 2664 2667 2670 2673 2676 2679 2682 2685 2688 2691 2694 2697 2700 2703 2706 2709 2712 2715 2718 2721 2724 2727 2729 2732 2735 2738 2741 2744 2747 2750 2753 2755 2758 2761 2764 2767 2770 2773 2775 2778 2781 2783 2786 2788 2791 2794 2797 2800 2803 2806 2809 2812 2815 2818 2821 2824 2827 2830 2833 2836 2839 2842 2844 2847 2850 2853 2856 2858 2861 2863 2866 2869 2872 2874 2876 2878 2881 2884 2887 2890 2893 2896 2898 2900 2903 2906 2909 2911 2914 2917 2920 2923 2926 2929 2932 2935 2938 2941 2943 2946 2948 2951 2954 2957 2960 2963 2965 2968 2971 2973 2975 2977 2980 2983 2986 2989 2992 2994 2997 2999 3002 3005 3008 3011 3014 3017 3019 3022 3024 3027 3030 3033 3036 3038 3041 3044 3047 3050 3053 3055 3058 3061 3064 3066 3069 3072 3075 3078 3081 3084 3087 3090 3093 3096 3099 3102 3105 3108 3111 3114 3117 3119 3122 3125 3127 3130 3133 3136 3139 3142 3145 3148 3151 3153 3156 3159 3161 3164 3167 3170 3173 3176 3179 3182 3185 3188 3191 3194 3197 3200 3203 3206 3209 3212 3215 3218 3221 3224 3226 3229 3232 3235 3238 3240 3243 3246 3249 3251 3254 3256 3259 3262 3265 3268 3271 3274 3277 3280 3282 3285 3287 3290 3292 3295 3298 3301 3303 3305 3308 3311 3313 3315 3318 3321 3323 3326 3329 3332 3335 3338 3341 3344 3347 3350 3353 3355 3358 3361 3364 3367 3370 3373 3375 3378 3381 3384 3387 3390 3393 3396 3399 3402 3405 3408 3411 3414 3417 3419 3422 3425 3428 3431 3434 3437 3439 3442 3445 3448 3451 3454 3457 3460 3463 3466 3468 3471 3474 3477 3480 3483 3486 3489 3492 3495 3498 3500 3503 3506 3509 3512 3515 3518 3521 3524 3527 3530 3533 3536 3539 3542 3545 3548 3551 3554 3557 3560 3563 3565 3568 3571 3574 3577 3580 3583 3585 3588 3590 3593 3596 3599 3602 3605 3607 3610 3613 3616 3619 3622 3625 3628 3631 3634 3637 3640 3643 3646 3649 3652 3655 3658 3661 3664 3667 3670 3673 3676 3679 3682 3685 3688 3691 3694 3697 3700 3702 3705 3708 3711 3714 3717 3720 3723 3726 3728 3731 3734 3737 3740 3743 3746 3749 3752 3754 3757 3760 3763 3766 3769 3772 3775 3778 3781 3784 3787 3790 3793 3796 3799 3802 3805 3808 3811 3814 3817 3820 3823 3826 3829 3832 3835 3838 3841 3844 3847 3849 3852 3855 3858 3861 3864 3867 3870 3873 3876 3879 3882 3885 3888 3891 3894 3897 3900 3903 3906 3909 3912 3915 3918 3921 3924 3927 3930 3933 3936 3939 3942 3945 3948 3951 3954 3957 3960 3963 3966 3969 3972 3975 3978 3981 3984 3987 3990 3993 3996 3999 4002 4005 4008 4011 4014 4017 4020 4023 4026 4029 4032 4035 4038 4041 4044 4047 4050 4053 4056 4059 4062 4065 4068 4071 4074 4077 4080 4083 4086 4089 4092 4095 4098 4101 4104 4107 4110 4113 4116 4119 4122 4125 4128 4131 4134 4137 4140 4143 4146 4149 4152 4155 4158 4160 4163 4166 4169 4172 4175 4178 4180 4182 4185 4188 4191 4194 4197 4200 4203 4206 4209 4212 4215 4218 4221 4224 4227 4230 4233 4236 4239 4242 4245 4248 4250 4252 4255 4258 4260 4263 4266 4269 4272 4274 4277 4280 4283 4286 4289 4292 4295 4298 4301 4304 4307 4310 4313 4316 4319 4322 4325 4328 4331 4334 4337 4340 4343 4346 4349 4352 4355 4358 4361 4363 4366 4369 4372 4375 4378 4381 4384 4387 4390 4393 4396 4399 4402 4405 4408 4411 4414 4417 4420 4423 4426 4429 4432 4435 4438 4441 4444 4447 4450 4453 4456 4459 4462 4465 4468 4471 4474 4477 4480 4483 4486 4489 4492 4495 4498 4501 4504 4507 4510 4513 4516 4518 4521 4524 4527 4530 4533 4536 4539 4541 4544 4547 4550 4553 4556 4559 4562 4564 4567 4570 4573 4576 4578 4581 4584 4587 4590 4593 4596 4599 4602 4605 4607 4610 4613 4616 4619 4622 4624 4627 4630 4633 4636 4639 4641 4644 4647 4650 4653 4656 4659 4662 4665 4668 4671 4674 4677 4680 4683 4686 4689 4692 4695 4698 4701 4704 4707 4710 4713 4716 4719 4722 4725 4728 4731 4734 4737 4740 4743 4746 4749 4751 4754 4757 4760 4763 4766 4768 4771 4774 4777 4780 4783 4786 4789 4792 4795 4798 4801 4804 4807 4810 4813 4816 4819 4822 4825 4827 4830 4833 4836 4839 4842 4845 4848 4851 4854 4857 4860 4863 4866 4869 4872 4875 4878 4881 4884 4887 4890 4893 4896 4898 4901 4903 4906 4909 4912 4915 4917 4920 4923 4926 4929 4932 4935 4938 4941 4944 4947 4950 4953 4955 4958 4961 4963 4966 4969 4971 4974 4977 4980 4982 4984 4987 4990 4992 4995 4998 5001 5004 5007 5010 5012 5015 5018 5021 5023 5026 5028 5031 5033 5036 5039 5042 5045 5048 5051 5054 5057 5060 5063 5066 5068 5071 5074 5077 5080 5082 5085 5088 5091 5094 5097 5100 5103 5106 5109 5112 5115 5118 5121 5124 5127 5129 5132 5134 5137 5140 5143 5146 5149 5152 5155 5158 5160 5163 5166 5169 5172 5175 5177 5180 5182 5185 5187 5190 5193 5196 5199 5202 5205 5208 5211 5214 5217 5220 5222 5225 5228 5230 5233 5236 5239 5242 5245 5248 5251 5253 5256 5258 5261 5264 5266 5269 5272 5275 5278 5281 5284 5287 5290 5293 5296 5299 5302 5305 5308 5311 5314 5317 5320 5322 5325 5328 5331 5334 5337 5340 5343 5346 5349 5352 5355 5358 5361 5364 5367 5370 5373 5376 5379 5382 5385 5388 5391 5394 5397 5400 5403 5405 5407 5410 5413 5415 5418 5420 5422 5425 5428 5431 5434 5436 5439 5441 5444 5447 5450 5452 5454 5457 5460 5463 5466 5469 5472 5475 5478 5481 5484 5487 5490 5492 5495 5498 5501 5504 5506 5509 5511 5514 5517 5520 5523 5526 5529 5531 5534 5537 5540 5543 5546 5549 5552 5555 5558 5561 5564 5567 5570 5573 5576 5578 5581 5584 5587 5589 5592 5595 5598 5601 5603 5606 5609 5612 5615 5618 5621 5624 5627 5629 5632 5635 5638 5641 5644 5647 5650 5653 5656 5659 5662 5665 5668 5671 5674 5677 5680 5683 5686 5689 5692 5695 5698 5701 5704 5707 5710 5713 5716 5718 5721 5724 5727 5730 5733 5736 5739 5742 5745 5748 5751 5754 5757 5760 5763 5766 5769 5772 5775 5778 5781 5784 5787 5790 5793 5796 5799 5802 5805 5808 5811 5813 5816 5819 5822 5824 5827 5830 5833 5836 5839 5842 5844 5847 5850 5853 5856 5859 5861 5864 5866 5869 5872 5874 5877 5880 5882 5885 5888 5891 5893 5896 5899 5902 5905 5908 5911 5914 5917 5920 5923 5926 5929 5932 5935 5938 5941 5944 5947 5950 5953 5956 5959 5962 5964 5967 5970 5973 5976 5978 5981 5983 5986 5989 5991 5994 5997 6000 6003 6006 6009 6012 6015 6017 6020 6023 6026 6029 6032 6034 6037 6040 6043 6046 6049 6051 6053 6056 6059 6062 6065 6067 6070 6073 6076 6079 6082 6085 6088 6091 6094 6097 6100 6103 6106 6109 6112 6115 6118 6121 6123 6126 6129 6132 6135 6137 6139 6141 6144 6147 6150 6152 6155 6158 6161 6163 6166 6169 6171 6174 6177 6179 6182 6185 6187 6190 6193 6195 6198 6201 6203 6206 6209 6212 6215 6218 6221 6224 6226 6229 6232 6234 6237 6240 6242 6245 6248 6251 6254 6257 6260 6263 6266 6269 6272 6275 6278 6281 6284 6287 6289 6292 6295 6298 6300 6303 6306 6309 6312 6315 6318 6321 6324 6327 6330 6333 6336 6339 6342 6345 6348 6351 6354 6357 6360 6363 6366 6369 6372 6375 6378 6381 6384 6387 6390 6392 6395 6398 6401 6404 6406 6409 6412 6415 6418 6421 6424 6427 6430 6433 6435 6438 6441 6444 6447 6450 6453 6456 6459 6462 6465 6468 6471 6474 6477 6480 6483 6486 6489 6492 6495 6498 6501 6504 6507 6510 6513 6516 6519 6522 6525 6528 6531 6534 6537 6540 6543 6546 6549 6552 6555 6558 6561 6564 6567 6570 6573 6576 6579 6582 6585 6588 6591 6593 6596 6599 6602 6605 6607 6610 6613 6616 6619 6621 6624 6627 6630 6633 6636 6638 6641 6644 6647 6650 6653 6656 6659 6662 6664 6667 6670 6672 6675 6677 6680 6683 6686 6689 6691 6694 6697 6700 6703 6705 6708 6711 6714 6717 6720 6723 6726 6729 6732 6735 6737 6740 6743 6746 6749 6752 6755 6758 6761 6764 6766 6769 6772 6775 6778 6781 6784 6786 6789 6792 6795 6798 6800 6802 6805 6808 6811 6814 6817 6819 6822 6825 6828 6831 6833 6836 6839 6841 6844 6847 6849 6852 6854 6857 6859 6862 6865 6868 6871 6874 6877 6880 6883 6886 6889 6892 6895 6898 6901 6904 6907 6910 6913 6915 6918 6921 6924 6927 6930 6933 6936 6939 6942 6945 6948 6951 6954 6957 6960 6963 6966 6969 6972 6975 6978 6981 6984 6987 6990 6993 6996 6999 7002 7005 7008 7011 7014 7017 7020 7023 7026 7029 7032 7035 7038 7041 7044 7047 7050 7053 7056 7059 7062 7065 7068 7071 7074 7077 7080 7083 7086 7088 7091 7094 7097 7100 7103 7106 7109 7112 7115 7118 7121 7124 7127 7130 7133 7136 7139 7142 7145 7148 7151 7153 7155 7158 7161 7164 7167 7170 7173 7176 7179 7182 7185 7188 7191 7194 7197 7200 7203 7206 7208 7211 7214 7217 7220 7223 7226 7229 7232 7234 7237 7240 7243 7245 7248 7251 7254 7257 7260 7263 7266 7269 7272 7274 7277 7280 7282 7285 7288 7291 7294 7296 7299 7302 7305 7308 7311 7314 7316 7319 7321 7324 7327 7330 7332 7335 7338 7340 7343 7346 7349 7352 7355 7357 7360 7363 7365 7368 7371 7374 7377 7380 7383 7386 7389 7392 7395 7397 7400 7403 7406 7409 7412 7415 7418 7421 7424 7427 7430 7433 7436 7439 7442 7445 7448 7451 7453 7455 7458 7461 7464 7467 7470 7473 7476 7478 7481 7484 7487 7489 7492 7495 7498 7501 7504 7507 7510 7513 7516 7518 7521 7524 7527 7530 7533 7535 7538 7541 7543 7546 7549 7551 7554 7557 7559 7562 7565 7567 7570 7573 7576 7579 7581 7584 7587 7590 7593 7596 7599 7602 7605 7608 7611 7614 7617 7620 7623 7626 7629 7632 7635 7638 7641 7644 7647 7649 7652 7655 7658 7661 7664 7667 7670 7673 7676 7679 7682 7684 7687 7689 7692 7695 7698 7701 7704 7707 7709 7712 7715 7718 7720 7723 7726 7729 7732 7735 7738 7741 7744 7747 7750 7753 7756 7759 7762 7765 7768 7771 7774 7777 7780 7783 7786 7788 7791 7794 7797 7800 7803 7806 7809 7811 7814 7816 7818 7821 7824 7826 7829 7832 7835 7838 7841 7844 7846 7848 7851 7854 7857 7859 7862 7865 7868 7871 7874 7876 7879 7882 7885 7887 7890 7893 7896 7898 7901 7904 7907 7909 7912 7914 7917 7920 7922 7924 7927 7929 7932 7935 7938 7940 7942 7944 7946 7949 7952 7954 7957 7960 7963 7966 7969 7972 7974 7977 7980 7983 7986 7989 7992 7995 7998 8001 8004 8007 8010 8012 8015 8017 8020 8023 8026 8029 8032 8035 8038 8041 8044 8047 8050 8053 8055 8058 8061 8064 8066 8069 8072 8075 8078 8081 8084 8086 8089 8092 8095 8097 8100 8102 8105 8108 8111 8114 8117 8120 8123 8126 8129 8132 8135 8138 8141 8144 8146 8148 8151 8154 8156 8159 8162 8164 8166 8169 8172 8175 8178 8180 8183 8186 8189 8192 8195 8198 8200 8203 8206 8209 8212 8215 8217 8220 8223 8226 8229 8232 8235 8238 8241 8244 8247 8250 8253 8256 8259 8262 8265 8268 8271 8274 8277 8280 8283 8285 8288 8291 8294 8297 8300 8302 8305 8307 8310 8313 8315 8318 8321 8324 8327 8330 8332 8335 8338 8341 8344 8347 8350 8352 8355 8358 8361 8364 8367 8369 8372 8375 8378 8381 8383 8386 8389 8392 8395 8398 8401 8404 8407 8409 8412 8415 8418 8421 8424 8427 8430 8433 8436 8439 8442 8445 8448 8450 8453 8456 8459 8462 8465 8468 8471 8474 8477 8479 8482 8485 8488 8491 8494 8496 8499 8502 8505 8508 8511 8514 8517 8519 8522 8525 8527 8530 8533 8536 8539 8542 8545 8548 8551 8554 8557 8559 8562 8565 8568 8571 8573 8576 8579 8582 8585 8588 8591 8594 8597 8600 8603 8606 8609 8612 8615 8618 8620 8622 8625 8628 8630 8633 8636 8639 8642 8645 8648 8651 8654 8657 8660 8663 8666 8669 8672 8675 8678 8681 8684 8687 8690 8693 8696 8699 8702 8705 8708 8711 8714 8717 8720 8723 8726 8729 8731 8734 8736 8739 8742 8745 8748 8751 8754 8757 8760 8763 8766 8769 8771 8774 8777 8779 8782 8785 8787 8790 8793 8796 8799 8802 8805 8808 8810 8813 8816 8819 8822 8825 8828 8831 8834 8837 8840 8843 8846 8849 8852 8855 8858 8861 8864 8867 8869 8872 8875 8878 8881 8884 8887 8890 8893 8896 8899 8902 8905 8908 8911 8914 8917 8920 8923 8926 8929 8932 8935 8938 8941 8944 8947 8950 8953 8956 8959 8962 8965 8968 8971 8974 8977 8980 8982 8985 8987 8990 8993 8996 8999 9002 9004 9006 9009 9012 9014 9017 9019 9022 9025 9027 9030 9033 9036 9039 9042 9044 9047 9050 9053 9056 9059 9062 9065 9068 9071 9074 9076 9079 9082 9085 9088 9090 9093 9096 9099 9101 9104 9107 9110 9113 9116 9119 9122 9125 9128 9131 9134 9137 9139 9142 9145 9148 9151 9154 9157 9160 9163 9166 9169 9172 9175 9178 9181 9184 9187 9190 9193 9196 9199 9202 9205 9208 9210 9213 9216 9219 9222 9225 9228 9231 9234 9237 9240 9243 9246 9249 9252 9255 9258 9261 9264 9267 9270 9273 9275 9278 9281 9284 9287 9290 9293 9296 9299 9301 9304 9307 9310 9313 9316 9319 9322 9325 9328 9331 9334 9337 9340 9342 9345 9348 9351 9354 9357 9360 9362 9364 9367 9370 9373 9376 9378 9381 9383 9386 9389 9392 9395 9398 9401 9404 9407 9409 9412 9414 9417 9420 9422 9424 9427 9430 9433 9436 9439 9442 9445 9448 9451 9453 9456 9459 9462 9464 9467 9470 9473 9476 9479 9482 9485 9488 9491 9494 9497 9500 9503 9506 9509 9512 9514 9517 9520 9523 9526 9529 9532 9535 9538 9541 9544 9547 9550 9553 9556 9559 9561 9564 9567 9570 9573 9576 9579 9582 9585 9588 9591 9594 9597 9599 9602 9605 9608 9611 9614 9617 9619 9621 9624 9627 9630 9632 9635 9638 9641 9644 9647 9650 9653 9655 9658 9661 9664 9667 9670 9673 9676 9679 9682 9685 9688 9691 9694 9697 9700 9703 9705 9707 9710 9713 9716 9719 9722 9724 9727 9730 9733 9735 9738 9741 9744 9747 9750 9753 9755 9758 9760 9763 9766 9768 9771 9773 9775 9778 9781 9783 9786 9788 9791 9794 9796 9799 9802 9805 9808 9811 9813 9816 9819 9822 9824 9827 9829 9832 9834 9837 9840 9843 9846 9849 9852 9855 9858 9861 9864 9866 9869 9872 9875 9877 9880 9883 9886 9889 9892 9895 9897 9900 9903 9906 9909 9912 9915 9918 9921 9924 9927 9930 9933 9936 9939 9941 9944 9947 9950 9952 9955 9958 9961 9963 9966 9968 9971 9973 9976 9978 9981 9983 9986 9989 9992 9995 9998 10001 10004 10007 10010 10013 10016 10019 10022 10025 10028 10031 10034 10036 10039 10042 10044 10047 10049 10051 10054 10057 10060 10063 10066 10068 10070 10073 10076 10079 10082 10084 10087 10090 10093 10096 10098 10101 10104 10107 10110 10113 10116 10119 10121 10124 10127 10130 10133 10136 10139 10142 10145 10148 10151 10154 10157 10160 10163 10166 10169 10171 10173 10176 10178 10180 10183 10186 10189 10192 10195 10198 10201 10203 10206 10209 10212 10215 10218 10220 10223 10226 10228 10231 10234 10236 10239 10242 10245 10248 10251 10253 10256 10259 10262 10265 10268 10271 10273 10276 10279 10282 10284 10287 10289 10292 10295 10298 10301 10304 10307 10310 10313 10316 10318 10321 10324 10327 10330 10333 10336 10339 10342 10344 10347 10350 10353 10356 10359 10362 10365 10368 10370 10373 10376 10378 10381 10384 10386 10388 10391 10393 10396 10399 10401 10403 10406 10408 10411 10413 10416 10419 10421 10424 10427 10430 10433 10436 10439 10442 10445 10448 10450 10453 10456 10459 10462 10464 10467 10469 10472 10475 10478 10481 10484 10487 10490 10493 10496 10499 10502 10505 10507 10509 10512 10515 10518 10520 10522 10524 10527 10529 10531 10533 10536 10539 10542 10544 10547 10549 10552 10555 10558 10561 10563 10566 10568 10571 10574 10577 10580 10583 10586 10589 10592 10595 10598 10601 10603 10606 10609 10612 10615 10618 10621 10624 10626 10629 10632 10635 10638 10640 10643 10646 10649 10652 10655 10658 10661 10664 10667 10670 10673 10676 10679 10682 10685 10688 10691 10694 10697 10700 10703 10706 10709 10712 10715 10717 10720 10723 10726 10729 10732 10735 10738 10741 10744 10747 10750 10752 10755 10758 10761 10764 10767 10770 10773 10776 10779 10782 10785 10788 10791 10794 10797 10800 10803 10806 10809 10812 10815 10818 10821 10824 10827 10830 10833 10836 10839 10842 10844 10846 10849 10852 10854 10856 10859 10862 10865 10868 10871 10874 10877 10880 10883 10886 10889 10892 10895 10898 10901 10904 10906 10909 10912 10915 10917 10920 10922 10925 10928 10931 10934 10937 10940 10943 10945 10948 10951 10953 10956 10959 10961 10964 10966 10968 10971 10973 10976 10979 10982 10985 10988 10990 10993 10995 10998 11001 11004 11007 11009 11012 11015 11018 11021 11024 11027 11029 11032 11035 11037 11040 11043 11046 11049 11052 11055 11058 11060 11063 11066 11069 11072 11074 11077 11080 11083 11086 11089 11092 11095 11098 11101 11104 11106 11109 11112 11115 11117 11120 11123 11126 11129 11132 11134 11137 11140 11143 11146 11148 11151 11154 11157 11160 11163 11166 11169 11171 11174 11177 11180 11183 11186 11189 11192 11195 11198 11201 11204 11207 11210 11213 11215 11217 11220 11223 11225 11227 11230 11233 11235 11238 11241 11244 11247 11250 11253 11256 11259 11262 11265 11268 11271 11273 11276 11279 11281 11284 11287 11289 11292 11295 11298 11301 11304 11306 11309 11312 11315 11318 11321 11324 11327 11330 11333 11336 11338 11341 11343 11346 11349 11351 11354 11357 11360 11363 11366 11369 11372 11375 11378 11381 11384 11387 11390 11393 11396 11398 11401 11404 11407 11410 11412 11415 11418 11421 11423 11426 11429 11432 11435 11438 11441 11443 11446 11449 11452 11454 11457 11459 11462 11465 11468 11471 11474 11477 11480 11483 11486 11489 11492 11495 11498 11501 11504 11506 11509 11512 11515 11518 11521 11524 11527 11530 11533 11536 11539 11541 11544 11547 11550 11553 11556 11559 11561 11564 11567 11570 11572 11575 11578 11581 11584 11587 11590 11592 11595 11598 11601 11603 11606 11609 11612 11615 11618 11621 11624 11627 11630 11633 11636 11639 11642 11645 11648 11651 11654 11657 11660 11662 11665 11667 11670 11672 11675 11678 11680 11683 11685 11688 11690 11693 11696 11699 11702 11705 11707 11710 11713 11715 11718 11721 11724 11726 11729 11732 11734 11737 11740 11743 11746 11749 11752 11755 11758 11761 11764 11767 11769 11772 11775 11778 11781 11784 11786 11789 11792 11795 11798 11801 11804 11807 11810 11813 11816 11819 11822 11825 11828 11831 11834 11837 11839 11842 11845 11848 11850 11853 11856 11859 11861 11863 11866 11869 11872 11875 11878 11881 11884 11887 11890 11893 11896 11899 11902 11905 11908 11911 11914 11917 11920 11923 11926 11929 11932 11935 11938 11941 11944 11947 11950 11953 11956 11959 11962 11965 11968 11971 11974 11977 11980 11983 11985 11988 11991 11993 11996 11999 12002 12005 12008 12011 12014 12017 12020 12023 12026 12029 12032 12035 12038 12041 12044 12047 12050 12053 12056 12059 12062 12065 12067 12070 12073 12076 12079 12082 12084 12087 12090 12093 12096 12099 12102 12105 12108 12111 12114 12117 12120 12123 12126 12128 12131 12134 12137 12140 12143 12146 12149 12152 12155 12158 12160 12163 12166 12169 12172 12175 12178 12181 12184 12187 12190 12193 12195 12198 12201 12204 12207 12210 12213 12216 12219 12222 12225 12228 12231 12234 12237 12240 12243 12246 12249 12252 12255 12258 12261 12264 12267 12270 12273 12276 12279 12281 12284 12287 12290 12293 12296 12299 12302 12305 12308 12310 12313 12316 12319 12322 12325 12328 12330 12333 12336 12339 12342 12345 12348 12351 12354 12357 12360 12363 12366 12369 12372 12375 12378 12381 12384 12386 12389 12392 12395 12397 12400 12402 12405 12408 12411 12414 12417 12420 12423 12426 12429 12432 12435 12438 12441 12444 12447 12450 12452 12455 12457 12460 12463 12466 12468 12471 12474 12477 12480 12483 12486 12489 12492 12495 12498 12501 12504 12506 12509 12512 12515 12518 12520 12523 12526 12529 12532 12535 12538 12540 12543 12545 12548 12551 12554 12557 12560 12563 12566 12568 12571 12574 12577 12579 12582 12585 12588 12590 12593 12596 12599 12602 12604 12607 12610 12613 12615 12618 12621 12624 12627 12629 12632 12634 12637 12640 12643 12646 12649 12652 12655 12658 12661 12664 12667 12670 12673 12676 12679 12682 12685 12688 12691 12694 12697 12700 12703 12706 12709 12712 12715 12718 12721 12724 12726 12729 12732 12735 12738 12741 12744 12747 12750 12753 12756 12759 12762 12765 12768 12771 12774 12776 12779 12782 12785 12787 12790 12793 12796 12799 12801 12804 12807 12810 12813 12815 12818 12821 12824 12827 12830 12833 12835 12838 12841 12844 12847 12850 12853 12855 12858 12861 12864 12867 12870 12872 12875 12878 12881 12884 12886 12889 12892 12895 12898 12900 12903 12906 12909 12912 12915 12918 12921 12924 12927 12930 12933 12936 12939 12942 12945 12948 12950 12953 12956 12958 12961 12964 12967 12970 12973 12975 12978 12981 12984 12987 12990 12993 12996 12999 13002 13005 13008 13011 13014 13017 13020 13023 13026 13029 13032 13035 13037 13040 13043 13046 13049 13051 13054 13057 13060 13063 13066 13069 13072 13075 13078 13081 13084 13087 13090 13093 13095 13098 13101 13104 13106 13109 13112 13115 13118 13121 13124 13127 13130 13133 13136 13139 13142 13145 13148 13151 13154 13157 13160 13163 13166 13169 13172 13175 13178 13181 13184 13187 13190 13193 13196 13199 13202 13205 13208 13211 13214 13217 13220 13223 13226 13229 13232 13235 13238 13241 13244 13247 13250 13253 13255 13258 13260 13263 13265 13268 13271 13274 13277 13280 13283 13286 13289 13292 13295 13297 13300 13303 13305 13308 13311 13314 13317 13320 13323 13326 13329 13331 13334 13337 13340 13342 13345 13348 13351 13354 13356 13359 13362 13364 13367 13370 13372 13375 13378 13380 13383 13386 13389 13391 13394 13397 13400 13403 13406 13409 13412 13415 13418 13421 13424 13427 13430 13432 13435 13438 13441 13444 13446 13449 13452 13455 13458 13461 13464 13467 13470 13473 13476 13478 13481 13484 13487 13489 13492 13494 13497 13500 13503 13505 13508 13510 13513 13515 13518 13521 13524 13526 13528 13531 13534 13536 13539 13542 13545 13547 13550 13552 13555 13557 13560 13563 13566 13569 13572 13575 13578 13581 13583 13585 13588 13591 13593 13596 13599 13601 13604 13607 13610 13612 13615 13618 13620 13622 13624 13627 13630 13632 13635 13637 13640 13643 13645 13648 13651 13654 13656 13659 13662 13665 13667 13670 13673 13676 13679 13682 13685 13688 13690 13693 13695 13698 13700 13702 13705 13708 13711 13714 13717 13720 13723 13726 13729 13732 13735 13738 13741 13744 13747 13750 13753 13756 13759 13762 13765 13768 13771 13774 13777 13780 13783 13785 13788 13791 13794 13797 13800 13803 13806 13809 13812 13815 13818 13821 13824 13827 13830 13833 13835 13838 13841 13844 13847 13850 13853 13856 13858 13861 13864 13867 13870 13873 13876 13878 13880 13883 13886 13889 13892 13895 13898 13901 13903 13906 13909 13912 13914 13916 13919 13922 13924 13927 13930 13933 13936 13939 13942 13945 13948 13950 13953 13956 13959 13962 13965 13967 13970 13972 13975 13978 13980 13983 13986 13989 13991 13994 13997 14000 14003 14005 14008 14011 14014 14017 14019 14022 14025 14027 14030 14033 14036 14039 14042 14045 14048 14051 14054 14057 14059 14062 14065 14068 14071 14074 14077 14080 14083 14086 14089 14092 14095 14098 14101 14104 14107 14110 14113 14116 14119 14122 14125 14128 14131 14134 14137 14140 14143 14145 14148 14150 14153 14156 14159 14162 14165 14168 14171 14174 14177 14179 14182 14185 14188 14191 14194 14197 14200 14203 14206 14209 14212 14215 14218 14220 14223 14226 14229 14231 14234 14236 14239 14242 14244 14247 14249 14252 14254 14257 14260 14263 14266 14269 14272 14275 14277 14280 14283 14286 14289 14291 14294 14296 14299 14302 14305 14308 14311 14313 14315 14318 14321 14324 14327 14329 14332 14335 14337 14340 14343 14346 14349 14352 14355 14358 14361 14364 14367 14370 14373 14376 14379 14382 14385 14388 14391 14394 14397 14400 14403 14406 14409 14412 14415 14418 14420 14423 14425 14428 14431 14434 14437 14440 14443 14445 14448 14450 14453 14456 14458 14460 14463 14466 14468 14470 14473 14475 14478 14481 14484 14487 14490 14493 14496 14499 14502 14504 14507 14510 14513 14515 14518 14521 14523 14526 14529 14532 14535 14538 14541 14544 14547 14550 14553 14556 14559 14562 14565 14568 14571 14574 14577 14580 14583 14586 14589 14592 14595 14597 14600 14603 14606 14609 14612 14615 14618 14621 14623 14625 14627 14630 14633 14636 14639 14642 14645 14648 14651 14654 14657 14660 14663 14666 14669 14672 14675 14678 14681 14684 14686 14688 14691 14694 14697 14699 14702 14705 14707 14710 14713 14715 14718 14721 14724 14727 14730 14733 14736 14738 14741 14744 14747 14750 14753 14756 14759 14761 14764 14767 14770 14773 14776 14779 14782 14785 14788 14790 14792 14795 14798 14801 14804 14807 14809 14812 14815 14818 14821 14824 14827 14830 14833 14836 14839 14842 14845 14848 14851 14854 14857 14859 14862 14865 14868 14871 14874 14877 14879 14882 14885 14888 14891 14894 14896 14899 14902 14905 14907 14910 14913 14916 14919 14922 14925 14928 14930 14933 14936 14938 14941 14944 14947 14950 14953 14956 14958 14961 14964 14967 14970 14973 14976 14979 14982 14985 14988 14991 14994 14997 14999 15002 15005 15008 15010 15013 15015 15018 15021 15024 15027 15030 15033 15035 15038 15041 15043 15046 15048 15051 15053 15056 15059 15062 15065 15068 15071 15074 15077 15080 15083 15086 15089 15092 15095 15098 15101 15104 15107 15110 15113 15116 15119 15122 15125 15128 15131 15134 15137 15140 15143 15146 15149 15152 15155 15158 15161 15164 15167 15170 15172 15175 15178 15180 15183 15186 15189 15192 15195 15198 15201 15204 15207 15210 15213 15216 15219 15222 15225 15228 15231 15234 15237 15240 15243 15245 15247 15250 15253 15256 15258 15261 15264 15267 15270 15273 15276 15279 15282 15285 15288 15291 15294 15297 15300 15303 15306 15309 15312 15315 15318 15321 15324 15327 15330 15333 15336 15339 15341 15344 15347 15350 15353 15356 15359 15362 15365 15368 15371 15373 15376 15379 15382 15385 15388 15390 15393 15395 15398 15401 15404 15407 15410 15413 15416 15419 15422 15424 15427 15430 15433 15436 15439 15442 15445 15448 15451 15453 15456 15459 15462 15465 15468 15471 15474 15477 15480 15483 15486 15488 15491 15494 15497 15500 15503 15506 15509 15512 15515 15518 15521 15524 15527 15530 15533 15535 15538 15541 15544 15547 15550 15553 15556 15559 15562 15565 15568 15571 15574 15577 15580 15583 15586 15589 15592 15595 15598 15600 15603 15606 15609 15611 15614 15617 15620 15622 15625 15628 15630 15633 15636 15639 15642 15645 15648 15651 15654 15657 15659 15662 15665 15668 15671 15674 15676 15678 15681 15684 15687 15690 15693 15696 15699 15702 15704 15707 15710 15713 15716 15719 15722 15724 15727 15729 15732 15735 15738 15741 15744 15747 15750 15753 15756 15758 15761 15764 15766 15769 15771 15774 15777 15780 15783 15786 15789 15792 15795 15797 15800 15803 15805 15808 15811 15813 15816 15819 15822 15825 15828 15831 15834 15837 15840 15843 15846 15849 15852 15855 15858 15861 15863 15866 15868 15871 15874 15877 15880 15883 15886 15889 15892 15894 15897 15900 15903 15906 15909 15912 15915 15917 15920 15923 15926 15929 15932 15935 15938 15941 15944 15947 15950 15952 15955 15958 15961 15964 15967 15970 15972 15974 15977 15980 15983 15986 15989 15992 15995 15998 16001 16004 16007 16010 16013 16016 16018 16021 16024 16027 16030 16033 16036 16039 16042 16045 16048 16051 16054 16057 16059 16062 16065 16068 16071 16074 16077 16079 16082 16085 16088 16091 16094 16097 16100 16103 16106 16109 16112 16115 16118 16121 16124 16127 16130 16133 16136 16139 16142 16145 16148 16151 16154 16157 16160 16163 16166 16169 16172 16175 16178 16181 16184 16186 16189 16192 16195 16198 16201 16204 16207 16210 16213 16216 16219 16222 16225 16228 16231 16234 16237 16240 16243 16246 16249 16252 16255 16258 16261 16264 16267 16270 16273 16276 16279 16282 16285 16288 16291 16294 16297 16300 16303 16306 16309 16312 16315 16318 16321 16324 16327 16330 16333 16336 16339 16342 16345 16348 16351 16354 16357 16360 16363 16366 16369 16372 16375 16378 16381 16384 16387 16390 16393 16396 16399 16402 16405 16408 16411 16414 16417 16420 16423 16426 16429 16432 16435 16438 16441 16444 16447 16450 16453 16455 16458 16461 16464 16467 16470 16473 16476 16479 16482 16484 16486 16489 16492 16494 16497 16500 16503 16506 16508 16511 16514 16517 16520 16522 16524 16527 16530 16533 16536 16539 16542 16544 16547 16549 16552 16555 16558 16561 16564 16567 16570 16572 16575 16578 16580 16583 16586 16589 16592 16595 16598 16601 16604 16607 16610 16613 16616 16619 16622 16624 16627 16630 16633 16636 16639 16642 16645 16648 16651 16654 16657 16660 16663 16666 16669 16672 16675 16678 16681 16684 16687 16690 16693 16695 16698 16701 16704 16707 16710 16713 16716 16719 16722 16725 16728 16731 16734 16737 16740 16743 16746 16748 16751 16754 16757 16760 16763 16766 16769 16772 16775 16778 16781 16783 16786 16789 16792 16795 16798 16800 16803 16806 16809 16812 16815 16818 16821 16824 16827 16830 16833 16836 16839 16842 16845 16848 16850 16853 16856 16859 16862 16865 16868 16871 16874 16877 16880 16883 16886 16889 16892 16894 16897 16900 16903 16905 16908 16911 16914 16917 16920 16923 16926 16929 16932 16935 16938 16941 16944 16947 16950 16953 16956 16959 16962 16965 16968 16971 16974 16977 16980 16982 16985 16988 16991 16993 16996 16999 17001 17004 17007 17010 17013 17016 17019 17022 17024 17027 17029 17032 17035 17038 17041 17044 17047 17050 17052 17055 17058 17061 17064 17067 17069 17072 17074 17077 17080 17082 17085 17088 17091 17094 17097 17100 17103 17106 17109 17112 17114 17117 17120 17123 17125 17127 17130 17133 17136 17139 17141 17144 17147 17150 17153 17156 17159 17161 17164 17167 17169 17172 17174 17177 17180 17183 17186 17189 17191 17194 17197 17200 17203 17206 17209 17212 17215 17218 17221 17223 17226 17229 17232 17235 17238 17241 17244 17246 17249 17252 17255 17258 17260 17263 17266 17268 17271 17274 17277 17280 17283 17286 17289 17292 17295 17297 17300 17303 17306 17309 17312 17315 17318 17321 17324 17327 17330 17333 17336 17339 17342 17345 17348 17351 17354 17357 17360 17363 17366 17369 17372 17375 17378 17381 17384 17386 17389 17392 17395 17398 17401 17404 17407 17410 17413 17415 17418 17421 17424 17427 17429 17432 17435 17438 17441 17443 17446 17448 17451 17454 17457 17460 17463 17465 17468 17471 17473 17476 17479 17482 17485 17488 17491 17494 17497 17500 17503 17506 17509 17512 17514 17517 17520 17522 17525 17527 17530 17533 17536 17539 17542 17545 17548 17551 17554 17557 17559 17562 17565 17568 17571 17574 17577 17580 17583 17586 17588 17591 17594 17597 17600 17603 17605 17608 17611 17614 17617 17620 17623 17625 17628 17631 17633 17636 17638 17641 17644 17646 17649 17651 17653 17656 17659 17662 17665 17668 17671 17674 17677 17680 17683 17686 17689 17692 17695 17698 17701 17704 17707 17710 17713 17716 17719 17722 17725 17728 17731 17734 17736 17739 17742 17744 17747 17750 17753 17756 17759 17762 17765 17768 17771 17774 17777 17780 17783 17786 17789 17792 17795 17798 17801 17804 17807 17809 17812 17815 17818 17820 17823 17826 17829 17832 17835 17838 17841 17844 17847 17850 17853 17856 17859 17862 17865 17867 17870 17873 17876 17879 17882 17885 17888 17891 17894 17897 17900 17903 17905 17908 17911 17914 17916 17918 17921 17924 17927 17930 17933 17936 17939 17941 17944 17947 17949 17952 17954 17957 17959 17962 17965 17967 17970 17973 17976 17978 17981 17984 17987 17989 17991 17994 17997 17999 18001 18003 18005 18008 18010 18013 18016 18019 18022 18024 18027 18030 18033 18036 18039 18042 18045 18048 18051 18054 18057 18060 18062 18065 18068 18070 18073 18076 18079 18082 18085 18088 18090 18093 18096 18099 18102 18104 18107 18110 18113 18115 18118 18121 18124 18127 18130 18133 18136 18139 18142 18145 18148 18151 18153 18156 18159 18162 18165 18167 18170 18173 18175 18178 18181 18184 18187 18190 18193 18196 18199 18201 18203 18206 18208 18211 18214 18217 18220 18223 18226 18229 18231 18234 18237 18240 18243 18246 18249 18252 18255 18258 18261 18264 18266 18269 18271 18274 18277 18280 18283 18286 18289 18292 18295 18298 18300 18303 18306 18309 18312 18314 18316 18319 18322 18325 18327 18330 18333 18335 18338 18341 18344 18347 18350 18353 18356 18359 18362 18365 18367 18370 18373 18376 18379 18382 18385 18388 18391 18394 18397 18400 18403 18406 18409 18412 18415 18418 18421 18424 18427 18430 18433 18435 18438 18441 18444 18447 18450 18453 18456 18459 18462 18465 18468 18471 18474 18476 18479 18481 18483 18486 18489 18491 18494 18497 18500 18503 18506 18509 18512 18515 18518 18521 18524 18527 18530 18533 18536 18539 18541 18544 18547 18549 18551 18554 18557 18560 18562 18564 18566 18569 18572 18575 18578 18581 18584 18586 18589 18592 18595 18598 18601 18604 18607 18610 18613 18616 18619 18622 18625 18628 18631 18634 18637 18640 18643 18646 18649 18651 18654 18657 18660 18663 18665 18668 18671 18674 18677 18680 18683 18686 18689 18692 18695 18698 18701 18704 18707 18710 18713 18716 18719 18722 18725 18728 18731 18734 18737 18740 18743 18746 18749 18752 18755 18758 18761 18764 18767 18770 18773 18776 18778 18781 18784 18787 18790 18793 18796 18799 18801 18804 18807 18810 18812 18815 18818 18821 18824 18826 18829 18832 18835 18838 18840 18843 18846 18848 18851 18853 18856 18859 18861 18864 18867 18870 18873 18875 18878 18880 18883 18886 18888 18891 18893 18896 18898 18901 18903 18906 18909 18912 18914 18917 18920 18922 18925 18928 18931 18934 18937 18940 18943 18946 18949 18951 18954 18957 18960 18963 18965 18968 18971 18974 18976 18979 18982 18984 18987 18990 18993 18996 18999 19002 19005 19008 19011 19014 19017 19020 19023 19025 19028 19031 19034 19037 19040 19043 19046 19049 19052 19055 19058 19061 19064 19067 19070 19073 19076 19079 19082 19085 19088 19091 19094 19097 19100 19103 19106 19109 19111 19114 19117 19120 19123 19126 19128 19131 19134 19137 19139 19142 19145 19148 19151 19154 19157 19160 19162 19165 19168 19171 19174 19177 19180 19183 19185 19188 19191 19194 19197 19200 19203 19206 19209 19212 19215 19218 19221 19224 19227 19230 19233 19236 19239 19242 19245 19248 19251 19254 19257 19260 19263 19266 19269 19272 19275 19278 19281 19284 19287 19290 19292 19295 19298 19301 19304 19306 19309 19312 19315 19318 19321 19324 19327 19330 19333 19335 19338 19341 19343 19346 19349 19352 19355 19358 19361 19364 19366 19369 19372 19375 19378 19381 19384 19387 19390 19393 19396 19399 19402 19405 19408 19411 19414 19417 19420 19423 19426 19429 19432 19435 19438 19441 19444 19447 19450 19453 19455 19458 19461 19464 19467 19470 19473 19476 19479 19482 19485 19488 19491 19494 19496 19499 19502 19505 19507 19510 19513 19515 19518 19521 19524 19527 19530 19532 19535 19538 19541 19544 19546 19549 19551 19553 19556 19559 19561 19564 19566 19569 19572 19575 19578 19581 19584 19587 19590 19593 19596 19599 19602 19605 19608 19611 19614 19617 19620 19623 19626 19629 19632 19635 19637 19640 19643 19645 19648 19651 19654 19657 19660 19662 19664 19667 19670 19673 19676 19679 19682 19685 19688 19691 19694 19697 19700 19703 19706 19709 19712 19715 19718 19721 19723 19726 19729 19732 19734 19736 19739 19742 19745 19748 19751 19753 19756 19759 19762 19765 19768 19771 19774 19777 19780 19783 19786 19789 19792 19795 19798 19801 19804 19807 19810 19813 19816 19819 19822 19825 19828 19831 19834 19837 19840 19843 19845 19848 19850 19853 19856 19859 19862 19865 19868 19871 19874 19877 19880 19883 19886 19889 19892 19895 19898 19901 19904 19907 19910 19913 19916 19919 19922 19925 19928 19931 19934 19937 19940 19943 19946 19949 19952 19955 19958 19961 19964 19967 19970 19973 19976 19979 19982 19984 19987 19989 19992 19995 19998 20000 20003 20005 20008 20011 20014 20017 20020 20022 20024 20027 20029 20032 20034 20037 20039 20042 20045 20048 20051 20053 20056 20059 20062 20064 20066 20069 20071 20074 20077 20079 20082 20084 20086 20089 20092 20095 20097 20099 20102 20105 20108 20110 20113 20116 20119 20121 20124 20126 20129 20132 20135 20137 20140 20143 20146 20149 20152 20155 20158 20161 20164 20167 20170 20173 20176 20179 20182 20185 20188 20190 20193 20196 20199 20202 20204 20207 20210 20213 20216 20219 20222 20225 20228 20231 20234 20237 20240 20243 20246 20249 20252 20255 20258 20261 20264 20267 20270 20273 20275 20278 20281 20284 20287 20289 20292 20294 20297 20299 20302 20305 20308 20311 20314 20317 20320 20323 20326 20329 20332 20335 20338 20341 20344 20347 20350 20353 20356 20359 20362 20365 20368 20371 20374 20377 20380 20383 20386 20389 20392 20395 20398 20401 20404 20406 20409 20412 20415 20418 20421 20424 20427 20430 20433 20436 20438 20441 20444 20447 20450 20453 20456 20459 20461 20463 20466 20469 20472 20474 20477 20480 20483 20486 20489 20492 20495 20498 20501 20503 20506 20509 20512 20514 20516 20519 20521 20523 20526 20529 20532 20535 20538 20541 20544 20547 20550 20553 20556 20559 20562 20565 20568 20571 20574 20576 20579 20582 20584 20587 20590 20593 20596 20599 20602 20605 20607 20610 20613 20616 20619 20622 20624 20627 20630 20633 20636 20639 20642 20645 20648 20651 20654 20657 20660 20663 20666 20669 20672 20675 20678 20681 20684 20687 20690 20693 20696 20699 20702 20705 20708 20711 20714 20716 20719 20722 20725 20727 20730 20732 20735 20738 20741 20744 20747 20749 20752 20755 20758 20761 20764 20767 20769 20772 20775 20778 20781 20784 20787 20790 20793 20796 20799 20802 20805 20808 20811 20814 20816 20819 20822 20825 20827 20830 20833 20836 20838 20841 20843 20846 20849 20852 20854 20856 20859 20862 20865 20868 20871 20874 20877 20880 20883 20886 20889 20892 20895 20898 20900 20903 20906 20908 20911 20914 20917 20920 20923 20926 20929 20932 20935 20938 20941 20944 20946 20949 20952 20955 20958 20961 20964 20967 20970 20973 20975 20978 20981 20984 20987 20989 20991 20994 20996 20999 21002 21005 21007 21010 21012 21015 21018 21020 21023 21026 21028 21031 21034 21037 21040 21042 21045 21048 21051 21053 21056 21059 21062 21065 21068 21071 21074 21077 21080 21083 21086 21089 21091 21094 21097 21100 21103 21106 21109 21112 21114 21116 21119 21121 21124 21127 21130 21133 21135 21138 21141 21144 21147 21150 21153 21156 21159 21162 21165 21168 21171 21174 21176 21179 21182 21185 21188 21191 21193 21196 21199 21202 21205 21208 21210 21213 21215 21218 21221 21224 21226 21229 21232 21235 21237 21240 21243 21246 21249 21252 21255 21258 21261 21264 21267 21270 21273 21276 21279 21282 21285 21288 21291 21294 21296 21299 21302 21305 21308 21311 21314 21317 21320 21323 21326 21329 21331 21334 21336 21339 21342 21345 21348 21351 21354 21357 21360 21363 21366 21369 21372 21375 21378 21381 21384 21387 21390 21393 21396 21399 21402 21405 21408 21411 21414 21417 21420 21423 21426 21429 21432 21435 21438 21441 21444 21446 21449 21452 21455 21458 21460 21463 21466 21469 21472 21475 21478 21481 21484 21487 21489 21492 21495 21498 21501 21504 21507 21510 21513 21516 21519 21522 21525 21528 21531 21533 21536 21539 21541 21544 21547 21550 21553 21556 21558 21561 21564 21567 21570 21573 21576 21578 21581 21583 21586 21589 21591 21594 21597 21600 21603 21606 21609 21612 21615 21617 21620 21623 21626 21629 21632 21635 21638 21641 21644 21647 21650 21652 21654 21657 21660 21663 21666 21668 21671 21674 21677 21680 21683 21686 21689 21692 21694 21697 21700 21702 21705 21708 21711 21714 21716 21719 21722 21725 21728 21731 21734 21737 21740 21743 21746 21749 21752 21755 21758 21761 21764 21767 21770 21773 21776 21779 21782 21785 21787 21790 21793 21795 21798 21801 21804 21807 21810 21813 21816 21818 21820 21822 21825 21828 21831 21834 21836 21839 21842 21844 21847 21850 21853 21856 21859 21862 21865 21868 21871 21874 21877 21879 21882 21885 21887 21890 21893 21896 21899 21902 21905 21907 21910 21913 21916 21918 21921 21924 21926 21929 21932 21935 21938 21941 21944 21947 21950 21953 21956 21959 21961 21964 21966 21968 21971 21974 21977 21980 21983 21985 21988 21991 21994 21997 22000 22003 22006 22008 22011 22013 22016 22019 22022 22025 22028 22031 22034 22037 22040 22043 22046 22049 22052 22055 22057 22060 22063 22066 22068 22071 22074 22077 22080 22083 22086 22089 22092 22095 22098 22101 22103 22106 22109 22111 22114 22117 22120 22122 22125 22128 22131 22133 22135 22138 22141 22143 22146 22148 22151 22154 22157 22160 22163 22166 22169 22172 22175 22178 22181 22183 22186 22188 22191 22194 22196 22199 22202 22205 22207 22210 22213 22216 22219 22222 22225 22228 22230 22233 22236 22238 22241 22244 22247 22250 22252 22254 22257 22259 22261 22264 22266 22268 22271 22273 22276 22278 22281 22284 22287 22290 22292 22294 22296 22299 22302 22305 22308 22311 22314 22317 22319 22322 22325 22328 22330 22333 22336 22338 22340 22343 22346 22349 22352 22354 22357 22360 22363 22365 22367 22370 22373 22376 22379 22381 22383 22385 22388 22391 22394 22397 22400 22403 22406 22409 22411 22414 22417 22420 22423 22426 22429 22432 22435 22438 22441 22443 22446 22448 22451 22454 22456 22459 22462 22465 22468 22471 22474 22476 22479 22481 22484 22487 22490 22493 22496 22498 22501 22504 22507 22509 22512 22515 22518 22521 22524 22527 22530 22532 22535 22538 22541 22544 22547 22550 22552 22555 22558 22561 22564 22567 22569 22572 22575 22578 22581 22584 22587 22590 22593 22596 22599 22602 22605 22608 22611 22614 22617 22620 22623 22626 22629 22632 22635 22638 22641 22644 22647 22649 22652 22655 22658 22661 22664 22667 22670 22673 22676 22678 22681 22684 22687 22690 22692 22694 22697 22700 22703 22705 22708 22711 22714 22717 22720 22723 22726 22729 22732 22734 22737 22739 22742 22745 22748 22751 22754 22757 22760 22762 22765 22768 22771 22774 22776 22779 22781 22784 22787 22790 22793 22796 22799 22802 22805 22808 22811 22814 22817 22820 22823 22826 22828 22831 22834 22837 22840 22843 22846 22849 22852 22855 22858 22861 22864 22867 22870 22873 22876 22879 22882 22885 22888 22891 22894 22897 22900 22903 22906 22909 22912 22914 22917 22920 22923 22926 22928 22931 22934 22937 22940 22943 22945 22948 22951 22954 22957 22960 22962 22965 22968 22971 22974 22977 22980 22983 22986 22989 22992 22994 22997 23000 23003 23006 23009 23012 23015 23018 23021 23024 23027 23030 23033 23036 23039 23042 23044 23047 23050 23052 23054 23057 23060 23062 23065 23068 23071 23074 23077 23080 23083 23085 23088 23091 23094 23097 23100 23103 23106 23109 23112 23115 23118 23121 23124 23127 23130 23133 23136 23139 23142 23145 23148 23151 23154 23157 23160 23163 23166 23169 23172 23175 23178 23181 23184 23186 23189 23192 23195 23197 23200 23203 23206 23209 23212 23215 23218 23221 23224 23227 23230 23233 23236 23239 23242 23245 23248 23251 23254 23257 23260 23263 23266 23269 23272 23275 23278 23281 23284 23287 23289 23292 23295 23298 23301 23303 23306 23309 23312 23315 23318 23321 23324 23327 23330 23333 23336 23339 23342 23345 23348 23351 23354 23357 23360 23363 23366 23369 23371 23374 23377 23379 23382 23385 23388 23391 23394 23397 23399 23402 23405 23408 23410 23413 23416 23419 23422 23424 23426 23429 23432 23435 23438 23441 23444 23447 23450 23453 23456 23458 23461 23464 23466 23469 23472 23475 23477 23480 23483 23486 23489 23492 23495 23498 23501 23504 23507 23510 23513 23516 23519 23522 23525 23528 23531 23534 23537 23540 23543 23546 23549 23552 23555 23558 23561 23564 23567 23569 23572 23575 23577 23580 23583 23586 23589 23592 23595 23597 23600 23603 23605 23608 23611 23613 23616 23619 23622 23625 23628 23631 23634 23636 23639 23642 23645 23648 23651 23654 23656 23659 23662 23664 23667 23670 23673 23676 23679 23682 23685 23688 23691 23693 23696 23699 23702 23704 23707 23710 23713 23715 23718 23721 23724 23726 23729 23732 23735 23737 23740 23742 23745 23748 23751 23754 23757 23760 23763 23766 23769 23772 23774 23777 23780 23782 23784 23787 23790 23793 23796 23799 23802 23805 23807 23810 23813 23816 23819 23822 23825 23828 23831 23833 23836 23839 23842 23844 23847 23850 23853 23856 23859 23862 23865 23868 23871 23874 23877 23879 23882 23885 23888 23891 23894 23897 23900 23903 23906 23909 23912 23915 23918 23921 23923 23926 23929 23931 23934 23937 23940 23943 23946 23949 23952 23955 23958 23961 23963 23965 23968 23971 23974 23977 23980 23982 23985 23988 23991 23994 23997 24000 24003 24006 24009 24012 24015 24018 24021 24024 24027 24030 24033 24035 24038 24041 24043 24046 24048 24051 24054 24057 24060 24063 24065 24068 24071 24074 24077 24080 24083 24086 24089 24092 24095 24098 24101 24104 24107 24110 24113 24115 24118 24121 24124 24127 24130 24132 24135 24137 24140 24142 24145 24148 24151 24154 24157 24160 24163 24166 24169 24172 24175 24178 24181 24184 24187 24189 24192 24195 24198 24201 24204 24206 24209 24212 24214 24217 24220 24223 24226 24229 24231 24234 24237 24240 24243 24246 24249 24252 24254 24257 24260 24263 24266 24269 24271 24274 24276 24279 24282 24285 24287 24290 24293 24296 24299 24302 24305 24308 24311 24314 24317 24320 24323 24325 24328 24331 24334 24337 24340 24343 24346 24349 24352 24355 24358 24361 24364 24367 24370 24373 24376 24379 24382 24385 24388 24391 24394 24397 24400 24403 24406 24409 24412 24415 24418 24421 24424 24427 24430 24433 24436 24439 24442 24445 24448 24451 24454 24457 24460 24463 24466 24469 24472 24475 24478 24481 24484 24487 24490 24493 24496 24499 24502 24505 24508 24511 24514 24517 24520 24523 24526 24529 24532 24535 24538 24541 24544 24547 24550 24553 24556 24559 24562 24565 24568 24571 24574 24577 24580 24583 24586 24589 24592 24595 24598 24601 24604 24607 24610 24613 24616 24619 24622 24625 24628 24631 24634 24637 24640 24643 24646 24649 24652 24655 24658 24661 24664 24667 24670 24673 24676 24679 24682 24685 24688 24691 24694 24697 24700 24703 24706 24709 24712 24715 24718 24721 24724 24727 24730 24733 24736 24739 24742 24745 24748 24751 24754 24757 24759 24762 24765 24768 24771 24773 24775 24778 24781 24784 24787 24790 24792 24795 24798 24800 24803 24805 24808 24811 24814 24817 24820 24823 24826 24828 24831 24833 24836 24839 24842 24845 24848 24851 24854 24857 24860 24863 24866 24869 24872 24875 24878 24881 24884 24887 24890 24893 24896 24899 24902 24905 24908 24910 24912 24915 24918 24921 24923 24926 24929 24932 24934 24937 24940 24943 24946 24949 24952 24954 24957 24960 24963 24966 24969 24971 24974 24977 24980 24983 24986 24989 24992 24995 24998 25000 25003 25006 25009 25012 25015 25018 25021 25024 25027 25030 25033 25036 25039 25042 25045 25048 25051 25054 25057 25060 25062 25065 25068 25071 25073 25076 25079 25082 25085 25088 25091 25094 25097 25100 25103 25106 25109 25112 25115 25118 25121 25123 25125 25127 25130 25133 25136 25138 25141 25144 25147 25150 25153 25156 25158 25160 25163 25165 25168 25171 25173 25176 25178 25181 25184 25187 25190 25192 25195 25198 25201 25203 25206 25209 25212 25215 25218 25221 25224 25227 25230 25233 25236 25238 25241 25244 25247 25250 25253 25256 25259 25262 25265 25268 25271 25274 25277 25280 25283 25285 25288 25291 25294 25297 25300 25303 25306 25309 25312 25314 25316 25319 25322 25325 25327 25330 25333 25336 25339 25342 25345 25348 25351 25354 25357 25359 25362 25365 25368 25371 25374 25376 25379 25382 25384 25387 25390 25393 25396 25399 25402 25405 25408 25410 25412 25415 25418 25421 25424 25427 25430 25433 25436 25439 25442 25445 25448 25451 25454 25457 25460 25463 25465 25468 25471 25474 25477 25479 25482 25485 25488 25491 25494 25497 25500 25502 25505 25508 25511 25514 25517 25520 25523 25526 25529 25531 25533 25536 25539 25542 25545 25548 25551 25554 25557 25560 25563 25566 25569 25572 25575 25578 25581 25584 25586 25589 25592 25595 25598 25601 25604 25607 25610 25613 25616 25619 25622 25625 25628 25631 25634 25637 25640 25643 25646 25649 25652 25655 25658 25661 25664 25667 25670 25673 25676 25679 25682 25685 25688 25691 25694 25697 25700 25703 25706 25709 25712 25715 25718 25721 25723 25726 25729 25731 25734 25736 25739 25742 25745 25748 25750 25753 25756 25759 25762 25764 25767 25770 25772 25775 25778 25781 25783 25786 25789 25792 25795 25798 25801 25803 25806 25809 25812 25814 25817 25820 25822 25825 25828 25830 25833 25836 25839 25842 25845 25848 25851 25853 25855 25858 25861 25864 25866 25869 25872 25875 25878 25881 25884 25887 25890 25893 25896 25898 25901 25904 25907 25910 25913 25916 25918 25921 25923 25926 25929 25932 25935 25937 25940 25943 25946 25949 25951 25954 25956 25959 25961 25964 25967 25970 25972 25975 25978 25981 25984 25987 25990 25993 25996 25999 26002 26005 26008 26011 26014 26017 26020 26023 26026 26029 26032 26035 26038 26041 26044 26047 26050 26053 26056 26059 26062 26065 26068 26071 26074 26077 26080 26083 26086 26089 26092 26095 26097 26100 26103 26106 26109 26111 26113 26116 26119 26122 26125 26128 26131 26134 26137 26140 26142 26145 26148 26151 26154 26157 26160 26163 26166 26169 26172 26175 26178 26181 26183 26185 26188 26191 26193 26196 26199 26201 26204 26207 26210 26213 26216 26219 26222 26225 26228 26230 26233 26236 26238 26241 26244 26247 26250 26253 26256 26259 26262 26264 26266 26269 26272 26275 26277 26280 26283 26286 26288 26291 26293 26296 26298 26301 26304 26306 26309 26311 26314 26317 26320 26323 26326 26329 26332 26334 26337 26340 26343 26346 26349 26351 26354 26357 26360 26363 26365 26368 26371 26374 26377 26379 26382 26385 26388 26391 26394 26397 26400 26402 26405 26408 26411 26414 26417 26420 26423 26426 26428 26431 26434 26437 26440 26443 26446 26449 26452 26455 26458 26461 26464 26467 26470 26473 26475 26478 26481 26483 26486 26489 26492 26495 26498 26501 26503 26506 26509 26511 26514 26517 26520 26523 26526 26529 26532 26534 26537 26540 26542 26545 26548 26551 26554 26557 26559 26562 26565 26568 26571 26574 26576 26579 26582 26585 26588 26591 26594 26596 26599 26602 26605 26607 26610 26613 26615 26618 26621 26624 26626 26629 26631 26634 26637 26640 26643 26646 26648 26651 26654 26657 26660 26663 26666 26669 26671 26674 26677 26680 26683 26686 26689 26692 26694 26697 26700 26702 26705 26708 26710 26713 26715 26718 26721 26724 26727 26730 26733 26735 26737 26740 26743 26745 26747 26750 26753 26756 26759 26762 26765 26768 26771 26774 26777 26780 26783 26786 26789 26792 26795 26798 26801 26804 26807 26810 26813 26816 26819 26821 26824 26827 26829 26832 26835 26838 26840 26843 26845 26848 26851 26854 26856 26859 26861 26864 26867 26869 26872 26875 26877 26880 26883 26886 26888 26891 26894 26897 26900 26903 26906 26909 26912 26915 26918 26920 26923 26925 26928 26931 26934 26937 26939 26942 26945 26947 26950 26953 26956 26959 26962 26965 26967 26970 26973 26976 26979 26982 26985 26987 26990 26993 26996 26999 27002 27005 27008 27010 27013 27016 27018 27020 27023 27026 27029 27032 27035 27037 27040 27043 27046 27049 27052 27055 27058 27061 27064 27067 27070 27073 27076 27079 27082 27085 27088 27090 27093 27096 27099 27101 27104 27107 27110 27113 27116 27119 27122 27125 27128 27131 27134 27137 27140 27143 27145 27148 27150 27153 27156 27159 27162 27165 27168 27171 27174 27177 27180 27183 27186 27189 27192 27195 27197 27200 27203 27206 27209 27212 27214 27217 27220 27223 27225 27228 27231 27234 27237 27240 27242 27245 27248 27250 27253 27256 27259 27262 27265 27268 27271 27274 27277 27279 27282 27285 27288 27291 27293 27296 27298 27301 27303 27305 27308 27311 27314 27317 27320 27323 27325 27328 27331 27334 27337 27340 27343 27346 27349 27352 27354 27357 27360 27363 27366 27369 27372 27375 27378 27381 27384 27387 27390 27393 27396 27399 27402 27404 27407 27410 27412 27415 27418 27421 27424 27427 27429 27431 27434 27437 27440 27443 27446 27449 27452 27455 27458 27461 27463 27466 27469 27472 27475 27477 27480 27483 27486 27489 27492 27495 27498 27501 27503 27506 27509 27511 27514 27517 27520 27522 27525 27528 27531 27534 27537 27540 27543 27546 27549 27552 27555 27558 27561 27564 27567 27570 27572 27575 27578 27581 27584 27587 27590 27593 27596 27599 27602 27605 27608 27610 27612 27615 27618 27621 27624 27627 27630 27632 27635 27638 27641 27644 27647 27650 27653 27656 27658 27661 27664 27667 27669 27672 27675 27678 27681 27684 27686 27689 27692 27694 27697 27700 27703 27706 27709 27711 27714 27717 27719 27722 27724 27726 27729 27732 27734 27737 27740 27742 27744 27747 27750 27753 27756 27759 27762 27764 27767 27770 27773 27775 27778 27780 27783 27785 27788 27791 27794 27797 27800 27803 27806 27809 27812 27815 27818 27821 27824 27827 27830 27832 27835 27838 27841 27844 27847 27850 27853 27856 27859 27861 27864 27867 27870 27873 27876 27878 27881 27884 27886 27889 27892 27895 27898 27900 27903 27905 27908 27910 27913 27916 27919 27922 27924 27927 27930 27932 27935 27938 27941 27944 27946 27948 27951 27954 27956 27959 27962 27964 27966 27969 27972 27975 27978 27981 27984 27987 27989 27992 27995 27998 28001 28004 28007 28010 28012 28015 28018 28021 28024 28027 28030 28032 28035 28038 28041 28044 28047 28050 28052 28055 28058 28061 28064 28066 28069 28072 28075 28078 28081 28084 28087 28090 28093 28096 28099 28101 28104 28107 28110 28113 28116 28118 28121 28124 28127 28129 28131 28134 28136 28139 28142 28144 28147 28150 28153 28155 28157 28160 28163 28165 28167 28170 28173 28176 28179 28181 28184 28187 28190 28192 28195 28198 28201 28204 28207 28210 28213 28216 28219 28222 28225 28228 28231 28233 28236 28239 28242 28245 28248 28250 28253 28256 28259 28262 28265 28268 28271 28274 28277 28280 28283 28286 28289 28292 28295 28298 28301 28304 28307 28310 28313 28316 28318 28321 28324 28327 28330 28333 28336 28339 28341 28344 28347 28350 28353 28355 28357 28360 28363 28366 28369 28372 28375 28378 28381 28384 28387 28390 28393 28396 28399 28401 28404 28407 28410 28413 28416 28418 28421 28424 28426 28429 28432 28434 28437 28439 28442 28445 28448 28450 28453 28456 28459 28462 28465 28468 28471 28473 28475 28478 28481 28484 28487 28490 28493 28496 28498 28501 28504 28507 28510 28512 28514 28517 28519 28522 28525 28527 28530 28533 28536 28539 28542 28544 28547 28550 28553 28556 28559 28562 28564 28567 28570 28573 28576 28579 28582 28585 28587 28590 28592 28595 28598 28601 28604 28607 28610 28613 28616 28619 28622 28625 28628 28630 28633 28636 28639 28642 28645 28648 28650 28653 28656 28658 28660 28663 28666 28669 28672 28675 28678 28681 28683 28686 28689 28691 28693 28695 28698 28701 28704 28706 28709 28712 28714 28716 28719 28722 28725 28728 28730 28733 28736 28739 28742 28745 28748 28751 28754 28757 28760 28763 28765 28768 28771 28774 28777 28780 28783 28786 28789 28792 28794 28797 28799 28802 28805 28808 28811 28814 28817 28820 28823 28826 28829 28832 28835 28838 28841 28844 28846 28849 28852 28855 28858 28861 28864 28867 28870 28873 28876 28879 28881 28884 28887 28890 28893 28896 28899 28902 28905 28908 28911 28914 28917 28920 28923 28926 28929 28932 28935 28938 28941 28944 28947 28950 28953 28956 28959 28962 28965 28968 28971 28974 28977 28980 28983 28986 28989 28992 28995 28998 29001 29004 29007 29009 29012 29015 29017 29020 29022 29025 29028 29031 29034 29036 29039 29042 29045 29048 29050 29053 29056 29059 29062 29065 29067 29069 29072 29074 29076 29079 29082 29085 29088 29091 29094 29097 29100 29103 29106 29109 29112 29115 29118 29120 29123 29125 29128 29130 29133 29136 29139 29142 29145 29148 29151 29154 29157 29160 29163 29166 29169 29172 29175 29178 29181 29184 29187 29190 29193 29196 29199 29202 29205 29208 29211 29214 29216 29218 29221 29223 29226 29229 29232 29235 29238 29241 29244 29247 29250 29253 29256 29259 29262 29265 29268 29270 29272 29275 29278 29281 29284 29287 29290 29293 29296 29299 29301 29304 29307 29309 29312 29315 29318 29321 29324 29326 29329 29331 29334 29337 29340 29343 29346 29349 29352 29355 29358 29361 29364 29367 29370 29373 29376 29379 29382 29385 29388 29391 29394 29397 29400 29403 29406 29409 29412 29415 29418 29421 29424 29427 29430 29433 29436 29439 29442 29445 29448 29451 29454 29457 29460 29463 29466 29469 29472 29475 29478 29481 29484 29487 29490 29493 29496 29499 29502 29505 29507 29510 29513 29516 29519 29522 29525 29528 29531 29533 29536 29539 29542 29545 29547 29550 29552 29555 29558 29561 29564 29566 29568 29571 29574 29577 29580 29583 29586 29589 29592 29595 29598 29601 29604 29607 29610 29613 29616 29619 29622 29625 29628 29631 29634 29637 29640 29642 29645 29648 29651 29654 29657 29660 29662 29665 29668 29671 29674 29677 29680 29683 29686 29689 29692 29695 29698 29700 29703 29706 29709 29712 29715 29718 29720 29723 29726 29729 29732 29735 29738 29741 29744 29746 29749 29752 29755 29758 29761 29764 29767 29770 29773 29776 29779 29782 29785 29788 29790 29792 29795 29798 29800 29803 29805 29808 29811 29814 29816 29818 29821 29824 29826 29829 29832 29835 29838 29841 29844 29847 29850 29853 29855 29858 29861 29864 29867 29870 29873 29876 29879 29882 29885 29888 29891 29893 29896 29899 29902 29904 29907 29910 29912 29915 29918 29920 29922 29924 29927 29930 29933 29936 29938 29941 29943 29946 29948 29951 29954 29957 29960 29963 29966 29969 29971 29974 29977 29979 29981 29983 29986 29988 29991 29994 29997 30000 30002 30005 30008 30011 30014 30017 30020 30023 30026 30028 30031 30034 30036 30039 30042 30045 30048 30051 30053 30056 30059 30062 30065 30067 30069 30072 30075 30078 30080 30083 30086 30089 30092 30095 30098 30100 30103 30106 30109 30112 30115 30118 30120 30123 30126 30129 30132 30135 30138 30140 30143 30146 30149 30152 30155 30158 30161 30164 30167 30170 30173 30176 30179 30182 30185 30188 30191 30194 30197 30200 30203 30206 30209 30212 30215 30218 30221 30224 30227 30230 30233 30236 30239 30242 30245 30248 30251 30254 30257 30260 30263 30266 30269 30272 30275 30278 30281 30284 30287 30290 30293 30296 30298 30301 30304 30307 30310 30313 30316 30318 30321 30324 30327 30330 30333 30336 30339 30342 30345 30348 30351 30354 30357 30359 30362 30365 30368 30370 30373 30376 30379 30382 30385 30388 30391 30394 30397 30400 30403 30406 30409 30412 30415 30418 30421 30424 30427 30430 30433 30436 30439 30442 30445 30448 30451 30453 30456 30459 30462 30464 30467 30470 30473 30476 30478 30481 30483 30486 30489 30492 30495 30498 30500 30503 30505 30508 30511 30514 30517 30520 30523 30526 30529 30532 30535 30538 30541 30544 30547 30550 30553 30556 30559 30562 30565 30568 30570 30573 30576 30579 30582 30585 30588 30591 30594 30597 30600 30603 30606 30609 30611 30614 30617 30620 30622 30625 30627 30630 30633 30636 30639 30642 30645 30648 30651 30654 30657 30659 30662 30665 30667 30670 30673 30675 30678 30681 30684 30687 30690 30693 30696 30699 30702 30705 30708 30711 30714 30717 30720 30723 30726 30729 30732 30735 30738 30741 30744 30747 30750 30753 30756 30758 30761 30764 30767 30769 30772 30775 30778 30781 30783 30786 30789 30792 30794 
</DataArray>
<DataArray type="UInt32" Name="types" format="ascii">
5 5 3 5 5 5 5 5 5 5 5 5 3 5 5 5 3 3 5 5 5 3 5 5 3 5 3 5 5 5 5 5 5 5 5 5 5 5 3 5 5 5 5 5 5 5 5 3 5 3 5 5 5 5 5 5 3 5 5 5 5 5 5 5 5 5 5 5 5 5 5 5 5 5 5 5 5 5 5 5 3 5 5 5 5 5 5 3 5 5 5 3 3 5 5 3 5 3 5 5 5 5 5 5 5 5 5 5 5 5 3 5 5 5 5 5 5 5 5 5 5 5 5 3 3 5 3 5 5 5 5 5 5 3 5 5 5 5 5 5 5 5 5 5 5 5 5 5 5 5 5 5 3 5 5 3 5 5 5 5 5 5 5 3 5 5 5 3 5 5 5 5 5 5 5 5 5 5 5 5 5 5 5 5 5 5 5 5 5 5 5 3 5 5 5 5 5 5 5 5 5 5 5 5 5 3 5 5 5 5 3 5 5 5 5 5 5 3 5 5 5 5 5 5 3 3 5 5 3 5 5 5 3 3 3 5 3 5 5 3 5 5 5 5 5 5 3 3 5 5 5 5 5 5 5 5 5 5 5 5 5 5 5 5 5 3 5 5 5 5 5 5 3 5 5 5 3 5 5 5 5 5 3 3 5 3 5 5 3 5 5 3 5 5 5 5 5 5 5 5 5 3 5 5 5 5 5 3 5 5 5 5 3 5 5 5 3 5 3 5 5 5 5 5 5 5 5 5 5 3 5 5 5 5 5 5 3 5 5 5 5 5 5 5 5 3 5 5 5 5 5 3 5 5 5 5 5 5 5 5 5 5 3 5 3 5 5 5 5 5 5 5 5 5 5 5 5 5 5 5 5 5 5 5 5 5 5 5 5 3 5 5 3 5 5 5 5 5 5 5 5 3 5 5 5 5 3 5 5 5 5 5 5 5 5 5 5 5 5 5 5 3 5 5 5 5 5 5 5 5 3 5 5 5 5 5 5 5 5 5 3 5 5 5 5 5 5 5 5 3 5 5 5 5 5 5 5 5 5 5 5 5 5 5 5 5 5 5 5 5 5 5 5 5 5 5 3 5 5 5 5 5 5 5 5 5 5 3 5 5 5 5 5 3 5 5 5 5 5 5 3 5 5 5 3 5 3 5 5 5 3 5 5 5 5 5 5 5 5 5 5 5 5 5 5 5 5 5 5 5 5 5 3 5 5 3 5 5 5 5 5 5 5 5 5 5 5 5 3 5 5 5 3 3 5 5 5 5 5 3 5 3 5 5 5 3 5 5 3 5 5 5 5 5 5 5 5 3 5 5 5 5 5 5 5 3 5 3 3 5 5 3 3 5 5 5 5 5 5 5 5 5 5 5 3 5 5 3 3 5 5 5 5 5 5 5 5 5 5 5 5 5 5 5 5 3 5 5 5 5 5 5 5 5 5 3 5 3 5 5 5 5 5 5 5 5 5 5 5 5 5 5 5 5 5 5 3 5 5 5 5 3 5 5 3 5 5 3 5 3 5 5 5 5 5 5 5 5 5 3 5 5 3 5 5 5 5 5 5 5 5 5 5 5 5 5 5 5 5 5 5 5 3 5 5 5 3 5 5 5 5 5 5 5 5 5 5 5 5 5 5 5 5 5 5 5 5 5 5 5 5 5 5 5 5 5 5 3 5 5 3 5 5 5 3 5 5 5 3 5 5 3 3 3 5 5 5 5 5 5 5 5 5 5 5 5 5 5 5 5 5 3 3 5 5 3 5 5 5 3 3 3 5 5 5 3 5 3 5 3 5 5 5 5 3 5 5 5 5 5 5 5 5 5 5 5 5 5 5 5 5 5 5 5 3 5 3 5 5 5 5 5 5 5 5 5 5 5 5 5 5 5 5 5 5 5 5 5 5 5 5 3 5 5 3 5 5 3 5 5 5 5 3 5 3 5 3 5 3 5 5 5 5 3 5 5 3 5 3 3 5 5 5 5 5 5 5 5 5 5 5 5 5 5 5 5 5 5 5 5 5 5 5 5 5 5 5 5 5 5 5 5 5 5 5 5 5 5 5 5 5 5 5 5 5 5 5 5 3 5 3 5 5 5 3 5 3 5 5 5 5 5 5 5 5 5 5 5 5 5 5 5 5 5 5 5 5 5 5 5 5 5 5 5 5 3 5 5 5 5 5 5 5 5 3 5 5 5 5 5 5 3 5 5 3 5 3 5 5 5 5 5 5 5 5 5 5 5 5 5 5 5 5 5 5 3 5 5 5 5 3 5 3 5 5 5 3 3 3 5 5 5 5 5 5 3 3 5 5 5 3 5 5 5 5 5 5 5 5 5 5 3 5 3 5 5 5 5 5 3 5 5 3 3 3 5 5 5 5 5 3 5 3 5 5 5 5 5 5 3 5 3 5 5 5 5 3 5 5 5 5 5 3 5 5 5 3 5 5 5 5 5 5 5 5 5 5 5 5 5 5 5 5 5 3 5 5 3 5 5 5 5 5 5 5 5 3 5 5 3 5 5 5 5 5 5 5 5 5 5 5 5 5 5 5 5 5 5 5 5 5 3 5 5 5 5 3 5 5 5 3 5 3 5 5 5 5 5 5 5 5 3 5 3 5 3 5 5 5 3 3 5 5 3 3 5 5 3 5 5 5 5 5 5 5 5 5 5 3 5 5 5 5 5 5 3 5 5 5 5 5 5 5 5 5 5 5 5 5 5 3 5 5 5 5 5 5 3 5 5 5 5 5 5 5 5 5 3 5 5 5 5 5 5 5 5 5 5 3 5 5 5 5 5 5 5 5 5 5 5 5 5 5 5 5 5 5 5 5 5 3 5 5 5 5 5 5 3 5 3 5 5 5 5 5 3 5 5 5 5 5 5 5 5 5 5 5 5 5 5 5 5 5 5 5 5 5 5 5 5 5 5 5 5 5 5 5 3 5 5 5 5 5 5 5 5 3 5 5 5 5 5 5 5 5 3 5 5 5 5 5 5 5 5 5 5 5 5 5 5 5 5 5 5 5 5 5 5 5 5 5 5 5 5 5 5 5 3 5 5 5 5 5 5 5 5 5 5 5 5 5 5 5 5 5 5 5 5 5 5 5 5 5 5 5 5 5 5 5 5 5 5 5 5 5 5 5 5 5 5 5 5 5 5 5 5 5 5 5 5 5 5 5 5 5 5 5 5 5 5 5 5 5 5 5 5 5 5 5 5 5 5 5 5 5 5 5 5 5 5 5 5 5 5 5 5 5 5 5 5 5 5 5 5 5 5 5 5 5 5 5 3 5 5 5 5 5 5 3 3 5 5 5 5 5 5 5 5 5 5 5 5 5 5 5 5 5 5 5 5 5 5 3 3 5 5 3 5 5 5 5 3 5 5 5 5 5 5 5 5 5 5 5 5 5 5 5 5 5 5 5 5 5 5 5 5 5 5 5 5 5 3 5 5 5 5 5 5 5 5 5 5 5 5 5 5 5 5 5 5 5 5 5 5 5 5 5 5 5 5 5 5 5 5 5 5 5 5 5 5 5 5 5 5 5 5 5 5 5 5 5 5 5 3 5 5 5 5 5 5 5 3 5 5 5 5 5 5 5 3 5 5 5 5 3 5 5 5 5 5 5 5 5 5 3 5 5 5 5 5 3 5 5 5 5 5 3 5 5 5 5 5 5 5 5 5 5 5 5 5 5 5 5 5 5 5 5 5 5 5 5 5 5 5 5 5 5 5 5 5 5 5 5 3 5 5 5 5 5 3 5 5 5 5 5 5 5 5 5 5 5 5 5 5 5 5 5 5 5 3 5 5 5 5 5 5 5 5 5 5 5 5 5 5 5 5 5 5 5 5 5 5 5 3 5 3 5 5 5 5 3 5 5 5 5 5 5 5 5 5 5 5 5 3 5 5 3 5 5 3 5 5 5 3 3 5 5 3 5 5 5 5 5 5 3 5 5 5 3 5 3 5 3 5 5 5 5 5 5 5 5 5 5 5 3 5 5 5 5 3 5 5 5 5 5 5 5 5 5 5 5 5 5 5 5 3 5 3 5 5 5 5 5 5 5 5 3 5 5 5 5 5 3 5 3 5 3 5 5 5 5 5 5 5 5 5 5 5 3 5 5 3 5 5 5 5 5 5 5 3 5 3 5 5 3 5 5 5 5 5 5 5 5 5 5 5 5 5 5 5 5 5 5 3 5 5 5 5 5 5 5 5 5 5 5 5 5 5 5 5 5 5 5 5 5 5 5 5 5 5 5 3 3 5 5 3 5 3 3 5 5 5 5 3 5 3 5 5 5 3 3 5 5 5 5 5 5 5 5 5 5 5 5 3 5 5 5 5 3 5 3 5 5 5 5 5 5 3 5 5 5 5 5 5 5 5 5 5 5 5 5 5 5 3 5 5 5 3 5 5 5 5 3 5 5 5 5 5 5 5 5 3 5 5 5 5 5 5 5 5 5 5 5 5 5 5 5 5 5 5 5 5 5 5 5 5 5 5 5 5 5 3 5 5 5 5 5 5 5 5 5 5 5 5 5 5 5 5 5 5 5 5 5 5 5 5 5 5 5 5 5 5 5 3 5 5 5 3 5 5 5 5 5 5 3 5 5 5 5 5 3 5 3 5 5 3 5 5 3 5 5 5 3 5 5 5 5 5 5 5 5 5 5 5 5 5 5 5 5 5 5 5 5 5 5 5 3 5 5 5 5 3 5 3 5 5 3 5 5 5 5 5 5 5 5 3 5 5 5 5 5 3 5 5 5 5 5 3 3 5 5 5 5 3 5 5 5 5 5 5 5 5 5 5 5 5 5 5 5 5 5 5 3 5 5 5 5 3 3 3 5 5 5 3 5 5 5 3 5 5 3 5 5 3 5 5 3 5 5 3 5 5 3 5 5 5 5 5 5 5 3 5 5 3 5 5 3 5 5 5 5 5 5 5 5 5 5 5 5 5 5 5 3 5 5 5 3 5 5 5 5 5 5 5 5 5 5 5 5 5 5 5 5 5 5 5 5 5 5 5 5 5 5 5 5 5 5 3 5 5 5 5 3 5 5 5 5 5 5 5 5 5 3 5 5 5 5 5 5 5 5 5 5 5 5 5 5 5 5 5 5 5 5 5 5 5 5 5 5 5 5 5 5 5 5 5 5 5 5 5 5 5 5 5 5 5 5 5 5 5 5 5 5 5 5 3 5 5 5 5 3 5 5 5 5 3 5 5 5 5 5 3 5 5 5 5 5 5 5 5 3 5 5 3 5 3 5 5 5 5 3 5 5 5 5 3 5 5 5 5 5 5 5 5 5 5 3 5 5 5 5 5 5 5 5 5 3 5 5 5 5 5 5 3 5 5 5 5 3 3 5 5 5 5 5 3 5 5 5 5 3 5 5 3 5 5 3 5 3 5 3 5 5 5 5 5 5 5 5 5 5 5 5 5 5 5 5 5 5 3 5 5 5 5 5 5 5 5 5 5 5 5 5 5 5 5 5 5 5 5 5 5 5 5 5 5 5 5 5 5 5 5 5 5 5 5 5 5 5 5 5 5 5 5 5 5 5 5 5 5 5 5 5 5 5 5 5 3 5 5 5 5 5 5 5 5 5 5 5 5 5 5 5 5 5 5 5 5 5 3 3 5 5 5 5 5 5 5 5 5 5 5 5 5 5 5 5 5 3 5 5 5 5 5 5 5 5 3 5 5 5 3 5 5 5 5 5 5 5 5 5 3 5 5 3 5 5 5 5 3 5 5 5 5 5 5 3 5 3 5 5 5 3 5 5 3 5 5 5 5 5 3 5 5 3 5 5 5 5 5 5 5 5 5 5 3 5 5 5 5 5 5 5 5 5 5 5 5 5 5 5 5 5 5 3 3 5 5 5 5 5 5 5 3 5 5 5 3 5 5 5 5 5 5 5 5 5 3 5 5 5 5 5 3 5 5 3 5 5 3 5 5 3 5 5 3 5 5 5 5 3 5 5 5 5 5 5 5 5 5 5 5 5 5 5 5 5 5 5 5 5 5 5 3 5 5 5 5 5 5 5 5 5 5 5 3 5 3 5 5 5 5 5 5 3 5 5 5 3 5 5 5 5 5 5 5 5 5 5 5 5 5 5 5 5 5 5 5 5 5 5 3 5 5 5 5 5 5 5 3 5 3 3 5 5 3 5 5 5 5 5 5 3 3 5 5 5 3 5 5 5 5 5 3 5 5 5 3 5 5 5 3 5 5 5 3 5 3 5 5 3 3 5 3 5 5 5 3 3 3 3 5 5 3 5 5 5 5 5 5 3 5 5 5 5 5 5 5 5 5 5 5 5 3 5 3 5 5 5 5 5 5 5 5 5 5 5 5 3 5 5 5 3 5 5 5 5 5 5 3 5 5 5 3 5 3 5 5 5 5 5 5 5 5 5 5 5 5 5 5 3 3 5 5 3 5 5 3 3 5 5 5 5 3 5 5 5 5 5 5 3 5 5 5 5 5 3 5 5 5 5 5 5 5 5 5 5 5 5 5 5 5 5 5 5 5 5 5 5 3 5 5 5 5 5 3 5 3 5 5 3 5 5 5 5 5 3 5 5 5 5 5 5 3 5 5 5 5 5 3 5 5 5 5 3 5 5 5 5 5 5 5 5 3 5 5 5 5 5 5 5 5 5 5 5 5 5 3 5 5 5 5 5 5 5 5 5 3 5 5 5 5 5 3 5 5 5 5 5 5 5 3 5 5 3 5 5 5 5 5 5 5 5 5 5 3 5 5 5 5 3 5 5 5 5 5 5 5 5 5 5 5 5 5 5 5 3 3 5 5 3 5 5 5 5 5 5 5 5 5 5 5 5 5 5 5 5 5 5 5 5 5 5 5 5 5 5 5 5 5 5 5 5 5 3 5 3 5 5 5 5 5 5 5 5 5 5 5 3 5 5 3 5 5 3 5 5 5 5 5 5 5 3 5 5 5 5 5 5 5 5 5 5 5 5 5 5 5 5 5 5 5 3 5 5 5 5 5 5 5 5 5 5 5 5 5 5 5 5 5 5 5 5 5 5 5 5 5 5 5 5 5 5 5 5 5 5 5 5 5 3 5 3 5 5 5 5 5 3 3 5 5 3 5 3 5 5 3 5 5 5 5 5 3 5 5 5 5 5 5 5 5 5 5 3 5 5 5 5 3 5 5 5 3 5 5 5 5 5 5 5 5 5 5 5 5 3 5 5 5 5 5 5 5 5 5 5 5 5 5 5 5 5 5 5 5 5 5 5 5 3 5 5 5 5 5 5 5 5 5 5 5 5 5 5 5 5 5 5 5 5 5 3 5 5 5 5 5 5 5 5 3 5 5 5 5 5 5 5 5 5 5 5 5 5 3 5 5 5 5 5 5 3 3 5 5 5 5 3 5 3 5 5 5 5 5 5 5 5 3 5 3 5 5 3 3 5 5 5 5 5 5 5 5 5 3 5 5 5 3 5 5 5 5 5 5 5 5 5 5 5 5 5 5 5 5 3 5 5 5 5 5 5 5 5 5 5 5 5 5 5 5 3 5 5 5 5 5 5 5 5 5 5 5 5 3 5 5 5 5 5 5 3 3 5 5 5 3 5 5 5 5 5 5 5 3 5 5 5 5 5 5 5 5 5 5 5 5 5 5 5 5 3 3 5 5 5 5 5 3 5 5 5 3 5 5 5 5 5 5 3 5 3 5 5 3 5 3 3 5 5 3 5 3 5 5 3 5 5 5 5 5 3 5 5 5 3 5 3 5 3 5 5 5 5 5 5 5 5 5 5 3 5 5 5 3 5 5 5 5 5 5 3 5 5 5 5 5 5 5 5 5 5 5 5 5 5 3 5 5 5 3 5 5 5 3 5 3 5 3 5 3 5 3 5 5 5 5 5 5 5 5 5 5 5 5 5 5 5 5 5 3 5 5 3 5 3 3 5 5 5 5 5 3 3 5 5 5 5 3 5 5 5 5 3 5 5 5 5 5 5 5 3 5 5 5 5 5 5 5 5 5 5 5 5 5 5 5 5 3 3 5 3 3 5 5 5 5 5 5 5 3 5 5 5 5 5 3 5 5 3 5 5 3 5 5 5 5 5 3 5 5 5 5 5 5 3 5 5 5 3 5 3 5 5 5 5 5 5 5 5 5 3 5 5 5 5 5 5 5 5 3 5 5 5 5 5 5 5 5 3 5 5 3 5 5 3 3 5 3 5 5 3 3 5 3 5 3 5 5 3 5 5 5 5 5 5 5 5 5 3 5 5 5 5 3 5 3 5 5 5 5 5 5 5 5 5 5 5 5 3 3 5 5 5 3 3 3 5 3 3 3 5 5 5 3 5 3 5 5 5 5 3 5 3 5 5 5 5 5 5 5 5 5 5 5 3 5 5 5 5 5 5 5 3 5 5 5 5 3 5 5 5 5 5 5 5 5 5 5 5 5 5 5 5 5 5 5 5 5 5 5 5 5 5 3 5 5 5 5 5 5 5 5 5 5 5 3 5 5 5 5 5 5 5 5 5 5 5 5 5 5 5 5 5 5 5 5 5 5 5 5 5 5 5 5 5 5 3 3 5 5 3 3 5 5 5 5 5 5 5 5 5 5 5 5 5 5 5 5 3 5 5 5 3 5 3 5 5 5 5 5 5 5 3 5 5 3 5 5 3 5 3 3 5 3 5 5 5 5 5 3 5 3 5 5 5 5 3 5 5 5 5 5 5 3 5 5 3 5 5 5 5 5 5 5 3 5 5 5 5 3 5 5 5 5 5 5 5 5 5 5 3 5 5 5 3 5 5 5 5 5 3 5 5 5 5 3 5 5 5 5 5 5 5 3 5 5 5 5 5 5 5 5 5 5 5 5 5 5 3 3 5 5 3 3 5 5 3 5 5 5 5 5 5 5 5 5 5 5 5 3 5 5 3 5 5 3 5 5 5 5 5 3 5 5 5 5 5 5 5 5 5 5 3 5 3 5 5 3 5 5 5 5 5 5 5 5 5 5 5 5 5 5 5 3 5 5 5 5 3 5 5 5 3 5 5 5 5 5 5 3 5 5 5 3 5 3 5 5 5 5 5 5 5 5 5 5 5 5 5 5 5 3 5 5 5 5 5 5 5 5 5 5 5 3 5 5 5 5 5 5 3 5 5 5 3 5 5 5 5 5 5 3 5 5 5 3 5 5 5 5 5 5 5 5 5 5 5 5 5 5 5 5 5 5 5 3 5 3 5 3 5 5 3 5 3 5 3 5 5 5 5 5 3 5 5 3 5 5 5 3 5 5 3 5 5 5 5 5 5 5 5 5 5 5 3 5 5 5 5 5 3 5 5 5 5 5 5 5 5 5 5 5 5 5 5 5 5 5 3 5 5 5 3 5 5 5 3 3 5 5 5 5 5 5 5 5 5 5 5 5 5 5 5 5 5 5 5 5 5 5 5 5 5 5 5 5 5 5 5 5 5 5 5 5 5 5 5 5 3 5 5 3 5 5 5 5 5 5 5 5 5 5 5 5 5 5 5 5 5 5 5 5 5 5 5 5 3 5 5 5 5 5 3 5 5 5 5 5 5 5 5 5 5 5 5 5 5 3 5 5 5 5 5 5 5 5 5 5 3 5 5 5 5 5 5 5 5 5 5 5 3 5 5 5 5 5 5 5 5 5 5 5 5 5 5 5 5 5 5 5 5 5 5 5 5 5 5 5 5 3 5 5 5 5 5 5 5 5 5 3 5 5 5 5 5 5 3 5 5 5 5 5 5 5 5 5 5 5 5 5 5 5 5 5 5 3 5 5 5 3 5 3 5 5 5 5 5 5 5 5 5 5 5 5 5 5 5 5 3 5 3 5 5 5 3 5 5 5 5 5 5 5 5 5 5 5 5 3 5 5 5 5 3 5 5 5 5 5 5 3 5 3 5 5 5 5 5 5 5 3 5 5 5 3 5 5 5 3 5 5 5 5 3 5 5 5 3 5 5 5 5 3 5 3 5 5 5 5 5 5 5 5 5 5 5 5 5 5 5 5 5 5 5 5 5 5 5 5 5 5 5 5 5 5 3 5 5 5 5 5 5 5 5 5 5 5 5 5 5 5 5 3 5 5 5 3 5 5 5 5 3 5 5 5 5 3 5 5 5 5 5 5 3 5 5 5 5 5 5 3 5 5 5 5 5 3 5 5 5 5 3 5 5 5 5 3 5 5 5 5 5 5 5 5 5 5 5 5 5 5 5 5 3 5 5 3 5 5 5 5 5 3 5 5 5 5 5 5 5 5 5 5 5 5 5 5 5 5 5 5 5 5 3 5 5 5 5 3 5 5 5 5 5 5 5 5 5 5 5 5 5 5 3 5 5 5 3 5 5 5 5 5 5 5 5 5 5 5 5 5 5 5 5 5 5 5 5 5 5 5 5 5 5 5 5 5 5 5 5 5 5 5 5 5 5 5 5 5 5 5 5 5 5 5 5 5 3 5 3 5 3 5 5 5 5 5 5 5 5 5 5 3 5 5 3 5 5 5 5 5 5 5 5 3 5 5 5 3 5 5 5 5 3 5 5 3 5 5 3 5 5 3 5 5 5 3 5 5 5 5 5 5 5 5 5 5 5 5 5 3 5 5 5 5 3 5 5 5 5 5 5 5 5 5 5 3 5 5 5 3 5 3 5 5 5 3 5 3 5 3 5 5 5 3 3 5 5 3 5 5 5 3 5 3 5 3 5 5 5 5 5 5 5 5 3 3 5 5 3 5 5 3 5 5 5 3 5 5 3 3 3 5 5 3 5 3 5 5 3 5 5 5 3 5 5 5 3 5 5 5 5 5 5 5 3 5 3 5 3 3 5 5 5 5 5 5 5 5 5 5 5 5 5 5 5 5 5 5 5 5 5 5 5 5 5 5 5 3 5 5 5 5 5 5 5 5 5 5 5 5 5 5 5 5 3 5 5 5 5 5 5 5 3 5 5 5 5 5 5 3 3 5 5 5 5 5 5 5 3 5 5 5 3 3 5 5 3 5 5 5 5 5 5 5 5 3 5 5 5 5 5 3 5 3 5 5 3 5 5 5 3 5 5 5 5 3 5 5 5 5 3 5 5 3 5 5 5 5 5 5 5 5 5 5 3 5 5 5 5 5 5 5 5 5 5 5 5 5 5 5 5 5 5 5 5 5 5 5 5 5 5 5 5 3 5 3 5 5 5 5 5 5 5 5 5 3 5 5 5 5 5 5 5 5 5 5 5 5 5 3 5 5 5 3 5 3 5 5 3 5 3 5 3 5 5 5 5 5 5 5 3 5 5 5 5 3 5 3 5 5 5 5 5 3 3 5 5 5 5 3 5 5 3 5 5 5 5 5 5 5 5 5 5 5 5 5 5 5 5 5 5 5 5 5 5 5 5 5 5 5 3 5 3 5 5 5 5 5 5 3 5 3 5 5 3 3 5 5 3 3 5 3 5 5 5 5 5 5 5 5 5 3 5 5 5 3 5 5 3 5 5 5 5 5 5 5 5 5 5 5 5 5 5 5 5 5 5 5 5 5 5 5 5 3 5 5 5 5 5 5 5 5 3 3 3 5 5 5 5 5 5 5 5 5 5 5 5 5 5 5 5 5 5 5 3 3 5 5 5 3 5 5 3 5 5 3 5 5 5 5 5 5 5 3 5 5 5 5 5 5 5 3 5 5 5 5 5 5 5 5 5 3 3 5 5 5 5 5 3 5 5 5 5 5 5 5 5 5 5 5 5 5 5 5 5 3 5 5 5 5 5 5 3 5 5 5 5 5 3 5 5 5 3 5 5 5 5 5 5 5 3 5 5 3 5 5 5 5 5 5 3 5 5 5 5 5 5 5 5 5 5 5 5 5 3 5 5 5 3 5 3 5 5 5 5 5 5 3 5 5 3 5 3 5 3 5 5 5 5 5 5 5 5 5 5 5 5 5 5 5 5 5 5 5 5 5 5 5 5 5 5 5 5 5 5 5 5 5 5 5 5 5 5 5 3 5 5 3 5 5 5 5 5 5 5 5 5 5 5 5 5 5 5 5 5 5 5 5 5 3 3 5 5 5 3 5 5 5 5 5 5 5 5 5 5 5 5 5 5 5 5 5 5 5 5 5 5 5 5 5 5 5 3 5 5 5 5 5 5 5 5 5 5 3 5 5 5 5 5 3 5 3 5 5 5 5 5 5 5 5 5 3 5 5 5 5 5 5 5 5 5 3 5 5 5 5 5 5 5 5 5 5 5 3 5 5 5 5 5 5 5 5 5 5 5 5 5 5 5 3 5 5 5 5 5 5 5 5 5 5 5 5 5 5 5 5 5 5 5 5 5 3 5 5 5 3 5 5 5 3 5 5 3 5 5 5 5 5 5 5 5 5 3 5 5 5 5 5 3 3 5 5 5 5 5 5 5 5 3 5 5 5 5 5 5 3 5 3 5 5 5 5 5 5 5 5 5 3 5 5 3 5 3 5 5 5 5 5 5 5 5 3 5 5 3 5 5 3 5 5 5 5 5 5 5 5 5 5 5 5 5 5 5 5 3 5 3 5 5 5 5 5 5 5 5 3 5 5 5 5 5 5 5 3 5 5 5 5 5 5 5 5 5 5 5 3 5 5 5 5 5 5 3 3 5 5 5 5 5 5 5 5 5 5 5 5 5 5 3 5 5 5 5 5 5 5 5 5 5 5 5 5 3 5 5 5 5 5 5 3 5 5 5 5 5 5 5 5 5 5 5 5 5 5 5 5 5 5 5 5 5 5 5 5 5 5 5 5 5 5 5 5 5 5 5 3 5 5 5 5 5 5 5 5 5 5 5 5 5 5 5 5 5 5 5 5 5 5 5 5 5 5 5 5 5 5 5 5 5 5 5 5 5 5 5 5 5 5 5 5 5 5 5 5 5 5 5 5 5 5 5 5 5 5 5 5 5 5 5 5 5 5 5 5 5 5 5 5 5 5 5 5 5 5 5 5 5 5 5 5 5 5 5 5 5 3 5 5 5 5 5 5 5 5 5 3 3 5 5 3 5 5 5 5 3 5 5 5 5 3 3 5 5 5 5 5 5 3 5 3 5 5 5 5 5 5 5 3 5 5 3 5 5 5 5 5 5 5 5 5 5 5 5 5 5 3 5 5 5 5 5 5 5 5 5 5 5 5 5 5 5 5 5 5 5 5 5 5 5 3 5 5 5 5 5 5 5 5 5 5 5 5 5 5 5 5 5 3 5 5 5 5 5 5 5 5 5 5 5 3 5 5 5 5 5 3 5 5 5 5 5 5 5 5 5 5 5 5 5 5 5 5 3 5 5 5 5 5 5 5 5 5 5 5 5 5 5 3 5 5 5 3 5 5 5 5 5 5 5 5 5 5 5 5 5 5 5 5 5 5 5 5 5 5 5 5 5 3 5 5 5 3 5 5 3 5 5 5 5 5 5 5 3 5 3 5 5 5 5 5 5 5 3 5 5 5 5 5 3 5 3 5 5 3 5 5 5 5 5 5 5 5 5 5 3 5 5 5 3 3 5 5 5 5 3 5 5 5 5 5 5 3 5 5 3 5 3 5 5 5 5 5 3 5 5 5 5 5 5 5 5 5 5 3 5 5 5 5 5 5 5 3 5 5 5 5 3 5 5 3 5 5 5 5 5 5 5 5 5 3 5 5 5 5 5 5 5 5 5 5 5 5 5 5 5 5 5 5 5 5 5 5 5 5 5 5 5 5 5 3 5 5 5 5 5 5 5 5 5 3 5 5 5 5 3 5 5 5 5 3 5 3 5 5 5 5 5 3 5 5 3 5 5 5 5 5 5 5 5 5 5 5 5 5 3 5 5 3 5 3 5 5 5 5 5 5 5 5 5 5 3 5 5 5 5 5 5 5 5 5 3 5 5 5 5 5 3 5 5 5 5 5 5 3 5 5 3 5 3 5 5 3 5 3 3 5 5 5 5 5 5 5 5 5 5 5 5 5 5 5 5 5 5 5 5 5 5 5 5 5 5 5 3 5 5 3 5 5 5 5 5 5 5 5 5 5 5 5 5 5 5 5 5 5 5 5 5 3 5 5 5 3 5 5 5 5 5 5 5 5 5 5 5 5 5 5 5 3 5 5 5 5 5 5 5 5 5 5 5 5 3 5 5 5 3 3 5 5 5 5 5 5 5 3 5 5 3 5 3 5 3 5 5 3 5 5 5 3 5 5 5 3 3 5 5 3 3 3 3 5 3 5 5 5 5 3 5 5 5 5 5 5 5 5 5 5 5 5 3 5 5 3 5 5 5 5 5 5 3 5 5 5 5 3 5 5 5 3 5 5 5 5 5 5 5 5 5 5 5 5 3 5 5 5 5 3 5 5 3 5 5 5 5 5 5 5 5 3 3 5 3 5 5 5 5 5 5 5 3 5 5 5 5 5 5 5 5 5 5 5 3 5 3 5 5 5 5 5 5 5 5 5 3 5 5 5 5 3 3 5 5 5 3 5 5 3 5 5 5 5 5 5 5 5 5 5 3 5 5 5 5 5 5 5 5 5 5 5 5 5 5 5 5 5 5 5 5 5 5 3 5 5 5 5 5 5 5 5 5 5 5 5 5 3 5 3 3 5 5 3 5 5 5 5 5 5 5 5 5 5 5 5 5 5 5 5 3 5 5 3 3 5 5 5 3 3 3 5 5 5 5 5 5 3 5 5 5 5 5 5 5 5 5 5 5 5 5 5 5 5 5 5 5 5 5 3 5 5 5 5 3 5 5 5 5 5 5 5 5 5 5 5 5 5 5 5 5 5 5 5 5 5 5 5 5 5 5 5 5 5 5 5 5 5 5 5 5 5 3 5 5 5 5 5 5 5 3 5 5 5 3 5 5 5 5 3 5 5 5 5 3 5 5 3 5 3 5 5 3 5 5 5 5 3 5 3 5 5 3 5 3 5 3 5 3 5 5 5 3 5 5 3 5 5 5 5 5 5 5 5 5 3 5 5 5 5 3 5 5 5 3 5 5 3 5 5 5 5 5 5 5 5 5 5 5 5 5 3 5 5 5 5 5 5 5 5 5 5 5 5 5 5 5 5 5 5 5 5 5 5 5 5 5 5 5 5 3 5 5 5 5 5 3 5 5 5 3 5 5 5 5 5 5 5 3 5 5 5 5 5 5 5 3 5 5 5 5 5 5 5 5 5 5 5 5 5 5 5 5 5 5 5 5 5 5 5 5 5 5 5 5 5 5 5 5 5 5 5 3 5 5 5 5 3 5 5 5 5 5 5 5 5 5 3 5 5 3 5 5 5 5 5 5 5 3 5 5 5 5 5 5 5 5 5 5 5 5 5 5 5 5 5 5 5 5 5 5 5 5 5 5 5 5 5 3 5 5 5 5 5 5 5 5 5 5 5 5 5 3 5 5 5 3 5 5 3 5 5 5 5 5 3 5 5 5 5 3 5 3 3 5 5 3 5 3 5 5 5 5 5 5 5 5 5 5 5 5 5 5 5 5 5 5 5 5 5 5 5 3 5 5 3 5 5 5 5 5 3 3 5 5 5 5 5 5 5 5 5 5 5 5 5 5 5 5 5 5 5 3 5 5 5 3 3 5 5 5 5 5 3 5 5 5 5 5 5 5 5 5 5 5 5 5 5 5 5 5 5 5 5 5 5 5 5 5 5 5 5 5 5 3 5 3 5 5 5 5 5 5 5 5 5 5 5 5 5 5 5 5 5 5 5 5 5 5 5 5 5 5 5 5 5 5 5 5 5 5 5 5 5 5 5 5 5 5 5 5 3 5 3 5 5 5 3 5 3 5 5 5 5 5 3 3 5 3 5 3 5 3 5 5 5 5 3 5 5 5 3 3 5 3 5 5 3 5 3 3 5 5 5 3 3 5 5 5 3 5 5 5 3 5 3 5 5 5 3 5 5 5 5 5 5 5 5 5 5 5 5 5 5 5 5 5 3 5 5 5 5 3 5 5 5 5 5 5 5 5 5 5 5 5 5 5 5 5 5 5 5 5 5 5 5 3 5 5 5 5 3 5 3 5 3 5 5 5 5 5 5 5 5 5 5 5 5 5 5 5 5 5 5 5 5 5 5 5 5 5 5 5 5 5 5 5 5 5 5 5 3 5 5 5 5 5 5 5 5 5 5 3 5 5 5 5 5 5 5 3 3 5 5 5 3 5 5 5 5 5 5 5 5 5 3 5 5 5 3 3 5 3 3 5 5 5 5 5 5 5 5 5 5 5 5 5 5 5 5 5 3 5 5 3 5 5 5 5 5 5 5 3 5 5 5 5 5 3 5 5 5 5 5 5 5 5 5 5 5 5 5 5 5 5 5 5 5 5 5 5 5 5 5 5 5 5 5 5 3 5 5 5 3 5 3 5 5 5 5 5 3 5 5 5 5 5 5 3 5 5 5 5 5 5 5 5 5 5 5 5 5 5 5 3 5 5 5 3 5 5 5 3 5 3 5 5 5 3 3 5 5 5 5 5 5 5 5 5 5 5 5 5 5 3 5 5 3 5 5 5 5 5 5 5 5 5 5 5 5 3 5 5 5 5 5 5 5 5 5 3 5 5 5 5 3 3 5 3 5 5 5 3 5 3 5 5 3 5 5 3 5 5 5 5 3 5 5 5 3 5 5 5 5 5 5 5 5 5 5 5 5 3 5 5 5 5 5 5 5 3 3 5 3 5 5 5 5 3 5 5 5 5 5 5 5 5 5 5 5 5 5 3 5 5 5 5 5 3 5 5 5 5 5 3 5 3 5 5 5 3 5 5 5 3 5 5 5 5 5 5 5 5 5 5 5 5 5 5 5 5 5 5 5 3 5 5 5 5 5 5 5 5 5 5 5 3 5 3 5 5 5 5 5 5 5 5 5 5 5 5 5 5 5 5 5 5 5 5 5 5 5 5 5 5 5 5 5 5 5 5 5 5 5 5 3 5 5 5 5 3 5 5 5 5 5 5 5 5 5 3 5 5 5 5 5 5 5 5 5 5 5 5 5 5 3 5 5 3 5 5 5 5 5 3 5 5 5 5 5 5 3 5 3 5 5 3 5 5 5 5 5 5 5 5 3 5 5 5 5 5 5 5 5 5 5 5 3 3 5 5 5 5 3 5 5 5 5 5 5 5 5 3 5 5 3 5 5 5 5 3 5 5 5 5 5 5 5 5 5 5 5 5 5 5 5 5 5 5 5 5 5 5 5 3 5 5 3 5 5 5 5 5 5 5 3 3 3 5 5 5 5 3 5 5 3 5 5 5 5 5 5 5 5 5 5 5 3 5 5 3 5 5 5 5 5 5 3 5 5 5 3 5 5 3 5 5 5 5 5 5 5 5 5 5 5 3 5 3 3 5 5 5 5 5 3 5 5 5 5 5 5 5 3 5 3 5 5 5 5 5 5 5 5 5 5 5 5 5 5 3 5 5 5 3 5 5 5 5 5 5 5 5 5 5 5 3 5 5 3 5 5 5 3 5 5 5 3 3 5 5 3 5 3 5 5 5 5 5 5 5 5 5 5 5 3 5 3 5 5 3 5 5 5 3 5 5 5 5 5 5 5 3 5 5 3 5 5 5 5 3 3 5 3 3 5 3 3 5 3 5 3 5 5 5 5 3 3 3 5 5 5 5 5 5 5 3 5 5 5 3 5 5 3 3 5 5 5 5 3 5 5 5 3 3 5 5 5 5 3 3 3 5 5 5 5 5 5 5 5 3 5 5 5 5 5 5 5 5 5 5 3 5 3 5 5 3 5 5 5 5 5 5 3 5 3 5 5 5 5 5 3 5 5 5 3 5 5 5 5 5 5 5 3 5 5 5 5 5 5 3 5 5 5 5 5 3 5 5 5 5 5 5 5 5 5 5 5 5 5 5 5 5 5 5 5 5 5 5 5 5 5 5 3 5 5 5 5 5 5 5 5 5 3 5 5 5 5 3 3 5 5 5 3 5 5 5 5 5 5 5 5 5 3 5 3 5 5 5 5 5 5 5 3 5 5 5 5 3 5 3 5 5 5 5 5 5 5 5 5 5 5 5 5 5 5 3 5 5 5 5 5 5 5 5 5 5 5 5 5 5 5 5 5 5 5 5 5 5 5 5 5 5 5 5 3 5 5 5 5 3 5 5 5 5 5 3 5 5 5 5 5 3 5 5 5 5 5 5 5 5 5 5 3 5 5 5 5 5 5 5 5 5 5 5 5 5 5 5 5 3 5 5 3 3 5 5 3 5 5 5 5 5 5 5 3 5 5 5 5 5 5 5 5 5 5 5 5 5 5 5 5 5 5 5 5 5 5 5 5 5 5 5 5 5 5 5 5 5 3 5 5 5 3 5 5 5 5 5 5 5 5 5 5 5 5 5 5 5 5 5 5 5 5 5 5 5 5 5 5 5 5 5 5 3 5 5 5 5 3 5 5 5 5 5 5 5 5 5 5 5 5 5 5 5 5 5 5 5 5 5 5 3 5 5 3 5 5 5 5 5 5 3 5 5 5 3 5 5 5 5 3 3 5 5 5 5 5 5 5 5 5 5 3 5 5 3 5 5 5 3 5 5 5 5 5 5 5 5 5 5 5 5 5 5 5 5 5 5 5 5 5 5 5 5 5 5 5 5 5 5 3 5 5 3 5 5 5 5 5 5 3 5 5 3 5 5 3 5 5 5 5 5 5 5 3 5 5 5 5 5 5 3 5 5 3 5 5 5 5 5 5 5 5 5 3 5 5 5 3 5 5 5 3 5 5 5 3 5 5 5 3 5 3 5 5 5 5 5 5 5 5 5 5 3 5 5 3 3 5 5 5 5 5 5 5 3 5 5 5 5 5 5 5 5 3 5 5 5 3 5 5 5 5 5 5 5 5 5 5 5 3 5 5 5 5 5 5 5 5 5 5 5 5 5 5 3 5 5 3 5 5 5 5 5 5 5 5 5 5 3 3 5 5 5 5 5 3 5 5 5 5 5 5 5 5 5 5 5 5 5 5 5 5 5 3 5 5 3 5 3 5 5 5 5 5 3 5 5 5 5 5 5 5 5 5 5 5 5 5 5 5 5 3 5 5 5 5 5 3 5 3 5 3 5 5 5 5 5 5 5 5 5 5 5 5 5 5 5 3 5 5 5 5 5 3 5 5 3 5 5 5 5 5 3 5 5 5 5 5 5 5 3 5 5 5 5 5 3 5 3 5 5 5 3 5 5 5 5 5 5 5 5 5 5 5 5 3 5 5 5 5 5 5 5 5 5 5 5 5 5 5 5 5 5 5 5 5 5 5 5 5 5 5 5 5 5 5 5 5 5 5 5 5 5 5 5 5 5 5 5 5 5 5 5 5 5 5 5 5 5 5 5 5 5 5 5 5 5 5 5 5 5 5 5 5 5 5 5 5 5 5 5 5 5 5 5 5 5 5 5 5 5 5 5 5 5 5 5 5 5 5 5 5 5 5 5 5 5 5 5 5 5 5 5 5 5 5 5 5 5 5 5 5 5 5 5 5 5 5 5 5 5 5 5 5 5 5 5 5 5 5 5 5 5 5 5 5 5 5 5 5 3 5 5 5 5 3 3 5 5 5 5 5 3 5 5 3 5 3 5 5 5 5 5 5 5 3 5 3 5 5 5 5 5 5 5 5 5 5 5 5 5 5 5 5 5 5 5 5 5 5 5 5 5 3 3 5 5 5 3 5 5 5 3 5 5 5 5 5 5 3 5 5 5 5 5 3 5 5 5 5 5 5 5 5 5 3 5 5 5 5 5 5 5 5 5 5 5 5 5 5 5 5 5 5 5 5 3 5 5 5 3 5 5 5 5 5 5 5 5 5 5 5 5 5 5 5 5 3 3 3 5 5 5 3 5 5 5 5 5 5 3 3 5 3 5 5 3 5 3 5 5 5 5 3 5 5 5 3 5 5 5 5 5 5 5 5 5 5 5 3 5 5 5 5 5 5 5 5 5 5 5 5 5 5 5 3 5 5 5 5 5 5 5 5 5 3 3 5 5 5 3 5 5 5 5 5 5 5 5 5 5 3 5 5 5 5 5 3 5 5 3 5 5 5 5 5 5 5 5 3 3 5 5 5 5 5 5 5 5 5 5 5 5 5 5 5 5 5 3 5 5 5 5 3 5 5 5 5 5 5 5 3 5 5 5 5 5 5 5 5 5 3 3 5 5 5 5 5 5 5 5 5 5 5 5 5 5 5 5 5 3 5 5 5 5 5 5 5 5 5 5 5 5 5 5 5 5 5 5 5 5 5 5 5 5 5 5 5 5 5 5 5 5 5 5 5 5 5 5 5 5 5 5 5 5 5 3 5 5 3 5 3 5 5 5 5 3 5 5 5 5 3 5 5 3 5 5 5 3 5 5 5 5 5 5 3 5 5 5 3 5 5 3 5 5 3 5 5 5 5 5 5 5 3 3 5 5 5 3 5 5 5 5 5 5 5 5 5 5 3 5 5 5 5 5 5 3 5 3 5 5 5 5 3 5 5 5 5 3 5 3 5 3 5 5 5 3 5 5 5 5 5 5 5 5 5 5 5 5 5 5 5 5 5 5 5 5 5 5 5 5 5 5 5 5 5 5 5 5 5 5 5 5 5 5 5 5 5 3 5 5 5 5 3 3 5 5 5 5 5 5 5 5 5 3 5 5 5 5 5 5 5 5 5 5 5 5 5 3 3 5 5 3 5 5 3 5 5 5 5 5 5 5 5 5 3 5 5 3 5 5 5 5 5 5 5 5 3 3 5 5 5 3 5 5 5 3 5 3 5 3 5 5 3 5 3 5 5 5 5 5 5 5 3 5 5 5 5 5 3 5 5 5 5 3 5 5 5 5 3 5 5 5 5 5 5 5 3 5 5 5 5 5 5 5 5 3 5 5 5 5 5 5 5 5 5 5 5 5 5 5 5 3 5 5 3 5 5 5 5 5 5 3 5 5 3 5 5 5 5 5 5 5 3 5 5 3 5 5 5 5 5 3 5 5 5 5 5 3 5 5 5 5 5 5 3 5 5 5 3 5 5 3 5 5 5 3 5 3 5 5 5 5 5 3 5 5 5 5 5 5 5 3 5 5 5 5 5 5 5 3 5 5 3 5 5 3 5 3 5 5 5 5 5 5 3 3 5 5 3 3 5 5 5 5 5 5 5 5 5 5 5 5 5 5 5 5 5 5 5 5 5 5 5 5 3 5 5 3 5 5 5 3 5 3 5 5 5 3 5 3 5 5 3 5 5 3 5 5 5 3 5 5 5 5 5 5 5 5 5 5 3 5 3 5 5 5 5 3 5 5 3 5 5 5 5 5 5 3 5 5 5 5 5 5 3 5 5 5 5 5 5 5 3 5 5 3 3 5 5 5 5 5 3 5 5 5 5 5 5 5 5 5 5 5 5 5 5 5 5 5 3 5 5 5 3 5 5 5 5 5 5 5 5 5 5 5 5 5 5 3 5 3 5 5 5 5 5 5 5 5 5 5 5 5 5 5 5 3 5 5 5 5 5 3 5 5 5 3 5 5 5 5 5 3 5 5 3 5 5 5 5 5 5 5 5 5 3 5 5 5 5 3 5 3 5 3 3 5 5 5 5 5 5 3 5 5 5 5 5 5 5 5 5 3 5 5 5 5 5 5 5 5 5 5 5 5 5 5 5 5 3 5 5 3 5 5 5 5 5 3 3 5 5 5 5 5 5 5 5 5 5 3 5 5 5 5 3 5 5 5 5 5 5 5 5 3 5 5 3 5 5 5 3 5 5 5 5 5 5 5 5 5 5 5 5 5 5 5 5 3 5 5 5 5 5 5 5 5 5 5 5 5 3 3 5 5 5 5 5 5 3 5 5 5 5 5 5 5 5 3 5 5 5 3 5 5 5 5 5 3 5 5 3 5 5 5 5 5 3 5 5 3 5 3 3 5 5 3 5 5 3 3 5 5 5 5 5 5 3 5 5 5 3 5 3 5 3 5 5 5 5 5 5 5 5 5 5 5 5 5 5 5 3 5 5 5 5 5 5 5 5 5 3 5 5 5 5 5 3 5 5 3 5 5 5 5 3 5 3 5 3 5 5 5 5 3 5 5 3 5 5 5 5 3 3 5 5 3 5 5 3 3 5 5 5 5 5 5 5 3 5 5 5 5 5 5 5 3 5 5 5 5 5 5 3 5 5 5 5 5 5 3 5 5 5 5 3 5 5 5 5 5 5 5 5 5 5 5 3 5 5 5 5 5 3 5 5 5 3 3 5 3 5 5 3 5 5 5 3 3 5 5 3 3 5 5 5 5 3 5 5 5 3 5 5 5 5 5 5 5 5 5 5 5 5 5 3 5 5 5 5 5 3 5 5 5 5 5 5 5 5 5 5 5 5 5 5 5 5 5 5 5 5 5 5 3 5 5 5 5 5 5 5 3 5 5 5 5 3 3 5 5 5 5 5 5 5 5 5 5 5 5 5 5 3 5 5 5 5 5 3 5 5 3 5 5 3 5 3 5 5 5 3 5 5 5 5 5 5 5 3 3 5 5 5 5 5 5 5 3 5 5 5 5 3 3 5 3 5 5 3 5 5 5 5 5 3 5 5 5 5 5 5 3 5 5 5 5 5 5 5 3 5 3 5 5 5 5 5 5 5 5 5 5 5 5 3 5 5 5 5 5 5 3 5 5 3 3 5 5 5 5 5 5 5 3 5 5 3 3 3 5 5 5 3 5 5 3 3 5 5 5 5 3 5 5 5 5 5 5 5 5 5 5 5 3 5 5 5 5 5 5 5 5 5 3 5 3 5 5 5 5 5 5 5 5 5 5 5 5 5 5 5 3 5 5 5 5 5 5 5 5 5 5 5 3 5 5 5 5 5 5 5 5 5 5 5 5 5 5 5 5 5 5 5 5 5 5 5 5 5 5 5 5 5 5 5 5 5 5 5 5 5 5 5 5 5 5 3 5 5 3 5 3 5 5 5 5 3 5 5 5 5 3 5 5 5 5 5 3 3 5 3 3 5 5 5 5 5 5 5 5 5 5 5 5 5 5 3 5 3 5 3 5 5 5 5 5 5 5 5 5 5 5 5 5 5 5 5 5 5 5 5 5 5 5 5 5 5 5 5 3 3 5 3 5 5 5 5 5 5 5 5 5 5 5 5 5 5 5 3 3 5 5 5 5 5 5 5 5 5 3 5 5 3 5 5 5 5 5 3 5 3 5 5 5 5 5 5 5 5 5 5 5 5 5 5 5 5 5 5 5 5 5 5 5 5 5 5 5 5 5 5 5 5 5 5 5 5 5 5 5 5 5 5 5 5 5 5 5 5 5 5 5 5 5 5 5 5 5 5 3 5 5 5 5 5 5 5 5 3 5 5 5 5 3 5 3 5 5 5 5 3 3 5 5 5 5 5 5 5 5 5 5 5 5 5 5 5 5 5 5 5 5 5 5 5 5 3 5 5 5 5 5 5 3 5 5 5 5 5 5 5 5 5 5 5 5 3 5 5 5 5 5 5 3 5 5 5 5 5 5 5 5 3 5 5 5 5 5 5 5 5 5 5 5 5 5 5 3 3 5 5 3 5 3 5 5 5 3 3 5 5 3 5 5 5 5 5 5 5 5 5 3 5 5 5 5 5 5 5 5 5 5 5 5 3 5 5 5 3 5 5 3 5 5 3 3 3 5 5 5 5 3 5 3 5 3 5 5 5 5 5 5 5 3 5 5 3 3 3 5 3 5 5 5 5 3 5 5 5 5 5 5 5 5 3 5 5 3 5 5 5 5 5 3 5 5 5 5 3 3 5 5 5 3 5 5 5 5 5 5 3 5 5 5 5 5 5 3 5 5 5 5 5 5 3 5 5 5 5 5 5 5 5 5 5 5 5 5 5 5 5 5 5 5 5 5 5 5 5 5 5 5 5 5 5 5 5 5 5 5 5 5 5 5 5 5 5 5 5 5 5 5 5 5 5 5 5 3 5 5 5 5 5 5 3 5 5 5 5 5 5 5 5 5 5 5 5 5 3 5 5 5 3 5 5 5 5 5 5 5 5 5 5 5 5 5 5 5 5 5 5 5 5 5 5 5 5 5 5 5 3 5 5 5 3 5 5 5 5 3 5 3 5 5 5 5 5 3 5 3 5 5 5 5 5 5 5 5 5 5 5 5 5 5 5 5 5 5 5 5 5 3 5 5 5 5 5 5 5 5 5 5 5 5 5 3 5 5 5 3 5 3 5 5 5 5 5 5 5 5 5 5 3 5 5 3 5 5 3 5 5 5 5 5 5 5 5 5 5 5 5 5 5 5 5 5 5 5 5 5 5 5 5 5 5 5 3 5 5 5 3 5 5 5 5 3 5 5 5 3 
</DataArray>
</Cells>
<PointData Scalars="" Vectors="displacement," Tensors="">
<DataArray type="Float64" Name="displacement" NumberOfComponents="3" format="ascii">
-5.3410519369894044e-08 -0.0349999844257982 0 -8.7545984713306775e-05 -0.034984252784582878 0 -8.2548580286309276e-05 -0.034990575510210793 0 2.1172965490708218e-08 -0.03499946815074724 0 -5.1587061407264671e-08 -0.034999653965115923 0 -1.3914565711688358e-05 -0.033363441307433475 0 -8.5762950745763517e-08 -0.034999586361005787 0 -0.00027558728529196457 -0.034394497719891122 0 -5.1587061407264671e-08 -0.034999653965115923 0 -1.3914565711688358e-05 -0.033363441307433475 0 -5.7635559686190247e-08 -0.03179263732673928 0 -8.7545984713306775e-05 -0.034984252784582878 0 -8.2548580286309276e-05 -0.034990575510210793 0 -0.00011235634998424863 -0.034961097702002085 0 -5.3410519369894044e-08 -0.0349999844257982 0 -8.2548580286309276e-05 -0.034990575510210793 0 -1.1613434142287633e-07 -0.03500013353900229 0 -8.2548580286309276e-05 -0.034990575510210793 0 -1.1613434142287633e-07 -0.03500013353900229 0 -0.00025516851142281578 -0.034974366841290537 0 -8.2548580286309276e-05 -0.034990575510210793 0 -0.00025516851142281578 -0.034974366841290537 0 -0.00011235634998424863 -0.034961097702002085 0 -1.1613434142287633e-07 -0.03500013353900229 0 -0.00025516851142281578 -0.034974366841290537 0 1.6719180549072085e-08 -0.034999508822556986 0 0.00035526538406944515 -0.029859918065531305 0 0.0014820280689640131 -0.028016128644596551 0 0.0014329255164432515 -0.031514677918693244 0 -0.001046210122086159 -0.030752624634260883 0 0.00035526538406944515 -0.029859918065531305 0 0.00010532887799387913 -0.032409139307736458 0 -0.001046210122086159 -0.030752624634260883 0 0.00035526538406944515 -0.029859918065531305 0 -0.00017451716398103929 -0.028040046543249427 0 -0.00056503122854285144 -0.032849693549488752 0 -0.00016454611828424281 -0.03146598566578819 0 0.00035526538406944515 -0.029859918065531305 0 -0.00017451716398103929 -0.028040046543249427 0 0.0014820280689640131 -0.028016128644596551 0 -0.00017451716398103929 -0.028040046543249427 0 0.00059098077386178971 -0.027029417594905392 0 0.0011072631187177006 -0.027379830368781152 0 -0.00017451716398103929 -0.028040046543249427 0 0.0011072631187177006 -0.027379830368781152 0 0.0014820280689640131 -0.028016128644596551 0 -0.00016454611828424281 -0.03146598566578819 0 0.00044099058723773976 -0.031309897238551078 0 -0.00027558728529196457 -0.034394497719891122 0 0.00044099058723773976 -0.031309897238551078 0 -8.7545984713306775e-05 -0.034984252784582878 0 -0.00011235634998424863 -0.034961097702002085 0 -8.3513250502967014e-05 -0.034933646765110946 0 -1.3914565711688358e-05 -0.033363441307433475 0 -5.7635559686190247e-08 -0.03179263732673928 0 2.6320658343455891e-05 -0.031764899425783082 0 3.8315760751214921e-06 -0.031508874866697741 0 1.7145168591093359e-08 -0.031454869358528287 0 -9.8952064119100003e-07 -0.029543439007916408 0 0.00044099058723773976 -0.031309897238551078 0 0.00029204386757267887 -0.031499371375092275 0 -5.7635559686190247e-08 -0.03179263732673928 0 2.6320658343455891e-05 -0.031764899425783082 0 1.9680452258507563e-07 -0.031456295781207136 0 0.00059098077386178971 -0.027029417594905392 0 0.0010606082004217445 -0.027350580720416559 0 0.0011072631187177006 -0.027379830368781152 0 0.00044099058723773976 -0.031309897238551078 0 0.00036150952500208129 -0.028156458464846778 0 1.7145168591093359e-08 -0.031454869358528287 0 -9.8952064119100003e-07 -0.029543439007916408 0 -1.5343735296735833e-09 -0.027456167185363735 0 0.00036150952500208129 -0.028156458464846778 0 -1.4144193854273598e-07 -0.027455713088461776 0 0.0010606082004217445 -0.027350580720416559 0 0.0011072631187177006 -0.027379830368781152 0 0.00071420143512376886 -0.026820944403606668 0 0.0010606082004217445 -0.027350580720416559 0 1.6290844286932491e-06 -0.027452098365993435 0 0.00071420143512376886 -0.026820944403606668 0 0.0011072631187177006 -0.027379830368781152 0 0.00071420143512376886 -0.026820944403606668 0 0.0014820280689640131 -0.028016128644596551 0 1.6290844286932491e-06 -0.027452098365993435 0 -0.00014641617540696013 -0.026104772014237727 0 -9.4035022565009238e-07 -0.025406073998068421 0 1.6290844286932491e-06 -0.027452098365993435 0 0.00071420143512376886 -0.026820944403606668 0 -0.00014641617540696013 -0.026104772014237727 0 0.00071420143512376886 -0.026820944403606668 0 -0.00014641617540696013 -0.026104772014237727 0 -9.3478320633318915e-05 -0.025779574112036997 0 0.00040543381776077605 -0.026149934326628998 0 0.00094046615473966058 -0.025906089990442353 0 0.00031938075224801515 -0.025089519047268392 0 0.00071420143512376886 -0.026820944403606668 0 -9.3478320633318915e-05 -0.025779574112036997 0 0.00040543381776077605 -0.026149934326628998 0 -9.3478320633318915e-05 -0.025779574112036997 0 0.00040543381776077605 -0.026149934326628998 0 -0.00010424420424687397 -0.025375873412183777 0 0.00071420143512376886 -0.026820944403606668 0 0.00040543381776077605 -0.026149934326628998 0 0.0014820280689640131 -0.028016128644596551 0 0.00040543381776077605 -0.026149934326628998 0 0.0014820280689640131 -0.028016128644596551 0 0.00094046615473966058 -0.025906089990442353 0 0.0014637248891375958 -0.027947771262575083 0 0.0018962765086091352 -0.028344891103534713 0 0.0014820280689640131 -0.028016128644596551 0 0.0030207632199607572 -0.030824421020930821 0 0.0014329255164432515 -0.031514677918693244 0 0.0030207632199607572 -0.030824421020930821 0 0.0014329255164432515 -0.031514677918693244 0 0.0025187696807748628 -0.032242749074131792 0 0.0030207632199607572 -0.030824421020930821 0 0.0025187696807748628 -0.032242749074131792 0 0.00337150789230671 -0.032405762822225674 0 0.002630346030926919 -0.0331257766765536 0 0.0025187696807748628 -0.032242749074131792 0 0.00337150789230671 -0.032405762822225674 0 0.002630346030926919 -0.0331257766765536 0 0.0025187696807748628 -0.032242749074131792 0 0.0017460637396672651 -0.033078050255653108 0 0.0014329255164432515 -0.031514677918693244 0 0.0025187696807748628 -0.032242749074131792 0 0.0017460637396672651 -0.033078050255653108 0 0.00040543381776077605 -0.026149934326628998 0 -0.00010424420424687397 -0.025375873412183777 0 0.00031938075224801515 -0.025089519047268392 0 -0.00010424420424687397 -0.025375873412183777 0 0.00031938075224801515 -0.025089519047268392 0 -7.6690365465345025e-05 -0.024744673574169491 0 0.0018962765086091352 -0.028344891103534713 0 0.0017977881782089099 -0.028681209458655356 0 0.002630346030926919 -0.0331257766765536 0 0.00337150789230671 -0.032405762822225674 0 0.0032109551075054656 -0.033343823421261784 0 0.0017977881782089099 -0.028681209458655356 0 0.0020988286694748003 -0.029186759706866329 0 0.00337150789230671 -0.032405762822225674 0 0.0037909845874416776 -0.0333466713792075 0 0.0032109551075054656 -0.033343823421261784 0 0.0037909845874416776 -0.0333466713792075 0 0.0032109551075054656 -0.033343823421261784 0 0.0035520814213143028 -0.033873822471682663 0 0.0032109551075054656 -0.033343823421261784 0 0.0026530649782226263 -0.033979721249304345 0 0.0035520814213143028 -0.033873822471682663 0 0.002630346030926919 -0.0331257766765536 0 0.0032109551075054656 -0.033343823421261784 0 0.0026530649782226263 -0.033979721249304345 0 0.0026530649782226263 -0.033979721249304345 0 0.0035520814213143028 -0.033873822471682663 0 0.0032747928719616972 -0.034385434009492233 0 0.0026530649782226263 -0.033979721249304345 0 0.0022266219837787137 -0.034462330588154101 0 0.0024628692772610595 -0.034515830187757959 0 0.002485473556093464 -0.033869982372829503 0 0.0032152864221918708 -0.034835074760219707 0 0.0035520814213143028 -0.033873822471682663 0 0.0037971629958811325 -0.034272627166431861 0 0.0032747928719616972 -0.034385434009492233 0 0.0017460637396672651 -0.033078050255653108 0 0.0020974952175943965 -0.033850945497911879 0 0.0013163309540959458 -0.033899381913383424 0 0.002630346030926919 -0.0331257766765536 0 0.0026530649782226263 -0.033979721249304345 0 0.0020974952175943965 -0.033850945497911879 0 0.002630346030926919 -0.0331257766765536 0 0.0017460637396672651 -0.033078050255653108 0 0.0020974952175943965 -0.033850945497911879 0 0.0020974952175943965 -0.033850945497911879 0 0.0017225013633847266 -0.034369475648780269 0 0.0022266219837787137 -0.034462330588154101 0 0.0026530649782226263 -0.033979721249304345 0 0.0020974952175943965 -0.033850945497911879 0 0.0022266219837787137 -0.034462330588154101 0 0.0020974952175943965 -0.033850945497911879 0 0.0017225013633847266 -0.034369475648780269 0 0.0013163309540959458 -0.033899381913383424 0 0.0017225013633847266 -0.034369475648780269 0 0.0010520172973535837 -0.034467666198130041 0 0.0013163309540959458 -0.033899381913383424 0 0.0010520172973535837 -0.034467666198130041 0 0.0013163309540959458 -0.033899381913383424 0 0.0004564692844794942 -0.034114671721534116 0 0.0013163309540959458 -0.033899381913383424 0 0.0004564692844794942 -0.034114671721534116 0 0.00078513807359138993 -0.033232801163756306 0 0.0017460637396672651 -0.033078050255653108 0 0.0013163309540959458 -0.033899381913383424 0 0.00078513807359138993 -0.033232801163756306 0 0.0004564692844794942 -0.034114671721534116 0 -5.5828363537019947e-05 -0.034444013178767573 0 4.2908713496357587e-05 -0.033846360813373839 0 0.0004564692844794942 -0.034114671721534116 0 0.00078513807359138993 -0.033232801163756306 0 4.2908713496357587e-05 -0.033846360813373839 0 0.0010520172973535837 -0.034467666198130041 0 0.0004564692844794942 -0.034114671721534116 0 0.00042625599041398927 -0.034653823244850855 0 0.0004564692844794942 -0.034114671721534116 0 -5.5828363537019947e-05 -0.034444013178767573 0 0.00042625599041398927 -0.034653823244850855 0 1.9433752644847605e-05 -0.034758943127915665 0 -5.5828363537019947e-05 -0.034444013178767573 0 0.00042625599041398927 -0.034653823244850855 0 1.9433752644847605e-05 -0.034758943127915665 0 -5.3869550244001711e-07 -0.034998584662746447 0 1.2607575623766107e-07 -0.034999884279208755 0 -5.3869550244001711e-07 -0.034998584662746447 0 -5.5828363537019947e-05 -0.034444013178767573 0 -0.00044633839765809076 -0.034258820163358371 0 1.9433752644847605e-05 -0.034758943127915665 0 -5.3869550244001711e-07 -0.034998584662746447 0 -5.5828363537019947e-05 -0.034444013178767573 0 -5.5828363537019947e-05 -0.034444013178767573 0 -0.00044633839765809076 -0.034258820163358371 0 4.2908713496357587e-05 -0.033846360813373839 0 -0.00044633839765809076 -0.034258820163358371 0 0.00010532887799387913 -0.032409139307736458 0 4.2908713496357587e-05 -0.033846360813373839 0 -5.3869550244001711e-07 -0.034998584662746447 0 -0.00044633839765809076 -0.034258820163358371 0 1.6719180549072085e-08 -0.034999508822556986 0 -0.00025516851142281578 -0.034974366841290537 0 -0.00044633839765809076 -0.034258820163358371 0 1.6719180549072085e-08 -0.034999508822556986 0 -0.00056503122854285144 -0.032849693549488752 0 -0.00049941164930394596 -0.03404211317827005 0 -0.001046210122086159 -0.030752624634260883 0 -0.00044633839765809076 -0.034258820163358371 0 0.00010532887799387913 -0.032409139307736458 0 0.00035526538406944515 -0.029859918065531305 0 0.0014329255164432515 -0.031514677918693244 0 0.00010532887799387913 -0.032409139307736458 0 0.0014329255164432515 -0.031514677918693244 0 0.00010532887799387913 -0.032409139307736458 0 0.00078513807359138993 -0.033232801163756306 0 0.0014329255164432515 -0.031514677918693244 0 0.0017460637396672651 -0.033078050255653108 0 0.00078513807359138993 -0.033232801163756306 0 0.00010532887799387913 -0.032409139307736458 0 0.00078513807359138993 -0.033232801163756306 0 4.2908713496357587e-05 -0.033846360813373839 0 -0.0015391706137788358 -0.01731846862455548 0 -0.0020154426928165096 -0.018172316718018746 0 -0.001059537914261686 -0.017909759691204452 0 -0.00027885114337405578 -0.022449339362556549 0 -0.0017233049370779996 -0.023421168641488393 0 -0.0019372235629152839 -0.021434661200695804 0 -0.0019852737733722699 -0.021754002191826903 0 -0.0018489842572096819 -0.021709704381275476 0 -0.0023082880196055385 -0.017389487345872586 0 -0.0015391706137788358 -0.01731846862455548 0 -0.0020154426928165096 -0.018172316718018746 0 -0.0019372235629152839 -0.021434661200695804 0 -0.0019868957242971507 -0.021439518428584377 0 -0.0019852737733722699 -0.021754002191826903 0 -0.0009058079033182736 -0.019769312238219018 0 -0.0020768201318513866 -0.01983415048512149 0 -0.0009058079033182736 -0.019769312238219018 0 -0.00096405296510872728 -0.017310405035938101 0 0.00018384844807099843 -0.01766575034549684 0 -0.00035685984255329206 -0.017607072891552271 0 -0.00019593305017374298 -0.018069294610282453 0 0.00018384844807099843 -0.01766575034549684 0 0.00012700843952087682 -0.018190478913731312 0 -0.00019593305017374298 -0.018069294610282453 0 -0.0009058079033182736 -0.019769312238219018 0 0.00051584721015397804 -0.020127986482052915 0 0.00031693263567026682 -0.020867958793433096 0 0.00012069898131994806 -0.02034742893384528 0 0.00014750248161331258 -0.020878569624353752 0 -0.0009058079033182736 -0.019769312238219018 0 -0.00027885114337405578 -0.022449339362556549 0 0.00018384844807099843 -0.01766575034549684 0 0.00012700843952087682 -0.018190478913731312 0 0.00044580469128421797 -0.018132731797967063 0 0.00012700843952087682 -0.018190478913731312 0 0.00050372130878696859 -0.018443002357007063 0 0.00044580469128421797 -0.018132731797967063 0 -0.00035685984255329206 -0.017607072891552271 0 -0.00019593305017374298 -0.018069294610282453 0 -0.00035912573051963455 -0.017479232140770608 0 -0.00019841076300268086 -0.018066699953589668 0 -0.00019593305017374298 -0.018069294610282453 0 -0.00035912573051963455 -0.017479232140770608 0 -0.00019841076300268086 -0.018066699953589668 0 5.1093452226082911e-07 -0.019256903699229676 0 -7.9621731170717786e-07 -0.017207238882962689 0 5.1093452226082911e-07 -0.019256903699229676 0 4.6669859814475996e-06 -0.019035535128769251 0 0.00063198481269909578 -0.020580943445509321 0 -0.00019841076300268086 -0.018066699953589668 0 5.1093452226082911e-07 -0.019256903699229676 0 4.6669859814475996e-06 -0.019035535128769251 0 -0.00019841076300268086 -0.018066699953589668 0 4.6669859814475996e-06 -0.019035535128769251 0 -0.00019593305017374298 -0.018069294610282453 0 4.6669859814475996e-06 -0.019035535128769251 0 0.00010710996430742577 -0.018830179037235641 0 0.00063198481269909578 -0.020580943445509321 0 4.6669859814475996e-06 -0.019035535128769251 0 -0.00019593305017374298 -0.018069294610282453 0 0.00010710996430742577 -0.018830179037235641 0 0.00012700843952087682 -0.018190478913731312 0 -0.00019593305017374298 -0.018069294610282453 0 0.00010710996430742577 -0.018830179037235641 0 0.00012700843952087682 -0.018190478913731312 0 0.00010710996430742577 -0.018830179037235641 0 0.00050372130878696859 -0.018443002357007063 0 0.0008300958583987826 -0.020536201323133899 0 0.00051584721015397804 -0.020127986482052915 0 0.00054321901521332643 -0.022025934680625459 0 0.0003163655715180218 -0.022873411775681318 0 0.0015813106421120888 -0.022882974843432824 0 0.00050372130878696859 -0.018443002357007063 0 0.00063198481269909578 -0.020580943445509321 0 0.00069063704704017061 -0.017692302940917934 0 0.00054321901521332643 -0.022025934680625459 0 0.00063198481269909578 -0.020580943445509321 0 0.0015813106421120888 -0.022882974843432824 0 0.00010710996430742577 -0.018830179037235641 0 0.00050372130878696859 -0.018443002357007063 0 0.00063198481269909578 -0.020580943445509321 0 5.1093452226082911e-07 -0.019256903699229676 0 0.00063198481269909578 -0.020580943445509321 0 6.7748281952652755e-07 -0.021306615837095862 0 0.00063198481269909578 -0.020580943445509321 0 6.7748281952652755e-07 -0.021306615837095862 0 6.6330441416672847e-06 -0.022121704573639805 0 0.00054321901521332643 -0.022025934680625459 0 0.00063198481269909578 -0.020580943445509321 0 6.6330441416672847e-06 -0.022121704573639805 0 6.6330441416672847e-06 -0.022121704573639805 0 0.0003163655715180218 -0.022873411775681318 0 -0.00024312843082817168 -0.023561714874592597 0 0.00054321901521332643 -0.022025934680625459 0 6.6330441416672847e-06 -0.022121704573639805 0 0.0003163655715180218 -0.022873411775681318 0 0.0003163655715180218 -0.022873411775681318 0 -5.9312800110780538e-05 -0.023878805020656545 0 -0.00024312843082817168 -0.023561714874592597 0 0.0003163655715180218 -0.022873411775681318 0 0.0015496143333171054 -0.02371982978343859 0 -5.9312800110780538e-05 -0.023878805020656545 0 0.0003163655715180218 -0.022873411775681318 0 0.0015813106421120888 -0.022882974843432824 0 0.0015496143333171054 -0.02371982978343859 0 0.00047549474365326497 -0.019119627331229443 0 0.00051584721015397804 -0.020127986482052915 0 0.00051584721015397804 -0.020127986482052915 0 -0.00027885114337405578 -0.022449339362556549 0 -0.0011189266127360233 -0.02518169414200323 0 -0.0010761540646079255 -0.025040513058497523 0 -0.0012193899044069258 -0.024917289784354431 0 -0.00027885114337405578 -0.022449339362556549 0 -0.00032598884049273209 -0.024818866528619178 0 -0.0011189266127360233 -0.02518169414200323 0 -0.0010761540646079255 -0.025040513058497523 0 -0.00094339651234972937 -0.02505725708678154 0 -0.0010761540646079255 -0.025040513058497523 0 -0.00094339651234972937 -0.02505725708678154 0 -0.0010677447464426148 -0.024980562343880616 0 -0.0011189266127360233 -0.02518169414200323 0 -0.00094339651234972937 -0.02505725708678154 0 -0.00078443248625942384 -0.025107165482514845 0 -0.00094339651234972937 -0.02505725708678154 0 -0.00078443248625942384 -0.025107165482514845 0 -0.00082042830226611676 -0.024997415598017381 0 -0.00078443248625942384 -0.025107165482514845 0 -0.00049661552382330196 -0.024864013035283176 0 -0.00067308555262819041 -0.024944903231899542 0 -0.00078443248625942384 -0.025107165482514845 0 -0.00067308555262819041 -0.024944903231899542 0 -0.00082042830226611676 -0.024997415598017381 0 -0.00032598884049273209 -0.024818866528619178 0 -0.00060695526878785347 -0.024723401665321013 0 -0.00049661552382330196 -0.024864013035283176 0 -0.00024312843082817168 -0.023561714874592597 0 -0.00037042536725401801 -0.024985586402587013 0 -5.9312800110780538e-05 -0.023878805020656545 0 -0.00049661552382330196 -0.024864013035283176 0 -0.00024312843082817168 -0.023561714874592597 0 6.6330441416672847e-06 -0.022121704573639805 0 -0.00024312843082817168 -0.023561714874592597 0 -6.4122764754060885e-07 -0.023356098346299124 0 6.7748281952652755e-07 -0.021306615837095862 0 6.6330441416672847e-06 -0.022121704573639805 0 -6.4122764754060885e-07 -0.023356098346299124 0 -0.00024312843082817168 -0.023561714874592597 0 -6.4122764754060885e-07 -0.023356098346299124 0 -0.00037042536725401801 -0.024985586402587013 0 -6.4122764754060885e-07 -0.023356098346299124 0 -0.00037042536725401801 -0.024985586402587013 0 -9.4035022565009238e-07 -0.025406073998068421 0 -0.00014641617540696013 -0.026104772014237727 0 -0.00037042536725401801 -0.024985586402587013 0 -9.4035022565009238e-07 -0.025406073998068421 0 -0.00014641617540696013 -0.026104772014237727 0 -9.3478320633318915e-05 -0.025779574112036997 0 -0.00037042536725401801 -0.024985586402587013 0 -9.3478320633318915e-05 -0.025779574112036997 0 -0.00037042536725401801 -0.024985586402587013 0 -0.00038668486903521894 -0.025230497116975927 0 -0.00049661552382330196 -0.024864013035283176 0 -0.00037042536725401801 -0.024985586402587013 0 -0.00038668486903521894 -0.025230497116975927 0 -0.00049661552382330196 -0.024864013035283176 0 -0.00038668486903521894 -0.025230497116975927 0 -0.00056941346367696678 -0.024998978715259867 0 -9.3478320633318915e-05 -0.025779574112036997 0 -0.00010424420424687397 -0.025375873412183777 0 -0.00038668486903521894 -0.025230497116975927 0 -0.00010424420424687397 -0.025375873412183777 0 -7.6690365465345025e-05 -0.024744673574169491 0 -0.00036662473412659542 -0.02498790920534457 0 -0.00010424420424687397 -0.025375873412183777 0 -0.00038668486903521894 -0.025230497116975927 0 -0.00036662473412659542 -0.02498790920534457 0 -0.00038668486903521894 -0.025230497116975927 0 -0.00056941346367696678 -0.024998978715259867 0 -0.00036662473412659542 -0.02498790920534457 0 -0.00056941346367696678 -0.024998978715259867 0 -0.00036662473412659542 -0.02498790920534457 0 -0.00055290699096871945 -0.02471126986885341 0 -7.6690365465345025e-05 -0.024744673574169491 0 -0.00033347510050741198 -0.024728672828331563 0 -0.00035104118751995509 -0.02453610964962295 0 -7.6690365465345025e-05 -0.024744673574169491 0 -0.00036662473412659542 -0.02498790920534457 0 -0.00033347510050741198 -0.024728672828331563 0 0.0020988286694748003 -0.029186759706866329 0 0.00074970200844158032 -0.028808799709142976 0 0.0037909845874416776 -0.0333466713792075 0 0.0035520814213143028 -0.033873822471682663 0 0.004373568962456751 -0.034062505796597205 0 0.0035520814213143028 -0.033873822471682663 0 0.0037971629958811325 -0.034272627166431861 0 0.004373568962456751 -0.034062505796597205 0 0.00074970200844158032 -0.028808799709142976 0 -0.00085200667515457579 -0.024458121041042065 0 -0.0016670938360232198 -0.025489957793841465 0 -0.0012294095516478408 -0.025416255919765745 0 -0.0014565319234694249 -0.025600699024410339 0 -0.0016670938360232198 -0.025489957793841465 0 -0.0012294095516478408 -0.025416255919765745 0 -0.0012188962802642581 -0.025045536848870321 0 -0.0012294095516478408 -0.025416255919765745 0 -0.0014565319234694249 -0.025600699024410339 0 -0.0014129011570714143 -0.025752826804944454 0 -0.0016670938360232198 -0.025489957793841465 0 -0.0014565319234694249 -0.025600699024410339 0 -0.0016086731602403528 -0.025737685230313341 0 -0.00036662473412659542 -0.02498790920534457 0 -0.00033347510050741198 -0.024728672828331563 0 -0.00055290699096871945 -0.02471126986885341 0 -0.00033347510050741198 -0.024728672828331563 0 -0.00035104118751995509 -0.02453610964962295 0 -0.00055290699096871945 -0.02471126986885341 0 -0.0012188962802642581 -0.025045536848870321 0 -0.0009368973330695123 -0.025136005783028176 0 -0.00076566933706594955 -0.024863225967195444 0 -0.00085200667515457579 -0.024458121041042065 0 -0.00086018126242434301 -0.024992378940970335 0 -0.0012294095516478408 -0.025416255919765745 0 -0.0012188962802642581 -0.025045536848870321 0 -0.0009368973330695123 -0.025136005783028176 0 -0.0012294095516478408 -0.025416255919765745 0 -0.00088500255080761216 -0.025390914910452044 0 -0.0011049844915659447 -0.025904063780923175 0 -0.0012294095516478408 -0.025416255919765745 0 -0.0009368973330695123 -0.025136005783028176 0 -0.00088500255080761216 -0.025390914910452044 0 -0.00061384499586163057 -0.024976998772102018 0 -0.0013770057055081315 -0.025484765600408587 0 -0.00088500255080761216 -0.025390914910452044 0 -0.00071930338216937223 -0.024996321776964557 0 -0.00046668548944217233 -0.025543289610157366 0 -0.0009368973330695123 -0.025136005783028176 0 -0.00088500255080761216 -0.025390914910452044 0 -0.00071930338216937223 -0.024996321776964557 0 -0.0009368973330695123 -0.025136005783028176 0 -0.00071930338216937223 -0.024996321776964557 0 -0.00076566933706594955 -0.024863225967195444 0 -0.00076383237788603267 -0.024887713412934564 0 -0.00076566933706594955 -0.024863225967195444 0 -0.00067308555262819041 -0.024944903231899542 0 -0.00071930338216937223 -0.024996321776964557 0 -0.00076383237788603267 -0.024887713412934564 0 -0.0008194114441919363 -0.024898427669742113 0 -0.00071930338216937223 -0.024996321776964557 0 -0.00076383237788603267 -0.024887713412934564 0 -0.00076566933706594955 -0.024863225967195444 0 -0.00056941346367696678 -0.024998978715259867 0 -0.00055290699096871945 -0.02471126986885341 0 -0.00076566933706594955 -0.024863225967195444 0 -0.00056941346367696678 -0.024998978715259867 0 -0.00076566933706594955 -0.024863225967195444 0 -0.00067308555262819041 -0.024944903231899542 0 -0.00049661552382330196 -0.024864013035283176 0 -0.00056941346367696678 -0.024998978715259867 0 -0.00067308555262819041 -0.024944903231899542 0 -0.00067308555262819041 -0.024944903231899542 0 -0.0008189041886827417 -0.024921148361348251 0 -0.00082042830226611676 -0.024997415598017381 0 -0.00076383237788603267 -0.024887713412934564 0 -0.00067308555262819041 -0.024944903231899542 0 -0.0008189041886827417 -0.024921148361348251 0 -0.0008189041886827417 -0.024921148361348251 0 -0.0009176174091269113 -0.02496405367403837 0 -0.00089592910686891656 -0.024907194644752093 0 -0.0009176174091269113 -0.02496405367403837 0 -0.0010012958536701588 -0.024933796707888745 0 -0.00089592910686891656 -0.024907194644752093 0 -0.0008189041886827417 -0.024921148361348251 0 -0.00082042830226611676 -0.024997415598017381 0 -0.0009176174091269113 -0.02496405367403837 0 -0.00094339651234972937 -0.02505725708678154 0 -0.00082042830226611676 -0.024997415598017381 0 -0.0009176174091269113 -0.02496405367403837 0 -0.0009176174091269113 -0.02496405367403837 0 -0.0010677447464426148 -0.024980562343880616 0 -0.0010012958536701588 -0.024933796707888745 0 -0.001201127572231449 -0.024913280871352705 0 -0.0016278369773937357 -0.024812823543723373 0 -0.0012193899044069258 -0.024917289784354431 0 -0.00094339651234972937 -0.02505725708678154 0 -0.0009176174091269113 -0.02496405367403837 0 -0.0010677447464426148 -0.024980562343880616 0 -0.0010677447464426148 -0.024980562343880616 0 -0.001201127572231449 -0.024913280871352705 0 -0.0010012958536701588 -0.024933796707888745 0 -0.0010761540646079255 -0.025040513058497523 0 -0.0010677447464426148 -0.024980562343880616 0 -0.0012193899044069258 -0.024917289784354431 0 -0.0010677447464426148 -0.024980562343880616 0 -0.001201127572231449 -0.024913280871352705 0 -0.0012193899044069258 -0.024917289784354431 0 -0.0010012958536701588 -0.024933796707888745 0 -0.00096109091136647356 -0.024898460537904052 0 -0.00089592910686891656 -0.024907194644752093 0 -0.001201127572231449 -0.024913280871352705 0 -0.0010012958536701588 -0.024933796707888745 0 -0.00096109091136647356 -0.024898460537904052 0 -0.0012397308234685235 -0.02494740548370724 0 -0.0012708004742396123 -0.024868970096261888 0 -0.001201127572231449 -0.024913280871352705 0 -0.0016278369773937357 -0.024812823543723373 0 -0.0017175547135125722 -0.024793990311484493 0 -0.001201127572231449 -0.024913280871352705 0 -0.00096109091136647356 -0.024898460537904052 0 -0.00085858545535604609 -0.024879643924282404 0 -0.00096109091136647356 -0.024898460537904052 0 -0.00087711689379485296 -0.024888958786668899 0 -0.00089592910686891656 -0.024907194644752093 0 -0.00096109091136647356 -0.024898460537904052 0 -0.00087711689379485296 -0.024888958786668899 0 -0.00085858545535604609 -0.024879643924282404 0 -0.00076383237788603267 -0.024887713412934564 0 -0.0008189041886827417 -0.024921148361348251 0 -0.0008194114441919363 -0.024898427669742113 0 -0.00087711689379485296 -0.024888958786668899 0 -0.0008194114441919363 -0.024898427669742113 0 -0.00085858545535604609 -0.024879643924282404 0 -0.00087711689379485296 -0.024888958786668899 0 -0.0008194114441919363 -0.024898427669742113 0 -0.00089592910686891656 -0.024907194644752093 0 -0.0008189041886827417 -0.024921148361348251 0 -0.0008194114441919363 -0.024898427669742113 0 -0.00089592910686891656 -0.024907194644752093 0 -0.00071930338216937223 -0.024996321776964557 0 -0.0008194114441919363 -0.024898427669742113 0 -0.0007985032691589255 -0.02492970647177423 0 -0.0008194114441919363 -0.024898427669742113 0 -0.0007985032691589255 -0.02492970647177423 0 -0.00085858545535604609 -0.024879643924282404 0 -0.0007985032691589255 -0.02492970647177423 0 -0.00080535210018011427 -0.024904083862191749 0 -0.00085858545535604609 -0.024879643924282404 0 -0.0007985032691589255 -0.02492970647177423 0 -0.00080535210018011427 -0.024904083862191749 0 -0.00077476571827705346 -0.02487729743391872 0 -0.00071930338216937223 -0.024996321776964557 0 -0.0007985032691589255 -0.02492970647177423 0 -0.00077476571827705346 -0.02487729743391872 0 -0.0014412658421529504 -0.024706591981280557 0 -0.0013770057055081315 -0.025484765600408587 0 -0.0017888475184105604 -0.024606526420554928 0 -0.0018879176152191402 -0.024650898021967443 0 -0.0017175547135125722 -0.024793990311484493 0 -0.0019717262169849218 -0.024575874187045432 0 -0.0020448452829446239 -0.024640235618499345 0 -0.0020288431536549648 -0.024449665225415564 0 -0.0019717262169849218 -0.024575874187045432 0 -0.0019500736156213584 -0.024645714395559196 0 -0.0020448452829446239 -0.024640235618499345 0 -0.0019717262169849218 -0.024575874187045432 0 -0.0018879176152191402 -0.024650898021967443 0 -0.0019500736156213584 -0.024645714395559196 0 -0.0014412658421529504 -0.024706591981280557 0 -0.0019247669575083136 -0.024705722948889858 0 -0.0018051431798173504 -0.024596879178988378 0 -0.0019717262169849218 -0.024575874187045432 0 -0.0018879176152191402 -0.024650898021967443 0 -0.0018051431798173504 -0.024596879178988378 0 -0.0019717262169849218 -0.024575874187045432 0 -0.0020288431536549648 -0.024449665225415564 0 -0.0018879176152191402 -0.024650898021967443 0 -0.0018936749372758257 -0.024699279612079926 0 -0.0018165890946488393 -0.024737985685814274 0 -0.0018879176152191402 -0.024650898021967443 0 -0.0019500736156213584 -0.024645714395559196 0 -0.0018936749372758257 -0.024699279612079926 0 -0.0018936749372758257 -0.024699279612079926 0 -0.0018165890946488393 -0.024737985685814274 0 -0.0017199665383132797 -0.024796869081939361 0 -0.0018879176152191402 -0.024650898021967443 0 -0.0018165890946488393 -0.024737985685814274 0 -0.0017175547135125722 -0.024793990311484493 0 -0.0014412658421529504 -0.024706591981280557 0 -0.0012708004742396123 -0.024868970096261888 0 -0.0016278369773937357 -0.024812823543723373 0 -0.0017175547135125722 -0.024793990311484493 0 -0.0017199665383132797 -0.024796869081939361 0 -0.0018165890946488393 -0.024737985685814274 0 -0.0017175547135125722 -0.024793990311484493 0 -0.0017199665383132797 -0.024796869081939361 0 -0.0024185095468591297 -0.024141782622944311 0 -0.0023608540428205834 -0.024283037082230105 0 -0.0022391647419112677 -0.024293923216177408 0 -0.0019715012154436396 -0.022055746991161349 0 -0.0017354015589592276 -0.022262179270829661 0 -0.0017585421947753715 -0.021977935106095033 0 -0.0024185095468591297 -0.024141782622944311 0 -0.0023608540428205834 -0.024283037082230105 0 -0.0023890191732260403 -0.02434496025194453 0 -0.0018936749372758257 -0.024699279612079926 0 -0.0017199665383132797 -0.024796869081939361 0 -0.0020448452829446239 -0.024640235618499345 0 -0.0020513942178158433 -0.023751839470677289 0 -0.0023158785630551341 -0.023240068882181143 0 -0.0020513942178158433 -0.023751839470677289 0 -0.0022125268188924172 -0.024613493517566327 0 -0.0023608540428205834 -0.024283037082230105 0 -0.0023888260667701785 -0.024344404076829848 0 -0.0022391647419112677 -0.024293923216177408 0 -0.0019500736156213584 -0.024645714395559196 0 -0.0018936749372758257 -0.024699279612079926 0 -0.0020448452829446239 -0.024640235618499345 0 -0.0025167038300617285 -0.024378885963042534 0 -0.0023158785630551341 -0.023240068882181143 0 -0.0023608540428205834 -0.024283037082230105 0 -0.0023890191732260403 -0.02434496025194453 0 -0.0023888260667701785 -0.024344404076829848 0 -0.0025053311318409717 -0.024380497960016404 0 -0.002491308852418622 -0.02428095142081485 0 -0.0025828351342498564 -0.024315970857380395 0 -0.0023888260667701785 -0.024344404076829848 0 -0.0025053311318409717 -0.024380497960016404 0 -0.002491308852418622 -0.02428095142081485 0 -0.0023158785630551341 -0.023240068882181143 0 -0.0031252287560564812 -0.022765318590203368 0 -0.0024179192932812952 -0.021648197646463967 0 -0.0031252287560564812 -0.022765318590203368 0 -0.0023158785630551341 -0.023240068882181143 0 -0.0024179192932812952 -0.021648197646463967 0 -0.0026169070345342196 -0.022776646440180535 0 -0.0027622622663591523 -0.022824797141813125 0 -0.0028723339447877779 -0.022556148813680194 0 -0.0024179192932812952 -0.021648197646463967 0 -0.0016513923848649283 -0.020430741008974015 0 -0.0014064560347295963 -0.019828263874262925 0 -0.0017148136173197629 -0.018990562600380054 0 -0.0011586525531574942 -0.019241746820317235 0 -0.0017354015589592276 -0.022262179270829661 0 -0.0016666532288565189 -0.022235696976775247 0 -0.0017585421947753715 -0.021977935106095033 0 -0.0016513923848649283 -0.020430741008974015 0 -0.0020768201318513866 -0.01983415048512149 0 -0.0017148136173197629 -0.018990562600380054 0 -0.0020154426928165096 -0.018172316718018746 0 -0.0011401540767278847 -0.018620017239241365 0 -0.0017148136173197629 -0.018990562600380054 0 -0.0011401540767278847 -0.018620017239241365 0 -0.0011586525531574942 -0.019241746820317235 0 -0.0019715012154436396 -0.022055746991161349 0 -0.0018837323730326594 -0.021880561023120759 0 -0.0019852737733722699 -0.021754002191826903 0 -0.0017585421947753715 -0.021977935106095033 0 -0.0018837323730326594 -0.021880561023120759 0 -0.0018489842572096819 -0.021709704381275476 0 -0.0019715012154436396 -0.022055746991161349 0 -0.0017585421947753715 -0.021977935106095033 0 -0.0018837323730326594 -0.021880561023120759 0 -0.0016278369773937357 -0.024812823543723373 0 -0.0017013960420363468 -0.024793295045906997 0 -0.0012193899044069258 -0.024917289784354431 0 -0.0020513942178158433 -0.023751839470677289 0 -0.0017233049370779996 -0.023421168641488393 0 -0.001649480241742204 -0.024276766955719266 0 -0.0020513942178158433 -0.023751839470677289 0 -0.0018837323730326594 -0.021880561023120759 0 -0.0019852737733722699 -0.021754002191826903 0 -0.0018489842572096819 -0.021709704381275476 0 -0.0020154426928165096 -0.018172316718018746 0 -0.0011401540767278847 -0.018620017239241365 0 -0.001059537914261686 -0.017909759691204452 0 -0.0024629259307331485 -0.024167668307020124 0 -0.0026397481375199008 -0.024265436973065536 0 -0.0024784066543906001 -0.024548712106068401 0 -0.0024629259307331485 -0.024167668307020124 0 -0.0026397481375199008 -0.024265436973065536 0 -0.0025127294981635378 -0.024047727137453959 0 -0.0026397481375199008 -0.024265436973065536 0 -0.0025448609671024879 -0.023935745183116055 0 -0.0033391847581112576 -0.024297207425677855 0 -0.0026397481375199008 -0.024265436973065536 0 -0.0025448609671024879 -0.023935745183116055 0 -0.0025127294981635378 -0.024047727137453959 0 -0.0024629259307331485 -0.024167668307020124 0 -0.0025127294981635378 -0.024047727137453959 0 -0.0025699338501510467 -0.024077564173311413 0 -0.0025448609671024879 -0.023935745183116055 0 -0.0025127294981635378 -0.024047727137453959 0 -0.0025233298156963455 -0.0241236473487552 0 -0.0025127294981635378 -0.024047727137453959 0 -0.0025645200134247394 -0.024122084837720201 0 -0.0025699338501510467 -0.024077564173311413 0 -0.0025127294981635378 -0.024047727137453959 0 -0.0025645200134247394 -0.024122084837720201 0 -0.0025233298156963455 -0.0241236473487552 0 -0.0025645200134247394 -0.024122084837720201 0 -0.0025233298156963455 -0.0241236473487552 0 -0.0025648455304336623 -0.024200775135331344 0 -0.0025233298156963455 -0.0241236473487552 0 -0.0025648455304336623 -0.024200775135331344 0 -0.002491308852418622 -0.02428095142081485 0 -0.0025648455304336623 -0.024200775135331344 0 -0.002491308852418622 -0.02428095142081485 0 -0.0025828351342498564 -0.024315970857380395 0 -0.0025233298156963455 -0.0241236473487552 0 -0.002491308852418622 -0.02428095142081485 0 -0.0023448538919423768 -0.024233105710858471 0 -0.0023888260667701785 -0.024344404076829848 0 -0.002491308852418622 -0.02428095142081485 0 -0.0023448538919423768 -0.024233105710858471 0 -0.0020448452829446239 -0.024640235618499345 0 -0.0023448538919423768 -0.024233105710858471 0 -0.0020288431536549648 -0.024449665225415564 0 -0.0023890191732260403 -0.02434496025194453 0 -0.0023888260667701785 -0.024344404076829848 0 -0.0023448538919423768 -0.024233105710858471 0 -0.0022125268188924172 -0.024613493517566327 0 -0.0023237740131595631 -0.024175938338892065 0 -0.0025448609671024879 -0.023935745183116055 0 -0.0023448538919423768 -0.024233105710858471 0 -0.0020376584697617724 -0.024214605730559564 0 -0.0025448609671024879 -0.023935745183116055 0 -0.0025233298156963455 -0.0241236473487552 0 -0.0023448538919423768 -0.024233105710858471 0 -0.0025448609671024879 -0.023935745183116055 0 -0.0020376584697617724 -0.024214605730559564 0 -0.0018270493863073527 -0.023940899474219304 0 -0.0023448538919423768 -0.024233105710858471 0 -0.0020376584697617724 -0.024214605730559564 0 -0.0020288431536549648 -0.024449665225415564 0 -0.0020376584697617724 -0.024214605730559564 0 -0.0018973814119181297 -0.024397602667088309 0 -0.0020288431536549648 -0.024449665225415564 0 -0.0018051431798173504 -0.024596879178988378 0 -0.0018973814119181297 -0.024397602667088309 0 -0.0020288431536549648 -0.024449665225415564 0 -0.0014412658421529504 -0.024706591981280557 0 -0.0019948167467357587 -0.025483917735921967 0 -0.0018051431798173504 -0.024596879178988378 0 -0.0018973814119181297 -0.024397602667088309 0 -0.001712037723461748 -0.024301918581920889 0 -0.0015131517464516892 -0.02500762907394052 0 -0.001783735403240427 -0.025125085709482829 0 -0.0016741088018145788 -0.025474176718141641 0 -0.0020376584697617724 -0.024214605730559564 0 -0.0018973814119181297 -0.024397602667088309 0 -0.001712037723461748 -0.024301918581920889 0 -0.0013770057055081315 -0.025484765600408587 0 -0.0019948167467357587 -0.025483917735921967 0 -0.0024224829429784806 -0.026470469272979785 0 -0.0024681673667025241 -0.026348067307924328 0 -0.002395528078656897 -0.02634336754139081 0 -0.0020376584697617724 -0.024214605730559564 0 -0.001712037723461748 -0.024301918581920889 0 -0.0018270493863073527 -0.023940899474219304 0 -0.0024517622792225159 -0.026282290724252456 0 -0.0025282282673099975 -0.026173446698900947 0 -0.0022969379286495281 -0.026221921766772557 0 -0.0024714171876679667 -0.026343144756069761 0 -0.0024517622792225159 -0.026282290724252456 0 -0.0025282282673099975 -0.026173446698900947 0 -0.0024681673667025241 -0.026348067307924328 0 -0.0024517622792225159 -0.026282290724252456 0 -0.002395528078656897 -0.02634336754139081 0 -0.0019948167467357587 -0.025483917735921967 0 -0.0027929698587982276 -0.024997861427740343 0 -0.0019948167467357587 -0.025483917735921967 0 -0.0023096023489756496 -0.026208119111269575 0 -0.003250274305628392 -0.025744285381423385 0 -0.0033688259841088922 -0.026037831253163678 0 -0.0030277825188146403 -0.025901312312867512 0 -0.0027929698587982276 -0.024997861427740343 0 -0.0034274590509626927 -0.024892270462268162 0 -0.003250274305628392 -0.025744285381423385 0 -0.0033688259841088922 -0.026037831253163678 0 -0.0034306592667157155 -0.025544168882706414 0 -0.003250274305628392 -0.025744285381423385 0 -0.0030114386927577127 -0.025670940965607781 0 -0.0030277825188146403 -0.025901312312867512 0 -0.0025229168970600838 -0.023616076810388239 0 -0.0027929698587982276 -0.024997861427740343 0 -0.0025448609671024879 -0.023935745183116055 0 -0.0035065474752831952 -0.023715728359290644 0 -0.0033391847581112576 -0.024297207425677855 0 -0.0026397481375199008 -0.024265436973065536 0 -0.0033391847581112576 -0.024297207425677855 0 -0.0033287522035749615 -0.025030945558114817 0 -0.0034274590509626927 -0.024892270462268162 0 -0.0033170444768000342 -0.025073857839996085 0 -0.003250274305628392 -0.025744285381423385 0 -0.0034306592667157155 -0.025544168882706414 0 -0.003265483398507762 -0.025301094549612164 0 -0.003250274305628392 -0.025744285381423385 0 -0.0030114386927577127 -0.025670940965607781 0 -0.003265483398507762 -0.025301094549612164 0 -0.0030114386927577127 -0.025670940965607781 0 -0.0030155869154333695 -0.025427436699863006 0 -0.003265483398507762 -0.025301094549612164 0 -0.0027817623069725434 -0.025578879053734471 0 -0.0030114386927577127 -0.025670940965607781 0 -0.0027270339453886292 -0.025868664978634728 0 -0.0027817623069725434 -0.025578879053734471 0 -0.0030155869154333695 -0.025427436699863006 0 -0.0028524679838768221 -0.02528397003422439 0 -0.0027817623069725434 -0.025578879053734471 0 -0.0030114386927577127 -0.025670940965607781 0 -0.0030155869154333695 -0.025427436699863006 0 -0.0027817623069725434 -0.025578879053734471 0 -0.0027270339453886292 -0.025868664978634728 0 -0.0022552496946160049 -0.025671787758243376 0 -0.0027817623069725434 -0.025578879053734471 0 -0.0022552496946160049 -0.025671787758243376 0 -0.0028524679838768221 -0.02528397003422439 0 0.00086093027673432045 -0.034622738995475487 0 0.00091392946666334952 -0.034111503203486992 0 -8.2647588396680551e-05 -0.033871079931911748 0 -0.00065720427832628898 -0.030207729544611185 0 -0.0013448658509339366 -0.029543800912453747 0 -0.002370746639230442 -0.026020139189939936 0 -0.0027270339453886292 -0.025868664978634728 0 -0.0022552496946160049 -0.025671787758243376 0 -0.002370746639230442 -0.026020139189939936 0 -0.0027270339453886292 -0.025868664978634728 0 -0.0027671748447571959 -0.026211458609011525 0 -0.0027270339453886292 -0.025868664978634728 0 -0.0030277825188146403 -0.025901312312867512 0 -0.0027671748447571959 -0.026211458609011525 0 -0.0033688259841088922 -0.026037831253163678 0 -0.0030277825188146403 -0.025901312312867512 0 -0.0027671748447571959 -0.026211458609011525 0 -0.0030114386927577127 -0.025670940965607781 0 -0.0027270339453886292 -0.025868664978634728 0 -0.0030277825188146403 -0.025901312312867512 0 -0.0027929698587982276 -0.024997861427740343 0 -0.0025359549997981115 -0.026328575205217059 0 -0.0024517622792225159 -0.026282290724252456 0 -0.0022969379286495281 -0.026221921766772557 0 -0.002395528078656897 -0.02634336754139081 0 -0.0022969379286495281 -0.026221921766772557 0 -0.002395528078656897 -0.02634336754139081 0 -0.0023227293166673559 -0.026363564071558807 0 -0.0024224829429784806 -0.026470469272979785 0 -0.0023227293166673559 -0.026363564071558807 0 -0.002172910294039529 -0.026405163843753045 0 -0.00088500255080761216 -0.025390914910452044 0 -0.00046668548944217233 -0.025543289610157366 0 -0.0011049844915659447 -0.025904063780923175 0 -0.0013770057055081315 -0.025484765600408587 0 -0.0016783845949935039 -0.026233950387710842 0 -0.0024224829429784806 -0.026470469272979785 0 -0.002395528078656897 -0.02634336754139081 0 -0.0023227293166673559 -0.026363564071558807 0 -0.002370746639230442 -0.026020139189939936 0 -0.0027671748447571959 -0.026211458609011525 0 -0.0020292570075399773 -0.026260558262919897 0 -0.0022969379286495281 -0.026221921766772557 0 -0.002172910294039529 -0.026405163843753045 0 -0.0020292570075399773 -0.026260558262919897 0 -0.0025359549997981115 -0.026328575205217059 0 -0.0020644513749925814 -0.026237963317003801 0 -0.0022969379286495281 -0.026221921766772557 0 -0.0023227293166673559 -0.026363564071558807 0 -0.002172910294039529 -0.026405163843753045 0 -0.0016783845949935039 -0.026233950387710842 0 -0.0017916722785848128 -0.026165526974840779 0 -0.002172910294039529 -0.026405163843753045 0 -0.0020292570075399773 -0.026260558262919897 0 -0.0018194617863662643 -0.026188453942650104 0 -0.002370746639230442 -0.026020139189939936 0 -0.0020292570075399773 -0.026260558262919897 0 -0.0017915366155617815 -0.026191370095268427 0 -0.0020292570075399773 -0.026260558262919897 0 -0.0018194617863662643 -0.026188453942650104 0 -0.0017915366155617815 -0.026191370095268427 0 -0.0012294095516478408 -0.025416255919765745 0 -0.0011049844915659447 -0.025904063780923175 0 -0.0014129011570714143 -0.025752826804944454 0 -0.0011049844915659447 -0.025904063780923175 0 -0.0015766079617718469 -0.025923142742526509 0 -0.0018194617863662643 -0.026188453942650104 0 -0.0011049844915659447 -0.025904063780923175 0 -0.0015766079617718469 -0.025923142742526509 0 -0.0014129011570714143 -0.025752826804944454 0 -0.0015766079617718469 -0.025923142742526509 0 -0.0016086731602403528 -0.025737685230313341 0 -0.0014129011570714143 -0.025752826804944454 0 -0.0014565319234694249 -0.025600699024410339 0 -0.0016086731602403528 -0.025737685230313341 0 -0.0014129011570714143 -0.025752826804944454 0 0.0037971629958811325 -0.034272627166431861 0 0.004373568962456751 -0.034062505796597205 0 0.0037306752790466735 -0.034803578759734714 0 -0.0016670938360232198 -0.025489957793841465 0 -0.0017435639792503579 -0.025896108823333642 0 -0.0019659528920712333 -0.026107655010149469 0 0.00074970200844158032 -0.028808799709142976 0 0.0017703917050862967 -0.031856534558235318 0 -0.0016670938360232198 -0.025489957793841465 0 -0.0016086731602403528 -0.025737685230313341 0 -0.0017435639792503579 -0.025896108823333642 0 -0.0015766079617718469 -0.025923142742526509 0 -0.0016086731602403528 -0.025737685230313341 0 -0.0017435639792503579 -0.025896108823333642 0 -0.0015766079617718469 -0.025923142742526509 0 -0.0017435639792503579 -0.025896108823333642 0 -0.0017510427116957834 -0.026018954718998427 0 -0.0017435639792503579 -0.025896108823333642 0 -0.0017510427116957834 -0.026018954718998427 0 -0.0018298755258254341 -0.026055453525736835 0 -0.0017435639792503579 -0.025896108823333642 0 -0.0018298755258254341 -0.026055453525736835 0 -0.0019659528920712333 -0.026107655010149469 0 -0.0018298755258254341 -0.026055453525736835 0 -0.0018194617863662643 -0.026188453942650104 0 -0.0019659528920712333 -0.026107655010149469 0 -0.0004836929992500129 -0.030264927628131065 0 0.0017703917050862967 -0.031856534558235318 0 0.0015541757468380598 -0.034979436378118477 0 0.0020213906758485907 -0.03516150744852313 0 0.0019217409143295946 -0.03497639094019845 0 -0.0018194617863662643 -0.026188453942650104 0 -0.0017915366155617815 -0.026191370095268427 0 -0.0019659528920712333 -0.026107655010149469 0 -0.0017510427116957834 -0.026018954718998427 0 -0.0018298755258254341 -0.026055453525736835 0 -0.0018194617863662643 -0.026188453942650104 0 -0.0015766079617718469 -0.025923142742526509 0 -0.0017510427116957834 -0.026018954718998427 0 -0.0018194617863662643 -0.026188453942650104 0 0.0017901604694919278 -0.034880746200650334 0 0.0015572348544669469 -0.034595635997503225 0 0.0020054768375769171 -0.034849308418764449 0 0.0017901604694919278 -0.034880746200650334 0 0.0015541757468380598 -0.034979436378118477 0 0.0019217409143295946 -0.03497639094019845 0 0.0017901604694919278 -0.034880746200650334 0 0.0015541757468380598 -0.034979436378118477 0 0.0015572348544669469 -0.034595635997503225 0 0.0015541757468380598 -0.034979436378118477 0 0.00086093027673432045 -0.034622738995475487 0 0.0015572348544669469 -0.034595635997503225 0 -0.0004836929992500129 -0.030264927628131065 0 -0.00065720427832628898 -0.030207729544611185 0 -0.002370746639230442 -0.026020139189939936 0 -0.0017915366155617815 -0.026191370095268427 0 -0.0022552496946160049 -0.025671787758243376 0 0.0015572348544669469 -0.034595635997503225 0 0.0015081994509621775 -0.033984593155172493 0 0.00091392946666334952 -0.034111503203486992 0 0.00086093027673432045 -0.034622738995475487 0 0.0015572348544669469 -0.034595635997503225 0 0.00091392946666334952 -0.034111503203486992 0 0.0015572348544669469 -0.034595635997503225 0 0.0015081994509621775 -0.033984593155172493 0 0.0020676383868666144 -0.03460625760762924 0 -0.0011180258467361689 -0.033289872722607548 0 -0.00093487230025432466 -0.032945844042014547 0 -0.00080114359490586723 -0.033702559383105429 0 0.00010381733011824073 -0.03357802835628846 0 -0.00053438743305879964 -0.033421777682860913 0 0.0015081994509621775 -0.033984593155172493 0 0.00091392946666334952 -0.034111503203486992 0 0.00042889314880979214 -0.033325101533271576 0 -0.0012979585549767413 -0.032625538541148552 0 -0.0017363893276652084 -0.032017443253479085 0 -0.0020643378677939993 -0.03274247024716874 0 -0.0011180258467361689 -0.033289872722607548 0 -0.0012979585549767413 -0.032625538541148552 0 -0.0020643378677939993 -0.03274247024716874 0 -0.0011180258467361689 -0.033289872722607548 0 -0.0012979585549767413 -0.032625538541148552 0 -0.00093487230025432466 -0.032945844042014547 0 -0.0012979585549767413 -0.032625538541148552 0 -0.00093487230025432466 -0.032945844042014547 0 -0.00095629223808198986 -0.032175715870101401 0 -0.00093487230025432466 -0.032945844042014547 0 -0.00095629223808198986 -0.032175715870101401 0 -0.00095008112061454361 -0.032738316390309816 0 -0.00095629223808198986 -0.032175715870101401 0 -0.0009079097524302245 -0.032724143830808544 0 -0.00065348342471125613 -0.033070346859044392 0 -0.00095629223808198986 -0.032175715870101401 0 -0.00095008112061454361 -0.032738316390309816 0 -0.0009079097524302245 -0.032724143830808544 0 -0.0009079097524302245 -0.032724143830808544 0 -0.00092427495756294354 -0.032897493279786055 0 -0.00085797759957709696 -0.032967033146740272 0 -0.00095008112061454361 -0.032738316390309816 0 -0.0009079097524302245 -0.032724143830808544 0 -0.00092427495756294354 -0.032897493279786055 0 -0.0018110077650576914 -0.031015951076107551 0 -0.0019449710512029817 -0.029764799834014678 0 -0.00095629223808198986 -0.032175715870101401 0 -0.0015750368394126452 -0.030510139034338701 0 -0.0017940514314772542 -0.031113158472627824 0 -0.00089279240082523856 -0.032114753044341859 0 -0.0010250865265922821 -0.031515150397167568 0 -0.0015750368394126452 -0.030510139034338701 0 -0.0017940514314772542 -0.031113158472627824 0 -0.0018258261949209611 -0.029882967231438656 0 -0.00095629223808198986 -0.032175715870101401 0 -0.0015750368394126452 -0.030510139034338701 0 -0.001090131399881949 -0.02983094966578935 0 -0.00095629223808198986 -0.032175715870101401 0 -0.0017940514314772542 -0.031113158472627824 0 -0.0017363893276652084 -0.032017443253479085 0 -0.0012979585549767413 -0.032625538541148552 0 -0.00095629223808198986 -0.032175715870101401 0 -0.0017363893276652084 -0.032017443253479085 0 -0.0017363893276652084 -0.032017443253479085 0 -0.0022335213259096543 -0.031355264494469341 0 -0.0024400683213473594 -0.031747816472292086 0 -0.0017940514314772542 -0.031113158472627824 0 -0.0017363893276652084 -0.032017443253479085 0 -0.0022335213259096543 -0.031355264494469341 0 -0.0022335213259096543 -0.031355264494469341 0 -0.0028293711297916126 -0.030883619873590659 0 -0.0024400683213473594 -0.031747816472292086 0 -0.0022335213259096543 -0.031355264494469341 0 -0.0023972819096125452 -0.030809143122013626 0 -0.0028293711297916126 -0.030883619873590659 0 -0.0017940514314772542 -0.031113158472627824 0 -0.0022335213259096543 -0.031355264494469341 0 -0.0023972819096125452 -0.030809143122013626 0 -0.0017940514314772542 -0.031113158472627824 0 -0.0023972819096125452 -0.030809143122013626 0 -0.0023215269708547958 -0.030143570828189508 0 -0.0017940514314772542 -0.031113158472627824 0 -0.0020330352300209388 -0.029610510495109009 0 -0.0023215269708547958 -0.030143570828189508 0 -0.0023972819096125452 -0.030809143122013626 0 -0.0027270633373610801 -0.030159805593139591 0 -0.0028523210152932013 -0.030399840218005344 0 -0.0023972819096125452 -0.030809143122013626 0 -0.0027270633373610801 -0.030159805593139591 0 -0.0023215269708547958 -0.030143570828189508 0 -0.0032437984313694783 -0.029863967003110056 0 -0.0030103529299964535 -0.030072608490979594 0 -0.0032283369361728233 -0.030129984657272065 0 -0.0032437984313694783 -0.029863967003110056 0 -0.0032283369361728233 -0.030129984657272065 0 -0.0034858784928159868 -0.029763889793207439 0 -0.0032437984313694783 -0.029863967003110056 0 -0.0030103529299964535 -0.030072608490979594 0 -0.0029932270877800664 -0.029819385354910227 0 -0.0027270633373610801 -0.030159805593139591 0 -0.0030103529299964535 -0.030072608490979594 0 -0.0029932270877800664 -0.029819385354910227 0 -0.0027270633373610801 -0.030159805593139591 0 -0.0030103529299964535 -0.030072608490979594 0 -0.0028523210152932013 -0.030399840218005344 0 -0.0030103529299964535 -0.030072608490979594 0 -0.0028523210152932013 -0.030399840218005344 0 -0.0032283369361728233 -0.030129984657272065 0 -0.0023972819096125452 -0.030809143122013626 0 -0.0028523210152932013 -0.030399840218005344 0 -0.0028293711297916126 -0.030883619873590659 0 -0.0028523210152932013 -0.030399840218005344 0 -0.0032283369361728233 -0.030129984657272065 0 -0.0028293711297916126 -0.030883619873590659 0 -0.0028293711297916126 -0.030883619873590659 0 -0.0024400683213473594 -0.031747816472292086 0 -0.0035045083832674268 -0.031678668603285665 0 -0.0032283369361728233 -0.030129984657272065 0 -0.0028293711297916126 -0.030883619873590659 0 -0.0033866886674541559 -0.030413453210811538 0 -0.0028293711297916126 -0.030883619873590659 0 -0.0035045083832674268 -0.031678668603285665 0 -0.0033866886674541559 -0.030413453210811538 0 -0.0013448658509339366 -0.029543800912453747 0 -0.0032684587662475369 -0.029466957492054444 0 -0.0024400683213473594 -0.031747816472292086 0 -0.0020643378677939993 -0.03274247024716874 0 -0.0035045083832674268 -0.031678668603285665 0 0.00042889314880979214 -0.033325101533271576 0 -8.2647588396680551e-05 -0.033871079931911748 0 -0.0011816579615327282 -0.032695258189723117 0 -0.00053438743305879964 -0.033421777682860913 0 -0.0032684587662475369 -0.029466957492054444 0 -0.0017363893276652084 -0.032017443253479085 0 -0.0024400683213473594 -0.031747816472292086 0 -0.0020643378677939993 -0.03274247024716874 0 0.00091392946666334952 -0.034111503203486992 0 0.00042889314880979214 -0.033325101533271576 0 -8.2647588396680551e-05 -0.033871079931911748 0 -0.0028524679838768221 -0.02528397003422439 0 -0.003265483398507762 -0.025301094549612164 0 -0.0033710737873923124 -0.025239806858273085 0 -0.0030155869154333695 -0.025427436699863006 0 -0.0028524679838768221 -0.02528397003422439 0 -0.003265483398507762 -0.025301094549612164 0 -0.003265483398507762 -0.025301094549612164 0 -0.0033287522035749615 -0.025030945558114817 0 -0.0034677155240752104 -0.025307377212617665 0 -0.0034306592667157155 -0.025544168882706414 0 -0.003265483398507762 -0.025301094549612164 0 -0.0033287522035749615 -0.025030945558114817 0 -0.0035548326000550599 -0.025769185715975459 0 -0.0034677155240752104 -0.025307377212617665 0 -0.0030690729435982043 -0.025390830653234091 0 -0.0033287522035749615 -0.025030945558114817 0 -0.0034677155240752104 -0.025307377212617665 0 -0.0030690729435982043 -0.025390830653234091 0 -0.003902121448658554 -0.026644782130037244 0 -0.0032684587662475369 -0.029466957492054444 0 -0.0035548326000550599 -0.025769185715975459 0 -0.0033710737873923124 -0.025239806858273085 0 -0.0034677155240752104 -0.025307377212617665 0 -0.003265483398507762 -0.025301094549612164 0 -0.0033710737873923124 -0.025239806858273085 0 -0.0034677155240752104 -0.025307377212617665 0 -0.0033866886674541559 -0.030413453210811538 0 -0.0035597215628493271 -0.029824802699218975 0 -0.0039413358504205125 -0.0291835600999273 0 -0.0035045083832674268 -0.031678668603285665 0 -0.0033866886674541559 -0.030413453210811538 0 -0.0039413358504205125 -0.0291835600999273 0 -0.0032684587662475369 -0.029466957492054444 0 -0.0043388642722849901 -0.029249674790561897 0 -0.0037524847354934976 -0.02803731573599293 0 -0.0055166847524440272 -0.027483772984339384 0 -0.0039413358504205125 -0.0291835600999273 0 -0.0032283369361728233 -0.030129984657272065 0 -0.0033866886674541559 -0.030413453210811538 0 -0.0035597215628493271 -0.029824802699218975 0 -0.0032283369361728233 -0.030129984657272065 0 -0.0035597215628493271 -0.029824802699218975 0 -0.0034858784928159868 -0.029763889793207439 0 -0.0035597215628493271 -0.029824802699218975 0 -0.0036947750046857474 -0.029486012111689896 0 -0.0034858784928159868 -0.029763889793207439 0 -0.0035597215628493271 -0.029824802699218975 0 -0.0036947750046857474 -0.029486012111689896 0 -0.0039413358504205125 -0.0291835600999273 0 -0.0036947750046857474 -0.029486012111689896 0 -0.0035777541916604699 -0.02957998729730827 0 -0.0034858784928159868 -0.029763889793207439 0 -0.0032437984313694783 -0.029863967003110056 0 -0.0034858784928159868 -0.029763889793207439 0 -0.0034197043144057839 -0.029693938396388415 0 -0.0035777541916604699 -0.02957998729730827 0 -0.0034858784928159868 -0.029763889793207439 0 -0.0034197043144057839 -0.029693938396388415 0 -0.0035599071351263495 -0.02930256145926179 0 -0.0030141201693415489 -0.028981725920181549 0 -0.0032611787443922549 -0.029596934550122318 0 -0.0036947750046857474 -0.029486012111689896 0 -0.0035777541916604699 -0.02957998729730827 0 -0.0035599071351263495 -0.02930256145926179 0 -0.0035777541916604699 -0.02957998729730827 0 -0.0035599071351263495 -0.02930256145926179 0 -0.0035000562086727792 -0.02958674307024806 0 -0.0036947750046857474 -0.029486012111689896 0 -0.0035599071351263495 -0.02930256145926179 0 -0.0039413358504205125 -0.0291835600999273 0 -0.0035599071351263495 -0.02930256145926179 0 -0.0034179011576834536 -0.028524692188971953 0 -0.0039413358504205125 -0.0291835600999273 0 -0.0035599071351263495 -0.02930256145926179 0 -0.0034179011576834536 -0.028524692188971953 0 -0.0030141201693415489 -0.028981725920181549 0 -0.003902121448658554 -0.026644782130037244 0 -0.002585677853818559 -0.027264588450482748 0 -0.0037524847354934976 -0.02803731573599293 0 -0.0034179011576834536 -0.028524692188971953 0 -0.0028009894538315464 -0.027176976705471416 0 -0.0037524847354934976 -0.02803731573599293 0 -0.0034179011576834536 -0.028524692188971953 0 -0.0039413358504205125 -0.0291835600999273 0 -0.0034179011576834536 -0.028524692188971953 0 -0.0028009894538315464 -0.027176976705471416 0 -0.0030141201693415489 -0.028981725920181549 0 -0.0028009894538315464 -0.027176976705471416 0 -0.0030141201693415489 -0.028981725920181549 0 -0.0019252341409970646 -0.02846375095686721 0 -0.0030141201693415489 -0.028981725920181549 0 -0.0019252341409970646 -0.02846375095686721 0 -0.0022116638801655247 -0.029309080754099007 0 -0.001231584148475916 -0.029006682911631013 0 -0.0019252341409970646 -0.02846375095686721 0 -0.00037837202854781128 -0.027611203973859796 0 -0.001231584148475916 -0.029006682911631013 0 -0.0019252341409970646 -0.02846375095686721 0 -0.0022116638801655247 -0.029309080754099007 0 -0.0028009894538315464 -0.027176976705471416 0 -0.0019252341409970646 -0.02846375095686721 0 -0.00037837202854781128 -0.027611203973859796 0 -0.0020409400061613429 -0.024825236340334626 0 -0.0014794101630405015 -0.025387727290713341 0 -0.0028009894538315464 -0.027176976705471416 0 -0.0020571126189862271 -0.02482874329475206 0 -0.00037837202854781128 -0.027611203973859796 0 -0.0035548326000550599 -0.025769185715975459 0 -0.0028009894538315464 -0.027176976705471416 0 -0.0030690729435982043 -0.025390830653234091 0 -0.0028009894538315464 -0.027176976705471416 0 -0.0020571126189862271 -0.02482874329475206 0 -0.0030690729435982043 -0.025390830653234091 0 -0.0020571126189862271 -0.02482874329475206 0 -0.0030690729435982043 -0.025390830653234091 0 -0.0024784066543906001 -0.024548712106068401 0 -0.0026397481375199008 -0.024265436973065536 0 -0.0033287522035749615 -0.025030945558114817 0 -0.0024784066543906001 -0.024548712106068401 0 -0.0033287522035749615 -0.025030945558114817 0 -0.0030690729435982043 -0.025390830653234091 0 -0.0024784066543906001 -0.024548712106068401 0 -0.0020571126189862271 -0.02482874329475206 0 -0.0024784066543906001 -0.024548712106068401 0 -0.0023967675616571997 -0.024179665656828983 0 -0.0024629259307331485 -0.024167668307020124 0 -0.0024784066543906001 -0.024548712106068401 0 -0.0023967675616571997 -0.024179665656828983 0 -4.1123396424634939e-05 -0.034810045109682275 0 -0.00023958753160866113 -0.034532990188010981 0 -7.7592817633162698e-05 -0.034538025489784185 0 0.00024710895477234382 -0.035064432955058809 0 0.00054108355067815481 -0.034957540685754143 0 0.00051159041321286044 -0.03534079070522634 0 0.0013309317785967216 -0.035410859175934603 0 0.001003940060654434 -0.03492140764694749 0 -0.00023958753160866113 -0.034532990188010981 0 -7.7592817633162698e-05 -0.034538025489784185 0 -0.00032503985048035672 -0.034149410151988163 0 -4.1123396424634939e-05 -0.034810045109682275 0 -7.7592817633162698e-05 -0.034538025489784185 0 2.6117427956509634e-05 -0.034861433926075491 0 -7.7592817633162698e-05 -0.034538025489784185 0 2.6117427956509634e-05 -0.034861433926075491 0 1.9137941496280931e-05 -0.034549893190445831 0 2.6117427956509634e-05 -0.034861433926075491 0 1.970543951835923e-08 -0.03500011846604599 0 1.4336783897808301e-07 -0.034999296745076146 0 2.6117427956509634e-05 -0.034861433926075491 0 1.4336783897808301e-07 -0.034999296745076146 0 1.9137941496280931e-05 -0.034549893190445831 0 2.6117427956509634e-05 -0.034861433926075491 0 1.970543951835923e-08 -0.03500011846604599 0 1.2223447882553441e-05 -0.035014789489435531 0 -4.1123396424634939e-05 -0.034810045109682275 0 2.6117427956509634e-05 -0.034861433926075491 0 1.2223447882553441e-05 -0.035014789489435531 0 0.00024710895477234382 -0.035064432955058809 0 4.0023458941648302e-05 -0.035025527862092974 0 0.00051159041321286044 -0.03534079070522634 0 0.00025202720607954215 -0.035018953574683563 0 0.00052511365899007162 -0.034964079411780563 0 0.00051159041321286044 -0.03534079070522634 0 0.00025202720607954215 -0.035018953574683563 0 1.2223447882553441e-05 -0.035014789489435531 0 0.00025202720607954215 -0.035018953574683563 0 0.00024401817876681296 -0.034869519638502655 0 0.00052511365899007162 -0.034964079411780563 0 0.00025202720607954215 -0.035018953574683563 0 1.2223447882553441e-05 -0.035014789489435531 0 8.0479579370700951e-05 -0.034939379474757427 0 1.970543951835923e-08 -0.03500011846604599 0 1.2223447882553441e-05 -0.035014789489435531 0 1.2607575623766107e-07 -0.034999884279208755 0 1.9433752644847605e-05 -0.034758943127915665 0 1.2607575623766107e-07 -0.034999884279208755 0 8.0479579370700951e-05 -0.034939379474757427 0 1.2223447882553441e-05 -0.035014789489435531 0 1.2607575623766107e-07 -0.034999884279208755 0 8.0479579370700951e-05 -0.034939379474757427 0 1.9433752644847605e-05 -0.034758943127915665 0 0.00024401817876681296 -0.034869519638502655 0 0.00042625599041398927 -0.034653823244850855 0 1.9433752644847605e-05 -0.034758943127915665 0 8.0479579370700951e-05 -0.034939379474757427 0 0.00024401817876681296 -0.034869519638502655 0 0.00025202720607954215 -0.035018953574683563 0 8.0479579370700951e-05 -0.034939379474757427 0 0.00024401817876681296 -0.034869519638502655 0 0.00024401817876681296 -0.034869519638502655 0 0.00042625599041398927 -0.034653823244850855 0 0.00052511365899007162 -0.034964079411780563 0 0.00042625599041398927 -0.034653823244850855 0 0.00052511365899007162 -0.034964079411780563 0 0.001003940060654434 -0.03492140764694749 0 0.00051159041321286044 -0.03534079070522634 0 0.00052511365899007162 -0.034964079411780563 0 0.001003940060654434 -0.03492140764694749 0 0.001003940060654434 -0.03492140764694749 0 0.0014321752727353401 -0.034740229954421491 0 0.0015002070647771341 -0.035004920706389636 0 0.0013309317785967216 -0.035410859175934603 0 0.001003940060654434 -0.03492140764694749 0 0.0015002070647771341 -0.035004920706389636 0 0.0010520172973535837 -0.034467666198130041 0 0.001003940060654434 -0.03492140764694749 0 0.0014321752727353401 -0.034740229954421491 0 0.0010520172973535837 -0.034467666198130041 0 0.00042625599041398927 -0.034653823244850855 0 0.001003940060654434 -0.03492140764694749 0 0.0017225013633847266 -0.034369475648780269 0 0.0010520172973535837 -0.034467666198130041 0 0.0014321752727353401 -0.034740229954421491 0 0.0017225013633847266 -0.034369475648780269 0 0.0014321752727353401 -0.034740229954421491 0 0.0018736608689916543 -0.034858078014948751 0 0.0017225013633847266 -0.034369475648780269 0 0.0022266219837787137 -0.034462330588154101 0 0.0018736608689916543 -0.034858078014948751 0 0.0022266219837787137 -0.034462330588154101 0 0.0018736608689916543 -0.034858078014948751 0 0.0022013061254008643 -0.034812974096095552 0 0.0018736608689916543 -0.034858078014948751 0 0.0022013061254008643 -0.034812974096095552 0 0.0020838939183639108 -0.035002552178186548 0 0.0018736608689916543 -0.034858078014948751 0 0.0020838939183639108 -0.035002552178186548 0 0.0017834857029253232 -0.035093179057405034 0 0.0018736608689916543 -0.034858078014948751 0 0.0015002070647771341 -0.035004920706389636 0 0.0017834857029253232 -0.035093179057405034 0 0.0014321752727353401 -0.034740229954421491 0 0.0018736608689916543 -0.034858078014948751 0 0.0015002070647771341 -0.035004920706389636 0 0.0037971629958811325 -0.034272627166431861 0 0.0037306752790466735 -0.034803578759734714 0 0.0032747928719616972 -0.034385434009492233 0 0.0017703917050862967 -0.031856534558235318 0 0.0032152864221918708 -0.034835074760219707 0 0.0024284744031338131 -0.034786688583473863 0 0.0023376107826015842 -0.034731002585602723 0 0.0024628692772610595 -0.034515830187757959 0 0.0024284744031338131 -0.034786688583473863 0 0.0023376107826015842 -0.034731002585602723 0 0.0022086306721249668 -0.034955682551075173 0 0.0023376107826015842 -0.034731002585602723 0 0.0024628692772610595 -0.034515830187757959 0 0.0022013061254008643 -0.034812974096095552 0 0.0022266219837787137 -0.034462330588154101 0 0.0024628692772610595 -0.034515830187757959 0 0.0022013061254008643 -0.034812974096095552 0 0.0022013061254008643 -0.034812974096095552 0 0.0021369953204589819 -0.034943125871802136 0 0.0020838939183639108 -0.035002552178186548 0 0.0023376107826015842 -0.034731002585602723 0 0.0022013061254008643 -0.034812974096095552 0 0.0022086306721249668 -0.034955682551075173 0 0.0022013061254008643 -0.034812974096095552 0 0.0021369953204589819 -0.034943125871802136 0 0.0022086306721249668 -0.034955682551075173 0 0.0021369953204589819 -0.034943125871802136 0 0.0022086306721249668 -0.034955682551075173 0 0.0020301790536234473 -0.034924015416765562 0 0.0022086306721249668 -0.034955682551075173 0 0.0019217409143295946 -0.03497639094019845 0 0.0020301790536234473 -0.034924015416765562 0 0.0020213906758485907 -0.03516150744852313 0 0.0022086306721249668 -0.034955682551075173 0 0.0019217409143295946 -0.03497639094019845 0 0.0017703917050862967 -0.031856534558235318 0 0.0014000332911269576 -0.034529171883874617 0 0.0017901604694919278 -0.034880746200650334 0 0.0020301790536234473 -0.034924015416765562 0 0.0020054768375769171 -0.034849308418764449 0 0.0017901604694919278 -0.034880746200650334 0 0.0019217409143295946 -0.03497639094019845 0 0.0020301790536234473 -0.034924015416765562 0 0.0021369953204589819 -0.034943125871802136 0 0.0020301790536234473 -0.034924015416765562 0 0.0020054768375769171 -0.034849308418764449 0 0.0020054768375769171 -0.034849308418764449 0 0.0020838939183639108 -0.035002552178186548 0 0.0020676383868666144 -0.03460625760762924 0 0.0021369953204589819 -0.034943125871802136 0 0.0020054768375769171 -0.034849308418764449 0 0.0020838939183639108 -0.035002552178186548 0 0.00063821523866392025 -0.034167352864614683 0 0.00069874234928832659 -0.034628270707847658 0 0.0020838939183639108 -0.035002552178186548 0 0.0020676383868666144 -0.03460625760762924 0 0.0019697529072339975 -0.03511933529401557 0 0.0015572348544669469 -0.034595635997503225 0 0.0020054768375769171 -0.034849308418764449 0 0.0020676383868666144 -0.03460625760762924 0 0.0013309317785967216 -0.035410859175934603 0 0.0015002070647771341 -0.035004920706389636 0 0.0017834857029253232 -0.035093179057405034 0 0.0013309317785967216 -0.035410859175934603 0 0.0017834857029253232 -0.035093179057405034 0 0.0019697529072339975 -0.03511933529401557 0 0.0020838939183639108 -0.035002552178186548 0 0.0017834857029253232 -0.035093179057405034 0 0.0019697529072339975 -0.03511933529401557 0 -0.00023958753160866113 -0.034532990188010981 0 -0.00053931577945835307 -0.034159465953971457 0 -0.00032503985048035672 -0.034149410151988163 0 0.00054108355067815481 -0.034957540685754143 0 0.00069874234928832659 -0.034628270707847658 0 -0.00032503985048035672 -0.034149410151988163 0 -0.00045068019203316689 -0.033649602275341729 0 -0.0001580241294628965 -0.03409244045065328 0 -0.00032503985048035672 -0.034149410151988163 0 -0.00061480045799945334 -0.03376939410631366 0 -0.00045068019203316689 -0.033649602275341729 0 -0.00053931577945835307 -0.034159465953971457 0 -0.00032503985048035672 -0.034149410151988163 0 -0.00061480045799945334 -0.03376939410631366 0 -0.00056495310088381984 -0.033816639420615545 0 -0.00080487682508933144 -0.033359459147433983 0 -0.00061480045799945334 -0.03376939410631366 0 -0.00045068019203316689 -0.033649602275341729 0 -0.00082155368608131398 -0.033269561021154581 0 -0.00056495310088381984 -0.033816639420615545 0 -0.00025357107754265119 -0.03432175753311844 0 -0.00070724137002368807 -0.034009945116145635 0 -0.00059627741640398376 -0.033911832012164966 0 -0.00034517581843356493 -0.034563055545792885 0 -0.00080114359490586723 -0.033702559383105429 0 -0.00061480045799945334 -0.03376939410631366 0 -0.00082155368608131398 -0.033269561021154581 0 -0.00093487230025432466 -0.032945844042014547 0 -0.00080114359490586723 -0.033702559383105429 0 -0.00082155368608131398 -0.033269561021154581 0 0.00010381733011824073 -0.03357802835628846 0 0.00063821523866392025 -0.034167352864614683 0 -0.00080114359490586723 -0.033702559383105429 0 -0.00053931577945835307 -0.034159465953971457 0 -0.00061480045799945334 -0.03376939410631366 0 -0.00095008112061454361 -0.032738316390309816 0 -0.00082155368608131398 -0.033269561021154581 0 -0.00089122198177603383 -0.033169809692250321 0 -0.00093487230025432466 -0.032945844042014547 0 -0.00095008112061454361 -0.032738316390309816 0 -0.00082155368608131398 -0.033269561021154581 0 -0.00082155368608131398 -0.033269561021154581 0 -0.00089122198177603383 -0.033169809692250321 0 -0.00079965280140459176 -0.033500062717553139 0 -0.00089122198177603383 -0.033169809692250321 0 -0.00079965280140459176 -0.033500062717553139 0 -0.00090521278040337362 -0.033221344901014596 0 -0.00089122198177603383 -0.033169809692250321 0 -0.00094011317720880104 -0.033029315732021065 0 -0.00090521278040337362 -0.033221344901014596 0 -0.00095008112061454361 -0.032738316390309816 0 -0.00089122198177603383 -0.033169809692250321 0 -0.00094011317720880104 -0.033029315732021065 0 -0.00095008112061454361 -0.032738316390309816 0 -0.00092427495756294354 -0.032897493279786055 0 -0.00094011317720880104 -0.033029315732021065 0 -0.00070724137002368807 -0.034009945116145635 0 -0.00059627741640398376 -0.033911832012164966 0 -0.00079965280140459176 -0.033500062717553139 0 -0.00070724137002368807 -0.034009945116145635 0 -0.00082155368608131398 -0.033269561021154581 0 -0.00079965280140459176 -0.033500062717553139 0 -0.00079965280140459176 -0.033500062717553139 0 -0.00059474608315054358 -0.033676423836343852 0 -0.00079917654543461411 -0.033356428338563567 0 -0.00059627741640398376 -0.033911832012164966 0 -0.00079965280140459176 -0.033500062717553139 0 -0.00059474608315054358 -0.033676423836343852 0 -0.00059627741640398376 -0.033911832012164966 0 -0.00059474608315054358 -0.033676423836343852 0 -0.00034888479172494866 -0.034180719088483351 0 -0.00059474608315054358 -0.033676423836343852 0 -0.00023688347255874383 -0.034072410186524585 0 -0.00034888479172494866 -0.034180719088483351 0 -0.00023688347255874383 -0.034072410186524585 0 -0.00011598962002927474 -0.034423891919428996 0 -0.00034888479172494866 -0.034180719088483351 0 -0.00023688347255874383 -0.034072410186524585 0 -0.00011598962002927474 -0.034423891919428996 0 4.6907858880192502e-05 -0.034449224527816333 0 -0.00011598962002927474 -0.034423891919428996 0 -0.00034888479172494866 -0.034180719088483351 0 -0.0001590857003092601 -0.034557967966317174 0 -0.00059627741640398376 -0.033911832012164966 0 -0.00034888479172494866 -0.034180719088483351 0 -0.00034517581843356493 -0.034563055545792885 0 -0.00034888479172494866 -0.034180719088483351 0 -0.00034517581843356493 -0.034563055545792885 0 -0.0001590857003092601 -0.034557967966317174 0 -0.00034517581843356493 -0.034563055545792885 0 -0.0001590857003092601 -0.034557967966317174 0 -4.5584231367972506e-05 -0.034862499493123915 0 -7.7592817633162698e-05 -0.034538025489784185 0 -0.0001580241294628965 -0.03409244045065328 0 1.9137941496280931e-05 -0.034549893190445831 0 -0.00025357107754265119 -0.03432175753311844 0 -3.3311447743027746e-05 -0.034699398030064235 0 -7.7592817633162698e-05 -0.034538025489784185 0 -0.00032503985048035672 -0.034149410151988163 0 -0.0001580241294628965 -0.03409244045065328 0 -4.4929155021547146e-08 -0.035000054327963381 0 -4.5584231367972506e-05 -0.034862499493123915 0 5.4705684178971542e-08 -0.034999741886639263 0 -3.1037199956008251e-08 -0.034999885851225036 0 -3.3311447743027746e-05 -0.034699398030064235 0 -4.5584231367972506e-05 -0.034862499493123915 0 5.4705684178971542e-08 -0.034999741886639263 0 -1.5410045344296402e-05 -0.034737602813556853 0 -0.0001590857003092601 -0.034557967966317174 0 -4.5584231367972506e-05 -0.034862499493123915 0 -1.5410045344296402e-05 -0.034737602813556853 0 3.5488474326858658e-08 -0.034999657623551367 0 -1.5410045344296402e-05 -0.034737602813556853 0 1.8466092586406364e-07 -0.034643157917660983 0 5.4705684178971542e-08 -0.034999741886639263 0 3.5488474326858658e-08 -0.034999657623551367 0 -1.5410045344296402e-05 -0.034737602813556853 0 -0.00011598962002927474 -0.034423891919428996 0 -0.0001590857003092601 -0.034557967966317174 0 -1.5410045344296402e-05 -0.034737602813556853 0 -0.00011598962002927474 -0.034423891919428996 0 -1.5410045344296402e-05 -0.034737602813556853 0 1.8466092586406364e-07 -0.034643157917660983 0 -0.00011598962002927474 -0.034423891919428996 0 1.8466092586406364e-07 -0.034643157917660983 0 4.6907858880192502e-05 -0.034449224527816333 0 4.6907858880192502e-05 -0.034449224527816333 0 -2.9411076390539377e-06 -0.034755064377337601 0 -3.2909951908715297e-05 -0.034724412564556911 0 1.8466092586406364e-07 -0.034643157917660983 0 4.6907858880192502e-05 -0.034449224527816333 0 -2.9411076390539377e-06 -0.034755064377337601 0 3.5488474326858658e-08 -0.034999657623551367 0 -2.9411076390539377e-06 -0.034755064377337601 0 -4.4264964245711984e-08 -0.034999459080241525 0 3.5488474326858658e-08 -0.034999657623551367 0 1.8466092586406364e-07 -0.034643157917660983 0 -2.9411076390539377e-06 -0.034755064377337601 0 -2.2416433365031966e-09 -0.034999998296418089 0 -1.2647307726664696e-06 -0.034995947153601228 0 1.8841039613736612e-09 -0.034999989069490541 0 -5.6269203998435045e-08 -0.034999902732964411 0 -2.1517952176470832e-05 -0.03485793889142446 0 -2.9411076390539377e-06 -0.034755064377337601 0 -4.4264964245711984e-08 -0.034999459080241525 0 -3.2909951908715297e-05 -0.034724412564556911 0 -1.2647307726664696e-06 -0.034995947153601228 0 -2.2322920848157117e-06 -0.034991941730745491 0 -4.7816720477552394e-06 -0.034990995312232494 0 4.6907858880192502e-05 -0.034449224527816333 0 -3.2909951908715297e-05 -0.034724412564556911 0 0.00018204871434573304 -0.034721214736695219 0 -2.1517952176470832e-05 -0.03485793889142446 0 0.00025006740028632116 -0.034073921330679199 0 0.0001092540759076103 -0.034432451346632177 0 0.00025006740028632116 -0.034073921330679199 0 -2.2322920848157117e-06 -0.034991941730745491 0 -4.7816720477552394e-06 -0.034990995312232494 0 -1.0300516513899649e-05 -0.03498435924823725 0 -1.2647307726664696e-06 -0.034995947153601228 0 -2.2322920848157117e-06 -0.034991941730745491 0 1.8841039613736612e-09 -0.034999989069490541 0 -0.00059474608315054358 -0.033676423836343852 0 -0.00023688347255874383 -0.034072410186524585 0 -0.00039203733166624831 -0.033593782018595045 0 -0.00023688347255874383 -0.034072410186524585 0 -0.00039203733166624831 -0.033593782018595045 0 -1.4739937484746362e-05 -0.033880971081247706 0 -0.00023688347255874383 -0.034072410186524585 0 4.6907858880192502e-05 -0.034449224527816333 0 -1.4739937484746362e-05 -0.033880971081247706 0 0.00012145494483179653 -0.033248540361408049 0 0.00025006740028632116 -0.034073921330679199 0 0.00062074163212366457 -0.033000657332358713 0 0.00069344631168399709 -0.033029910712136033 0 0.00066806060819771273 -0.032951598199283005 0 0.00025006740028632116 -0.034073921330679199 0 0.000326148632264381 -0.033935834034931042 0 0.00062074163212366457 -0.033000657332358713 0 0.00066806060819771273 -0.032951598199283005 0 0.00059867503540027734 -0.03292594327364521 0 0.00066806060819771273 -0.032951598199283005 0 0.00059867503540027734 -0.03292594327364521 0 0.00064261855553494408 -0.032879855409026625 0 -1.0300516513899649e-05 -0.03498435924823725 0 -2.0083442354413178e-05 -0.034967902739839733 0 4.3225697703838896e-08 -0.034984936242805818 0 0.000326148632264381 -0.033935834034931042 0 0.00032856556732181904 -0.0340594944352016 0 -2.0083442354413178e-05 -0.034967902739839733 0 4.3225697703838896e-08 -0.034984936242805818 0 -3.7224345597888861e-06 -0.034959549720278732 0 -2.0083442354413178e-05 -0.034967902739839733 0 -3.7224345597888861e-06 -0.034959549720278732 0 -1.8371671059872988e-05 -0.034941545284981494 0 0.00032856556732181904 -0.0340594944352016 0 0.00051957822705108229 -0.033069814848671594 0 0.00064261855553494408 -0.032879855409026625 0 0.00061734710970059233 -0.03281373438311265 0 0.00057755822784857772 -0.032855527408602973 0 0.00059867503540027734 -0.03292594327364521 0 0.00064261855553494408 -0.032879855409026625 0 0.00057755822784857772 -0.032855527408602973 0 1.8841039613736612e-09 -0.034999989069490541 0 4.3225697703838896e-08 -0.034984936242805818 0 1.4666255984605891e-09 -0.034999984089809463 0 -2.2322920848157117e-06 -0.034991941730745491 0 1.8841039613736612e-09 -0.034999989069490541 0 4.3225697703838896e-08 -0.034984936242805818 0 -2.2322920848157117e-06 -0.034991941730745491 0 -1.0300516513899649e-05 -0.03498435924823725 0 4.3225697703838896e-08 -0.034984936242805818 0 4.3225697703838896e-08 -0.034984936242805818 0 3.5826153253687886e-06 -0.034979878822954218 0 -3.7224345597888861e-06 -0.034959549720278732 0 4.3225697703838896e-08 -0.034984936242805818 0 1.4666255984605891e-09 -0.034999984089809463 0 3.5826153253687886e-06 -0.034979878822954218 0 3.5826153253687886e-06 -0.034979878822954218 0 1.7837491513635535e-08 -0.034999936956673014 0 6.3155105873928076e-06 -0.034948950028246648 0 1.6551417178335134e-07 -0.034999874812346343 0 0.00018733366902721839 -0.034624000538345003 0 1.4666255984605891e-09 -0.034999984089809463 0 3.5826153253687886e-06 -0.034979878822954218 0 1.7837491513635535e-08 -0.034999936956673014 0 1.432046312789424e-07 -0.034999408540645614 0 0.0002746249427195146 -0.034300324305451248 0 6.8673052612425625e-08 -0.034998963492593092 0 6.3155105873928076e-06 -0.034948950028246648 0 -3.7224345597888861e-06 -0.034959549720278732 0 -9.3734998518009363e-06 -0.034931548413852077 0 3.5826153253687886e-06 -0.034979878822954218 0 6.3155105873928076e-06 -0.034948950028246648 0 -3.7224345597888861e-06 -0.034959549720278732 0 -3.7224345597888861e-06 -0.034959549720278732 0 -1.8371671059872988e-05 -0.034941545284981494 0 -9.3734998518009363e-06 -0.034931548413852077 0 -1.8371671059872988e-05 -0.034941545284981494 0 -9.3734998518009363e-06 -0.034931548413852077 0 -2.4626851477792135e-05 -0.034910504871399933 0 -2.0083442354413178e-05 -0.034967902739839733 0 -1.8371671059872988e-05 -0.034941545284981494 0 -3.9259798791513706e-05 -0.034928303906243623 0 0.00051957822705108229 -0.033069814848671594 0 0.0011576374050877123 -0.031402813322174421 0 -1.8371671059872988e-05 -0.034941545284981494 0 -3.9259798791513706e-05 -0.034928303906243623 0 -2.4626851477792135e-05 -0.034910504871399933 0 0.00051957822705108229 -0.033069814848671594 0 -0.00037395778046188057 -0.034842027379650933 0 0.00043373102359579803 -0.034253968628609126 0 0.00076261898864924012 -0.032962932552258878 0 -3.2895703228222822e-05 -0.034914262617186304 0 -2.4626851477792135e-05 -0.034910504871399933 0 -4.6529168821368561e-05 -0.034858774112710121 0 -2.4626851477792135e-05 -0.034910504871399933 0 -1.4106627215403879e-05 -0.034895551178713624 0 -4.6529168821368561e-05 -0.034858774112710121 0 0.00051957822705108229 -0.033069814848671594 0 0.00076261898864924012 -0.032962932552258878 0 0.00018733366902721839 -0.034624000538345003 0 0.00043373102359579803 -0.034253968628609126 0 6.3155105873928076e-06 -0.034948950028246648 0 -9.3734998518009363e-06 -0.034931548413852077 0 -1.4106627215403879e-05 -0.034895551178713624 0 0.0002746249427195146 -0.034300324305451248 0 0.00074145452519448318 -0.033460462831711751 0 0.00040237165413017066 -0.034104818570871102 0 -9.3734998518009363e-06 -0.034931548413852077 0 -2.4626851477792135e-05 -0.034910504871399933 0 -1.4106627215403879e-05 -0.034895551178713624 0 0.00074145452519448318 -0.033460462831711751 0 0.0007567369843650073 -0.033570106716730705 0 0.00040237165413017066 -0.034104818570871102 0 0.0007567369843650073 -0.033570106716730705 0 0.00059286322642140951 -0.033967116727315338 0 0.00040237165413017066 -0.034104818570871102 0 0.00074145452519448318 -0.033460462831711751 0 0.0007567369843650073 -0.033570106716730705 0 0.0011011754943054399 -0.032982569917900204 0 0.00074145452519448318 -0.033460462831711751 0 0.0011011754943054399 -0.032982569917900204 0 0.0013524706255399015 -0.032469714199850945 0 0.0007567369843650073 -0.033570106716730705 0 0.0011011754943054399 -0.032982569917900204 0 0.0010004888104452876 -0.033474169021644233 0 0.0011011754943054399 -0.032982569917900204 0 0.0011759609358935003 -0.032966317346190113 0 0.001306881766032364 -0.032620215331627428 0 0.0011011754943054399 -0.032982569917900204 0 0.001306881766032364 -0.032620215331627428 0 0.0013787896998846928 -0.032387459195467767 0 0.0011759609358935003 -0.032966317346190113 0 0.0010147520714608974 -0.033344076119792766 0 0.0013734933666049117 -0.032837332796363326 0 0.0013130571251733104 -0.033209271749307129 0 0.0020867563001974675 -0.032215541439890881 0 0.0011759609358935003 -0.032966317346190113 0 0.0010004888104452876 -0.033474169021644233 0 0.0010147520714608974 -0.033344076119792766 0 0.0011011754943054399 -0.032982569917900204 0 0.0011759609358935003 -0.032966317346190113 0 0.0010004888104452876 -0.033474169021644233 0 0.0011915123246677753 -0.033481159675062114 0 0.0013130571251733104 -0.033209271749307129 0 0.0013130571251733104 -0.033209271749307129 0 -4.5481353727701048e-05 -0.034861137368441819 0 0.0010039818604310575 -0.033964059486083907 0 0.00059286322642140951 -0.033967116727315338 0 0.00026717934143141909 -0.034495482747683076 0 0.0007567369843650073 -0.033570106716730705 0 0.0010004888104452876 -0.033474169021644233 0 0.00059286322642140951 -0.033967116727315338 0 0.0010004888104452876 -0.033474169021644233 0 0.0010039818604310575 -0.033964059486083907 0 0.00059286322642140951 -0.033967116727315338 0 0.00059286322642140951 -0.033967116727315338 0 0.00026717934143141909 -0.034495482747683076 0 0.00040237165413017066 -0.034104818570871102 0 0.00026717934143141909 -0.034495482747683076 0 6.8673052612425625e-08 -0.034998963492593092 0 1.5230146018542817e-07 -0.035000004359897398 0 0.00026717934143141909 -0.034495482747683076 0 6.8673052612425625e-08 -0.034998963492593092 0 0.00040237165413017066 -0.034104818570871102 0 0.0002746249427195146 -0.034300324305451248 0 6.8673052612425625e-08 -0.034998963492593092 0 0.00040237165413017066 -0.034104818570871102 0 0.0021725219137884882 -0.031161795171418909 0 0.0019844569299820353 -0.030972276825384469 0 0.0022398655252514306 -0.030725926888597762 0 0.0021725219137884882 -0.031161795171418909 0 0.0023149558482786145 -0.030632229592703002 0 0.0022398655252514306 -0.030725926888597762 0 0.0023149558482786145 -0.030632229592703002 0 0.0022398655252514306 -0.030725926888597762 0 0.002396199610670266 -0.030404475896919234 0 0.0023149558482786145 -0.030632229592703002 0 0.0023094711361794375 -0.030287659123439115 0 0.002242605605279419 -0.0308881683912067 0 0.0021725219137884882 -0.031161795171418909 0 0.0021408911045175593 -0.031278317424193555 0 0.002242605605279419 -0.0308881683912067 0 0.0021725219137884882 -0.031161795171418909 0 0.0023149558482786145 -0.030632229592703002 0 0.002242605605279419 -0.0308881683912067 0 0.0021408911045175593 -0.031278317424193555 0 0.0020698634002050708 -0.031777940838363467 0 0.0021678829299162264 -0.031171704251367047 0 0.0021725219137884882 -0.031161795171418909 0 0.0021408911045175593 -0.031278317424193555 0 0.0020698634002050708 -0.031777940838363467 0 0.0020698634002050708 -0.031777940838363467 0 0.0026730829132287815 -0.031643037186418893 0 0.002400003580072791 -0.03131888404250311 0 0.0019445514337554078 -0.031958338047060213 0 0.0020867563001974675 -0.032215541439890881 0 0.0020698634002050708 -0.031777940838363467 0 0.0013734933666049117 -0.032837332796363326 0 0.0015831294009523271 -0.032202389241960963 0 0.0011759609358935003 -0.032966317346190113 0 0.0013734933666049117 -0.032837332796363326 0 0.0015831294009523271 -0.032202389241960963 0 0.0020698634002050708 -0.031777940838363467 0 0.0015831294009523271 -0.032202389241960963 0 0.0017817081212023629 -0.03157878929065739 0 0.001507540370289251 -0.032198562360847997 0 0.001306881766032364 -0.032620215331627428 0 0.0013787896998846928 -0.032387459195467767 0 0.001507540370289251 -0.032198562360847997 0 0.001306881766032364 -0.032620215331627428 0 0.0015831294009523271 -0.032202389241960963 0 0.0011759609358935003 -0.032966317346190113 0 0.001306881766032364 -0.032620215331627428 0 0.0015831294009523271 -0.032202389241960963 0 0.001507540370289251 -0.032198562360847997 0 0.0015831294009523271 -0.032202389241960963 0 0.0017817081212023629 -0.03157878929065739 0 0.001507540370289251 -0.032198562360847997 0 0.0013787896998846928 -0.032387459195467767 0 0.0017817081212023629 -0.03157878929065739 0 0.0013787896998846928 -0.032387459195467767 0 0.0013471088404760107 -0.032424766904411845 0 0.0017817081212023629 -0.03157878929065739 0 0.00076261898864924012 -0.032962932552258878 0 0.0017960915140143524 -0.031933984172339565 0 0.0011011754943054399 -0.032982569917900204 0 0.0013787896998846928 -0.032387459195467767 0 0.0013524706255399015 -0.032469714199850945 0 0.00077993837056097447 -0.032899244947324872 0 0.00076261898864924012 -0.032962932552258878 0 0.0021725219137884882 -0.031161795171418909 0 0.0017817081212023629 -0.03157878929065739 0 0.0019844569299820353 -0.030972276825384469 0 0.0021725219137884882 -0.031161795171418909 0 0.0020698634002050708 -0.031777940838363467 0 0.0017817081212023629 -0.03157878929065739 0 0.0019844569299820353 -0.030972276825384469 0 0.0016872184247464033 -0.030620565675302632 0 0.0020331419963895265 -0.030572285469759552 0 0.0019844569299820353 -0.030972276825384469 0 0.0015636109490059957 -0.030978319919076278 0 0.0016872184247464033 -0.030620565675302632 0 0.0017817081212023629 -0.03157878929065739 0 0.0019844569299820353 -0.030972276825384469 0 0.0015636109490059957 -0.030978319919076278 0 0.0011360566096499255 -0.030598617056332326 0 0.0013117290879520126 -0.031321101075697744 0 0.0015636109490059957 -0.030978319919076278 0 0.0013117290879520126 -0.031321101075697744 0 0.0017817081212023629 -0.03157878929065739 0 0.0015636109490059957 -0.030978319919076278 0 0.0011360566096499255 -0.030598617056332326 0 0.0015636109490059957 -0.030978319919076278 0 0.0016872184247464033 -0.030620565675302632 0 0.0016872184247464033 -0.030620565675302632 0 0.0015250151796795445 -0.030280587576650961 0 0.0017992262488029692 -0.030378792290306052 0 0.0011360566096499255 -0.030598617056332326 0 0.0016872184247464033 -0.030620565675302632 0 0.0015250151796795445 -0.030280587576650961 0 0.0020331419963895265 -0.030572285469759552 0 0.0020150356559427807 -0.030291800658092252 0 0.0017992262488029692 -0.030378792290306052 0 0.0016872184247464033 -0.030620565675302632 0 0.0020331419963895265 -0.030572285469759552 0 0.0017992262488029692 -0.030378792290306052 0 0.0020331419963895265 -0.030572285469759552 0 0.0022937325219829379 -0.030434435883766292 0 0.0020150356559427807 -0.030291800658092252 0 0.0019844569299820353 -0.030972276825384469 0 0.0020331419963895265 -0.030572285469759552 0 0.0022398655252514306 -0.030725926888597762 0 0.0020331419963895265 -0.030572285469759552 0 0.0022398655252514306 -0.030725926888597762 0 0.0022937325219829379 -0.030434435883766292 0 0.0022398655252514306 -0.030725926888597762 0 0.0022937325219829379 -0.030434435883766292 0 0.002396199610670266 -0.030404475896919234 0 0.0022937325219829379 -0.030434435883766292 0 0.002402123413630356 -0.030235820059283634 0 0.0020150356559427807 -0.030291800658092252 0 0.0020279456929102563 -0.030234019481520911 0 0.0020150356559427807 -0.030291800658092252 0 0.0019977217227732697 -0.03020583110139357 0 0.002278368791355876 -0.030264321328194097 0 0.0019988968136161658 -0.030273748618415443 0 0.0020150356559427807 -0.030291800658092252 0 0.0019977217227732697 -0.03020583110139357 0 0.0018171895815053394 -0.030145951985174675 0 0.0019977217227732697 -0.03020583110139357 0 0.0018171895815053394 -0.030145951985174675 0 0.0019267998014582187 -0.030123317788632885 0 0.0019977217227732697 -0.03020583110139357 0 0.002020652287217462 -0.030198855986423696 0 0.0019267998014582187 -0.030123317788632885 0 0.0020279456929102563 -0.030234019481520911 0 0.0019977217227732697 -0.03020583110139357 0 0.002020652287217462 -0.030198855986423696 0 0.0011576374050877123 -0.031402813322174421 0 0.0012768039335468941 -0.031410800304277071 0 0.0020150356559427807 -0.030291800658092252 0 0.0017992262488029692 -0.030378792290306052 0 0.0018171895815053394 -0.030145951985174675 0 0.0015250151796795445 -0.030280587576650961 0 0.0017992262488029692 -0.030378792290306052 0 0.0018171895815053394 -0.030145951985174675 0 0.0012768039335468941 -0.031410800304277071 0 0.00041329371025077959 -0.032265993635361222 0 0.00059867503540027734 -0.03292594327364521 0 0.00057755822784857772 -0.032855527408602973 0 0.00053466744097496147 -0.032900572901731047 0 0.00059867503540027734 -0.03292594327364521 0 0.00053466744097496147 -0.032900572901731047 0 0.00055404392739919481 -0.032971783457247356 0 0.00012145494483179653 -0.033248540361408049 0 -0.00015945146231035473 -0.033204856990063689 0 0.00062074163212366457 -0.033000657332358713 0 0.00059867503540027734 -0.03292594327364521 0 0.00055404392739919481 -0.032971783457247356 0 -0.00015945146231035473 -0.033204856990063689 0 0.00041329371025077959 -0.032265993635361222 0 -0.00066433411104725216 -0.033334124758223754 0 -0.00079917654543461411 -0.033356428338563567 0 -0.00086694627992026205 -0.033175933529638921 0 0.00053466744097496147 -0.032900572901731047 0 0.00055404392739919481 -0.032971783457247356 0 0.00049003498089113967 -0.032946832743399691 0 -0.00079917654543461411 -0.033356428338563567 0 -0.00086694627992026205 -0.033175933529638921 0 -0.00088209051104253639 -0.0332400517245749 0 -0.00079965280140459176 -0.033500062717553139 0 -0.00079917654543461411 -0.033356428338563567 0 -0.00090521278040337362 -0.033221344901014596 0 -0.00059474608315054358 -0.033676423836343852 0 -0.00066433411104725216 -0.033334124758223754 0 -0.00079917654543461411 -0.033356428338563567 0 -0.00059474608315054358 -0.033676423836343852 0 -0.00039203733166624831 -0.033593782018595045 0 -0.00066433411104725216 -0.033334124758223754 0 -0.00088348174216877325 -0.033195421338304568 0 -0.00089577691802731208 -0.033195546553254747 0 -0.0009151329881565706 -0.033152775073564046 0 -0.00088348174216877325 -0.033195421338304568 0 -0.0009151329881565706 -0.033152775073564046 0 -0.0008717998644946713 -0.033141213460669464 0 -0.00088348174216877325 -0.033195421338304568 0 -0.00089348102476586244 -0.033193907576525891 0 -0.00089577691802731208 -0.033195546553254747 0 0.00073879688573013865 -0.031770686614725353 0 0.00041329371025077959 -0.032265993635361222 0 -0.00089577691802731208 -0.033195546553254747 0 -0.00090451996494151146 -0.033196126714188395 0 -0.0009151329881565706 -0.033152775073564046 0 -0.00086694627992026205 -0.033175933529638921 0 -0.00089577691802731208 -0.033195546553254747 0 -0.00088209051104253639 -0.0332400517245749 0 0.00041329371025077959 -0.032265993635361222 0 -0.00030039607351866216 -0.032957360979252982 0 -0.00089577691802731208 -0.033195546553254747 0 -0.00090451996494151146 -0.033196126714188395 0 -0.00088209051104253639 -0.0332400517245749 0 -0.00090451996494151146 -0.033196126714188395 0 -0.00090521278040337362 -0.033221344901014596 0 -0.0009151329881565706 -0.033152775073564046 0 -0.00090451996494151146 -0.033196126714188395 0 -0.00088209051104253639 -0.0332400517245749 0 -0.00090521278040337362 -0.033221344901014596 0 -0.00079917654543461411 -0.033356428338563567 0 -0.00088209051104253639 -0.0332400517245749 0 -0.00090521278040337362 -0.033221344901014596 0 -0.00094011317720880104 -0.033029315732021065 0 -0.0009151329881565706 -0.033152775073564046 0 -0.00090103216060460629 -0.033043440013598872 0 -0.00094011317720880104 -0.033029315732021065 0 -0.00090521278040337362 -0.033221344901014596 0 -0.0009151329881565706 -0.033152775073564046 0 -0.0009151329881565706 -0.033152775073564046 0 -0.00090103216060460629 -0.033043440013598872 0 -0.0008717998644946713 -0.033141213460669464 0 -0.00092427495756294354 -0.032897493279786055 0 -0.00094011317720880104 -0.033029315732021065 0 -0.00090103216060460629 -0.033043440013598872 0 -0.00092427495756294354 -0.032897493279786055 0 -0.00090103216060460629 -0.033043440013598872 0 -0.00085797759957709696 -0.032967033146740272 0 -0.0009079097524302245 -0.032724143830808544 0 -0.00085797759957709696 -0.032967033146740272 0 -0.00065348342471125613 -0.033070346859044392 0 -0.00085797759957709696 -0.032967033146740272 0 -0.00082522924006144438 -0.033087042020306691 0 -0.00065348342471125613 -0.033070346859044392 0 -0.00082522924006144438 -0.033087042020306691 0 -0.00078061976151769209 -0.033166856801234101 0 -0.00065348342471125613 -0.033070346859044392 0 -0.00090103216060460629 -0.033043440013598872 0 -0.00085797759957709696 -0.032967033146740272 0 -0.00082522924006144438 -0.033087042020306691 0 -0.00090103216060460629 -0.033043440013598872 0 -0.00082522924006144438 -0.033087042020306691 0 -0.0008717998644946713 -0.033141213460669464 0 -0.00088348174216877325 -0.033195421338304568 0 -0.00078061976151769209 -0.033166856801234101 0 -0.00069935417124553144 -0.033243751390883904 0 -0.00082522924006144438 -0.033087042020306691 0 -0.0008717998644946713 -0.033141213460669464 0 -0.00078061976151769209 -0.033166856801234101 0 -0.00088348174216877325 -0.033195421338304568 0 -0.0008717998644946713 -0.033141213460669464 0 -0.00078061976151769209 -0.033166856801234101 0 -0.0012172302142410565 -0.029483652034041324 0 -0.001090131399881949 -0.02983094966578935 0 -0.0013064907230585119 -0.028604169060467397 0 -0.00078061976151769209 -0.033166856801234101 0 -0.00065348342471125613 -0.033070346859044392 0 -0.00069935417124553144 -0.033243751390883904 0 -0.0010250865265922821 -0.031515150397167568 0 -1.7737498802373778e-05 -0.030649649406210105 0 -0.0012172302142410565 -0.029483652034041324 0 -0.0016985070153319661 -0.028864970486796256 0 -0.0013064907230585119 -0.028604169060467397 0 -0.0014774091868998752 -0.029694782354217825 0 -0.0018258261949209611 -0.029882967231438656 0 -0.0018728175391595186 -0.028607054610786834 0 -0.0012172302142410565 -0.029483652034041324 0 -0.0014774091868998752 -0.029694782354217825 0 -0.0018728175391595186 -0.028607054610786834 0 -0.0013197815070725377 -0.029351968945568078 0 -0.0015634211319613663 -0.02880716710048372 0 -0.0014774091868998752 -0.029694782354217825 0 -0.001090131399881949 -0.02983094966578935 0 -0.0014971644402410756 -0.030066962631342006 0 -0.0014774091868998752 -0.029694782354217825 0 -0.0018258261949209611 -0.029882967231438656 0 -0.0014971644402410756 -0.030066962631342006 0 -0.0012172302142410565 -0.029483652034041324 0 -0.0014774091868998752 -0.029694782354217825 0 -0.001090131399881949 -0.02983094966578935 0 -0.0015750368394126452 -0.030510139034338701 0 -0.001090131399881949 -0.02983094966578935 0 -0.0014971644402410756 -0.030066962631342006 0 -0.0015750368394126452 -0.030510139034338701 0 -0.0018258261949209611 -0.029882967231438656 0 -0.0014971644402410756 -0.030066962631342006 0 -0.0020330352300209388 -0.029610510495109009 0 -0.0023215269708547958 -0.030143570828189508 0 -0.0021999233824375347 -0.029683332077883116 0 -0.0020330352300209388 -0.029610510495109009 0 -0.0021999233824375347 -0.029683332077883116 0 -0.0023987448974640865 -0.029006980266170778 0 -0.0023913535003433533 -0.029868677857250291 0 -0.0023215269708547958 -0.030143570828189508 0 -0.0021999233824375347 -0.029683332077883116 0 -0.0023913535003433533 -0.029868677857250291 0 -0.0021999233824375347 -0.029683332077883116 0 -0.0024601369502005965 -0.02971260313093621 0 -0.0023913535003433533 -0.029868677857250291 0 -0.0023215269708547958 -0.030143570828189508 0 -0.0026179141428713999 -0.029797422551890336 0 -0.0027270633373610801 -0.030159805593139591 0 -0.0023215269708547958 -0.030143570828189508 0 -0.0026179141428713999 -0.029797422551890336 0 -0.0023913535003433533 -0.029868677857250291 0 -0.0026179141428713999 -0.029797422551890336 0 -0.0024601369502005965 -0.02971260313093621 0 -0.0026179141428713999 -0.029797422551890336 0 -0.0026095888133152315 -0.029529988722736711 0 -0.0029006392030197221 -0.029601568083795677 0 -0.0026179141428713999 -0.029797422551890336 0 -0.0026095888133152315 -0.029529988722736711 0 -0.0024601369502005965 -0.02971260313093621 0 -0.0026095888133152315 -0.029529988722736711 0 -0.0021999233824375347 -0.029683332077883116 0 -0.0024601369502005965 -0.02971260313093621 0 -0.0032437984313694783 -0.029863967003110056 0 -0.0032225706856108573 -0.029710590356101921 0 -0.0034197043144057839 -0.029693938396388415 0 -0.0032437984313694783 -0.029863967003110056 0 -0.0032225706856108573 -0.029710590356101921 0 -0.0029932270877800664 -0.029819385354910227 0 -0.0032225706856108573 -0.029710590356101921 0 -0.0029932270877800664 -0.029819385354910227 0 -0.0031076240168686617 -0.029623533448941995 0 -0.0026179141428713999 -0.029797422551890336 0 -0.0029932270877800664 -0.029819385354910227 0 -0.0029006392030197221 -0.029601568083795677 0 -0.0027270633373610801 -0.030159805593139591 0 -0.0026179141428713999 -0.029797422551890336 0 -0.0029932270877800664 -0.029819385354910227 0 -0.0029932270877800664 -0.029819385354910227 0 -0.0029006392030197221 -0.029601568083795677 0 -0.0031076240168686617 -0.029623533448941995 0 -0.0029006392030197221 -0.029601568083795677 0 -0.0031076240168686617 -0.029623533448941995 0 -0.0030964699906540871 -0.029488496301477523 0 -0.0031076240168686617 -0.029623533448941995 0 -0.0030964699906540871 -0.029488496301477523 0 -0.003288605744228559 -0.029606348397775904 0 -0.0032225706856108573 -0.029710590356101921 0 -0.0031076240168686617 -0.029623533448941995 0 -0.003288605744228559 -0.029606348397775904 0 -0.0030964699906540871 -0.029488496301477523 0 -0.003288605744228559 -0.029606348397775904 0 -0.0031944266140469446 -0.029409817428229141 0 -0.0030964699906540871 -0.029488496301477523 0 -0.0030515154954449189 -0.02933592333323979 0 -0.0031944266140469446 -0.029409817428229141 0 -0.0030964699906540871 -0.029488496301477523 0 -0.0028995932584814418 -0.029396523915241363 0 -0.0030515154954449189 -0.02933592333323979 0 -0.0029006392030197221 -0.029601568083795677 0 -0.0030964699906540871 -0.029488496301477523 0 -0.0028995932584814418 -0.029396523915241363 0 -0.0028995932584814418 -0.029396523915241363 0 -0.0030515154954449189 -0.02933592333323979 0 -0.0029469928210228576 -0.029270963449307415 0 -0.0030515154954449189 -0.02933592333323979 0 -0.0031124498722054569 -0.029278551981351188 0 -0.0031944266140469446 -0.029409817428229141 0 -0.0019449710512029817 -0.029764799834014678 0 -0.0015634211319613663 -0.02880716710048372 0 -0.0020330352300209388 -0.029610510495109009 0 -0.0023987448974640865 -0.029006980266170778 0 -0.0020957417228437488 -0.028805414325820611 0 -0.0026095888133152315 -0.029529988722736711 0 -0.0021999233824375347 -0.029683332077883116 0 -0.0027207707528511286 -0.029311080901185321 0 -0.0022533983315415639 -0.029679442880108039 0 -0.0025592840971508518 -0.02914446603890309 0 -0.0026095888133152315 -0.029529988722736711 0 -0.0029006392030197221 -0.029601568083795677 0 -0.0028995932584814418 -0.029396523915241363 0 -0.0026095888133152315 -0.029529988722736711 0 -0.0028995932584814418 -0.029396523915241363 0 -0.0027207707528511286 -0.029311080901185321 0 -0.0028995932584814418 -0.029396523915241363 0 -0.0027207707528511286 -0.029311080901185321 0 -0.0029469928210228576 -0.029270963449307415 0 -0.0015634211319613663 -0.02880716710048372 0 -0.00054496246736227244 -0.029511675740264146 0 -0.0023987448974640865 -0.029006980266170778 0 -0.0023550540166439563 -0.028475178175815338 0 -0.0026019116392074519 -0.028423353988583012 0 -0.0023987448974640865 -0.029006980266170778 0 -0.0020957417228437488 -0.028805414325820611 0 -0.0023550540166439563 -0.028475178175815338 0 -0.0014107678583152321 -0.028866850593779688 0 -0.0011978637387918757 -0.028912971193327662 0 -0.001017646300930266 -0.029381333985377924 0 -0.0025592840971508518 -0.02914446603890309 0 -0.0021943633335856872 -0.028952160807429864 0 -0.0012076845871082458 -0.029012247979131094 0 -0.0011899741914438767 -0.029289356833169321 0 -0.00095988715513035917 -0.029339557466055537 0 -0.0027207707528511286 -0.029311080901185321 0 -0.0029807796009264273 -0.029200834340453764 0 -0.0029469928210228576 -0.029270963449307415 0 -0.0015634211319613663 -0.02880716710048372 0 -0.0011285489713933725 -0.029160709142280417 0 -0.00054496246736227244 -0.029511675740264146 0 -0.0011285489713933725 -0.029160709142280417 0 -0.0011285489713933725 -0.029160709142280417 0 -0.0021943633335856872 -0.028952160807429864 0 1.9059671704155613e-05 -0.029329333864185438 0 0.00011209910291659175 -0.02934866613986975 0 0.00015358217733297484 -0.029506440518684715 0 -0.0030515154954449189 -0.02933592333323979 0 -0.0031124498722054569 -0.029278551981351188 0 -0.0030522336852192499 -0.029240894639002184 0 -0.0031124498722054569 -0.029278551981351188 0 -0.0030522336852192499 -0.029240894639002184 0 -0.003115068494570382 -0.02921546298966194 0 -0.0029807796009264273 -0.029200834340453764 0 -0.0029469928210228576 -0.029270963449307415 0 -0.0030001201550976997 -0.029223558225488007 0 -0.0030515154954449189 -0.02933592333323979 0 -0.0030522336852192499 -0.029240894639002184 0 -0.0029469928210228576 -0.029270963449307415 0 -0.0030522336852192499 -0.029240894639002184 0 -0.0029469928210228576 -0.029270963449307415 0 -0.0030001201550976997 -0.029223558225488007 0 -0.0029807796009264273 -0.029200834340453764 0 -0.0030001201550976997 -0.029223558225488007 0 -0.003037390329755836 -0.029214024701828916 0 -0.0029807796009264273 -0.029200834340453764 0 -0.003037390329755836 -0.029214024701828916 0 -0.0030561522573281656 -0.029206057662135861 0 -0.0030522336852192499 -0.029240894639002184 0 -0.0030001201550976997 -0.029223558225488007 0 -0.003037390329755836 -0.029214024701828916 0 -0.0030522336852192499 -0.029240894639002184 0 -0.003037390329755836 -0.029214024701828916 0 -0.003115068494570382 -0.02921546298966194 0 -0.003037390329755836 -0.029214024701828916 0 -0.003115068494570382 -0.02921546298966194 0 -0.0030561522573281656 -0.029206057662135861 0 0.00029456843702679555 -0.029584165830801562 0 0.00033088034535534727 -0.029631208632600048 0 4.7380869336436229e-05 -0.029623063746869113 0 -0.003115068494570382 -0.02921546298966194 0 -0.0031004418316839121 -0.029213305858322328 0 -0.0030561522573281656 -0.029206057662135861 0 -0.003115068494570382 -0.02921546298966194 0 -0.0031004418316839121 -0.029213305858322328 0 -0.0031316711444134785 -0.029237090377230091 0 -0.0031004418316839121 -0.029213305858322328 0 -0.0030561522573281656 -0.029206057662135861 0 -0.0030837776613610083 -0.02920156403866905 0 -0.0031004418316839121 -0.029213305858322328 0 -0.0031004597947046847 -0.029204548230259152 0 -0.0031316711444134785 -0.029237090377230091 0 -0.0029807796009264273 -0.029200834340453764 0 -0.0030561522573281656 -0.029206057662135861 0 -0.0030837776613610083 -0.02920156403866905 0 -0.0021943633335856872 -0.028952160807429864 0 -0.00058046092504333076 -0.029271499069517044 0 -0.00058046092504333076 -0.029271499069517044 0 0.0008657162087238057 -0.029838283549834903 0 -0.0031004418316839121 -0.029213305858322328 0 -0.0030837776613610083 -0.02920156403866905 0 -0.0031004597947046847 -0.029204548230259152 0 0.002391984516042616 -0.029922128598216382 0 0.0024215152817538047 -0.029875854475248525 0 0.0024268745101513386 -0.029883340949715561 0 -0.00054496246736227244 -0.029511675740264146 0 0.0014618985821587957 -0.029921862160803878 0 0.00011209910291659175 -0.02934866613986975 0 0.00029456843702679555 -0.029584165830801562 0 0.00015358217733297484 -0.029506440518684715 0 1.9059671704155613e-05 -0.029329333864185438 0 0.00015358217733297484 -0.029506440518684715 0 4.7380869336436229e-05 -0.029623063746869113 0 0.00029456843702679555 -0.029584165830801562 0 0.00015358217733297484 -0.029506440518684715 0 4.7380869336436229e-05 -0.029623063746869113 0 -0.0011285489713933725 -0.029160709142280417 0 -0.00058046092504333076 -0.029271499069517044 0 0.0008657162087238057 -0.029838283549834903 0 0.0014618985821587957 -0.029921862160803878 0 0.0014618985821587957 -0.029921862160803878 0 0.0019527829378683198 -0.030010908523001891 0 0.0020173187292162791 -0.030217314376301228 0 0.0020225554300818578 -0.030221757379498105 0 0.002011748848938801 -0.030223705929745989 0 0.0023584768525169754 -0.030312879853603314 0 0.0024768088086665938 -0.030317095193109416 0 0.0024659892259067131 -0.030182943697903454 0 0.00064720164026814474 -0.029978566820028269 0 0.00066438228501261923 -0.030069742128453654 0 0.00063140101256275321 -0.03006940279915956 0 0.0019527829378683198 -0.030010908523001891 0 -1.7737498802373778e-05 -0.030649649406210105 0 0.0020279456929102563 -0.030234019481520911 0 0.0020173187292162791 -0.030217314376301228 0 0.0020225554300818578 -0.030221757379498105 0 0.002278368791355876 -0.030264321328194097 0 0.0019527829378683198 -0.030010908523001891 0 0.002402123413630356 -0.030235820059283634 0 0.0024760905680139746 -0.030197047100889159 0 0.002455791403570883 -0.030243026322869793 0 0.00073879688573013865 -0.031770686614725353 0 -1.7737498802373778e-05 -0.030649649406210105 0 0.002020652287217462 -0.030198855986423696 0 0.0020225554300818578 -0.030221757379498105 0 0.002011748848938801 -0.030223705929745989 0 0.0020279456929102563 -0.030234019481520911 0 0.002020652287217462 -0.030198855986423696 0 0.0020225554300818578 -0.030221757379498105 0 0.00064720164026814474 -0.029978566820028269 0 0.00063140101256275321 -0.03006940279915956 0 0.00060533303875425393 -0.02997138242986137 0 -0.0016985070153319661 -0.028864970486796256 0 -0.0017143324623576696 -0.02852552631284536 0 -0.0013064907230585119 -0.028604169060467397 0 -0.00054496246736227244 -0.029511675740264146 0 -1.7737498802373778e-05 -0.030649649406210105 0 -0.0018380541464888709 -0.030625359802065842 0 -0.0012244629677676897 -0.030304105730545986 0 -0.0010793460790611777 -0.030943752772427766 0 -0.0018380541464888709 -0.030625359802065842 0 -0.0019525397292377313 -0.030258213447541055 0 -0.0012244629677676897 -0.030304105730545986 0 -0.0018380541464888709 -0.030625359802065842 0 -0.0019525397292377313 -0.030258213447541055 0 -0.0025112097715846008 -0.030475564781546092 0 -0.0019525397292377313 -0.030258213447541055 0 -0.001600723436346458 -0.029765138475968705 0 -0.0023230012603195605 -0.029893123795771193 0 -0.0019525397292377313 -0.030258213447541055 0 -0.0012244629677676897 -0.030304105730545986 0 -0.001600723436346458 -0.029765138475968705 0 -0.001231584148475916 -0.029006682911631013 0 -0.001600723436346458 -0.029765138475968705 0 -0.0022116638801655247 -0.029309080754099007 0 -0.001600723436346458 -0.029765138475968705 0 -0.0023230012603195605 -0.029893123795771193 0 -0.0022116638801655247 -0.029309080754099007 0 -0.0023230012603195605 -0.029893123795771193 0 -0.0022116638801655247 -0.029309080754099007 0 -0.0027625329969037048 -0.029574003613533677 0 -0.0030141201693415489 -0.028981725920181549 0 -0.0022116638801655247 -0.029309080754099007 0 -0.0027625329969037048 -0.029574003613533677 0 -0.0030141201693415489 -0.028981725920181549 0 -0.0027625329969037048 -0.029574003613533677 0 -0.0032611787443922549 -0.029596934550122318 0 -0.0023230012603195605 -0.029893123795771193 0 -0.0027625329969037048 -0.029574003613533677 0 -0.0028823220624501528 -0.029981248191152873 0 -0.0027625329969037048 -0.029574003613533677 0 -0.0028823220624501528 -0.029981248191152873 0 -0.0032611787443922549 -0.029596934550122318 0 -0.0028823220624501528 -0.029981248191152873 0 -0.0025112097715846008 -0.030475564781546092 0 -0.0028772374937779516 -0.030336265681100559 0 -0.0028823220624501528 -0.029981248191152873 0 -0.0028772374937779516 -0.030336265681100559 0 -0.0031130691753384395 -0.030049712319395978 0 -0.0023230012603195605 -0.029893123795771193 0 -0.0028823220624501528 -0.029981248191152873 0 -0.0025112097715846008 -0.030475564781546092 0 -0.0019525397292377313 -0.030258213447541055 0 -0.0023230012603195605 -0.029893123795771193 0 -0.0025112097715846008 -0.030475564781546092 0 -0.0018380541464888709 -0.030625359802065842 0 -0.0025112097715846008 -0.030475564781546092 0 -0.0023966711796023312 -0.031135428212407033 0 -0.0025112097715846008 -0.030475564781546092 0 -0.0028772374937779516 -0.030336265681100559 0 -0.0028699455331000451 -0.030902176814712363 0 -0.0028772374937779516 -0.030336265681100559 0 -0.0031130691753384395 -0.030049712319395978 0 -0.0028699455331000451 -0.030902176814712363 0 -0.0035937740403315676 -0.029936935173588104 0 -0.003034672178639185 -0.029355723036633689 0 -0.0035146097387047893 -0.029731040553947787 0 -0.0033097503157466495 -0.029393893143736 0 -0.0041080724898316066 -0.029058664118042834 0 -0.0036220919604912807 -0.029280112864248919 0 -0.003034672178639185 -0.029355723036633689 0 -0.0035146097387047893 -0.029731040553947787 0 -0.0031130691753384395 -0.030049712319395978 0 -0.0028699455331000451 -0.030902176814712363 0 -0.0028823220624501528 -0.029981248191152873 0 -0.0031130691753384395 -0.030049712319395978 0 -0.0032611787443922549 -0.029596934550122318 0 -0.0035146097387047893 -0.029731040553947787 0 -0.0031130691753384395 -0.030049712319395978 0 -0.0032611787443922549 -0.029596934550122318 0 -0.0035599071351263495 -0.02930256145926179 0 -0.0032611787443922549 -0.029596934550122318 0 -0.0035000562086727792 -0.02958674307024806 0 -0.0035146097387047893 -0.029731040553947787 0 -0.0032611787443922549 -0.029596934550122318 0 -0.0035000562086727792 -0.02958674307024806 0 -0.0035146097387047893 -0.029731040553947787 0 -0.0035000562086727792 -0.02958674307024806 0 -0.0034716229690598521 -0.029646506269139134 0 -0.0035146097387047893 -0.029731040553947787 0 -0.0034716229690598521 -0.029646506269139134 0 -0.0033498681986534008 -0.029578758296593673 0 -0.0035777541916604699 -0.02957998729730827 0 -0.0035000562086727792 -0.02958674307024806 0 -0.0034716229690598521 -0.029646506269139134 0 -0.0035777541916604699 -0.02957998729730827 0 -0.0034716229690598521 -0.029646506269139134 0 -0.0034197043144057839 -0.029693938396388415 0 -0.0032225706856108573 -0.029710590356101921 0 -0.0034197043144057839 -0.029693938396388415 0 -0.003288605744228559 -0.029606348397775904 0 -0.0034716229690598521 -0.029646506269139134 0 -0.0034197043144057839 -0.029693938396388415 0 -0.003288605744228559 -0.029606348397775904 0 -0.0034716229690598521 -0.029646506269139134 0 -0.003288605744228559 -0.029606348397775904 0 -0.0033498681986534008 -0.029578758296593673 0 -0.003288605744228559 -0.029606348397775904 0 -0.0033498681986534008 -0.029578758296593673 0 -0.0031944266140469446 -0.029409817428229141 0 -0.0033498681986534008 -0.029578758296593673 0 -0.0033097503157466495 -0.029393893143736 0 -0.0031944266140469446 -0.029409817428229141 0 -0.0035146097387047893 -0.029731040553947787 0 -0.0033498681986534008 -0.029578758296593673 0 -0.0033097503157466495 -0.029393893143736 0 -0.0031124498722054569 -0.029278551981351188 0 -0.0031944266140469446 -0.029409817428229141 0 -0.0031802355035910994 -0.02927369831046046 0 -0.0033097503157466495 -0.029393893143736 0 -0.0031944266140469446 -0.029409817428229141 0 -0.0031802355035910994 -0.02927369831046046 0 -0.0031124498722054569 -0.029278551981351188 0 -0.003115068494570382 -0.02921546298966194 0 -0.0031802355035910994 -0.02927369831046046 0 -0.0033097503157466495 -0.029393893143736 0 -0.0032423329386237361 -0.029281915553194052 0 -0.0032929297150825184 -0.029286480119653572 0 -0.0032423329386237361 -0.029281915553194052 0 -0.0031862357321751195 -0.029187252681895211 0 -0.0032929297150825184 -0.029286480119653572 0 -0.0033097503157466495 -0.029393893143736 0 -0.0031802355035910994 -0.02927369831046046 0 -0.0032423329386237361 -0.029281915553194052 0 -0.0031802355035910994 -0.02927369831046046 0 -0.0032423329386237361 -0.029281915553194052 0 -0.0031862357321751195 -0.029187252681895211 0 -0.003115068494570382 -0.02921546298966194 0 -0.0031862357321751195 -0.029187252681895211 0 -0.0031316711444134785 -0.029237090377230091 0 -0.003115068494570382 -0.02921546298966194 0 -0.0031802355035910994 -0.02927369831046046 0 -0.0031862357321751195 -0.029187252681895211 0 0.0008657162087238057 -0.029838283549834903 0 -0.00071469094666647766 -0.029873589286001031 0 -0.0031862357321751195 -0.029187252681895211 0 -0.0031316711444134785 -0.029237090377230091 0 -0.0031004877749928549 -0.029369774018341739 0 -0.0031004597947046847 -0.029204548230259152 0 -0.0031316711444134785 -0.029237090377230091 0 -0.0031004877749928549 -0.029369774018341739 0 -0.00071469094666647766 -0.029873589286001031 0 -0.00069305734242263697 -0.029980869913634835 0 -0.0031004877749928549 -0.029369774018341739 0 -0.0028395350935994075 -0.029279057831014352 0 -0.0026183204517436273 -0.029550876075333687 0 -0.0031862357321751195 -0.029187252681895211 0 -0.0031004877749928549 -0.029369774018341739 0 -0.0028395350935994075 -0.029279057831014352 0 -0.0034415290309910908 -0.029072669522601863 0 -0.0023129209279579262 -0.029706191295693987 0 -0.0031862357321751195 -0.029187252681895211 0 -0.0028395350935994075 -0.029279057831014352 0 -0.0025971052654102712 -0.028980192412152439 0 -0.0031862357321751195 -0.029187252681895211 0 -0.0032929297150825184 -0.029286480119653572 0 -0.0034193505417140588 -0.029279821145699759 0 -0.0033097503157466495 -0.029393893143736 0 -0.0032929297150825184 -0.029286480119653572 0 -0.0034193505417140588 -0.029279821145699759 0 -0.0031862357321751195 -0.029187252681895211 0 -0.0034193505417140588 -0.029279821145699759 0 -0.0034611971222577725 -0.029233637286136441 0 -0.003034672178639185 -0.029355723036633689 0 -0.0010572559400276104 -0.028529920897326314 0 -0.0024331964609169195 -0.028858538628098823 0 -0.0018100913858672386 -0.029116972006744124 0 -0.0021279446329998297 -0.029180109839297228 0 -0.003034672178639185 -0.029355723036633689 0 -0.0023129209279579262 -0.029706191295693987 0 -0.0025112097715846008 -0.030475564781546092 0 -0.0028699455331000451 -0.030902176814712363 0 -0.0023966711796023312 -0.031135428212407033 0 -0.0010572559400276104 -0.028529920897326314 0 -0.0023129209279579262 -0.029706191295693987 0 0.00011434648117131471 -0.032635852090103605 0 0.00020029478247841749 -0.032613500418009284 0 -4.3998685841804425e-05 -0.032370070511444617 0 -0.0023129209279579262 -0.029706191295693987 0 -0.0010612975647551514 -0.030903281476195209 0 -0.0025971052654102712 -0.028980192412152439 0 -0.0025847240671057728 -0.029249848551030785 0 -0.0022756756926851141 -0.029269228332183407 0 -0.0028395350935994075 -0.029279057831014352 0 -0.0025971052654102712 -0.028980192412152439 0 -0.0025847240671057728 -0.029249848551030785 0 -0.0028395350935994075 -0.029279057831014352 0 -0.0025847240671057728 -0.029249848551030785 0 -0.0026183204517436273 -0.029550876075333687 0 -0.0025847240671057728 -0.029249848551030785 0 -0.0026183204517436273 -0.029550876075333687 0 -0.0022756756926851141 -0.029269228332183407 0 -0.00069305734242263697 -0.029980869913634835 0 -0.00039606771775065774 -0.03103255920776108 0 -4.3998685841804425e-05 -0.032370070511444617 0 -0.00033690652886647204 -0.031946746230111303 0 -0.00051189820864438139 -0.032520102713422427 0 -0.0026183204517436273 -0.029550876075333687 0 -0.0022756756926851141 -0.029269228332183407 0 -0.0019336552134791398 -0.029624679463450387 0 -0.0010612975647551514 -0.030903281476195209 0 -0.00039606771775065774 -0.03103255920776108 0 -0.0018380541464888709 -0.030625359802065842 0 -0.0023966711796023312 -0.031135428212407033 0 -0.0010793460790611777 -0.030943752772427766 0 -0.0010572559400276104 -0.028529920897326314 0 -0.00027151055673288639 -0.028034126682334373 0 -0.0010572559400276104 -0.028529920897326314 0 -0.00076568880943592122 -0.027179323485473028 0 0.00011434648117131471 -0.032635852090103605 0 -4.3998685841804425e-05 -0.032370070511444617 0 -0.00051189820864438139 -0.032520102713422427 0 -0.00026059307108321396 -0.023673168879209932 0 -0.00032500311279692862 -0.023613296852011773 0 -0.00032200791597266493 -0.023558662730252117 0 0.00033842619841503745 -0.029864570123674543 0 0.0011274838619383732 -0.029291304938128735 0 0.00020095551617406622 -0.028997881224574782 0 0.00033842619841503745 -0.029864570123674543 0 0.0010348968173602012 -0.030041213028803561 0 0.0011274838619383732 -0.029291304938128735 0 0.00030916094860198012 -0.030810730419092734 0 0.00033842619841503745 -0.029864570123674543 0 0.0010348968173602012 -0.030041213028803561 0 0.001354753018174319 -0.030542142620050228 0 0.00030916094860198012 -0.030810730419092734 0 0.0010348968173602012 -0.030041213028803561 0 0.001354753018174319 -0.030542142620050228 0 0.0010348968173602012 -0.030041213028803561 0 0.0017129899588480383 -0.029836360783286133 0 0.0010348968173602012 -0.030041213028803561 0 0.0011274838619383732 -0.029291304938128735 0 0.0017129899588480383 -0.029836360783286133 0 0.0011274838619383732 -0.029291304938128735 0 0.0017129899588480383 -0.029836360783286133 0 0.001733850321935739 -0.029068098506160402 0 0.0019534891061173489 -0.029428827674329725 0 0.0017129899588480383 -0.029836360783286133 0 0.001733850321935739 -0.029068098506160402 0 0.0019534891061173489 -0.029428827674329725 0 0.002039822000349756 -0.029721600790702331 0 0.0017129899588480383 -0.029836360783286133 0 0.0020514393671158889 -0.030365547694180376 0 0.0017129899588480383 -0.029836360783286133 0 0.0020974700723644436 -0.029979446112851981 0 0.0020514393671158889 -0.030365547694180376 0 0.001354753018174319 -0.030542142620050228 0 0.0017129899588480383 -0.029836360783286133 0 0.002039822000349756 -0.029721600790702331 0 0.0017129899588480383 -0.029836360783286133 0 0.0020974700723644436 -0.029979446112851981 0 0.0026789180543117714 -0.030346254965445837 0 0.0020514393671158889 -0.030365547694180376 0 0.0022750429297079813 -0.030124059480839131 0 0.002039822000349756 -0.029721600790702331 0 0.0020974700723644436 -0.029979446112851981 0 0.0022799312708382453 -0.029814753129052591 0 0.0020974700723644436 -0.029979446112851981 0 0.0022750429297079813 -0.030124059480839131 0 0.0022799312708382453 -0.029814753129052591 0 0.0026789180543117714 -0.030346254965445837 0 0.0022750429297079813 -0.030124059480839131 0 0.0022799312708382453 -0.029814753129052591 0 0.0020514393671158889 -0.030365547694180376 0 0.0020974700723644436 -0.029979446112851981 0 0.0022750429297079813 -0.030124059480839131 0 0.0022121628731131995 -0.029576369475663385 0 0.0020873288826891013 -0.029197001216447138 0 0.0023418149254592724 -0.029549966278601666 0 0.0022799312708382453 -0.029814753129052591 0 0.0022121628731131995 -0.029576369475663385 0 0.0023378855828807433 -0.029758892422882249 0 0.002039822000349756 -0.029721600790702331 0 0.0022799312708382453 -0.029814753129052591 0 0.0022121628731131995 -0.029576369475663385 0 0.0019534891061173489 -0.029428827674329725 0 0.002039822000349756 -0.029721600790702331 0 0.0022121628731131995 -0.029576369475663385 0 0.0019534891061173489 -0.029428827674329725 0 0.0022121628731131995 -0.029576369475663385 0 0.0020873288826891013 -0.029197001216447138 0 0.0022121628731131995 -0.029576369475663385 0 0.0023378855828807433 -0.029758892422882249 0 0.0023418149254592724 -0.029549966278601666 0 0.0020873288826891013 -0.029197001216447138 0 0.0021780795676717805 -0.028962474649629675 0 0.0023418149254592724 -0.029549966278601666 0 0.0020873288826891013 -0.029197001216447138 0 0.0021780795676717805 -0.028962474649629675 0 0.00189668360962418 -0.028596025779388013 0 0.0021780795676717805 -0.028962474649629675 0 0.0019277023626402422 -0.028249672184389583 0 0.0021003779511212808 -0.028478922857392296 0 0.0021780795676717805 -0.028962474649629675 0 0.0022945319573215513 -0.029018482617792687 0 0.0021003779511212808 -0.028478922857392296 0 0.0021780795676717805 -0.028962474649629675 0 0.0019277023626402422 -0.028249672184389583 0 0.00189668360962418 -0.028596025779388013 0 0.0019277023626402422 -0.028249672184389583 0 0.00189668360962418 -0.028596025779388013 0 0.0016890082397140657 -0.027691031190992182 0 0.0019534891061173489 -0.029428827674329725 0 0.0020873288826891013 -0.029197001216447138 0 0.001733850321935739 -0.029068098506160402 0 0.0020873288826891013 -0.029197001216447138 0 0.00189668360962418 -0.028596025779388013 0 0.001733850321935739 -0.029068098506160402 0 0.00189668360962418 -0.028596025779388013 0 0.001733850321935739 -0.029068098506160402 0 0.0013372800009482922 -0.028290128372748538 0 0.0011274838619383732 -0.029291304938128735 0 0.001733850321935739 -0.029068098506160402 0 0.0013372800009482922 -0.028290128372748538 0 0.00189668360962418 -0.028596025779388013 0 0.0013372800009482922 -0.028290128372748538 0 0.0016890082397140657 -0.027691031190992182 0 0.0013372800009482922 -0.028290128372748538 0 0.0016890082397140657 -0.027691031190992182 0 0.0015282722204601204 -0.02648374231935512 0 0.0013372800009482922 -0.028290128372748538 0 0.0015282722204601204 -0.02648374231935512 0 -0.00017703862637883809 -0.02790150544419254 0 0.0011274838619383732 -0.029291304938128735 0 0.0013372800009482922 -0.028290128372748538 0 0.00020095551617406622 -0.028997881224574782 0 0.0013372800009482922 -0.028290128372748538 0 0.00020095551617406622 -0.028997881224574782 0 -0.00017703862637883809 -0.02790150544419254 0 0.002461886102197052 -0.030174014110132322 0 0.0024659892259067131 -0.030182943697903454 0 0.0024387135809266201 -0.029946260479880443 0 0.002461886102197052 -0.030174014110132322 0 0.0024387135809266201 -0.029946260479880443 0 0.0024482754107148612 -0.030117267324857859 0 0.002461886102197052 -0.030174014110132322 0 0.002396199610670266 -0.030404475896919234 0 0.0024482754107148612 -0.030117267324857859 0 0.002461886102197052 -0.030174014110132322 0 0.002396199610670266 -0.030404475896919234 0 0.002455791403570883 -0.030243026322869793 0 0.0022937325219829379 -0.030434435883766292 0 0.002402123413630356 -0.030235820059283634 0 0.002455791403570883 -0.030243026322869793 0 0.0022937325219829379 -0.030434435883766292 0 0.002396199610670266 -0.030404475896919234 0 0.002455791403570883 -0.030243026322869793 0 0.002461886102197052 -0.030174014110132322 0 0.002455791403570883 -0.030243026322869793 0 0.0024659892259067131 -0.030182943697903454 0 0.0024760905680139746 -0.030197047100889159 0 0.002455791403570883 -0.030243026322869793 0 0.0024659892259067131 -0.030182943697903454 0 0.0019527829378683198 -0.030010908523001891 0 0.0022572535491159531 -0.030249055913298208 0 0.0024268745101513386 -0.029883340949715561 0 0.0024268890256263762 -0.02986621855039168 0 0.0024387135809266201 -0.029946260479880443 0 0.0014618985821587957 -0.029921862160803878 0 0.0026050085658514562 -0.030045168288391644 0 0.0024215152817538047 -0.029875854475248525 0 0.0024268745101513386 -0.029883340949715561 0 0.0024387135809266201 -0.029946260479880443 0 0.0023584768525169754 -0.030312879853603314 0 0.0024659892259067131 -0.030182943697903454 0 0.0024387135809266201 -0.029946260479880443 0 0.002391984516042616 -0.029922128598216382 0 0.0024070076113630063 -0.029849252728523349 0 0.0023378855828807433 -0.029758892422882249 0 0.0008657162087238057 -0.029838283549834903 0 0.0026273131161139813 -0.02991335428463783 0 0.0023746904755474621 -0.029966975285324826 0 0.0022799312708382453 -0.029814753129052591 0 0.0023378855828807433 -0.029758892422882249 0 0.0008657162087238057 -0.029838283549834903 0 0.0027300640767785132 -0.030133553243489083 0 0.002391984516042616 -0.029922128598216382 0 0.0024268745101513386 -0.029883340949715561 0 0.0024070076113630063 -0.029849252728523349 0 0.0024268745101513386 -0.029883340949715561 0 0.0024268890256263762 -0.02986621855039168 0 0.0024070076113630063 -0.029849252728523349 0 0.0024268890256263762 -0.02986621855039168 0 0.0024070076113630063 -0.029849252728523349 0 0.0024005232598233377 -0.029793171762912241 0 0.0024070076113630063 -0.029849252728523349 0 0.0023378855828807433 -0.029758892422882249 0 0.0024005232598233377 -0.029793171762912241 0 0.0023378855828807433 -0.029758892422882249 0 0.0024005232598233377 -0.029793171762912241 0 0.0023418149254592724 -0.029549966278601666 0 0.0024268890256263762 -0.02986621855039168 0 0.0024005232598233377 -0.029793171762912241 0 0.0024239223291569259 -0.029741574739326405 0 0.0024005232598233377 -0.029793171762912241 0 0.0024239223291569259 -0.029741574739326405 0 0.0023418149254592724 -0.029549966278601666 0 0.0024239223291569259 -0.029741574739326405 0 0.0024387135809266201 -0.029946260479880443 0 0.0024688459019194401 -0.029773413906168004 0 0.0024268890256263762 -0.02986621855039168 0 0.0024239223291569259 -0.029741574739326405 0 0.0024387135809266201 -0.029946260479880443 0 0.0024688459019194401 -0.029773413906168004 0 0.0025479546228235174 -0.029469588215029836 0 0.0024482754107148612 -0.030117267324857859 0 0.0024239223291569259 -0.029741574739326405 0 0.0024688459019194401 -0.029773413906168004 0 0.002400888259672114 -0.029445179649419586 0 0.0024239223291569259 -0.029741574739326405 0 0.0023418149254592724 -0.029549966278601666 0 0.002400888259672114 -0.029445179649419586 0 0.0021780795676717805 -0.028962474649629675 0 0.0023418149254592724 -0.029549966278601666 0 0.002400888259672114 -0.029445179649419586 0 0.002400888259672114 -0.029445179649419586 0 0.0022945319573215513 -0.029018482617792687 0 0.0025479546228235174 -0.029469588215029836 0 0.0021780795676717805 -0.028962474649629675 0 0.002400888259672114 -0.029445179649419586 0 0.0022945319573215513 -0.029018482617792687 0 0.0024688459019194401 -0.029773413906168004 0 0.002400888259672114 -0.029445179649419586 0 0.0025479546228235174 -0.029469588215029836 0 0.0025479546228235174 -0.029469588215029836 0 0.0024482754107148612 -0.030117267324857859 0 0.0023094711361794375 -0.030287659123439115 0 0.0024387135809266201 -0.029946260479880443 0 0.0024688459019194401 -0.029773413906168004 0 0.0024482754107148612 -0.030117267324857859 0 0.0023149558482786145 -0.030632229592703002 0 0.002396199610670266 -0.030404475896919234 0 0.0024482754107148612 -0.030117267324857859 0 0.0023149558482786145 -0.030632229592703002 0 0.0024482754107148612 -0.030117267324857859 0 0.0023094711361794375 -0.030287659123439115 0 0.0023094711361794375 -0.030287659123439115 0 0.0022349138668167462 -0.030291875216364703 0 0.002242605605279419 -0.0308881683912067 0 0.0023094711361794375 -0.030287659123439115 0 0.0022349138668167462 -0.030291875216364703 0 0.0022747467060304075 -0.030068227990194953 0 0.0022349138668167462 -0.030291875216364703 0 0.0022613347577222511 -0.030039620149716586 0 0.0024734696173542231 -0.030209940319659324 0 0.0022349138668167462 -0.030291875216364703 0 0.0022281430923353023 -0.03022325079052508 0 0.0022613347577222511 -0.030039620149716586 0 0.0022349138668167462 -0.030291875216364703 0 0.0022747467060304075 -0.030068227990194953 0 0.0022281430923353023 -0.03022325079052508 0 0.0025479546228235174 -0.029469588215029836 0 0.0023094711361794375 -0.030287659123439115 0 0.0022747467060304075 -0.030068227990194953 0 0.0025479546228235174 -0.029469588215029836 0 0.0022650535810173444 -0.028572605157594279 0 0.0026058112195164636 -0.028219405839404112 0 0.0025479546228235174 -0.029469588215029836 0 0.0022747467060304075 -0.030068227990194953 0 0.0022281430923353023 -0.03022325079052508 0 0.0025195176634457759 -0.029452892383905638 0 0.0024027002603742324 -0.029225858764796813 0 0.0022945319573215513 -0.029018482617792687 0 0.0025479546228235174 -0.029469588215029836 0 0.0022650535810173444 -0.028572605157594279 0 0.0022650535810173444 -0.028572605157594279 0 0.0021003779511212808 -0.028478922857392296 0 0.0021373978293294624 -0.028079691458791609 0 0.0022945319573215513 -0.029018482617792687 0 0.0022650535810173444 -0.028572605157594279 0 0.0021003779511212808 -0.028478922857392296 0 0.0023107195330052308 -0.028131917621051342 0 0.0022849511648272078 -0.028046640610489667 0 0.0021373978293294624 -0.028079691458791609 0 0.0022650535810173444 -0.028572605157594279 0 0.0023107195330052308 -0.028131917621051342 0 0.0021373978293294624 -0.028079691458791609 0 0.0022650535810173444 -0.028572605157594279 0 0.0023107195330052308 -0.028131917621051342 0 0.0026058112195164636 -0.028219405839404112 0 0.0026058112195164636 -0.028219405839404112 0 0.0023094914332950751 -0.028033803358057559 0 0.0022550524757256976 -0.028054815336119587 0 0.0023107195330052308 -0.028131917621051342 0 0.0026058112195164636 -0.028219405839404112 0 0.0023094914332950751 -0.028033803358057559 0 0.0022249271021197192 -0.028144265609495265 0 0.0024413602836653174 -0.026985787977259375 0 0.0023107195330052308 -0.028131917621051342 0 0.0023094914332950751 -0.028033803358057559 0 0.0022849511648272078 -0.028046640610489667 0 0.0023094914332950751 -0.028033803358057559 0 0.0022849511648272078 -0.028046640610489667 0 0.0022980101114126609 -0.028023389115730379 0 0.0022849511648272078 -0.028046640610489667 0 0.0022980101114126609 -0.028023389115730379 0 0.0020580986984676934 -0.028041552609811449 0 0.0023094914332950751 -0.028033803358057559 0 0.0022550524757256976 -0.028054815336119587 0 0.0022030731944148408 -0.028210276010999624 0 0.0023094914332950751 -0.028033803358057559 0 0.0022980101114126609 -0.028023389115730379 0 0.0022030731944148408 -0.028210276010999624 0 0.0022613347577222511 -0.030039620149716586 0 0.0019164890572862423 -0.029339525385184761 0 0.0025446146005153741 -0.029690823604068588 0 0.0021381409250157148 -0.028981076129633791 0 0.0019907892881417966 -0.02880042488200334 0 0.0019941586865823281 -0.02989461002426479 0 0.0022613347577222511 -0.030039620149716586 0 0.0019164890572862423 -0.029339525385184761 0 0.0022281430923353023 -0.03022325079052508 0 0.0019941586865823281 -0.02989461002426479 0 0.0022613347577222511 -0.030039620149716586 0 0.0024027002603742324 -0.029225858764796813 0 0.0021381409250157148 -0.028981076129633791 0 0.0019216535470579126 -0.023451758071976664 0 0.0015282722204601204 -0.02648374231935512 0 0.0045033651140979399 -0.022437153709181423 0 0.0016737955743567794 -0.026329476447164948 0 0.0030758080108825529 -0.025486833746059173 0 0.0019216535470579126 -0.023451758071976664 0 0.0015282722204601204 -0.02648374231935512 0 -0.00031725533785956353 -0.02441314372653023 0 0.0016890082397140657 -0.027691031190992182 0 0.0015282722204601204 -0.02648374231935512 0 0.0016078670511669819 -0.027232410329796026 0 0.0016890082397140657 -0.027691031190992182 0 0.0016078670511669819 -0.027232410329796026 0 0.0017258998050935883 -0.027697342733068286 0 0.0019216535470579126 -0.023451758071976664 0 0.0045033651140979399 -0.022437153709181423 0 0.0040572098898530411 -0.02172715227644529 0 0.0016078670511669819 -0.027232410329796026 0 0.0016570616713226871 -0.027591654164519485 0 0.0017258998050935883 -0.027697342733068286 0 0.0016078670511669819 -0.027232410329796026 0 0.0016570616713226871 -0.027591654164519485 0 0.0017132526863669613 -0.027710106478409581 0 0.0015282722204601204 -0.02648374231935512 0 0.0016078670511669819 -0.027232410329796026 0 0.0017132526863669613 -0.027710106478409581 0 0.0016570616713226871 -0.027591654164519485 0 0.0017132526863669613 -0.027710106478409581 0 0.0017168807745402339 -0.027670882662026917 0 0.0016570616713226871 -0.027591654164519485 0 0.0017168807745402339 -0.027670882662026917 0 0.0017390073246187764 -0.027714814675212873 0 0.0017168807745402339 -0.027670882662026917 0 0.0017390073246187764 -0.027714814675212873 0 0.0018316817955746595 -0.027704724340203428 0 0.0017390073246187764 -0.027714814675212873 0 0.0018947647875164416 -0.027951632960248874 0 0.0018316817955746595 -0.027704724340203428 0 0.0016570616713226871 -0.027591654164519485 0 0.0017390073246187764 -0.027714814675212873 0 0.0017258998050935883 -0.027697342733068286 0 0.0017390073246187764 -0.027714814675212873 0 0.0017258998050935883 -0.027697342733068286 0 0.0018947647875164416 -0.027951632960248874 0 0.0019277023626402422 -0.028249672184389583 0 0.0017258998050935883 -0.027697342733068286 0 0.0018947647875164416 -0.027951632960248874 0 0.0019277023626402422 -0.028249672184389583 0 0.0016890082397140657 -0.027691031190992182 0 0.0017258998050935883 -0.027697342733068286 0 0.0019277023626402422 -0.028249672184389583 0 0.0021003779511212808 -0.028478922857392296 0 0.0018947647875164416 -0.027951632960248874 0 0.0021003779511212808 -0.028478922857392296 0 0.0021373978293294624 -0.028079691458791609 0 0.0018947647875164416 -0.027951632960248874 0 0.0021373978293294624 -0.028079691458791609 0 0.0018947647875164416 -0.027951632960248874 0 0.0018316817955746595 -0.027704724340203428 0 0.0021024511521278151 -0.028323126545776008 0 0.0024413602836653174 -0.026985787977259375 0 0.0022849511648272078 -0.028046640610489667 0 0.0021373978293294624 -0.028079691458791609 0 0.0021684822004130332 -0.027996364866394428 0 0.0021373978293294624 -0.028079691458791609 0 0.0020289608130931668 -0.027411068033890457 0 0.0018316817955746595 -0.027704724340203428 0 0.0021177199109889372 -0.02781455003795217 0 0.0020580986984676934 -0.028041552609811449 0 0.0019198095308639786 -0.027732235900399114 0 0.0022980101114126609 -0.028023389115730379 0 0.0021177199109889372 -0.02781455003795217 0 0.0020580986984676934 -0.028041552609811449 0 0.0024413602836653174 -0.026985787977259375 0 0.0013359629129133012 -0.023242420780508463 0 0.0026887201281884884 -0.024032018937698806 0 0.0019852743460015794 -0.023260370808967742 0 0.0023358567934375078 -0.022883671782544999 0 0.0024413602836653174 -0.026985787977259375 0 0.0030338285672157563 -0.021097052015921294 0 0.0020289608130931668 -0.027411068033890457 0 0.001757159813216679 -0.027378701522412969 0 0.001831390265832859 -0.027508886667078299 0 0.0026887201281884884 -0.024032018937698806 0 0.0019852743460015794 -0.023260370808967742 0 0.0016783945110900413 -0.023715592802916446 0 -0.00048309347416959761 -0.015465214130338306 0 -0.00048103334190756472 -0.015409490303534669 0 -0.0005630281962590377 -0.015543776729017966 0 0.001699039556118273 -0.020586159933360753 0 0.0030338285672157563 -0.021097052015921294 0 0.001699039556118273 -0.020586159933360753 0 0.00095825258759400084 -0.021032374041118913 0 0.001699039556118273 -0.020586159933360753 0 0.0013359629129133012 -0.023242420780508463 0 -0.00048309347416959761 -0.015465214130338306 0 -0.00048103334190756472 -0.015409490303534669 0 -0.0003856823110714295 -0.015654773927959536 0 0.001757159813216679 -0.027378701522412969 0 0.001831390265832859 -0.027508886667078299 0 0.0017573364656704668 -0.027596057678687287 0 0.0017132526863669613 -0.027710106478409581 0 0.001757159813216679 -0.027378701522412969 0 0.0017573364656704668 -0.027596057678687287 0 0.0020289608130931668 -0.027411068033890457 0 0.001831390265832859 -0.027508886667078299 0 0.0018316817955746595 -0.027704724340203428 0 0.001831390265832859 -0.027508886667078299 0 0.0018316817955746595 -0.027704724340203428 0 0.0017573364656704668 -0.027596057678687287 0 0.0017168807745402339 -0.027670882662026917 0 0.0018316817955746595 -0.027704724340203428 0 0.0017573364656704668 -0.027596057678687287 0 0.0030758080108825529 -0.025486833746059173 0 0.0030338285672157563 -0.021097052015921294 0 0.0030338285672157563 -0.021097052015921294 0 0.0054531869974168857 -0.020685928550648068 0 0.0065627858300365462 -0.019204183513336942 0 0.0040572098898530411 -0.02172715227644529 0 0.0035949745922982733 -0.01982810201485749 0 0.0045033651140979399 -0.022437153709181423 0 0.0063050180668968482 -0.019422195765847649 0 0.0040572098898530411 -0.02172715227644529 0 0.0017132526863669613 -0.027710106478409581 0 0.0017168807745402339 -0.027670882662026917 0 0.0017573364656704668 -0.027596057678687287 0 0.0030338285672157563 -0.021097052015921294 0 0.00034386267485221253 -0.016001216363153433 0 0.0065627858300365462 -0.019204183513336942 0 0.0035949745922982733 -0.01982810201485749 0 0.0023986360464664375 -0.017952925938734883 0 -0.00048103334190756472 -0.015409490303534669 0 -0.0003856823110714295 -0.015654773927959536 0 -0.0015904246074227401 -0.015249454969287033 0 0.0035949745922982733 -0.01982810201485749 0 0.0023986360464664375 -0.017952925938734883 0 0.0015401123076094684 -0.020505492410240529 0 0.0040572098898530411 -0.02172715227644529 0 0.0035949745922982733 -0.01982810201485749 0 0.0015401123076094684 -0.020505492410240529 0 0.0019216535470579126 -0.023451758071976664 0 0.0040572098898530411 -0.02172715227644529 0 0.0015401123076094684 -0.020505492410240529 0 -0.0015904246074227401 -0.015249454969287033 0 -0.001494647801405017 -0.013897766869070974 0 -0.0021915896609148743 -0.014221159555869847 0 -0.0015904246074227401 -0.015249454969287033 0 -0.001494647801405017 -0.013897766869070974 0 -0.00098602378227515539 -0.014652668207850723 0 -0.00048103334190756472 -0.015409490303534669 0 -0.0015904246074227401 -0.015249454969287033 0 -0.00098602378227515539 -0.014652668207850723 0 -0.00098602378227515539 -0.014652668207850723 0 -0.0008922754115310847 -0.013989620574237012 0 -0.00029516420763048788 -0.014248521966883332 0 -0.001494647801405017 -0.013897766869070974 0 -0.00098602378227515539 -0.014652668207850723 0 -0.0008922754115310847 -0.013989620574237012 0 -0.00040423119327299934 -0.014358268836790268 0 -0.00027226024495849552 -0.017560891403964541 0 -0.00048103334190756472 -0.015409490303534669 0 -0.00047252094699787929 -0.015836346895125652 0 -0.0005630281962590377 -0.015543776729017966 0 -0.00027226024495849552 -0.017560891403964541 0 0.00095825258759400084 -0.021032374041118913 0 0.0011519121056163841 -0.022509306864435391 0 0.0009833546463793876 -0.021929472778937965 0 0.00090509089685515437 -0.022476811987056641 0 -0.00048103334190756472 -0.015409490303534669 0 -0.00098602378227515539 -0.014652668207850723 0 -0.00029516420763048788 -0.014248521966883332 0 0.0020019609395948001 -0.020632093628444245 0 0.00046941063988456837 -0.022260202436541927 0 0.00059898913038205234 -0.02268432135579301 0 0.00093416948300872199 -0.022067371910041943 0 0.00094301568874301895 -0.022099060399942482 0 0.000561287541843774 -0.022407467387037198 0 0.00094301568874301895 -0.022099060399942482 0 0.00066115154123489394 -0.022459326470208377 0 0.000561287541843774 -0.022407467387037198 0 0.00095825258759400084 -0.021032374041118913 0 0.00056226140435250264 -0.022691562385985839 0 0.0009833546463793876 -0.021929472778937965 0 0.00066115154123489394 -0.022459326470208377 0 0.00090509089685515437 -0.022476811987056641 0 0.0021177199109889372 -0.02781455003795217 0 0.0019198095308639786 -0.027732235900399114 0 0.0022096421011681766 -0.027422712907045305 0 0.0013359629129133012 -0.023242420780508463 0 0.001914083804751791 -0.026547861421345676 0 0.0013359629129133012 -0.023242420780508463 0 0.00095825258759400084 -0.021032374041118913 0 0.0014578383222919383 -0.026075328340785651 0 0.001914083804751791 -0.026547861421345676 0 0.00066115154123489394 -0.022459326470208377 0 0.00071003615032074667 -0.023038800227664181 0 0.000561287541843774 -0.022407467387037198 0 0.00066115154123489394 -0.022459326470208377 0 0.00087344143255398447 -0.022721127827062582 0 0.00071003615032074667 -0.023038800227664181 0 0.00066115154123489394 -0.022459326470208377 0 0.00090509089685515437 -0.022476811987056641 0 0.00087344143255398447 -0.022721127827062582 0 0.0011519121056163841 -0.022509306864435391 0 0.00090509089685515437 -0.022476811987056641 0 0.00087344143255398447 -0.022721127827062582 0 0.00087344143255398447 -0.022721127827062582 0 0.00071003615032074667 -0.023038800227664181 0 0.0010011165571256208 -0.023101204852929783 0 0.0014578383222919383 -0.026075328340785651 0 0.00041194778001153574 -0.023328497972725536 0 0.00071003615032074667 -0.023038800227664181 0 0.0010011165571256208 -0.023101204852929783 0 0.00085863882468318535 -0.023670225065813094 0 7.0672403316980647e-05 -0.021449333490031735 0 0.00041194778001153574 -0.023328497972725536 0 0.0020401463534312604 -0.028454026164861805 0 0.0020500815378493588 -0.028472046030166853 0 0.0019856190647401508 -0.028421481275223624 0 -0.00067300325390754834 -0.01962881610668623 0 -0.00079444896143335655 -0.019275165316405496 0 -0.00088119736682295516 -0.019773026568102724 0 -0.00067300325390754834 -0.01962881610668623 0 -0.00047073786580869025 -0.019468049107691406 0 -0.00079444896143335655 -0.019275165316405496 0 -0.00067300325390754834 -0.01962881610668623 0 -0.00047073786580869025 -0.019468049107691406 0 -0.00060565170863051269 -0.019861859603223862 0 -0.0008922754115310847 -0.013989620574237012 0 -0.00029516420763048788 -0.014248521966883332 0 -0.00078736099834263585 -0.013192586260248442 0 0.0011519121056163841 -0.022509306864435391 0 0.00087344143255398447 -0.022721127827062582 0 0.0010011165571256208 -0.023101204852929783 0 -0.00027226024495849552 -0.017560891403964541 0 7.0672403316980647e-05 -0.021449333490031735 0 -0.00065748964476282606 -0.018725513539014551 0 -0.00047073786580869025 -0.019468049107691406 0 -0.00079444896143335655 -0.019275165316405496 0 -0.00027226024495849552 -0.017560891403964541 0 -0.00068656460583087133 -0.016145848485957005 0 -0.001494647801405017 -0.013897766869070974 0 -0.0008922754115310847 -0.013989620574237012 0 -0.00078736099834263585 -0.013192586260248442 0 -0.001494647801405017 -0.013897766869070974 0 -0.00078736099834263585 -0.013192586260248442 0 -0.001848985086220614 -0.012896358246283711 0 -0.001494647801405017 -0.013897766869070974 0 -0.001848985086220614 -0.012896358246283711 0 -0.0021966977172650122 -0.013433792238831489 0 0.0020338293752242757 -0.028272669334034609 0 0.0020981562311455527 -0.028428270833355848 0 0.0020023424831562223 -0.028608519185866328 0 0.0019907892881417966 -0.02880042488200334 0 0.0020010024021407799 -0.028614772173655566 0 0.0019164890572862423 -0.029339525385184761 0 0.0020023424831562223 -0.028608519185866328 0 0.002441779521700192 -0.028969694008257278 0 0.0019164890572862423 -0.029339525385184761 0 0.002441779521700192 -0.028969694008257278 0 0.0025446146005153741 -0.029690823604068588 0 0.0022550524757256976 -0.028054815336119587 0 0.0020338293752242757 -0.028272669334034609 0 0.0022030731944148408 -0.028210276010999624 0 0.0020338293752242757 -0.028272669334034609 0 0.0022030731944148408 -0.028210276010999624 0 0.0020981562311455527 -0.028428270833355848 0 0.0022980101114126609 -0.028023389115730379 0 0.0021177199109889372 -0.02781455003795217 0 0.0022096421011681766 -0.027422712907045305 0 0.0024535540650743462 -0.028591469292681363 0 0.001914083804751791 -0.026547861421345676 0 0.0022980101114126609 -0.028023389115730379 0 0.0022030731944148408 -0.028210276010999624 0 0.0023471309625856551 -0.028310441342330107 0 0.0020401463534312604 -0.028454026164861805 0 0.0020800661393588207 -0.028510516922920941 0 0.0021388901259411703 -0.028477940660784285 0 0.0022030731944148408 -0.028210276010999624 0 0.0023471309625856551 -0.028310441342330107 0 0.0021388901259411703 -0.028477940660784285 0 0.001914083804751791 -0.026547861421345676 0 0.0019493737998811708 -0.028864254654119934 0 0.0022030731944148408 -0.028210276010999624 0 0.0020981562311455527 -0.028428270833355848 0 0.0021388901259411703 -0.028477940660784285 0 0.0020981562311455527 -0.028428270833355848 0 0.0020577541017482953 -0.028525638984027213 0 0.0021388901259411703 -0.028477940660784285 0 0.0020577541017482953 -0.028525638984027213 0 0.0021388901259411703 -0.028477940660784285 0 0.0020500815378493588 -0.028472046030166853 0 0.0020401463534312604 -0.028454026164861805 0 0.0021388901259411703 -0.028477940660784285 0 0.0020500815378493588 -0.028472046030166853 0 0.0020500815378493588 -0.028472046030166853 0 0.0020020251610781488 -0.028447528980727322 0 0.0019856190647401508 -0.028421481275223624 0 0.0020500815378493588 -0.028472046030166853 0 0.0020246847755359511 -0.028487056839177183 0 0.0020020251610781488 -0.028447528980727322 0 0.0020577541017482953 -0.028525638984027213 0 0.0020344575652598003 -0.028511469422681054 0 0.0020246847755359511 -0.028487056839177183 0 0.0020577541017482953 -0.028525638984027213 0 0.0020500815378493588 -0.028472046030166853 0 0.0020246847755359511 -0.028487056839177183 0 0.0020981562311455527 -0.028428270833355848 0 0.0020577541017482953 -0.028525638984027213 0 0.0020023424831562223 -0.028608519185866328 0 0.0020577541017482953 -0.028525638984027213 0 0.0020344575652598003 -0.028511469422681054 0 0.0020023424831562223 -0.028608519185866328 0 0.0020023424831562223 -0.028608519185866328 0 0.0021250870325877488 -0.028491982917013124 0 0.002441779521700192 -0.028969694008257278 0 0.0020344575652598003 -0.028511469422681054 0 0.0020023424831562223 -0.028608519185866328 0 0.0021250870325877488 -0.028491982917013124 0 0.0020344575652598003 -0.028511469422681054 0 0.0021250870325877488 -0.028491982917013124 0 0.0019598790504861399 -0.028607744614116901 0 0.0018016082390264084 -0.029228049923927343 0 0.0021840466475152305 -0.029457336540725042 0 0.0020559781370743514 -0.028884200912460301 0 0.0021840466475152305 -0.029457336540725042 0 0.0025954970210470265 -0.029382956869628975 0 0.0023183341492126518 -0.028840338690971707 0 0.0021840466475152305 -0.029457336540725042 0 0.0020559781370743514 -0.028884200912460301 0 0.0023183341492126518 -0.028840338690971707 0 0.0018016082390264084 -0.029228049923927343 0 0.0021840466475152305 -0.029457336540725042 0 0.0018213751171747548 -0.029831644758174711 0 0.0019790019185849665 -0.028881357987408131 0 0.00212403182303626 -0.029411091085719165 0 0.0021840466475152305 -0.029457336540725042 0 0.0018213751171747548 -0.029831644758174711 0 0.0021615294850325056 -0.030092030262767314 0 0.0021840466475152305 -0.029457336540725042 0 0.0021615294850325056 -0.030092030262767314 0 0.0024721825790201858 -0.029895603434330904 0 0.00212403182303626 -0.029411091085719165 0 0.0022186900130834737 -0.030029162043143875 0 0.0018213751171747548 -0.029831644758174711 0 0.0021615294850325056 -0.030092030262767314 0 0.0018969037077020856 -0.03038516761936555 0 0.0026353948869231969 -0.030141566312721278 0 0.0028344463317951677 -0.029892329452743647 0 0.0029044682039705561 -0.030206304013695427 0 0.0026353948869231969 -0.030141566312721278 0 0.0029044682039705561 -0.030206304013695427 0 0.0026443517793358919 -0.030487838673739852 0 0.0021615294850325056 -0.030092030262767314 0 0.0024721825790201858 -0.029895603434330904 0 0.0024050662659387324 -0.030328544532665331 0 0.0026353948869231969 -0.030141566312721278 0 0.0024721825790201858 -0.029895603434330904 0 0.0024050662659387324 -0.030328544532665331 0 0.0024721825790201858 -0.029895603434330904 0 0.0028344463317951677 -0.029892329452743647 0 0.0025954970210470265 -0.029382956869628975 0 0.0026353948869231969 -0.030141566312721278 0 0.0024721825790201858 -0.029895603434330904 0 0.0028344463317951677 -0.029892329452743647 0 -0.00026354802645685071 -0.034946824684093478 0 -0.00049890602005261844 -0.034740088227661357 0 -0.00025180138722826932 -0.034811554106728308 0 0.0014196961253521048 -0.032268428453377747 0 0.001020703973185845 -0.032071317578974225 0 0.0021840466475152305 -0.029457336540725042 0 0.0024721825790201858 -0.029895603434330904 0 0.0025954970210470265 -0.029382956869628975 0 -0.00049890602005261844 -0.034740088227661357 0 -0.00082711344470266877 -0.034404805100468436 0 -0.00046963263755079064 -0.034443940833392472 0 0.001020703973185845 -0.032071317578974225 0 0.00075734110944648109 -0.031643505792673811 0 -0.00049890602005261844 -0.034740088227661357 0 -0.00024667000026162725 -0.034640807016143853 0 -0.00025180138722826932 -0.034811554106728308 0 -0.00049890602005261844 -0.034740088227661357 0 -0.00024667000026162725 -0.034640807016143853 0 -0.00046963263755079064 -0.034443940833392472 0 -0.00024667000026162725 -0.034640807016143853 0 -3.8302246577760407e-05 -0.034704024374309674 0 -0.00011950867434436065 -0.034508807461091549 0 -0.00024667000026162725 -0.034640807016143853 0 -3.8302246577760407e-05 -0.034704024374309674 0 -0.00010666046545940265 -0.034807219519186403 0 -3.8302246577760407e-05 -0.034704024374309674 0 -0.00010666046545940265 -0.034807219519186403 0 2.4353910135610295e-05 -0.03485069515102112 0 -0.00010666046545940265 -0.034807219519186403 0 -2.66637883933208e-05 -0.034889516448703077 0 2.4353910135610295e-05 -0.03485069515102112 0 -0.00010666046545940265 -0.034807219519186403 0 -2.66637883933208e-05 -0.034889516448703077 0 -0.00013543456520550461 -0.034911933752616614 0 -0.00010666046545940265 -0.034807219519186403 0 -0.00025180138722826932 -0.034811554106728308 0 -0.00013543456520550461 -0.034911933752616614 0 -0.00024667000026162725 -0.034640807016143853 0 -0.00010666046545940265 -0.034807219519186403 0 -0.00025180138722826932 -0.034811554106728308 0 4.1696964224187805e-08 -0.034999784280239699 0 1.6908212242435112e-05 -0.034958037542304463 0 -7.8259776429651568e-09 -0.034999998244468734 0 1.1836049782347383e-05 -0.034958883713236182 0 4.1696964224187805e-08 -0.034999784280239699 0 1.6908212242435112e-05 -0.034958037542304463 0 1.1836049782347383e-05 -0.034958883713236182 0 8.4099127979567071e-05 -0.034867186339756773 0 5.9833149463015425e-05 -0.034888902243600924 0 1.1836049782347383e-05 -0.034958883713236182 0 1.6908212242435112e-05 -0.034958037542304463 0 8.4099127979567071e-05 -0.034867186339756773 0 -3.8302246577760407e-05 -0.034704024374309674 0 8.4099127979567071e-05 -0.034867186339756773 0 2.4353910135610295e-05 -0.03485069515102112 0 -3.8302246577760407e-05 -0.034704024374309674 0 8.4099127979567071e-05 -0.034867186339756773 0 1.8731189539975426e-06 -0.034549890624034622 0 -2.66637883933208e-05 -0.034889516448703077 0 2.4353910135610295e-05 -0.03485069515102112 0 6.2208906903970525e-05 -0.034875201905017222 0 2.4353910135610295e-05 -0.03485069515102112 0 6.2208906903970525e-05 -0.034875201905017222 0 5.9833149463015425e-05 -0.034888902243600924 0 8.4099127979567071e-05 -0.034867186339756773 0 2.4353910135610295e-05 -0.03485069515102112 0 5.9833149463015425e-05 -0.034888902243600924 0 1.1836049782347383e-05 -0.034958883713236182 0 6.2208906903970525e-05 -0.034875201905017222 0 5.9833149463015425e-05 -0.034888902243600924 0 1.1836049782347383e-05 -0.034958883713236182 0 -1.9068375713878094e-05 -0.034996879570702383 0 3.9732644811784351e-06 -0.034990065120362748 0 4.1696964224187805e-08 -0.034999784280239699 0 3.9732644811784351e-06 -0.034990065120362748 0 -3.433337756553413e-09 -0.035000086004960296 0 5.3088294660115034e-06 -0.034964071636364447 0 4.0080074021565288e-05 -0.03491291797904434 0 -1.9068375713878094e-05 -0.034996879570702383 0 3.9732644811784351e-06 -0.034990065120362748 0 -5.8419427218142454e-06 -0.035000411482074667 0 1.1836049782347383e-05 -0.034958883713236182 0 4.1696964224187805e-08 -0.034999784280239699 0 3.9732644811784351e-06 -0.034990065120362748 0 -3.433337756553413e-09 -0.035000086004960296 0 -5.8419427218142454e-06 -0.035000411482074667 0 -1.3214297256555072e-05 -0.035011012564370225 0 4.2573196275138559e-09 -0.035000029945002523 0 1.3102929736660857e-05 -0.035006998130237443 0 1.1995097329912514e-05 -0.03499945623731552 0 -1.5956831621603636e-08 -0.03500001001343557 0 2.1838850539692706e-05 -0.035003547618074449 0 3.9732644811784351e-06 -0.034990065120362748 0 -3.433337756553413e-09 -0.035000086004960296 0 -5.8419427218142454e-06 -0.035000411482074667 0 -1.9068375713878094e-05 -0.034996879570702383 0 -5.8419427218142454e-06 -0.035000411482074667 0 -1.3214297256555072e-05 -0.035011012564370225 0 -1.9068375713878094e-05 -0.034996879570702383 0 -1.3214297256555072e-05 -0.035011012564370225 0 -3.4820525329930261e-05 -0.03501809710174654 0 4.0080074021565288e-05 -0.03491291797904434 0 -0.00010503512277377061 -0.03515542466289924 0 -2.66637883933208e-05 -0.034889516448703077 0 6.2208906903970525e-05 -0.034875201905017222 0 -1.7058921274604271e-05 -0.034986397193763986 0 2.1838850539692706e-05 -0.035003547618074449 0 -0.00010503512277377061 -0.03515542466289924 0 1.1995097329912514e-05 -0.03499945623731552 0 3.1797213615565463e-05 -0.035008042274884105 0 3.174721714784376e-05 -0.034989750978247712 0 1.3102929736660857e-05 -0.035006998130237443 0 1.1995097329912514e-05 -0.03499945623731552 0 3.1797213615565463e-05 -0.035008042274884105 0 4.2573196275138559e-09 -0.035000029945002523 0 1.1995097329912514e-05 -0.03499945623731552 0 1.1011952398085283e-08 -0.034999983505773991 0 -0.00026354802645685071 -0.034946824684093478 0 -0.00025180138722826932 -0.034811554106728308 0 -0.00013543456520550461 -0.034911933752616614 0 -0.00026354802645685071 -0.034946824684093478 0 -0.00013543456520550461 -0.034911933752616614 0 -0.00011582958251044018 -0.035007158053748884 0 -2.66637883933208e-05 -0.034889516448703077 0 -0.00013543456520550461 -0.034911933752616614 0 -1.7058921274604271e-05 -0.034986397193763986 0 -0.00013543456520550461 -0.034911933752616614 0 -1.7058921274604271e-05 -0.034986397193763986 0 -0.00011582958251044018 -0.035007158053748884 0 -3.5987524011137934e-05 -0.034983866420104773 0 -0.00011582958251044018 -0.035007158053748884 0 -0.00011452185553886249 -0.035085873900503231 0 -0.00010503512277377061 -0.03515542466289924 0 0.00050052325176274043 -0.033679146216814101 0 3.1797213615565463e-05 -0.035008042274884105 0 5.7875936180721294e-05 -0.034983357408127275 0 3.174721714784376e-05 -0.034989750978247712 0 -0.00010503512277377061 -0.03515542466289924 0 -6.4309835125327166e-05 -0.035015094165274332 0 0.0028344463317951677 -0.029892329452743647 0 0.0029044682039705561 -0.030206304013695427 0 0.0031204125322909604 -0.030399963918949585 0 0.0014196961253521048 -0.032268428453377747 0 0.00050052325176274043 -0.033679146216814101 0 -0.00026354802645685071 -0.034946824684093478 0 -0.00011582958251044018 -0.035007158053748884 0 -0.00011452185553886249 -0.035085873900503231 0 0.0029044682039705561 -0.030206304013695427 0 0.002915565378113015 -0.030662702295858362 0 0.0031204125322909604 -0.030399963918949585 0 0.0029044682039705561 -0.030206304013695427 0 0.0028995982682910645 -0.030542064877536409 0 0.0026443517793358919 -0.030487838673739852 0 0.002931398229380433 -0.029777385852048865 0 0.0022236249505831716 -0.031896201442244712 0 0.0022236249505831716 -0.031896201442244712 0 0.00050052325176274043 -0.033679146216814101 0 7.1683893434858415e-05 -0.034944780105231145 0 6.423488121367875e-05 -0.034948061237388035 0 4.6930115078345792e-05 -0.034968267958495919 0 5.7875936180721294e-05 -0.034983357408127275 0 4.6930115078345792e-05 -0.034968267958495919 0 3.174721714784376e-05 -0.034989750978247712 0 0.00050052325176274043 -0.033679146216814101 0 0.00018772915970987245 -0.035189871502553115 0 0.0022236249505831716 -0.031896201442244712 0 0.0014508312908790286 -0.033146588855384886 0 7.1683893434858415e-05 -0.034944780105231145 0 4.6930115078345792e-05 -0.034968267958495919 0 7.2245972752925042e-05 -0.034942961491168475 0 0.0028577906024459562 -0.030554740563807924 0 0.0029275841268908091 -0.030979443877520246 0 0.0027340417278528344 -0.030705024487559792 0 0.0022236249505831716 -0.031896201442244712 0 0.0030285458530504368 -0.030472772486137813 0 1.1995097329912514e-05 -0.03499945623731552 0 1.1011952398085283e-08 -0.034999983505773991 0 1.725856936631189e-05 -0.034987261849141436 0 4.6930115078345792e-05 -0.034968267958495919 0 3.174721714784376e-05 -0.034989750978247712 0 1.725856936631189e-05 -0.034987261849141436 0 1.1995097329912514e-05 -0.03499945623731552 0 3.174721714784376e-05 -0.034989750978247712 0 1.725856936631189e-05 -0.034987261849141436 0 4.6930115078345792e-05 -0.034968267958495919 0 1.725856936631189e-05 -0.034987261849141436 0 3.1921569043488953e-05 -0.034969247282068058 0 1.1011952398085283e-08 -0.034999983505773991 0 1.725856936631189e-05 -0.034987261849141436 0 1.1667895739010689e-08 -0.034999978124049244 0 1.725856936631189e-05 -0.034987261849141436 0 1.1667895739010689e-08 -0.034999978124049244 0 3.1921569043488953e-05 -0.034969247282068058 0 1.1667895739010689e-08 -0.034999978124049244 0 3.1921569043488953e-05 -0.034969247282068058 0 1.4045013100876554e-05 -0.034978069035074763 0 3.0653573941809734e-05 -0.034943082164069945 0 3.1921569043488953e-05 -0.034969247282068058 0 5.2598552521220691e-05 -0.034942176933498777 0 3.0653573941809734e-05 -0.034943082164069945 0 3.1921569043488953e-05 -0.034969247282068058 0 1.4045013100876554e-05 -0.034978069035074763 0 1.1667895739010689e-08 -0.034999978124049244 0 9.6076875768890853e-09 -0.034999907019736876 0 1.4045013100876554e-05 -0.034978069035074763 0 -4.5481353727701048e-05 -0.034861137368441819 0 2.165786903333038e-07 -0.034999819718797766 0 3.0653573941809734e-05 -0.034943082164069945 0 9.6076875768890853e-09 -0.034999907019736876 0 1.4045013100876554e-05 -0.034978069035074763 0 0.0029275841268908091 -0.030979443877520246 0 0.0026625789466489195 -0.030931747013460471 0 0.0027340417278528344 -0.030705024487559792 0 0.0029275841268908091 -0.030979443877520246 0 0.0026908011730207315 -0.031225809528874542 0 0.0026625789466489195 -0.030931747013460471 0 4.6930115078345792e-05 -0.034968267958495919 0 3.1921569043488953e-05 -0.034969247282068058 0 7.2245972752925042e-05 -0.034942961491168475 0 3.1921569043488953e-05 -0.034969247282068058 0 7.2245972752925042e-05 -0.034942961491168475 0 5.2598552521220691e-05 -0.034942176933498777 0 7.7567209394640703e-05 -0.034909851495608102 0 3.0653573941809734e-05 -0.034943082164069945 0 5.2598552521220691e-05 -0.034942176933498777 0 0.0013130571251733104 -0.033209271749307129 0 0.0014508312908790286 -0.033146588855384886 0 0.0030361278965403433 -0.03159019353684045 0 0.0029275841268908091 -0.030979443877520246 0 0.0026908011730207315 -0.031225809528874542 0 7.7567209394640703e-05 -0.034909851495608102 0 7.2245972752925042e-05 -0.034942961491168475 0 5.2598552521220691e-05 -0.034942176933498777 0 0.0030361278965403433 -0.03159019353684045 0 0.0026730829132287815 -0.031643037186418893 0 0.0026908011730207315 -0.031225809528874542 0 0.0026730829132287815 -0.031643037186418893 0 0.002400003580072791 -0.03131888404250311 0 0.0026908011730207315 -0.031225809528874542 0 0.002400003580072791 -0.03131888404250311 0 0.0026908011730207315 -0.031225809528874542 0 0.0024233653357557347 -0.03101115851997736 0 0.0026908011730207315 -0.031225809528874542 0 0.0024233653357557347 -0.03101115851997736 0 0.0026625789466489195 -0.030931747013460471 0 0.0024233653357557347 -0.03101115851997736 0 0.0026625789466489195 -0.030931747013460471 0 0.002555473818845324 -0.030778460832904992 0 0.0024233653357557347 -0.03101115851997736 0 0.002555473818845324 -0.030778460832904992 0 0.0023880098883332468 -0.030706799918847553 0 0.0024233653357557347 -0.03101115851997736 0 0.002181207647592367 -0.030967336496469614 0 0.0023880098883332468 -0.030706799918847553 0 0.0024233653357557347 -0.03101115851997736 0 0.0021678829299162264 -0.031171704251367047 0 0.002181207647592367 -0.030967336496469614 0 0.002400003580072791 -0.03131888404250311 0 0.0024233653357557347 -0.03101115851997736 0 0.0021678829299162264 -0.031171704251367047 0 0.0020698634002050708 -0.031777940838363467 0 0.002400003580072791 -0.03131888404250311 0 0.0021678829299162264 -0.031171704251367047 0 0.0021408911045175593 -0.031278317424193555 0 0.0021678829299162264 -0.031171704251367047 0 0.002242605605279419 -0.0308881683912067 0 0.0021678829299162264 -0.031171704251367047 0 0.002242605605279419 -0.0308881683912067 0 0.002181207647592367 -0.030967336496469614 0 0.0022485776478298981 -0.030842189362448168 0 0.002251726775121957 -0.030520019211749048 0 0.0022349138668167462 -0.030291875216364703 0 0.002242605605279419 -0.0308881683912067 0 0.0024734696173542231 -0.030209940319659324 0 0.002242605605279419 -0.0308881683912067 0 0.0020438891742485575 -0.030862194643200284 0 0.002181207647592367 -0.030967336496469614 0 0.002181207647592367 -0.030967336496469614 0 0.0021738170321871451 -0.030585486398460149 0 0.0023880098883332468 -0.030706799918847553 0 0.0020438891742485575 -0.030862194643200284 0 0.002181207647592367 -0.030967336496469614 0 0.0021738170321871451 -0.030585486398460149 0 0.0022613347577222511 -0.030039620149716586 0 0.0024734696173542231 -0.030209940319659324 0 0.0025446146005153741 -0.029690823604068588 0 0.0020438891742485575 -0.030862194643200284 0 0.0018969037077020856 -0.03038516761936555 0 0.0021738170321871451 -0.030585486398460149 0 0.002251726775121957 -0.030520019211749048 0 0.0022186900130834737 -0.030029162043143875 0 0.0021615294850325056 -0.030092030262767314 0 0.0018969037077020856 -0.03038516761936555 0 0.0021738170321871451 -0.030585486398460149 0 0.0021615294850325056 -0.030092030262767314 0 0.0021738170321871451 -0.030585486398460149 0 0.0024050662659387324 -0.030328544532665331 0 0.0026353948869231969 -0.030141566312721278 0 0.0024050662659387324 -0.030328544532665331 0 0.0026443517793358919 -0.030487838673739852 0 0.0021738170321871451 -0.030585486398460149 0 0.0024050662659387324 -0.030328544532665331 0 0.0023880098883332468 -0.030706799918847553 0 0.0024050662659387324 -0.030328544532665331 0 0.0026443517793358919 -0.030487838673739852 0 0.0023880098883332468 -0.030706799918847553 0 0.0026443517793358919 -0.030487838673739852 0 0.002555473818845324 -0.030778460832904992 0 0.0023880098883332468 -0.030706799918847553 0 0.0028995982682910645 -0.030542064877536409 0 0.0026443517793358919 -0.030487838673739852 0 0.0027340417278528344 -0.030705024487559792 0 0.0026443517793358919 -0.030487838673739852 0 0.0027340417278528344 -0.030705024487559792 0 0.002555473818845324 -0.030778460832904992 0 0.0026625789466489195 -0.030931747013460471 0 0.0027340417278528344 -0.030705024487559792 0 0.002555473818845324 -0.030778460832904992 0 -0.0047493370454741298 -0.0076918251391078617 0 -0.0051701233649418228 -0.0080428488639582227 0 -0.0038700405238697717 -0.0078281495603810224 0 -0.0034185607042241601 -0.0075376219607805094 0 -0.0043308583560623427 -0.0077365139402848495 0 -0.0062300528677326494 -0.0078448175496302758 0 -0.0062012789620717766 -0.0078970364825230056 0 -0.0057903717614134452 -0.0082498728859342479 0 -0.003647911456414158 -0.0079017905502332172 0 -0.0038700405238697717 -0.0078281495603810224 0 -0.0034185607042241601 -0.0075376219607805094 0 -0.0034584689806859696 -0.0078397793096913922 0 -0.003647911456414158 -0.0079017905502332172 0 -0.0034185607042241601 -0.0075376219607805094 0 -0.0034584689806859696 -0.0078397793096913922 0 -0.003647911456414158 -0.0079017905502332172 0 -0.0035804637381436949 -0.008099704176567581 0 -0.003647911456414158 -0.0079017905502332172 0 -0.0038700405238697717 -0.0078281495603810224 0 -0.0039230828638797182 -0.0082328567775141887 0 -0.0062300528677326494 -0.0078448175496302758 0 -0.0062012789620717766 -0.0078970364825230056 0 -0.0060501223498722447 -0.0071338757319493558 0 -0.0062300528677326494 -0.0078448175496302758 0 -0.0052160738991523809 -0.0068484065949031168 0 -0.0038347771605648086 -0.0076848758779001092 0 -0.0034185607042241601 -0.0075376219607805094 0 -0.0032375232192639884 -0.0078116046360757621 0 -0.0025113362932989236 -0.0071394047959599388 0 -0.0032375232192639884 -0.0078116046360757621 0 -0.0025113362932989236 -0.0071394047959599388 0 -0.0028320253237896246 -0.007822901018567828 0 -0.0047493370454741298 -0.0076918251391078617 0 -0.0032351148907263268 -0.0073887163382798911 0 -0.0034584689806859696 -0.0078397793096913922 0 -0.0034185607042241601 -0.0075376219607805094 0 -0.0032375232192639884 -0.0078116046360757621 0 -0.0034584689806859696 -0.0078397793096913922 0 -0.0032375232192639884 -0.0078116046360757621 0 -0.0033402025757628272 -0.0080980571932625645 0 -0.0032375232192639884 -0.0078116046360757621 0 -0.0033402025757628272 -0.0080980571932625645 0 -0.0031316380647933512 -0.0081896020495286943 0 -0.0033402025757628272 -0.0080980571932625645 0 -0.0031316380647933512 -0.0081896020495286943 0 -0.0034158181817456135 -0.0083956593393848152 0 -0.0031316380647933512 -0.0081896020495286943 0 -0.0028320253237896246 -0.007822901018567828 0 -0.0028114331826870698 -0.008155941099216954 0 -0.0032375232192639884 -0.0078116046360757621 0 -0.0031316380647933512 -0.0081896020495286943 0 -0.0028320253237896246 -0.007822901018567828 0 -0.0031316380647933512 -0.0081896020495286943 0 -0.0028114331826870698 -0.008155941099216954 0 -0.0029552051442302925 -0.0084865804899501053 0 -0.0031316380647933512 -0.0081896020495286943 0 -0.0032071547603399766 -0.0085296832705612381 0 -0.0029552051442302925 -0.0084865804899501053 0 -0.0031316380647933512 -0.0081896020495286943 0 -0.0032071547603399766 -0.0085296832705612381 0 -0.0034158181817456135 -0.0083956593393848152 0 -0.0032071547603399766 -0.0085296832705612381 0 -0.0034158181817456135 -0.0083956593393848152 0 -0.0034356074664064636 -0.0088093177207936389 0 -0.0034158181817456135 -0.0083956593393848152 0 -0.0035804637381436949 -0.008099704176567581 0 -0.0038256038934358499 -0.0086725070908421267 0 -0.0034158181817456135 -0.0083956593393848152 0 -0.0038256038934358499 -0.0086725070908421267 0 -0.0034356074664064636 -0.0088093177207936389 0 -0.0033402025757628272 -0.0080980571932625645 0 -0.0034158181817456135 -0.0083956593393848152 0 -0.0035804637381436949 -0.008099704176567581 0 -0.0034584689806859696 -0.0078397793096913922 0 -0.0033402025757628272 -0.0080980571932625645 0 -0.0035804637381436949 -0.008099704176567581 0 -0.003647911456414158 -0.0079017905502332172 0 -0.0035804637381436949 -0.008099704176567581 0 -0.0039230828638797182 -0.0082328567775141887 0 -0.0035804637381436949 -0.008099704176567581 0 -0.0038256038934358499 -0.0086725070908421267 0 -0.0039230828638797182 -0.0082328567775141887 0 -0.0038256038934358499 -0.0086725070908421267 0 -0.0039230828638797182 -0.0082328567775141887 0 -0.004568227581168152 -0.0085965787022579745 0 -0.0039230828638797182 -0.0082328567775141887 0 -0.004568227581168152 -0.0085965787022579745 0 -0.0043308583560623427 -0.0077365139402848495 0 -0.004568227581168152 -0.0085965787022579745 0 -0.0051144216425889049 -0.00956138670694167 0 -0.0052756967107871217 -0.0087584554550707971 0 -0.004568227581168152 -0.0085965787022579745 0 -0.0054146190704189258 -0.007836618697704089 0 -0.0052756967107871217 -0.0087584554550707971 0 -0.004568227581168152 -0.0085965787022579745 0 -0.0043308583560623427 -0.0077365139402848495 0 -0.0054146190704189258 -0.007836618697704089 0 -0.0051701233649418228 -0.0080428488639582227 0 -0.0046088798721734972 -0.0074858840391092835 0 -0.0038700405238697717 -0.0078281495603810224 0 -0.0039230828638797182 -0.0082328567775141887 0 -0.0043308583560623427 -0.0077365139402848495 0 -0.0062012789620717766 -0.0078970364825230056 0 -0.0057903717614134452 -0.0082498728859342479 0 -0.0058776538315200863 -0.0088709077459007569 0 -0.0057903717614134452 -0.0082498728859342479 0 -0.0058776538315200863 -0.0088709077459007569 0 -0.0051511451757779506 -0.0090152318522300334 0 -0.0057903717614134452 -0.0082498728859342479 0 -0.0051511451757779506 -0.0090152318522300334 0 -0.004662410503859047 -0.0083347262025426014 0 -0.0058776538315200863 -0.0088709077459007569 0 -0.0051511451757779506 -0.0090152318522300334 0 -0.0050521806452983051 -0.0098312119419394928 0 -0.0080996270678256547 -0.006465725329655018 0 -0.0097727632354021269 -0.0052164927929351009 0 -0.0085325128193708098 -0.0052109152515258496 0 -0.0075626757962416417 -0.0070867172863383274 0 -0.0049897254122007852 -0.01052181610125435 0 -0.0051511451757779506 -0.0090152318522300334 0 -0.0050521806452983051 -0.0098312119419394928 0 -0.0049185512780131413 -0.0096835380359882456 0 -0.0049897254122007852 -0.01052181610125435 0 -0.0048504465795756197 -0.010223335067232976 0 -0.0080996270678256547 -0.006465725329655018 0 -0.0075608538827498413 -0.0050438027623048122 0 -0.0068847239137460698 -0.0064526172500496302 0 -0.0080996270678256547 -0.006465725329655018 0 -0.0075608538827498413 -0.0050438027623048122 0 -0.0085325128193708098 -0.0052109152515258496 0 -0.0075608538827498413 -0.0050438027623048122 0 -0.006537476091914165 -0.0051298749171469014 0 -0.0068847239137460698 -0.0064526172500496302 0 -0.006537476091914165 -0.0051298749171469014 0 -0.0068847239137460698 -0.0064526172500496302 0 -0.0057067208419598371 -0.0060758493913858243 0 -0.0062012789620717766 -0.0078970364825230056 0 -0.0080996270678256547 -0.006465725329655018 0 -0.0068847239137460698 -0.0064526172500496302 0 -0.0059765455345098762 -0.008162516649725492 0 -0.0075626757962416417 -0.0070867172863383274 0 -0.0068847239137460698 -0.0064526172500496302 0 -0.0060501223498722447 -0.0071338757319493558 0 -0.0057067208419598371 -0.0060758493913858243 0 -0.0062012789620717766 -0.0078970364825230056 0 -0.0068847239137460698 -0.0064526172500496302 0 -0.0060501223498722447 -0.0071338757319493558 0 -0.0052160738991523809 -0.0068484065949031168 0 -0.0057067208419598371 -0.0060758493913858243 0 -0.004246960055863982 -0.0055567763576753314 0 -0.0062300528677326494 -0.0078448175496302758 0 -0.0060501223498722447 -0.0071338757319493558 0 -0.0052160738991523809 -0.0068484065949031168 0 -0.0060501223498722447 -0.0071338757319493558 0 -0.0052160738991523809 -0.0068484065949031168 0 -0.0057067208419598371 -0.0060758493913858243 0 -0.0057067208419598371 -0.0060758493913858243 0 -0.004246960055863982 -0.0055567763576753314 0 -0.0055583404494842347 -0.0046129131101536351 0 -0.006537476091914165 -0.0051298749171469014 0 -0.0057067208419598371 -0.0060758493913858243 0 -0.0055583404494842347 -0.0046129131101536351 0 -0.004246960055863982 -0.0055567763576753314 0 -0.0027643249083167988 -0.0057808261000442101 0 -0.0028816851364196041 -0.0036397607583507651 0 -0.0027643249083167988 -0.0057808261000442101 0 -0.0012178194249151712 -0.0050133343326931017 0 -0.0028816851364196041 -0.0036397607583507651 0 -0.0016690458227473521 -0.0064365911322676241 0 -0.0016530375928403248 -0.0075326789711271241 0 -0.0038347771605648086 -0.0076848758779001092 0 -0.0027643249083167988 -0.0057808261000442101 0 -0.0016690458227473521 -0.0064365911322676241 0 -0.0038347771605648086 -0.0076848758779001092 0 -0.004246960055863982 -0.0055567763576753314 0 -0.0027643249083167988 -0.0057808261000442101 0 -0.0038347771605648086 -0.0076848758779001092 0 -0.0052160738991523809 -0.0068484065949031168 0 -0.004246960055863982 -0.0055567763576753314 0 -0.0038347771605648086 -0.0076848758779001092 0 -2.0132463666718331e-05 -0.0054550912578330479 0 6.8485685502361573e-05 -0.0062875140526802023 0 0.00091619595959928975 -0.0057431064160019963 0 0.00057803201106807281 -0.0048073451463952104 0 -2.0132463666718331e-05 -0.0054550912578330479 0 0.00091619595959928975 -0.0057431064160019963 0 0.00057803201106807281 -0.0048073451463952104 0 -2.0132463666718331e-05 -0.0054550912578330479 0 -8.0187977529944072e-05 -0.0044543164816181662 0 -2.0132463666718331e-05 -0.0054550912578330479 0 -0.0012178194249151712 -0.0050133343326931017 0 -8.0187977529944072e-05 -0.0044543164816181662 0 -2.0132463666718331e-05 -0.0054550912578330479 0 -0.0012178194249151712 -0.0050133343326931017 0 -0.00064709581921316105 -0.0062706121651011281 0 -0.0027643249083167988 -0.0057808261000442101 0 -0.0012178194249151712 -0.0050133343326931017 0 -0.0016690458227473521 -0.0064365911322676241 0 -0.0012178194249151712 -0.0050133343326931017 0 -0.0016690458227473521 -0.0064365911322676241 0 -0.00064709581921316105 -0.0062706121651011281 0 -0.0010648485797995113 -0.0068096611874300288 0 -0.0002907339896557155 -0.0069969874898076923 0 -0.0016530375928403248 -0.0075326789711271241 0 -0.0016690458227473521 -0.0064365911322676241 0 -0.0010648485797995113 -0.0068096611874300288 0 -0.0016530375928403248 -0.0075326789711271241 0 -0.0010648485797995113 -0.0068096611874300288 0 -0.00064709581921316105 -0.0062706121651011281 0 -0.0002907339896557155 -0.0069969874898076923 0 -0.0016690458227473521 -0.0064365911322676241 0 -0.0010648485797995113 -0.0068096611874300288 0 -0.00064709581921316105 -0.0062706121651011281 0 0.00029960769638474064 -0.0066153822658501617 0 0.00050355996181175697 -0.0074350505417723556 0 0.00091619595959928975 -0.0057431064160019963 0 -0.00064709581921316105 -0.0062706121651011281 0 -0.0002907339896557155 -0.0069969874898076923 0 6.8485685502361573e-05 -0.0062875140526802023 0 -2.0132463666718331e-05 -0.0054550912578330479 0 -0.00064709581921316105 -0.0062706121651011281 0 6.8485685502361573e-05 -0.0062875140526802023 0 -0.0002907339896557155 -0.0069969874898076923 0 0.00029960769638474064 -0.0066153822658501617 0 6.8485685502361573e-05 -0.0062875140526802023 0 -0.0002907339896557155 -0.0069969874898076923 0 0.00029960769638474064 -0.0066153822658501617 0 0.00050355996181175697 -0.0074350505417723556 0 0.00029960769638474064 -0.0066153822658501617 0 6.8485685502361573e-05 -0.0062875140526802023 0 0.00091619595959928975 -0.0057431064160019963 0 -0.0016576678234437954 -0.0061679553396223894 0 -0.0015821323315311944 -0.0063245327845462612 0 -0.0014860642208807673 -0.0066684875158219952 0 -0.0019795830852156245 -0.00516553651780788 0 -0.0012541617810550036 -0.0072842345455170834 0 -0.0002907339896557155 -0.0069969874898076923 0 0.00050355996181175697 -0.0074350505417723556 0 -0.0016530375928403248 -0.0075326789711271241 0 -0.0016506844964430214 -0.006161345342317273 0 -0.0016821958112124169 -0.0060760117968351084 0 -0.0015821323315311944 -0.0063245327845462612 0 -0.0016736653279500278 -0.0060099604504284653 0 -0.0016506844964430214 -0.006161345342317273 0 -0.0016769636012654706 -0.0060268620336169374 0 -0.0016736653279500278 -0.0060099604504284653 0 -0.0016506844964430214 -0.006161345342317273 0 -0.0016662633823058967 -0.0060797712395779802 0 -0.0016769636012654706 -0.0060268620336169374 0 -0.0016821958112124169 -0.0060760117968351084 0 -0.0016782962502079302 -0.0059238632982093727 0 -0.0016506844964430214 -0.006161345342317273 0 -0.0016769636012654706 -0.0060268620336169374 0 -0.0016821958112124169 -0.0060760117968351084 0 -0.0016821958112124169 -0.0060760117968351084 0 -0.0016576678234437954 -0.0061679553396223894 0 -0.0015821323315311944 -0.0063245327845462612 0 -0.0016821958112124169 -0.0060760117968351084 0 -0.0017046514391867026 -0.0059543152718315581 0 -0.0016782962502079302 -0.0059238632982093727 0 -0.0019910852689955768 -0.0055083765970365831 0 -0.0019795830852156245 -0.00516553651780788 0 -0.0016506844964430214 -0.006161345342317273 0 -0.0015314733233780565 -0.0064456980663707836 0 -0.0016092956668230999 -0.0062794617325781545 0 -0.0016506844964430214 -0.006161345342317273 0 -0.0015821323315311944 -0.0063245327845462612 0 -0.0015314733233780565 -0.0064456980663707836 0 -0.0016506844964430214 -0.006161345342317273 0 -0.0016092956668230999 -0.0062794617325781545 0 -0.0016478499034286631 -0.0061847537473807774 0 -0.0015314733233780565 -0.0064456980663707836 0 -0.0016092956668230999 -0.0062794617325781545 0 -0.001587567040154384 -0.0063491022503508326 0 -0.0015821323315311944 -0.0063245327845462612 0 -0.0015314733233780565 -0.0064456980663707836 0 -0.0014860642208807673 -0.0066684875158219952 0 -0.0015314733233780565 -0.0064456980663707836 0 -0.0014001219437002261 -0.006683307997082384 0 -0.0014860642208807673 -0.0066684875158219952 0 -0.0015314733233780565 -0.0064456980663707836 0 -0.0014001219437002261 -0.006683307997082384 0 -0.001587567040154384 -0.0063491022503508326 0 -0.0014001219437002261 -0.006683307997082384 0 -0.0014860642208807673 -0.0066684875158219952 0 -0.0017690321052030661 -0.0071012552603369628 0 -0.0014026957139962001 -0.0067544149939339293 0 -0.0015046884404056919 -0.0073916397909918434 0 -0.0014001219437002261 -0.006683307997082384 0 -0.0015782254052356245 -0.0063228407452357045 0 -0.0015983691979327376 -0.0061832919789138003 0 -0.0014001219437002261 -0.006683307997082384 0 -0.0016725263942797234 -0.0076093444898010423 0 -0.0013489774856368572 -0.008652482955451039 0 -0.0014001219437002261 -0.006683307997082384 0 -0.0015983691979327376 -0.0061832919789138003 0 -0.0016221105858509675 -0.0060727275091876269 0 -0.0014001219437002261 -0.006683307997082384 0 -0.0016725263942797234 -0.0076093444898010423 0 -0.0017690321052030661 -0.0071012552603369628 0 -0.0016725263942797234 -0.0076093444898010423 0 -0.0017170809082544436 -0.0081310604717028095 0 -0.0013489774856368572 -0.008652482955451039 0 -0.0016066719897244264 -0.0062208183483601258 0 -0.0015782254052356245 -0.0063228407452357045 0 -0.0015983691979327376 -0.0061832919789138003 0 -0.0016066719897244264 -0.0062208183483601258 0 -0.0015782254052356245 -0.0063228407452357045 0 -0.0016219253368097795 -0.0062374724857183388 0 -0.0016066719897244264 -0.0062208183483601258 0 -0.0016219253368097795 -0.0062374724857183388 0 -0.0016251296621836223 -0.0062092615645071734 0 -0.0014001219437002261 -0.006683307997082384 0 -0.0015782254052356245 -0.0063228407452357045 0 -0.001587567040154384 -0.0063491022503508326 0 -0.0016092956668230999 -0.0062794617325781545 0 -0.001587567040154384 -0.0063491022503508326 0 -0.0016478499034286631 -0.0061847537473807774 0 -0.0016278246337488478 -0.0062414462626537992 0 -0.0016565204469132357 -0.006151235411399854 0 -0.0016478499034286631 -0.0061847537473807774 0 -0.001587567040154384 -0.0063491022503508326 0 -0.0016278246337488478 -0.0062414462626537992 0 -0.0016478499034286631 -0.0061847537473807774 0 -0.0015782254052356245 -0.0063228407452357045 0 -0.001587567040154384 -0.0063491022503508326 0 -0.0016278246337488478 -0.0062414462626537992 0 -0.0015782254052356245 -0.0063228407452357045 0 -0.0016278246337488478 -0.0062414462626537992 0 -0.0016219253368097795 -0.0062374724857183388 0 -0.0016278246337488478 -0.0062414462626537992 0 -0.0016219253368097795 -0.0062374724857183388 0 -0.0016441000019408601 -0.0061886286543769509 0 -0.0016219253368097795 -0.0062374724857183388 0 -0.0016441000019408601 -0.0061886286543769509 0 -0.0016251296621836223 -0.0062092615645071734 0 -0.0016278246337488478 -0.0062414462626537992 0 -0.0016441000019408601 -0.0061886286543769509 0 -0.0016565204469132357 -0.006151235411399854 0 -0.0016565204469132357 -0.006151235411399854 0 -0.0016550102232546192 -0.0061312870163402625 0 -0.0016596253853884792 -0.0060694183871770431 0 -0.0016441000019408601 -0.0061886286543769509 0 -0.0016565204469132357 -0.006151235411399854 0 -0.0016550102232546192 -0.0061312870163402625 0 -0.0016441000019408601 -0.0061886286543769509 0 -0.0016550102232546192 -0.0061312870163402625 0 -0.0016475790720491721 -0.0061679351275959271 0 -0.0016550102232546192 -0.0061312870163402625 0 -0.0016430184159220448 -0.0061417328751465234 0 -0.0016397583289837988 -0.0060714024997204413 0 -0.0016550102232546192 -0.0061312870163402625 0 -0.0016596253853884792 -0.0060694183871770431 0 -0.0016397583289837988 -0.0060714024997204413 0 -0.0016596253853884792 -0.0060694183871770431 0 -0.0016662633823058967 -0.0060797712395779802 0 -0.0016594132902248595 -0.0059750527934074879 0 -0.0016565204469132357 -0.006151235411399854 0 -0.0016596253853884792 -0.0060694183871770431 0 -0.0016662633823058967 -0.0060797712395779802 0 -0.0016565204469132357 -0.006151235411399854 0 -0.0016478499034286631 -0.0061847537473807774 0 -0.0016662633823058967 -0.0060797712395779802 0 -0.0016506844964430214 -0.006161345342317273 0 -0.0016478499034286631 -0.0061847537473807774 0 -0.0016662633823058967 -0.0060797712395779802 0 -0.0016736653279500278 -0.0060099604504284653 0 -0.0016662633823058967 -0.0060797712395779802 0 -0.0016594132902248595 -0.0059750527934074879 0 -0.0025113362932989236 -0.0071394047959599388 0 -0.0021820486528996066 -0.0074382414563149779 0 -0.0024642154189018768 -0.0078205395848118878 0 -0.0025113362932989236 -0.0071394047959599388 0 -0.0024642154189018768 -0.0078205395848118878 0 -0.0028320253237896246 -0.007822901018567828 0 -0.0025113362932989236 -0.0071394047959599388 0 -0.0017690321052030661 -0.0071012552603369628 0 -0.0021820486528996066 -0.0074382414563149779 0 -0.0014860642208807673 -0.0066684875158219952 0 -0.0025113362932989236 -0.0071394047959599388 0 -0.0017690321052030661 -0.0071012552603369628 0 -0.0012541617810550036 -0.0072842345455170834 0 -0.0032351148907263268 -0.0073887163382798911 0 -0.0021820486528996066 -0.0074382414563149779 0 -0.001953484557359394 -0.0077199025443096137 0 -0.0024642154189018768 -0.0078205395848118878 0 -0.0016725263942797234 -0.0076093444898010423 0 -0.0017690321052030661 -0.0071012552603369628 0 -0.001953484557359394 -0.0077199025443096137 0 -0.0017690321052030661 -0.0071012552603369628 0 -0.0021820486528996066 -0.0074382414563149779 0 -0.001953484557359394 -0.0077199025443096137 0 -0.001953484557359394 -0.0077199025443096137 0 -0.0017170809082544436 -0.0081310604717028095 0 -0.0019707836386129839 -0.0081046932922711583 0 -0.0016725263942797234 -0.0076093444898010423 0 -0.001953484557359394 -0.0077199025443096137 0 -0.0017170809082544436 -0.0081310604717028095 0 -0.001953484557359394 -0.0077199025443096137 0 -0.0022220770257709668 -0.008146776159969291 0 -0.0024642154189018768 -0.0078205395848118878 0 -0.001953484557359394 -0.0077199025443096137 0 -0.0019707836386129839 -0.0081046932922711583 0 -0.0022220770257709668 -0.008146776159969291 0 -0.0022220770257709668 -0.008146776159969291 0 -0.0024642154189018768 -0.0078205395848118878 0 -0.002611337004986974 -0.0084569021424735144 0 -0.0024642154189018768 -0.0078205395848118878 0 -0.0028320253237896246 -0.007822901018567828 0 -0.0028114331826870698 -0.008155941099216954 0 -0.0028114331826870698 -0.008155941099216954 0 -0.002611337004986974 -0.0084569021424735144 0 -0.0029552051442302925 -0.0084865804899501053 0 -0.0024642154189018768 -0.0078205395848118878 0 -0.0028114331826870698 -0.008155941099216954 0 -0.002611337004986974 -0.0084569021424735144 0 -0.002611337004986974 -0.0084569021424735144 0 -0.0026084795062585029 -0.0089123686735120347 0 -0.0028647689687268042 -0.0088315450254122258 0 -0.002611337004986974 -0.0084569021424735144 0 -0.0029552051442302925 -0.0084865804899501053 0 -0.0028647689687268042 -0.0088315450254122258 0 -0.0026084795062585029 -0.0089123686735120347 0 -0.0027870802232993104 -0.0091456481942416758 0 -0.0028647689687268042 -0.0088315450254122258 0 -0.0024339521099493427 -0.0089601213198764618 0 -0.0023496177304882194 -0.0087092148767574373 0 -0.0022603030445204381 -0.0090881023149011215 0 -0.0026084795062585029 -0.0089123686735120347 0 -0.0024339521099493427 -0.0089601213198764618 0 -0.0025192090046722662 -0.0091637906743476522 0 -0.0026084795062585029 -0.0089123686735120347 0 -0.0024339521099493427 -0.0089601213198764618 0 -0.0023496177304882194 -0.0087092148767574373 0 -0.0022220770257709668 -0.008146776159969291 0 -0.002611337004986974 -0.0084569021424735144 0 -0.0023496177304882194 -0.0087092148767574373 0 -0.002611337004986974 -0.0084569021424735144 0 -0.0026084795062585029 -0.0089123686735120347 0 -0.0023496177304882194 -0.0087092148767574373 0 -0.0019707836386129839 -0.0081046932922711583 0 -0.0022220770257709668 -0.008146776159969291 0 -0.0020257099327410351 -0.00852007465407798 0 -0.0017125589599633489 -0.0088797743927023307 0 -0.0018269262794768269 -0.0093048051298799898 0 -0.0013489774856368572 -0.008652482955451039 0 -0.0022220770257709668 -0.008146776159969291 0 -0.0023496177304882194 -0.0087092148767574373 0 -0.0020257099327410351 -0.00852007465407798 0 -0.0017170809082544436 -0.0081310604717028095 0 -0.0018314485642867986 -0.0083725577103579401 0 -0.0016519428182099609 -0.0084925096964625808 0 -0.0017170809082544436 -0.0081310604717028095 0 -0.0019707836386129839 -0.0081046932922711583 0 -0.0018314485642867986 -0.0083725577103579401 0 -0.0019707836386129839 -0.0081046932922711583 0 -0.0020257099327410351 -0.00852007465407798 0 -0.0018314485642867986 -0.0083725577103579401 0 -0.0020257099327410351 -0.00852007465407798 0 -0.0018314485642867986 -0.0083725577103579401 0 -0.0017600065588291118 -0.0086256208144155702 0 -0.0018314485642867986 -0.0083725577103579401 0 -0.0016519428182099609 -0.0084925096964625808 0 -0.0017600065588291118 -0.0086256208144155702 0 -0.0016519428182099609 -0.0084925096964625808 0 -0.0015997046192629837 -0.0086586271576730451 0 -0.0017600065588291118 -0.0086256208144155702 0 -0.0015997046192629837 -0.0086586271576730451 0 -0.0017600065588291118 -0.0086256208144155702 0 -0.0017125589599633489 -0.0088797743927023307 0 -0.0017600065588291118 -0.0086256208144155702 0 -0.0018898147336914304 -0.0087886046961071392 0 -0.0017125589599633489 -0.0088797743927023307 0 -0.0020257099327410351 -0.00852007465407798 0 -0.0017600065588291118 -0.0086256208144155702 0 -0.0018898147336914304 -0.0087886046961071392 0 -0.0018898147336914304 -0.0087886046961071392 0 -0.0018960274178056963 -0.008978437757938237 0 -0.0017125589599633489 -0.0088797743927023307 0 -0.0023496177304882194 -0.0087092148767574373 0 -0.0020257099327410351 -0.00852007465407798 0 -0.0020790982525423127 -0.008846650601193308 0 -0.0023496177304882194 -0.0087092148767574373 0 -0.0020790982525423127 -0.008846650601193308 0 -0.0022603030445204381 -0.0090881023149011215 0 -0.0020257099327410351 -0.00852007465407798 0 -0.0018898147336914304 -0.0087886046961071392 0 -0.0020790982525423127 -0.008846650601193308 0 -0.0018898147336914304 -0.0087886046961071392 0 -0.0018960274178056963 -0.008978437757938237 0 -0.0020790982525423127 -0.008846650601193308 0 -0.0018269262794768269 -0.0093048051298799898 0 -0.0013489774856368572 -0.008652482955451039 0 -0.0018512600914074755 -0.0096966235238853688 0 -0.0020790982525423127 -0.008846650601193308 0 -0.0020342189172760914 -0.009149152746831566 0 -0.0022603030445204381 -0.0090881023149011215 0 -0.0020342189172760914 -0.009149152746831566 0 -0.0022982241384703768 -0.0094179592304048463 0 -0.0022603030445204381 -0.0090881023149011215 0 -0.0018960274178056963 -0.008978437757938237 0 -0.0020790982525423127 -0.008846650601193308 0 -0.0020342189172760914 -0.009149152746831566 0 -0.0020342189172760914 -0.009149152746831566 0 -0.0018874460807771368 -0.009171012004149319 0 -0.0020068998659065222 -0.0093855160240166064 0 -0.0017125589599633489 -0.0088797743927023307 0 -0.0018874460807771368 -0.009171012004149319 0 -0.0018269262794768269 -0.0093048051298799898 0 -0.0018960274178056963 -0.008978437757938237 0 -0.0020342189172760914 -0.009149152746831566 0 -0.0018874460807771368 -0.009171012004149319 0 -0.0018960274178056963 -0.008978437757938237 0 -0.0017125589599633489 -0.0088797743927023307 0 -0.0018874460807771368 -0.009171012004149319 0 -0.0018874460807771368 -0.009171012004149319 0 -0.0018269262794768269 -0.0093048051298799898 0 -0.0020068998659065222 -0.0093855160240166064 0 -0.0018269262794768269 -0.0093048051298799898 0 -0.0020639185019094728 -0.009621215409784719 0 -0.0018512600914074755 -0.0096966235238853688 0 -0.0018269262794768269 -0.0093048051298799898 0 -0.0020068998659065222 -0.0093855160240166064 0 -0.0020639185019094728 -0.009621215409784719 0 -0.0020068998659065222 -0.0093855160240166064 0 -0.0022982241384703768 -0.0094179592304048463 0 -0.0020639185019094728 -0.009621215409784719 0 -0.0020342189172760914 -0.009149152746831566 0 -0.0020068998659065222 -0.0093855160240166064 0 -0.0022982241384703768 -0.0094179592304048463 0 -0.0026861162683011548 -0.0094077554622233953 0 -0.0025545392648738648 -0.0096796493032785778 0 -0.0029095405757757539 -0.0097166829851172091 0 -0.0022982241384703768 -0.0094179592304048463 0 -0.0026861162683011548 -0.0094077554622233953 0 -0.0025545392648738648 -0.0096796493032785778 0 -0.0026861162683011548 -0.0094077554622233953 0 -0.0027870802232993104 -0.0091456481942416758 0 -0.0025192090046722662 -0.0091637906743476522 0 -0.0026084795062585029 -0.0089123686735120347 0 -0.0027870802232993104 -0.0091456481942416758 0 -0.0025192090046722662 -0.0091637906743476522 0 -0.0024339521099493427 -0.0089601213198764618 0 -0.0025192090046722662 -0.0091637906743476522 0 -0.0022603030445204381 -0.0090881023149011215 0 -0.0022982241384703768 -0.0094179592304048463 0 -0.0026861162683011548 -0.0094077554622233953 0 -0.0025192090046722662 -0.0091637906743476522 0 -0.0022982241384703768 -0.0094179592304048463 0 -0.0025192090046722662 -0.0091637906743476522 0 -0.0022603030445204381 -0.0090881023149011215 0 -0.0016260368966816484 -0.0062614306042296005 0 -0.0016269412320598191 -0.006193132751409031 0 -0.001591445891035533 -0.0062471879340246965 0 -0.0016433391682227731 -0.0062717165855873391 0 -0.0016367315406994869 -0.0062255481092079977 0 -0.0016365200483501225 -0.006241445623464608 0 -0.0016260368966816484 -0.0062614306042296005 0 -0.0016433391682227731 -0.0062717165855873391 0 -0.0016367315406994869 -0.0062255481092079977 0 -0.0016367315406994869 -0.0062255481092079977 0 -0.0016417848869890606 -0.0061963235651763772 0 -0.0016365200483501225 -0.006241445623464608 0 -0.0016367315406994869 -0.0062255481092079977 0 -0.0016269412320598191 -0.006193132751409031 0 -0.0016417848869890606 -0.0061963235651763772 0 -0.0016260368966816484 -0.0062614306042296005 0 -0.0016367315406994869 -0.0062255481092079977 0 -0.0016269412320598191 -0.006193132751409031 0 -0.0016269412320598191 -0.006193132751409031 0 -0.0016430184159220448 -0.0061417328751465234 0 -0.0016417848869890606 -0.0061963235651763772 0 -0.0016430184159220448 -0.0061417328751465234 0 -0.0016475790720491721 -0.0061679351275959271 0 -0.0016417848869890606 -0.0061963235651763772 0 -0.0016550102232546192 -0.0061312870163402625 0 -0.0016430184159220448 -0.0061417328751465234 0 -0.0016475790720491721 -0.0061679351275959271 0 -0.0016417848869890606 -0.0061963235651763772 0 -0.0016361694346068928 -0.0061966153935964757 0 -0.001629005065428672 -0.0062295790430619532 0 -0.0016441000019408601 -0.0061886286543769509 0 -0.0016475790720491721 -0.0061679351275959271 0 -0.0016361694346068928 -0.0061966153935964757 0 -0.0016475790720491721 -0.0061679351275959271 0 -0.0016417848869890606 -0.0061963235651763772 0 -0.0016361694346068928 -0.0061966153935964757 0 -0.0016361694346068928 -0.0061966153935964757 0 -0.0016251296621836223 -0.0062092615645071734 0 -0.0016196064614078631 -0.006216110707153155 0 -0.0016441000019408601 -0.0061886286543769509 0 -0.0016361694346068928 -0.0061966153935964757 0 -0.0016251296621836223 -0.0062092615645071734 0 -0.0016196064614078631 -0.006216110707153155 0 -0.001629005065428672 -0.0062295790430619532 0 -0.0016069641535590236 -0.0062514845232336169 0 -0.0016361694346068928 -0.0061966153935964757 0 -0.0016196064614078631 -0.006216110707153155 0 -0.001629005065428672 -0.0062295790430619532 0 -0.001629005065428672 -0.0062295790430619532 0 -0.0016341752704384896 -0.0062787385456645551 0 -0.0016069641535590236 -0.0062514845232336169 0 -0.0016417848869890606 -0.0061963235651763772 0 -0.001629005065428672 -0.0062295790430619532 0 -0.0016365200483501225 -0.006241445623464608 0 -0.001629005065428672 -0.0062295790430619532 0 -0.0016365200483501225 -0.006241445623464608 0 -0.0016341752704384896 -0.0062787385456645551 0 -0.0016433391682227731 -0.0062717165855873391 0 -0.0016365200483501225 -0.006241445623464608 0 -0.0016341752704384896 -0.0062787385456645551 0 -0.0016341752704384896 -0.0062787385456645551 0 -0.0016062589931683058 -0.0062920218822997021 0 -0.0016230491991172903 -0.0063096720749719372 0 -0.0016062589931683058 -0.0062920218822997021 0 -0.0015859000473310812 -0.0063210838872243295 0 -0.0016230491991172903 -0.0063096720749719372 0 -0.0016341752704384896 -0.0062787385456645551 0 -0.0016062589931683058 -0.0062920218822997021 0 -0.0016069641535590236 -0.0062514845232336169 0 -0.0016062589931683058 -0.0062920218822997021 0 -0.0015859000473310812 -0.0063210838872243295 0 -0.0015885101491772647 -0.0062741824940312375 0 -0.0015859000473310812 -0.0063210838872243295 0 -0.0015643035403550445 -0.006274226279293936 0 -0.001535466912848593 -0.006357680363599353 0 -0.0015859000473310812 -0.0063210838872243295 0 -0.0015885101491772647 -0.0062741824940312375 0 -0.0015643035403550445 -0.006274226279293936 0 -0.0015643035403550445 -0.006274226279293936 0 -0.0015851350612729803 -0.0062197795579360064 0 -0.0015591829610717351 -0.0062148715864823213 0 -0.0015885101491772647 -0.0062741824940312375 0 -0.0015643035403550445 -0.006274226279293936 0 -0.0015851350612729803 -0.0062197795579360064 0 -0.0015885101491772647 -0.0062741824940312375 0 -0.0016069641535590236 -0.0062514845232336169 0 -0.0015851350612729803 -0.0062197795579360064 0 -0.0016062589931683058 -0.0062920218822997021 0 -0.0015885101491772647 -0.0062741824940312375 0 -0.0016069641535590236 -0.0062514845232336169 0 -0.0016196064614078631 -0.006216110707153155 0 -0.0016069641535590236 -0.0062514845232336169 0 -0.0016037607950804235 -0.0062112325072647568 0 -0.0016069641535590236 -0.0062514845232336169 0 -0.0016037607950804235 -0.0062112325072647568 0 -0.0015851350612729803 -0.0062197795579360064 0 -0.0016066719897244264 -0.0062208183483601258 0 -0.0016251296621836223 -0.0062092615645071734 0 -0.0016037607950804235 -0.0062112325072647568 0 -0.0016251296621836223 -0.0062092615645071734 0 -0.0016196064614078631 -0.006216110707153155 0 -0.0016037607950804235 -0.0062112325072647568 0 -0.0016066719897244264 -0.0062208183483601258 0 -0.0016037607950804235 -0.0062112325072647568 0 -0.0015983691979327376 -0.0061832919789138003 0 -0.0016037607950804235 -0.0062112325072647568 0 -0.0015983691979327376 -0.0061832919789138003 0 -0.0015851350612729803 -0.0062197795579360064 0 -0.0015983691979327376 -0.0061832919789138003 0 -0.0015851350612729803 -0.0062197795579360064 0 -0.0015816934902402255 -0.0061689716561029511 0 -0.0015851350612729803 -0.0062197795579360064 0 -0.0015816934902402255 -0.0061689716561029511 0 -0.0015591829610717351 -0.0062148715864823213 0 -0.0015983691979327376 -0.0061832919789138003 0 -0.0015816934902402255 -0.0061689716561029511 0 -0.0016221105858509675 -0.0060727275091876269 0 -0.0015816934902402255 -0.0061689716561029511 0 -0.0016221105858509675 -0.0060727275091876269 0 -0.0015591829610717351 -0.0062148715864823213 0 -0.0016519428182099609 -0.0084925096964625808 0 -0.0015997046192629837 -0.0086586271576730451 0 -0.0013489774856368572 -0.008652482955451039 0 -0.0017170809082544436 -0.0081310604717028095 0 -0.0016519428182099609 -0.0084925096964625808 0 -0.0013489774856368572 -0.008652482955451039 0 -0.0015997046192629837 -0.0086586271576730451 0 -0.0017125589599633489 -0.0088797743927023307 0 -0.0013489774856368572 -0.008652482955451039 0 -0.0016221105858509675 -0.0060727275091876269 0 -0.0015591829610717351 -0.0062148715864823213 0 -0.001535466912848593 -0.006357680363599353 0 -0.0016221105858509675 -0.0060727275091876269 0 -0.001535466912848593 -0.006357680363599353 0 -0.0014971289191802514 -0.0067550123852451564 0 -0.0015643035403550445 -0.006274226279293936 0 -0.0015591829610717351 -0.0062148715864823213 0 -0.001535466912848593 -0.006357680363599353 0 -0.0016221105858509675 -0.0060727275091876269 0 -0.0014971289191802514 -0.0067550123852451564 0 -0.001922769237202611 -0.008524455895661566 0 -0.0015046884404056919 -0.0073916397909918434 0 -0.0018559699242995669 -0.0090685601388817635 0 -0.0014971289191802514 -0.0067550123852451564 0 -0.0014514481403199611 -0.0076708825154440663 0 -0.001922769237202611 -0.008524455895661566 0 -0.0014514481403199611 -0.0076708825154440663 0 -0.0014552676740625947 -0.0082982736846539135 0 -0.001922769237202611 -0.008524455895661566 0 -0.0014514481403199611 -0.0076708825154440663 0 -0.0011396769447130292 -0.0081292356950364297 0 -0.0014552676740625947 -0.0082982736846539135 0 -0.0014514481403199611 -0.0076708825154440663 0 -0.0011396769447130292 -0.0081292356950364297 0 -0.0006480891571840013 -0.0079616052874823939 0 -0.0011396769447130292 -0.0081292356950364297 0 -0.0006480891571840013 -0.0079616052874823939 0 -0.00092388075635171766 -0.0082949304431743018 0 -0.0014971289191802514 -0.0067550123852451564 0 -0.0007566343933908048 -0.0077976497042889555 0 -0.00042450736961218989 -0.0076438422818138263 0 -0.0013980717203371958 -0.006900755735093086 0 -0.00070625950994844414 -0.00789675810529669 0 -0.0015157456730734138 -0.0064127827365565533 0 -0.001019238461430078 -0.0069875503920191892 0 -0.001535466912848593 -0.006357680363599353 0 -0.0014971289191802514 -0.0067550123852451564 0 -0.00042450736961218989 -0.0076438422818138263 0 -0.0015859000473310812 -0.0063210838872243295 0 -0.001535466912848593 -0.006357680363599353 0 -0.0016977712226933618 -0.0063175397222477985 0 -0.0015859000473310812 -0.0063210838872243295 0 -0.0016230491991172903 -0.0063096720749719372 0 -0.0016977712226933618 -0.0063175397222477985 0 -0.0014971289191802514 -0.0067550123852451564 0 -0.0014514481403199611 -0.0076708825154440663 0 -0.0006480891571840013 -0.0079616052874823939 0 -0.0016230491991172903 -0.0063096720749719372 0 -0.0016517747578406563 -0.0063085925446292662 0 -0.0016977712226933618 -0.0063175397222477985 0 -0.0016341752704384896 -0.0062787385456645551 0 -0.0016230491991172903 -0.0063096720749719372 0 -0.0016517747578406563 -0.0063085925446292662 0 -0.0016341752704384896 -0.0062787385456645551 0 -0.0016517747578406563 -0.0063085925446292662 0 -0.0016571024424745975 -0.0063011825381796595 0 -0.0016433391682227731 -0.0062717165855873391 0 -0.0016341752704384896 -0.0062787385456645551 0 -0.0016571024424745975 -0.0063011825381796595 0 -0.0016571024424745975 -0.0063011825381796595 0 -0.0016633483872439442 -0.0063235252428339309 0 -0.0016335774174237538 -0.0063285768242591946 0 -0.0016571024424745975 -0.0063011825381796595 0 -0.00166978361443817 -0.0063121101067515496 0 -0.0016633483872439442 -0.0063235252428339309 0 -0.0016517747578406563 -0.0063085925446292662 0 -0.00166978361443817 -0.0063121101067515496 0 -0.0016977712226933618 -0.0063175397222477985 0 -0.0016517747578406563 -0.0063085925446292662 0 -0.0016571024424745975 -0.0063011825381796595 0 -0.00166978361443817 -0.0063121101067515496 0 -0.0016977712226933618 -0.0063175397222477985 0 -0.0016517114265917378 -0.0063830291833354615 0 -0.0016633483872439442 -0.0063235252428339309 0 -0.00166978361443817 -0.0063121101067515496 0 -0.0016977712226933618 -0.0063175397222477985 0 -0.0016633483872439442 -0.0063235252428339309 0 -0.0016517114265917378 -0.0063830291833354615 0 -0.0016633483872439442 -0.0063235252428339309 0 -0.0016335774174237538 -0.0063285768242591946 0 -0.0016517114265917378 -0.0063830291833354615 0 -0.0016335774174237538 -0.0063285768242591946 0 -0.001584191394419396 -0.0064332864047699067 0 -0.0016335774174237538 -0.0063285768242591946 0 -0.001584191394419396 -0.0064332864047699067 0 -0.0015782617790338685 -0.0063701016305149748 0 -0.0016335774174237538 -0.0063285768242591946 0 -0.0016042633627920634 -0.0063076960239072995 0 -0.0015782617790338685 -0.0063701016305149748 0 -0.0016433391682227731 -0.0062717165855873391 0 -0.0016571024424745975 -0.0063011825381796595 0 -0.0016335774174237538 -0.0063285768242591946 0 -0.0016260368966816484 -0.0062614306042296005 0 -0.0016433391682227731 -0.0062717165855873391 0 -0.0016335774174237538 -0.0063285768242591946 0 -0.0016260368966816484 -0.0062614306042296005 0 -0.0016042633627920634 -0.0063076960239072995 0 -0.001591445891035533 -0.0062471879340246965 0 -0.0016260368966816484 -0.0062614306042296005 0 -0.0016335774174237538 -0.0063285768242591946 0 -0.0016042633627920634 -0.0063076960239072995 0 -0.00057834610898031 -0.0087254669350022018 0 -0.00099057037005203033 -0.0077477355178215135 0 -0.001019238461430078 -0.0069875503920191892 0 -0.00099057037005203033 -0.0077477355178215135 0 -0.00042450736961218989 -0.0076438422818138263 0 -0.00013705102472000535 -0.00862765466791586 0 0.00044954509428756911 -0.0086259403430377288 0 -0.0016977712226933618 -0.0063175397222477985 0 -0.0016517114265917378 -0.0063830291833354615 0 -0.0015392064733205778 -0.0066040448844978689 0 -0.00070625950994844414 -0.00789675810529669 0 -0.00057834610898031 -0.0087254669350022018 0 -0.0006480891571840013 -0.0079616052874823939 0 3.8716874208412515e-05 -0.0090012010481178746 0 -0.00070734863981864241 -0.0085975135789493218 0 -0.0007566343933908048 -0.0077976497042889555 0 -0.00042450736961218989 -0.0076438422818138263 0 -0.00013705102472000535 -0.00862765466791586 0 3.8716874208412515e-05 -0.0090012010481178746 0 -0.00070734863981864241 -0.0085975135789493218 0 -0.0016869562353803691 -0.0089488202720300353 0 -0.0010666959240117661 -0.0091763796566779535 0 -0.0016869562353803691 -0.0089488202720300353 0 -0.0012589495941924911 -0.0093688230263822749 0 -0.00057834610898031 -0.0087254669350022018 0 -0.0015913005592489741 -0.0090348178294332275 0 -0.0006480891571840013 -0.0079616052874823939 0 -0.00070734863981864241 -0.0085975135789493218 0 -0.00092388075635171766 -0.0082949304431743018 0 -0.0011396769447130292 -0.0081292356950364297 0 -0.00092388075635171766 -0.0082949304431743018 0 -0.001199455304191621 -0.0084849646076780964 0 -0.00070734863981864241 -0.0085975135789493218 0 -0.00092388075635171766 -0.0082949304431743018 0 -0.001199455304191621 -0.0084849646076780964 0 -0.001199455304191621 -0.0084849646076780964 0 -0.0015677866396227235 -0.0085692179951339202 0 -0.0016869562353803691 -0.0089488202720300353 0 -0.00070734863981864241 -0.0085975135789493218 0 -0.001199455304191621 -0.0084849646076780964 0 -0.0016869562353803691 -0.0089488202720300353 0 -0.0011396769447130292 -0.0081292356950364297 0 -0.001199455304191621 -0.0084849646076780964 0 -0.0014552676740625947 -0.0082982736846539135 0 -0.001199455304191621 -0.0084849646076780964 0 -0.0014552676740625947 -0.0082982736846539135 0 -0.0015677866396227235 -0.0085692179951339202 0 -0.0014552676740625947 -0.0082982736846539135 0 -0.0015677866396227235 -0.0085692179951339202 0 -0.001922769237202611 -0.008524455895661566 0 -0.0015677866396227235 -0.0085692179951339202 0 -0.0016869562353803691 -0.0089488202720300353 0 -0.001922769237202611 -0.008524455895661566 0 -0.0016869562353803691 -0.0089488202720300353 0 -0.001447621501589567 -0.0097559391013445403 0 -0.0019079128522035953 -0.0099528783078535153 0 -0.0016869562353803691 -0.0089488202720300353 0 -0.001447621501589567 -0.0097559391013445403 0 -0.0012589495941924911 -0.0093688230263822749 0 -0.001447621501589567 -0.0097559391013445403 0 -0.0012589495941924911 -0.0093688230263822749 0 -0.0012006713346802388 -0.009559258292600974 0 -0.0010666959240117661 -0.0091763796566779535 0 -0.0011072928539063108 -0.0093726759267751519 0 -0.0010492497081455155 -0.0094510622856427313 0 -0.0010666959240117661 -0.0091763796566779535 0 -0.0012589495941924911 -0.0093688230263822749 0 -0.0011072928539063108 -0.0093726759267751519 0 -0.0012589495941924911 -0.0093688230263822749 0 -0.0012006713346802388 -0.009559258292600974 0 -0.0011072928539063108 -0.0093726759267751519 0 -0.0012006713346802388 -0.009559258292600974 0 -0.0011072928539063108 -0.0093726759267751519 0 -0.001078672761747968 -0.0094626002695967562 0 -0.0024105538455489526 -0.0098811588492574241 0 -0.0022529635912917128 -0.0097205256047074497 0 -0.0021128260456847892 -0.009849032888497004 0 -0.0024105538455489526 -0.0098811588492574241 0 -0.0027203160873538112 -0.0099946290006865807 0 -0.0024057983337610216 -0.010137887802534492 0 -0.0024105538455489526 -0.0098811588492574241 0 -0.0027203160873538112 -0.0099946290006865807 0 -0.0025545392648738648 -0.0096796493032785778 0 -0.0027203160873538112 -0.0099946290006865807 0 -0.0025545392648738648 -0.0096796493032785778 0 -0.0029095405757757539 -0.0097166829851172091 0 -0.0024105538455489526 -0.0098811588492574241 0 -0.0025545392648738648 -0.0096796493032785778 0 -0.0022529635912917128 -0.0097205256047074497 0 -0.0022982241384703768 -0.0094179592304048463 0 -0.0025545392648738648 -0.0096796493032785778 0 -0.0022529635912917128 -0.0097205256047074497 0 -0.0016869562353803691 -0.0089488202720300353 0 -0.001922769237202611 -0.008524455895661566 0 -0.0019079128522035953 -0.0099528783078535153 0 -0.0018512600914074755 -0.0096966235238853688 0 -0.0021128260456847892 -0.009849032888497004 0 -0.0019079128522035953 -0.0099528783078535153 0 -0.0022982241384703768 -0.0094179592304048463 0 -0.0022529635912917128 -0.0097205256047074497 0 -0.0020639185019094728 -0.009621215409784719 0 -0.0020639185019094728 -0.009621215409784719 0 -0.0018512600914074755 -0.0096966235238853688 0 -0.0021128260456847892 -0.009849032888497004 0 -0.0022529635912917128 -0.0097205256047074497 0 -0.0020639185019094728 -0.009621215409784719 0 -0.0021128260456847892 -0.009849032888497004 0 -0.0021128260456847892 -0.009849032888497004 0 -0.0019079128522035953 -0.0099528783078535153 0 -0.0024057983337610216 -0.010137887802534492 0 -0.0019079128522035953 -0.0099528783078535153 0 -0.0024057983337610216 -0.010137887802534492 0 -0.0022305071980312364 -0.010434545513973921 0 -0.0018559699242995669 -0.0090685601388817635 0 -0.0019291397525950168 -0.0099076613354403473 0 -0.0027203160873538112 -0.0099946290006865807 0 -0.0024057983337610216 -0.010137887802534492 0 -0.0029954245890770215 -0.010365672996835201 0 -0.0024057983337610216 -0.010137887802534492 0 -0.0029954245890770215 -0.010365672996835201 0 -0.0027605544418404745 -0.010604482965288493 0 -0.0024105538455489526 -0.0098811588492574241 0 -0.0021128260456847892 -0.009849032888497004 0 -0.0024057983337610216 -0.010137887802534492 0 -0.0029954245890770215 -0.010365672996835201 0 -0.0033942074741673818 -0.010776984809281019 0 -0.0027605544418404745 -0.010604482965288493 0 -0.0029954245890770215 -0.010365672996835201 0 -0.0034836332541081077 -0.010464517798481442 0 -0.0033942074741673818 -0.010776984809281019 0 -0.0029954245890770215 -0.010365672996835201 0 -0.0034836332541081077 -0.010464517798481442 0 -0.0031821710466208796 -0.010085641893490272 0 -0.0034836332541081077 -0.010464517798481442 0 -0.0039498573771749286 -0.010606467602631094 0 -0.0038876166295638429 -0.011109920035431563 0 -0.0034836332541081077 -0.010464517798481442 0 -0.0038876166295638429 -0.011109920035431563 0 -0.0033942074741673818 -0.010776984809281019 0 -0.0034836332541081077 -0.010464517798481442 0 -0.0036552275233961273 -0.010156536742110544 0 -0.0039498573771749286 -0.010606467602631094 0 -0.0034836332541081077 -0.010464517798481442 0 -0.0036552275233961273 -0.010156536742110544 0 -0.0031821710466208796 -0.010085641893490272 0 -0.0036552275233961273 -0.010156536742110544 0 -0.0031821710466208796 -0.010085641893490272 0 -0.0033265610392473814 -0.009774695596276077 0 -0.0036552275233961273 -0.010156536742110544 0 -0.0037248333444659678 -0.0096745112423715172 0 -0.0041064093806242414 -0.010177149437673696 0 -0.0027203160873538112 -0.0099946290006865807 0 -0.0029954245890770215 -0.010365672996835201 0 -0.0031821710466208796 -0.010085641893490272 0 -0.0031821710466208796 -0.010085641893490272 0 -0.0029095405757757539 -0.0097166829851172091 0 -0.0033265610392473814 -0.009774695596276077 0 -0.0027203160873538112 -0.0099946290006865807 0 -0.0031821710466208796 -0.010085641893490272 0 -0.0029095405757757539 -0.0097166829851172091 0 -0.0026861162683011548 -0.0094077554622233953 0 -0.0029095405757757539 -0.0097166829851172091 0 -0.0030066888568086206 -0.0094197885969437758 0 -0.0027870802232993104 -0.0091456481942416758 0 -0.0030066888568086206 -0.0094197885969437758 0 -0.0030351431299547155 -0.009115880428243843 0 -0.0026861162683011548 -0.0094077554622233953 0 -0.0027870802232993104 -0.0091456481942416758 0 -0.0030066888568086206 -0.0094197885969437758 0 -0.0030066888568086206 -0.0094197885969437758 0 -0.0033389956273158915 -0.0092726775507786883 0 -0.0033265610392473814 -0.009774695596276077 0 -0.0030066888568086206 -0.0094197885969437758 0 -0.0033389956273158915 -0.0092726775507786883 0 -0.0030351431299547155 -0.009115880428243843 0 -0.0029095405757757539 -0.0097166829851172091 0 -0.0030066888568086206 -0.0094197885969437758 0 -0.0033265610392473814 -0.009774695596276077 0 -0.0033389956273158915 -0.0092726775507786883 0 -0.0033265610392473814 -0.009774695596276077 0 -0.0037248333444659678 -0.0096745112423715172 0 -0.0036552275233961273 -0.010156536742110544 0 -0.0033265610392473814 -0.009774695596276077 0 -0.0037248333444659678 -0.0096745112423715172 0 -0.0037248333444659678 -0.0096745112423715172 0 -0.003707589814803249 -0.0091720213772861301 0 -0.004223235632370587 -0.0094521589244879727 0 -0.0033389956273158915 -0.0092726775507786883 0 -0.0037248333444659678 -0.0096745112423715172 0 -0.003707589814803249 -0.0091720213772861301 0 -0.0033389956273158915 -0.0092726775507786883 0 -0.003707589814803249 -0.0091720213772861301 0 -0.0034356074664064636 -0.0088093177207936389 0 -0.0038256038934358499 -0.0086725070908421267 0 -0.003707589814803249 -0.0091720213772861301 0 -0.0034356074664064636 -0.0088093177207936389 0 -0.0032071547603399766 -0.0085296832705612381 0 -0.0034356074664064636 -0.0088093177207936389 0 -0.0031413849340609593 -0.0088335459002283814 0 -0.0032071547603399766 -0.0085296832705612381 0 -0.0031413849340609593 -0.0088335459002283814 0 -0.0029552051442302925 -0.0084865804899501053 0 -0.0031413849340609593 -0.0088335459002283814 0 -0.0029552051442302925 -0.0084865804899501053 0 -0.0028647689687268042 -0.0088315450254122258 0 -0.0031413849340609593 -0.0088335459002283814 0 -0.0030351431299547155 -0.009115880428243843 0 -0.0028647689687268042 -0.0088315450254122258 0 -0.0027870802232993104 -0.0091456481942416758 0 -0.0030351431299547155 -0.009115880428243843 0 -0.0028647689687268042 -0.0088315450254122258 0 -0.0033389956273158915 -0.0092726775507786883 0 -0.0031413849340609593 -0.0088335459002283814 0 -0.0030351431299547155 -0.009115880428243843 0 -0.0033389956273158915 -0.0092726775507786883 0 -0.0034356074664064636 -0.0088093177207936389 0 -0.0031413849340609593 -0.0088335459002283814 0 -0.004568227581168152 -0.0085965787022579745 0 -0.004223235632370587 -0.0094521589244879727 0 -0.0051144216425889049 -0.00956138670694167 0 -0.0038256038934358499 -0.0086725070908421267 0 -0.004568227581168152 -0.0085965787022579745 0 -0.004223235632370587 -0.0094521589244879727 0 -0.0038256038934358499 -0.0086725070908421267 0 -0.003707589814803249 -0.0091720213772861301 0 -0.004223235632370587 -0.0094521589244879727 0 -0.004223235632370587 -0.0094521589244879727 0 -0.0046313069947370115 -0.01008929796290701 0 -0.0041064093806242414 -0.010177149437673696 0 -0.0037248333444659678 -0.0096745112423715172 0 -0.004223235632370587 -0.0094521589244879727 0 -0.0041064093806242414 -0.010177149437673696 0 -0.0046313069947370115 -0.01008929796290701 0 -0.0051484811267681948 -0.010777092189360181 0 -0.0051144216425889049 -0.00956138670694167 0 -0.004223235632370587 -0.0094521589244879727 0 -0.0046313069947370115 -0.01008929796290701 0 -0.0051144216425889049 -0.00956138670694167 0 -0.0046313069947370115 -0.01008929796290701 0 -0.0044644702653659296 -0.011002727495944229 0 -0.0051484811267681948 -0.010777092189360181 0 -0.0046313069947370115 -0.01008929796290701 0 -0.0041064093806242414 -0.010177149437673696 0 -0.0044644702653659296 -0.011002727495944229 0 -0.0041064093806242414 -0.010177149437673696 0 -0.0039498573771749286 -0.010606467602631094 0 -0.0044644702653659296 -0.011002727495944229 0 -0.0036552275233961273 -0.010156536742110544 0 -0.0041064093806242414 -0.010177149437673696 0 -0.0039498573771749286 -0.010606467602631094 0 -0.0039498573771749286 -0.010606467602631094 0 -0.0044644702653659296 -0.011002727495944229 0 -0.0038876166295638429 -0.011109920035431563 0 -0.0044644702653659296 -0.011002727495944229 0 -0.0051484811267681948 -0.010777092189360181 0 -0.0050976388136250153 -0.011825712538626373 0 -0.0051484811267681948 -0.010777092189360181 0 -0.0059490843490748275 -0.01128242837398076 0 -0.0050976388136250153 -0.011825712538626373 0 -0.0051484811267681948 -0.010777092189360181 0 -0.0059490843490748275 -0.01128242837398076 0 -0.0061482800158778033 -0.010587553869128838 0 -0.0059490843490748275 -0.01128242837398076 0 -0.0068195941508044158 -0.01144168287306359 0 -0.0061482800158778033 -0.010587553869128838 0 -0.0059490843490748275 -0.01128242837398076 0 -0.0066602210186913792 -0.011721695296773211 0 -0.0068195941508044158 -0.01144168287306359 0 -0.0056807354728711824 -0.011984707967002333 0 -0.0051779585785507532 -0.011888895857306915 0 -0.0059490843490748275 -0.01128242837398076 0 -0.0066602210186913792 -0.011721695296773211 0 -0.0050976388136250153 -0.011825712538626373 0 -0.0047442630568407893 -0.012327862169334142 0 -0.0045437675872362525 -0.012314639578610401 0 -0.0046405163304279401 -0.012157652917113756 0 -0.0047442630568407893 -0.012327862169334142 0 -0.0045437675872362525 -0.012314639578610401 0 -0.0045405220162427033 -0.012696130663203131 0 -0.0045437675872362525 -0.012314639578610401 0 -0.0044078900486033915 -0.012452558576526999 0 -0.0045405220162427033 -0.012696130663203131 0 -0.0045437675872362525 -0.012314639578610401 0 -0.0044078900486033915 -0.012452558576526999 0 -0.0043479177271926071 -0.012208071883732215 0 -0.0066602210186913792 -0.011721695296773211 0 -0.0070232972323882427 -0.011510591986220073 0 -0.0068195941508044158 -0.01144168287306359 0 -0.0070232972323882427 -0.011510591986220073 0 -0.0068195941508044158 -0.01144168287306359 0 -0.0076083672531187712 -0.011923737344508136 0 -0.0056807354728711824 -0.011984707967002333 0 -0.0057186139957140902 -0.012175212118599598 0 -0.0076083672531187712 -0.011923737344508136 0 -0.0072375124576675902 -0.0093803374175644109 0 -0.0061482800158778033 -0.010587553869128838 0 -0.0068195941508044158 -0.01144168287306359 0 -0.0076083672531187712 -0.011923737344508136 0 -0.0061482800158778033 -0.010587553869128838 0 -0.0070232972323882427 -0.011510591986220073 0 -0.0076083672531187712 -0.011923737344508136 0 -0.006103554926368663 -0.013083065984092817 0 -0.0076083672531187712 -0.011923737344508136 0 -0.006103554926368663 -0.013083065984092817 0 -0.0066575834762463825 -0.014833959720178943 0 -0.0066575834762463825 -0.014833959720178943 0 -0.009578060978925414 -0.016735375343183471 0 -0.0066867508559262699 -0.017315132287764445 0 -0.0076083672531187712 -0.011923737344508136 0 -0.0066575834762463825 -0.014833959720178943 0 -0.009578060978925414 -0.016735375343183471 0 -0.0066575834762463825 -0.014833959720178943 0 -0.0053250253445628736 -0.016231040805068795 0 -0.0066867508559262699 -0.017315132287764445 0 -0.0076495689111135594 -0.011869741094505929 0 -0.0085722037077749207 -0.013297159442659792 0 -0.0072375124576675902 -0.0093803374175644109 0 -0.0061482800158778033 -0.010587553869128838 0 -0.0060015594166288426 -0.0088898542480032264 0 -0.0051144216425889049 -0.00956138670694167 0 -0.0061482800158778033 -0.010587553869128838 0 -0.0060015594166288426 -0.0088898542480032264 0 -0.0051484811267681948 -0.010777092189360181 0 -0.0051144216425889049 -0.00956138670694167 0 -0.0061482800158778033 -0.010587553869128838 0 -0.001848985086220614 -0.012896358246283711 0 -0.0021966977172650122 -0.013433792238831489 0 -0.0027799038845275231 -0.012920663636404235 0 -0.0031362890245178725 -0.012790013050913903 0 -0.0029225561407014372 -0.013455120315148389 0 -0.0035591529711004222 -0.012368062345631602 0 -0.0028837398507390172 -0.013514648407271942 0 -0.0037806574514977469 -0.01287016102774311 0 -0.0021966977172650122 -0.013433792238831489 0 -0.0027799038845275231 -0.012920663636404235 0 -0.0028837398507390172 -0.013514648407271942 0 -0.0037806574514977469 -0.01287016102774311 0 -0.0042028507725594367 -0.012561190028271912 0 -0.0042803696522965614 -0.01322813679852591 0 -0.0028837398507390172 -0.013514648407271942 0 -0.0037806574514977469 -0.01287016102774311 0 -0.0042803696522965614 -0.01322813679852591 0 -0.0035591529711004222 -0.012368062345631602 0 -0.0042028507725594367 -0.012561190028271912 0 -0.0040245455622577933 -0.012224364566968147 0 -0.0035591529711004222 -0.012368062345631602 0 -0.0037806574514977469 -0.01287016102774311 0 -0.0042028507725594367 -0.012561190028271912 0 -0.0044078900486033915 -0.012452558576526999 0 -0.0042028507725594367 -0.012561190028271912 0 -0.0043479177271926071 -0.012208071883732215 0 -0.0044078900486033915 -0.012452558576526999 0 -0.0045405220162427033 -0.012696130663203131 0 -0.0042028507725594367 -0.012561190028271912 0 -0.0070232972323882427 -0.011510591986220073 0 -0.006103554926368663 -0.013083065984092817 0 -0.0042803696522965614 -0.01322813679852591 0 -0.0057186139957140902 -0.012175212118599598 0 -0.0043696542743633911 -0.013101393424172048 0 -0.0045405220162427033 -0.012696130663203131 0 -0.0042028507725594367 -0.012561190028271912 0 -0.0042803696522965614 -0.01322813679852591 0 -0.006103554926368663 -0.013083065984092817 0 -0.0066575834762463825 -0.014833959720178943 0 -0.0045177738914609503 -0.014575353925114654 0 -0.006103554926368663 -0.013083065984092817 0 -0.0045177738914609503 -0.014575353925114654 0 -0.0042803696522965614 -0.01322813679852591 0 -0.0045177738914609503 -0.014575353925114654 0 -0.0053250253445628736 -0.016231040805068795 0 -0.0039941339298736429 -0.017351725383356505 0 -0.0066575834762463825 -0.014833959720178943 0 -0.0045177738914609503 -0.014575353925114654 0 -0.0053250253445628736 -0.016231040805068795 0 -0.0044821826120922149 -0.014630255726987718 0 -0.0019823701247199069 -0.015801411798045974 0 -0.0045177738914609503 -0.014575353925114654 0 -0.0010758331134185846 -0.016588720491995352 0 -0.0039941339298736429 -0.017351725383356505 0 -0.0028837398507390172 -0.013514648407271942 0 -0.0045177738914609503 -0.014575353925114654 0 -0.0042803696522965614 -0.01322813679852591 0 -0.0028837398507390172 -0.013514648407271942 0 -0.0045177738914609503 -0.014575353925114654 0 -0.0028364449810590968 -0.014913843073045375 0 -0.0028837398507390172 -0.013514648407271942 0 -0.0028364449810590968 -0.014913843073045375 0 -0.0021915896609148743 -0.014221159555869847 0 -0.0015904246074227401 -0.015249454969287033 0 -0.0028364449810590968 -0.014913843073045375 0 -0.0021915896609148743 -0.014221159555869847 0 0.00034386267485221253 -0.016001216363153433 0 -0.0019823701247199069 -0.015801411798045974 0 -0.0021966977172650122 -0.013433792238831489 0 -0.0028837398507390172 -0.013514648407271942 0 -0.0021915896609148743 -0.014221159555869847 0 -0.001494647801405017 -0.013897766869070974 0 -0.0021966977172650122 -0.013433792238831489 0 -0.0021915896609148743 -0.014221159555869847 0 0.0015401123076094684 -0.020505492410240529 0 -0.00013775387868712285 -0.01924799541139401 0 -0.00077459396109786304 -0.021632533367514653 0 0.0019216535470579126 -0.023451758071976664 0 0.0015401123076094684 -0.020505492410240529 0 -0.00077459396109786304 -0.021632533367514653 0 0.0023986360464664375 -0.017952925938734883 0 0.0015401123076094684 -0.020505492410240529 0 -0.00013775387868712285 -0.01924799541139401 0 0.0023986360464664375 -0.017952925938734883 0 -0.0010758331134185846 -0.016588720491995352 0 -0.00013775387868712285 -0.01924799541139401 0 -0.0010758331134185846 -0.016588720491995352 0 -0.00013775387868712285 -0.01924799541139401 0 -0.0026938415894969467 -0.019609258804148974 0 -0.00013775387868712285 -0.01924799541139401 0 -0.00077459396109786304 -0.021632533367514653 0 -0.0026938415894969467 -0.019609258804148974 0 -0.00077459396109786304 -0.021632533367514653 0 -0.0026938415894969467 -0.019609258804148974 0 -0.0031230569733530344 -0.022376854642880896 0 -0.0026938415894969467 -0.019609258804148974 0 -0.0050935661131832725 -0.018982854285434995 0 -0.0046498081558652479 -0.021335812911145363 0 -0.0026938415894969467 -0.019609258804148974 0 -0.0046498081558652479 -0.021335812911145363 0 -0.0031230569733530344 -0.022376854642880896 0 -0.0010758331134185846 -0.016588720491995352 0 -0.0026938415894969467 -0.019609258804148974 0 -0.0039941339298736429 -0.017351725383356505 0 -0.0026938415894969467 -0.019609258804148974 0 -0.0039941339298736429 -0.017351725383356505 0 -0.0050935661131832725 -0.018982854285434995 0 -0.0053250253445628736 -0.016231040805068795 0 -0.0039941339298736429 -0.017351725383356505 0 -0.0050935661131832725 -0.018982854285434995 0 -0.0053250253445628736 -0.016231040805068795 0 -0.0050935661131832725 -0.018982854285434995 0 -0.0066867508559262699 -0.017315132287764445 0 -0.0050935661131832725 -0.018982854285434995 0 -0.0066867508559262699 -0.017315132287764445 0 -0.0066516240510840754 -0.019146161582546666 0 -0.0050935661131832725 -0.018982854285434995 0 -0.0046498081558652479 -0.021335812911145363 0 -0.0061892596165377227 -0.020546773088916837 0 -0.0050935661131832725 -0.018982854285434995 0 -0.0061892596165377227 -0.020546773088916837 0 -0.0066516240510840754 -0.019146161582546666 0 -0.0046498081558652479 -0.021335812911145363 0 -0.0061892596165377227 -0.020546773088916837 0 -0.0060225453606719825 -0.022136466564643884 0 -0.0046498081558652479 -0.021335812911145363 0 -0.0060225453606719825 -0.022136466564643884 0 -0.0054223240218654305 -0.023972396046366674 0 -0.0060225453606719825 -0.022136466564643884 0 -0.0054223240218654305 -0.023972396046366674 0 -0.006704563899275341 -0.023113671385504894 0 -0.0054223240218654305 -0.023972396046366674 0 -0.0034313560253503715 -0.024568621980636089 0 -0.0049909457711334445 -0.026259936634866223 0 -0.0054223240218654305 -0.023972396046366674 0 -0.0072941332068963702 -0.026299745644963568 0 -0.0049909457711334445 -0.026259936634866223 0 -0.0034313560253503715 -0.024568621980636089 0 -0.0018329553948355488 -0.025581301326548643 0 -0.0029121701003026403 -0.026770629136844443 0 -0.0054223240218654305 -0.023972396046366674 0 -0.0034313560253503715 -0.024568621980636089 0 -0.0031230569733530344 -0.022376854642880896 0 -0.0046498081558652479 -0.021335812911145363 0 -0.0054223240218654305 -0.023972396046366674 0 -0.0031230569733530344 -0.022376854642880896 0 -0.0034313560253503715 -0.024568621980636089 0 -0.0031230569733530344 -0.022376854642880896 0 -0.0019053890227918792 -0.023760496129337699 0 -0.00077459396109786304 -0.021632533367514653 0 -0.0019053890227918792 -0.023760496129337699 0 -0.00031725533785956353 -0.02441314372653023 0 -0.00077459396109786304 -0.021632533367514653 0 -0.0031230569733530344 -0.022376854642880896 0 -0.0019053890227918792 -0.023760496129337699 0 -0.0034313560253503715 -0.024568621980636089 0 -0.0019053890227918792 -0.023760496129337699 0 -0.0018329553948355488 -0.025581301326548643 0 -0.0019053890227918792 -0.023760496129337699 0 -0.0018329553948355488 -0.025581301326548643 0 -0.00031725533785956353 -0.02441314372653023 0 -0.0018329553948355488 -0.025581301326548643 0 -0.00031725533785956353 -0.02441314372653023 0 -0.00043688878723856917 -0.026412293131342593 0 0.0015282722204601204 -0.02648374231935512 0 -0.00031725533785956353 -0.02441314372653023 0 -0.00043688878723856917 -0.026412293131342593 0 0.0019216535470579126 -0.023451758071976664 0 -0.00077459396109786304 -0.021632533367514653 0 -0.00031725533785956353 -0.02441314372653023 0 -0.004662410503859047 -0.0083347262025426014 0 -0.0034934619876858305 -0.0084135819153722136 0 -0.0039930099278429349 -0.0087040311884486465 0 -0.0054146190704189258 -0.007836618697704089 0 -0.0060015594166288426 -0.0088898542480032264 0 -0.0067793837329792406 -0.007883519090141412 0 -0.0046088798721734972 -0.0074858840391092835 0 -0.0070571803430051309 -0.013372364852864922 0 -0.0054146190704189258 -0.007836618697704089 0 -0.0052756967107871217 -0.0087584554550707971 0 -0.0060015594166288426 -0.0088898542480032264 0 -0.0051144216425889049 -0.00956138670694167 0 -0.0052756967107871217 -0.0087584554550707971 0 -0.0060015594166288426 -0.0088898542480032264 0 -0.0072375124576675902 -0.0093803374175644109 0 -0.0060015594166288426 -0.0088898542480032264 0 -0.0067793837329792406 -0.007883519090141412 0 -0.009578060978925414 -0.016735375343183471 0 -0.0078390614032948624 -0.018632765999785247 0 -0.0088439969637659141 -0.019847495253224354 0 -0.009578060978925414 -0.016735375343183471 0 -0.0088439969637659141 -0.019847495253224354 0 -0.010069397351694378 -0.020624945858146313 0 -0.0085722037077749207 -0.013297159442659792 0 -0.0070571803430051309 -0.013372364852864922 0 -0.009578060978925414 -0.016735375343183471 0 -0.0066867508559262699 -0.017315132287764445 0 -0.0078390614032948624 -0.018632765999785247 0 -0.0066867508559262699 -0.017315132287764445 0 -0.0078390614032948624 -0.018632765999785247 0 -0.0066516240510840754 -0.019146161582546666 0 -0.0061892596165377227 -0.020546773088916837 0 -0.0066516240510840754 -0.019146161582546666 0 -0.0075067664825355287 -0.020175407933184231 0 -0.0075067664825355287 -0.020175407933184231 0 -0.0082434075990986816 -0.020663864741109712 0 -0.0088439969637659141 -0.019847495253224354 0 -0.0078390614032948624 -0.018632765999785247 0 -0.0075067664825355287 -0.020175407933184231 0 -0.0088439969637659141 -0.019847495253224354 0 -0.0078390614032948624 -0.018632765999785247 0 -0.0066516240510840754 -0.019146161582546666 0 -0.0075067664825355287 -0.020175407933184231 0 -0.0082434075990986816 -0.020663864741109712 0 -0.0086119939425056483 -0.021461054315131418 0 -0.0072867469865002818 -0.02157265732430004 0 -0.0075067664825355287 -0.020175407933184231 0 -0.0082434075990986816 -0.020663864741109712 0 -0.0072867469865002818 -0.02157265732430004 0 -0.0061892596165377227 -0.020546773088916837 0 -0.0060225453606719825 -0.022136466564643884 0 -0.0072867469865002818 -0.02157265732430004 0 -0.0061892596165377227 -0.020546773088916837 0 -0.0075067664825355287 -0.020175407933184231 0 -0.0072867469865002818 -0.02157265732430004 0 -0.009578060978925414 -0.016735375343183471 0 -0.010069397351694378 -0.020624945858146313 0 -0.010399021525897055 -0.020627057858125259 0 -0.0088439969637659141 -0.019847495253224354 0 -0.0090489882275863482 -0.02077450923151539 0 -0.010069397351694378 -0.020624945858146313 0 -0.0082434075990986816 -0.020663864741109712 0 -0.0088439969637659141 -0.019847495253224354 0 -0.0090489882275863482 -0.02077450923151539 0 -0.0082434075990986816 -0.020663864741109712 0 -0.0090489882275863482 -0.02077450923151539 0 -0.0086119939425056483 -0.021461054315131418 0 -0.0090489882275863482 -0.02077450923151539 0 -0.009491933216900993 -0.021286292118379142 0 -0.0086119939425056483 -0.021461054315131418 0 -0.010324079234891603 -0.020633348603794018 0 -0.0099933484272373817 -0.021072091850462691 0 -0.01007421592813792 -0.021749516802336617 0 -0.009491933216900993 -0.021286292118379142 0 -0.010069397351694378 -0.020624945858146313 0 -0.0099933484272373817 -0.021072091850462691 0 -0.0090489882275863482 -0.02077450923151539 0 -0.009491933216900993 -0.021286292118379142 0 -0.010069397351694378 -0.020624945858146313 0 -0.010069397351694378 -0.020624945858146313 0 -0.010324079234891603 -0.020633348603794018 0 -0.0099933484272373817 -0.021072091850462691 0 -0.0076468191280040674 -0.013747968372536824 0 -0.0070571803430051309 -0.013372364852864922 0 -0.009491933216900993 -0.021286292118379142 0 -0.0099933484272373817 -0.021072091850462691 0 -0.01007421592813792 -0.021749516802336617 0 -0.01007421592813792 -0.021749516802336617 0 -0.0091208811152126493 -0.022361202163529284 0 -0.0097853079216738206 -0.023091026484186025 0 -0.009491933216900993 -0.021286292118379142 0 -0.01007421592813792 -0.021749516802336617 0 -0.0091208811152126493 -0.022361202163529284 0 -0.0091208811152126493 -0.022361202163529284 0 -0.0086119939425056483 -0.021461054315131418 0 -0.0079189324480008257 -0.022778033737891321 0 -0.009491933216900993 -0.021286292118379142 0 -0.0091208811152126493 -0.022361202163529284 0 -0.0086119939425056483 -0.021461054315131418 0 -0.0091208811152126493 -0.022361202163529284 0 -0.0079189324480008257 -0.022778033737891321 0 -0.0092913420541417928 -0.024042145588161271 0 -0.0091208811152126493 -0.022361202163529284 0 -0.0097853079216738206 -0.023091026484186025 0 -0.0092913420541417928 -0.024042145588161271 0 -0.01007421592813792 -0.021749516802336617 0 -0.0097853079216738206 -0.023091026484186025 0 -0.010701760315897082 -0.022580015894069116 0 -0.0060225453606719825 -0.022136466564643884 0 -0.0072867469865002818 -0.02157265732430004 0 -0.006704563899275341 -0.023113671385504894 0 -0.0086119939425056483 -0.021461054315131418 0 -0.0072867469865002818 -0.02157265732430004 0 -0.0079189324480008257 -0.022778033737891321 0 -0.0072867469865002818 -0.02157265732430004 0 -0.0079189324480008257 -0.022778033737891321 0 -0.006704563899275341 -0.023113671385504894 0 -0.0079189324480008257 -0.022778033737891321 0 -0.006704563899275341 -0.023113671385504894 0 -0.0075214223886223147 -0.024330334285588489 0 -0.0075214223886223147 -0.024330334285588489 0 -0.0087681287967172131 -0.025470940948186797 0 -0.0072941332068963702 -0.026299745644963568 0 -0.0054223240218654305 -0.023972396046366674 0 -0.0075214223886223147 -0.024330334285588489 0 -0.0072941332068963702 -0.026299745644963568 0 -0.0054223240218654305 -0.023972396046366674 0 -0.006704563899275341 -0.023113671385504894 0 -0.0075214223886223147 -0.024330334285588489 0 -0.0092913420541417928 -0.024042145588161271 0 -0.011132952454983093 -0.02446439409588224 0 -0.0087681287967172131 -0.025470940948186797 0 -0.0097853079216738206 -0.023091026484186025 0 -0.0092913420541417928 -0.024042145588161271 0 -0.011132952454983093 -0.02446439409588224 0 -0.0079189324480008257 -0.022778033737891321 0 -0.0075214223886223147 -0.024330334285588489 0 -0.0092913420541417928 -0.024042145588161271 0 -0.0075214223886223147 -0.024330334285588489 0 -0.0092913420541417928 -0.024042145588161271 0 -0.0087681287967172131 -0.025470940948186797 0 -0.003755436442042453 -0.0098384133809906946 0 -0.0044202630955790688 -0.0098563003727916345 0 -0.0039957187619269231 -0.010842485895112735 0 -0.003755436442042453 -0.0098384133809906946 0 -0.004221766554701115 -0.0095698626836193384 0 -0.0044202630955790688 -0.0098563003727916345 0 -0.003755436442042453 -0.0098384133809906946 0 -0.0039717191995948965 -0.0095059628786651976 0 -0.004221766554701115 -0.0095698626836193384 0 -0.0038124127685687957 -0.0098159268614718131 0 -0.0039717191995948965 -0.0095059628786651976 0 -0.0036598941713948561 -0.0090806059937265267 0 -0.0050898841297111171 -0.016387598702776635 0 -0.0058946039753888053 -0.011754692080618166 0 -0.0039717191995948965 -0.0095059628786651976 0 -0.0042121214238825698 -0.0092897659433225643 0 -0.004221766554701115 -0.0095698626836193384 0 -0.0050898841297111171 -0.016387598702776635 0 -0.0072252025756632159 -0.01618756115827108 0 -0.0097853079216738206 -0.023091026484186025 0 -0.011132952454983093 -0.02446439409588224 0 -0.010701760315897082 -0.022580015894069116 0 -0.0039717191995948965 -0.0095059628786651976 0 -0.0036598941713948561 -0.0090806059937265267 0 -0.0041564943977624889 -0.0089879481224991314 0 -0.0039717191995948965 -0.0095059628786651976 0 -0.0041564943977624889 -0.0089879481224991314 0 -0.0042121214238825698 -0.0092897659433225643 0 -0.0036598941713948561 -0.0090806059937265267 0 -0.0041564943977624889 -0.0089879481224991314 0 -0.0039930099278429349 -0.0087040311884486465 0 -0.0070571803430051309 -0.013372364852864922 0 -0.0072252025756632159 -0.01618756115827108 0 -0.0034934619876858305 -0.0084135819153722136 0 -0.0036598941713948561 -0.0090806059937265267 0 -0.0039930099278429349 -0.0087040311884486465 0 -0.010324079234891603 -0.020633348603794018 0 -0.01007421592813792 -0.021749516802336617 0 -0.010701760315897082 -0.022580015894069116 0 -0.0051511451757779506 -0.0090152318522300334 0 -0.004662410503859047 -0.0083347262025426014 0 -0.0045266048155039422 -0.0092642424411231369 0 -0.004662410503859047 -0.0083347262025426014 0 -0.0041564943977624889 -0.0089879481224991314 0 -0.0045266048155039422 -0.0092642424411231369 0 -0.004662410503859047 -0.0083347262025426014 0 -0.0041564943977624889 -0.0089879481224991314 0 -0.0039930099278429349 -0.0087040311884486465 0 -0.0041564943977624889 -0.0089879481224991314 0 -0.0042121214238825698 -0.0092897659433225643 0 -0.0045266048155039422 -0.0092642424411231369 0 -0.0050897079541122386 -0.0098970159537583469 0 -0.0044202630955790688 -0.0098563003727916345 0 -0.0039957187619269231 -0.010842485895112735 0 -0.0051511451757779506 -0.0090152318522300334 0 -0.0045266048155039422 -0.0092642424411231369 0 -0.0049185512780131413 -0.0096835380359882456 0 -0.0045266048155039422 -0.0092642424411231369 0 -0.0049185512780131413 -0.0096835380359882456 0 -0.0044202630955790688 -0.0098563003727916345 0 -0.0045266048155039422 -0.0092642424411231369 0 -0.004221766554701115 -0.0095698626836193384 0 -0.0044202630955790688 -0.0098563003727916345 0 -0.0042121214238825698 -0.0092897659433225643 0 -0.0045266048155039422 -0.0092642424411231369 0 -0.004221766554701115 -0.0095698626836193384 0 -0.0050897079541122386 -0.0098970159537583469 0 -0.0049185512780131413 -0.0096835380359882456 0 -0.0044202630955790688 -0.0098563003727916345 0 -0.0049897254122007852 -0.01052181610125435 0 -0.0024508678204367197 -0.01916839117625883 0 -0.00089824076602624918 -0.020682453626650513 0 -0.000820472975443822 -0.021036276691596252 0 -0.00051061220724656845 -0.020992091623532175 0 -0.000820472975443822 -0.021036276691596252 0 -0.00082609079449682003 -0.021317908360831989 0 -0.00051061220724656845 -0.020992091623532175 0 -0.0016594772866204664 -0.021879790308321139 0 -0.0024508678204367197 -0.01916839117625883 0 -0.00062216206462545147 -0.02140281759675056 0 -0.00082609079449682003 -0.021317908360831989 0 -0.00051061220724656845 -0.020992091623532175 0 -0.00070478772908989708 -0.021425625185749118 0 -0.00082609079449682003 -0.021317908360831989 0 -0.00081948749742815361 -0.021474052161849919 0 -0.0016594772866204664 -0.021879790308321139 0 -0.00075928690307974539 -0.021597931018299928 0 -0.0034838714269553629 -0.022152076352912338 0 -0.0038815705404298788 -0.021006352989802132 0 -0.0028622590670053247 -0.021772198172917881 0 -0.0043016453344867749 -0.02244605510277816 0 -0.0034838714269553629 -0.022152076352912338 0 -0.0038815705404298788 -0.021006352989802132 0 -0.0034838714269553629 -0.022152076352912338 0 -0.0028622590670053247 -0.021772198172917881 0 -0.0028601027686270641 -0.022366923042419443 0 -0.0050898841297111171 -0.016387598702776635 0 -0.0062116880790028667 -0.024583143070599091 0 -0.0024508678204367197 -0.01916839117625883 0 -0.0031017910764430481 -0.021730293759775924 0 -0.0037365807094290136 -0.019375974461479036 0 -0.0041409228497820763 -0.020870369390437335 0 -0.0028702600753911412 -0.021001424314938743 0 -0.0041409228497820763 -0.020870369390437335 0 -0.0028702600753911412 -0.021001424314938743 0 -0.0028622590670053247 -0.021772198172917881 0 -0.0050898841297111171 -0.016387598702776635 0 -0.0024508678204367197 -0.01916839117625883 0 -0.0087681287967172131 -0.025470940948186797 0 -0.0097428962001145265 -0.026747969953744608 0 -0.0072941332068963702 -0.026299745644963568 0 -0.011132952454983093 -0.02446439409588224 0 -0.0087681287967172131 -0.025470940948186797 0 -0.0097428962001145265 -0.026747969953744608 0 -0.0072941332068963702 -0.026299745644963568 0 -0.0062190581076467469 -0.028173962918838544 0 -0.0049909457711334445 -0.026259936634866223 0 -0.0072941332068963702 -0.026299745644963568 0 -0.0062190581076467469 -0.028173962918838544 0 -0.0083531057849949575 -0.028843392942680929 0 -0.0028702600753911412 -0.021001424314938743 0 -0.0028622590670053247 -0.021772198172917881 0 -0.0021321712153696197 -0.022432597376048385 0 -0.0097428962001145265 -0.026747969953744608 0 -0.0072941332068963702 -0.026299745644963568 0 -0.0083531057849949575 -0.028843392942680929 0 -0.0062116880790028667 -0.024583143070599091 0 -0.0053290347217062224 -0.02579471177474002 0 -0.0028622590670053247 -0.021772198172917881 0 -0.0021321712153696197 -0.022432597376048385 0 -0.0028601027686270641 -0.022366923042419443 0 -0.0021321712153696197 -0.022432597376048385 0 -0.0028742167710952386 -0.023094195674636053 0 -0.0014429387836874664 -0.023728903798155388 0 -0.0021321712153696197 -0.022432597376048385 0 -0.0028601027686270641 -0.022366923042419443 0 -0.0028742167710952386 -0.023094195674636053 0 -0.0019855345943295632 -0.022299045467152185 0 -0.002325262188440003 -0.02470335023855524 0 -0.0062190581076467469 -0.028173962918838544 0 -0.0083531057849949575 -0.028843392942680929 0 -0.0070599085577970726 -0.03077274426828492 0 -0.0053290347217062224 -0.02579471177474002 0 -0.002325262188440003 -0.02470335023855524 0 -0.0062190581076467469 -0.028173962918838544 0 -0.0070599085577970726 -0.03077274426828492 0 -0.0048962631342871618 -0.029815431382095817 0 -0.002325262188440003 -0.02470335023855524 0 -0.00059753585178375329 -0.022606840942517741 0 -0.0010333436701897081 -0.021847540082787428 0 -0.00072657805682569819 -0.022265138072093626 0 -0.0011462838889297962 -0.022099959542065898 0 -0.0010333436701897081 -0.021847540082787428 0 -0.0010489660003278947 -0.021886158993940513 0 -0.0011462838889297962 -0.022099959542065898 0 -0.0010076968803136995 -0.021819563174134998 0 -0.0010333436701897081 -0.021847540082787428 0 -0.0010489660003278947 -0.021886158993940513 0 -0.0010489660003278947 -0.021886158993940513 0 -0.00093412337648139654 -0.021798604280020804 0 -0.0010555490157801593 -0.02193047281523295 0 -0.0010489660003278947 -0.021886158993940513 0 -0.00093412337648139654 -0.021798604280020804 0 -0.00092537925974464131 -0.021752333656984198 0 -0.00093412337648139654 -0.021798604280020804 0 -0.00083283188729464512 -0.021709051586631424 0 -0.00092537925974464131 -0.021752333656984198 0 -0.00083283188729464512 -0.021709051586631424 0 -0.00081668616963530749 -0.021642371838582496 0 -0.00092537925974464131 -0.021752333656984198 0 -0.00083283188729464512 -0.021709051586631424 0 -0.00081668616963530749 -0.021642371838582496 0 -0.00088305891622873312 -0.021509192367332335 0 -0.00085865282070744277 -0.021745356290024356 0 -0.00081668616963530749 -0.021642371838582496 0 -0.00092537925974464131 -0.021752333656984198 0 -0.00081668616963530749 -0.021642371838582496 0 -0.00081948749742815361 -0.021474052161849919 0 -0.00088305891622873312 -0.021509192367332335 0 -0.00082609079449682003 -0.021317908360831989 0 -0.00081948749742815361 -0.021474052161849919 0 -0.00088305891622873312 -0.021509192367332335 0 -0.0016594772866204664 -0.021879790308321139 0 -0.0010798696679686203 -0.021490324958206807 0 -0.00070478772908989708 -0.021425625185749118 0 -0.00081668616963530749 -0.021642371838582496 0 -0.00081948749742815361 -0.021474052161849919 0 -0.00085865282070744277 -0.021745356290024356 0 -0.0010076968803136995 -0.021819563174134998 0 -0.00092537925974464131 -0.021752333656984198 0 -0.0010076968803136995 -0.021819563174134998 0 -0.0010489660003278947 -0.021886158993940513 0 -0.00092537925974464131 -0.021752333656984198 0 -0.0043016453344867749 -0.02244605510277816 0 -0.0034838714269553629 -0.022152076352912338 0 -0.0028742167710952386 -0.023094195674636053 0 -0.0016594772866204664 -0.021879790308321139 0 -0.0019855345943295632 -0.022299045467152185 0 -0.0034838714269553629 -0.022152076352912338 0 -0.0028601027686270641 -0.022366923042419443 0 -0.0028742167710952386 -0.023094195674636053 0 0.00020095551617406622 -0.028997881224574782 0 -0.00017703862637883809 -0.02790150544419254 0 -0.0018075159803784067 -0.028455530953696209 0 0.0015282722204601204 -0.02648374231935512 0 -0.00017703862637883809 -0.02790150544419254 0 -0.00043688878723856917 -0.026412293131342593 0 -0.00017703862637883809 -0.02790150544419254 0 -0.00043688878723856917 -0.026412293131342593 0 -0.0013987233447275307 -0.027062339619579504 0 -0.0013987233447275307 -0.027062339619579504 0 -0.0018075159803784067 -0.028455530953696209 0 -0.0029121701003026403 -0.026770629136844443 0 -0.0018329553948355488 -0.025581301326548643 0 -0.00043688878723856917 -0.026412293131342593 0 -0.0013987233447275307 -0.027062339619579504 0 -0.0018329553948355488 -0.025581301326548643 0 -0.0013987233447275307 -0.027062339619579504 0 -0.0029121701003026403 -0.026770629136844443 0 -0.00017703862637883809 -0.02790150544419254 0 -0.0013987233447275307 -0.027062339619579504 0 -0.0018075159803784067 -0.028455530953696209 0 -0.0018075159803784067 -0.028455530953696209 0 -0.0040632074013162173 -0.028143529180825484 0 -0.0032373676181074408 -0.02945008189622669 0 -0.0018075159803784067 -0.028455530953696209 0 -0.0040632074013162173 -0.028143529180825484 0 -0.0029121701003026403 -0.026770629136844443 0 -0.0040632074013162173 -0.028143529180825484 0 -0.0029121701003026403 -0.026770629136844443 0 -0.0049909457711334445 -0.026259936634866223 0 -0.0034313560253503715 -0.024568621980636089 0 -0.0029121701003026403 -0.026770629136844443 0 -0.0049909457711334445 -0.026259936634866223 0 -0.0062190581076467469 -0.028173962918838544 0 -0.0040632074013162173 -0.028143529180825484 0 -0.0048962631342871618 -0.029815431382095817 0 -0.0062190581076467469 -0.028173962918838544 0 -0.0040632074013162173 -0.028143529180825484 0 -0.0049909457711334445 -0.026259936634866223 0 -0.00049364874673263023 -0.023471815578222546 0 -0.00050330799420052988 -0.023436055977421821 0 -0.00047958794545581982 -0.023428439665290353 0 -0.002325262188440003 -0.02470335023855524 0 -0.002676567630547078 -0.027765150008579736 0 -0.0070599085577970726 -0.03077274426828492 0 -0.0048962631342871618 -0.029815431382095817 0 -0.0044544545073356536 -0.031631343179699602 0 -0.002676567630547078 -0.027765150008579736 0 -0.0012604253587025329 -0.027830441551188842 0 -0.0044544545073356536 -0.031631343179699602 0 -0.0027501620175671682 -0.030858180524556193 0 -0.0020220503213489115 -0.032289981146535168 0 -0.0048962631342871618 -0.029815431382095817 0 -0.0044544545073356536 -0.031631343179699602 0 -0.0027501620175671682 -0.030858180524556193 0 -0.0040632074013162173 -0.028143529180825484 0 -0.0048962631342871618 -0.029815431382095817 0 -0.0032373676181074408 -0.02945008189622669 0 -0.0048962631342871618 -0.029815431382095817 0 -0.0027501620175671682 -0.030858180524556193 0 -0.0032373676181074408 -0.02945008189622669 0 -0.0018075159803784067 -0.028455530953696209 0 -0.0032373676181074408 -0.02945008189622669 0 -0.0010980987664344329 -0.030024768210017563 0 -0.0027501620175671682 -0.030858180524556193 0 -0.0032373676181074408 -0.02945008189622669 0 -0.0010980987664344329 -0.030024768210017563 0 -0.0027501620175671682 -0.030858180524556193 0 -0.0011438699955822712 -0.031866765110391639 0 -0.0020220503213489115 -0.032289981146535168 0 -0.0027501620175671682 -0.030858180524556193 0 -0.0010980987664344329 -0.030024768210017563 0 -0.0011438699955822712 -0.031866765110391639 0 -0.00039606771775065774 -0.03103255920776108 0 -0.00074380314330799461 -0.030230812724673563 0 0.0004946934809765143 -0.031913246255605945 0 -0.0010980987664344329 -0.030024768210017563 0 -0.0011438699955822712 -0.031866765110391639 0 0.00030916094860198012 -0.030810730419092734 0 0.00033842619841503745 -0.029864570123674543 0 -0.0010980987664344329 -0.030024768210017563 0 0.00033842619841503745 -0.029864570123674543 0 0.00020095551617406622 -0.028997881224574782 0 -0.0010980987664344329 -0.030024768210017563 0 0.00020095551617406622 -0.028997881224574782 0 -0.0018075159803784067 -0.028455530953696209 0 -0.0010980987664344329 -0.030024768210017563 0 -0.00032500311279692862 -0.023613296852011773 0 -0.00037779488341875344 -0.023534138042263779 0 -0.00038700684495249411 -0.023562425272515765 0 -0.00076568880943592122 -0.027179323485473028 0 0.00017276545371943132 -0.027218782043577017 0 -0.00032500311279692862 -0.023613296852011773 0 -0.00032200791597266493 -0.023558662730252117 0 -0.00037779488341875344 -0.023534138042263779 0 -0.00039606771775065774 -0.03103255920776108 0 -0.00084654598451111009 -0.031885342357716631 0 -0.0011438699955822712 -0.031866765110391639 0 -0.00051189820864438139 -0.032520102713422427 0 -0.0020220503213489115 -0.032289981146535168 0 -0.00027151055673288639 -0.028034126682334373 0 -0.0012604253587025329 -0.027830441551188842 0 -0.00033690652886647204 -0.031946746230111303 0 -0.0011438699955822712 -0.031866765110391639 0 -0.00051189820864438139 -0.032520102713422427 0 -0.00032200791597266493 -0.023558662730252117 0 -0.00042590425038396785 -0.023449337166966823 0 -0.00037779488341875344 -0.023534138042263779 0 -0.00037779488341875344 -0.023534138042263779 0 -0.00042660833847803432 -0.023478075529930219 0 -0.00038700684495249411 -0.023562425272515765 0 -0.00042590425038396785 -0.023449337166966823 0 -0.00037779488341875344 -0.023534138042263779 0 -0.00042660833847803432 -0.023478075529930219 0 -0.00042660833847803432 -0.023478075529930219 0 -0.00048190122051093955 -0.023411144808122647 0 -0.00051568405728250066 -0.023326778581337467 0 -0.00042660833847803432 -0.023478075529930219 0 -0.00051568405728250066 -0.023326778581337467 0 -0.00045571034789730489 -0.023606303479669261 0 -0.00042660833847803432 -0.023478075529930219 0 -0.00045571034789730489 -0.023606303479669261 0 -0.00038700684495249411 -0.023562425272515765 0 -0.00050330799420052988 -0.023436055977421821 0 -0.00042590425038396785 -0.023449337166966823 0 -0.00050016063033780163 -0.023413501822278353 0 -0.00042590425038396785 -0.023449337166966823 0 -0.00048190122051093955 -0.023411144808122647 0 -0.00050016063033780163 -0.023413501822278353 0 -0.00042590425038396785 -0.023449337166966823 0 -0.00042660833847803432 -0.023478075529930219 0 -0.00048190122051093955 -0.023411144808122647 0 -0.00072657805682569819 -0.022265138072093626 0 -0.00077796191244121295 -0.023164038923697058 0 -0.00051568405728250066 -0.023326778581337467 0 -0.00059753585178375329 -0.022606840942517741 0 -0.00048725483718288211 -0.023330033768980678 0 -0.00050016063033780163 -0.023413501822278353 0 -0.00047958794545581982 -0.023428439665290353 0 -0.00051568405728250066 -0.023326778581337467 0 -0.00050330799420052988 -0.023436055977421821 0 -0.00050016063033780163 -0.023413501822278353 0 -0.00047958794545581982 -0.023428439665290353 0 -0.001430222556122686 -0.022122523008835319 0 -0.00080485767850287343 -0.025436830046986231 0 -0.00077796191244121295 -0.023164038923697058 0 -0.00051568405728250066 -0.023326778581337467 0 -0.00045571034789730489 -0.023606303479669261 0 -0.0015828757496593074 -0.022070137223804007 0 -0.0021909475503244119 -0.021980189623745271 0 -0.0015338019485254012 -0.02192242317707712 0 -0.00048190122051093955 -0.023411144808122647 0 -0.00050016063033780163 -0.023413501822278353 0 -0.00051568405728250066 -0.023326778581337467 0 -0.0017930496106264907 -0.021858033475672906 0 -0.0021909475503244119 -0.021980189623745271 0 -0.0015338019485254012 -0.02192242317707712 0 -0.0022202351669892723 -0.022023905257047702 0 -0.0017930496106264907 -0.021858033475672906 0 -0.0016116539142986531 -0.021487799418379968 0 -0.0022202351669892723 -0.022023905257047702 0 -0.0017930496106264907 -0.021858033475672906 0 -0.0021909475503244119 -0.021980189623745271 0 -0.0022202351669892723 -0.022023905257047702 0 -0.0016116539142986531 -0.021487799418379968 0 -0.0018309020471971652 -0.021227078115810788 0 -0.002237785662611388 -0.022053487726402574 0 -0.0022574793780007442 -0.022120098853097198 0 -0.0022202351669892723 -0.022023905257047702 0 -0.0022909780673296648 -0.02288617573773347 0 -0.0027178821267949222 -0.022997095728532466 0 -0.00080485767850287343 -0.025436830046986231 0 -0.00078101091446550262 -0.026119029422581801 0 0.0014990516004234377 -0.030349038608693691 0 0.00027310132569971501 -0.030652196333532479 0 0.00051894312472788211 -0.029110211983815061 0 -0.0022202351669892723 -0.022023905257047702 0 -0.0021909475503244119 -0.021980189623745271 0 -0.0022909780673296648 -0.02288617573773347 0 -0.00080485767850287343 -0.025436830046986231 0 0.00017276545371943132 -0.027218782043577017 0 0.00027310132569971501 -0.030652196333532479 0 0.00051894312472788211 -0.029110211983815061 0 -0.00063010254237551115 -0.029759461214938644 0 -0.001231584148475916 -0.029006682911631013 0 0.00051894312472788211 -0.029110211983815061 0 -0.00063010254237551115 -0.029759461214938644 0 -0.001231584148475916 -0.029006682911631013 0 -0.001600723436346458 -0.029765138475968705 0 -0.00063010254237551115 -0.029759461214938644 0 -0.0012244629677676897 -0.030304105730545986 0 -0.001600723436346458 -0.029765138475968705 0 -0.00063010254237551115 -0.029759461214938644 0 -0.0012244629677676897 -0.030304105730545986 0 0.00027310132569971501 -0.030652196333532479 0 -0.00063010254237551115 -0.029759461214938644 0 -0.0012244629677676897 -0.030304105730545986 0 -0.0010793460790611777 -0.030943752772427766 0 0.00027310132569971501 -0.030652196333532479 0 -0.00097803933575949962 -0.021810981483014035 0 -0.00083250708257296996 -0.021737344663054641 0 -0.0009516764140730734 -0.021665665283532483 0 -0.00083250708257296996 -0.021737344663054641 0 -0.00073011782675175621 -0.021585886252645056 0 -0.0007139904985497494 -0.0216846800215004 0 -0.00083250708257296996 -0.021737344663054641 0 -0.0009516764140730734 -0.021665665283532483 0 -0.00073011782675175621 -0.021585886252645056 0 -0.00083283188729464512 -0.021709051586631424 0 -0.00083250708257296996 -0.021737344663054641 0 -0.0007139904985497494 -0.0216846800215004 0 -0.00083283188729464512 -0.021709051586631424 0 -0.00083250708257296996 -0.021737344663054641 0 -0.00092057485555086069 -0.021803099176227234 0 -0.00093412337648139654 -0.021798604280020804 0 -0.00083283188729464512 -0.021709051586631424 0 -0.00092057485555086069 -0.021803099176227234 0 -0.00097803933575949962 -0.021810981483014035 0 -0.00083250708257296996 -0.021737344663054641 0 -0.00092057485555086069 -0.021803099176227234 0 -0.00097803933575949962 -0.021810981483014035 0 -0.00092057485555086069 -0.021803099176227234 0 -0.0010555490157801593 -0.02193047281523295 0 -0.00093412337648139654 -0.021798604280020804 0 -0.00092057485555086069 -0.021803099176227234 0 -0.0010555490157801593 -0.02193047281523295 0 -0.0010489660003278947 -0.021886158993940513 0 -0.0010555490157801593 -0.02193047281523295 0 -0.0011462838889297962 -0.022099959542065898 0 -0.0010555490157801593 -0.02193047281523295 0 -0.0011462838889297962 -0.022099959542065898 0 -0.0012810525216852124 -0.021999502027830065 0 -0.0015828757496593074 -0.022070137223804007 0 -0.0011462838889297962 -0.022099959542065898 0 -0.0012810525216852124 -0.021999502027830065 0 -0.001430222556122686 -0.022122523008835319 0 -0.001066312961126724 -0.022354055791587207 0 -0.00072657805682569819 -0.022265138072093626 0 -0.00077796191244121295 -0.023164038923697058 0 -0.0011462838889297962 -0.022099959542065898 0 -0.0012810525216852124 -0.021999502027830065 0 -0.0015338019485254012 -0.02192242317707712 0 -0.0011616867660467457 -0.021868086547938256 0 -0.0015338019485254012 -0.02192242317707712 0 -0.0011616867660467457 -0.021868086547938256 0 -0.001213182407587563 -0.021730639680682052 0 -0.0015828757496593074 -0.022070137223804007 0 -0.0012810525216852124 -0.021999502027830065 0 -0.0015338019485254012 -0.02192242317707712 0 -0.00097803933575949962 -0.021810981483014035 0 -0.0011616867660467457 -0.021868086547938256 0 -0.0009516764140730734 -0.021665665283532483 0 -0.00097803933575949962 -0.021810981483014035 0 -0.0010555490157801593 -0.02193047281523295 0 -0.0011616867660467457 -0.021868086547938256 0 -0.0010555490157801593 -0.02193047281523295 0 -0.0012810525216852124 -0.021999502027830065 0 -0.0011616867660467457 -0.021868086547938256 0 -0.001213182407587563 -0.021730639680682052 0 -0.0011631177909594099 -0.0215286153568734 0 -0.0009516764140730734 -0.021665665283532483 0 -0.0011616867660467457 -0.021868086547938256 0 -0.001213182407587563 -0.021730639680682052 0 -0.0009516764140730734 -0.021665665283532483 0 -0.001213182407587563 -0.021730639680682052 0 -0.0014547540630842066 -0.02172851564117453 0 -0.0011631177909594099 -0.0215286153568734 0 -0.0015338019485254012 -0.02192242317707712 0 -0.001213182407587563 -0.021730639680682052 0 -0.0014547540630842066 -0.02172851564117453 0 -0.0017930496106264907 -0.021858033475672906 0 -0.0015338019485254012 -0.02192242317707712 0 -0.0014547540630842066 -0.02172851564117453 0 -0.0017930496106264907 -0.021858033475672906 0 -0.0014547540630842066 -0.02172851564117453 0 -0.0016116539142986531 -0.021487799418379968 0 -0.0016116539142986531 -0.021487799418379968 0 -0.0011631177909594099 -0.0215286153568734 0 -0.0012835636504849326 -0.021198780815414226 0 -0.0014547540630842066 -0.02172851564117453 0 -0.0016116539142986531 -0.021487799418379968 0 -0.0011631177909594099 -0.0215286153568734 0 -0.0011631177909594099 -0.0215286153568734 0 -0.00082401051070803187 -0.021370999160215298 0 -0.0012835636504849326 -0.021198780815414226 0 -0.00082401051070803187 -0.021370999160215298 0 -0.0009516764140730734 -0.021665665283532483 0 -0.00073011782675175621 -0.021585886252645056 0 -0.0011631177909594099 -0.0215286153568734 0 -0.00082401051070803187 -0.021370999160215298 0 -0.0009516764140730734 -0.021665665283532483 0 -0.00082401051070803187 -0.021370999160215298 0 -0.0005393858356786969 -0.021354252603117709 0 -0.00050324227430627918 -0.021039653681588267 0 -0.00082401051070803187 -0.021370999160215298 0 -0.00073011782675175621 -0.021585886252645056 0 -0.0005393858356786969 -0.021354252603117709 0 -0.0005393858356786969 -0.021354252603117709 0 -0.00040247854900588254 -0.021376078341637319 0 -0.00028848371261214412 -0.021125222195129648 0 -0.00040247854900588254 -0.021376078341637319 0 -0.00019793418375998098 -0.021194744972303652 0 -0.00028848371261214412 -0.021125222195129648 0 -0.00040247854900588254 -0.021376078341637319 0 -0.00057416527351377886 -0.021524954068874922 0 -0.00051737057835761198 -0.021554012601944148 0 -0.00040247854900588254 -0.021376078341637319 0 -0.0003003186785366978 -0.021462545142238873 0 -0.00051737057835761198 -0.021554012601944148 0 -0.0005393858356786969 -0.021354252603117709 0 -0.00040247854900588254 -0.021376078341637319 0 -0.00057416527351377886 -0.021524954068874922 0 -0.00073011782675175621 -0.021585886252645056 0 -0.0005393858356786969 -0.021354252603117709 0 -0.00057416527351377886 -0.021524954068874922 0 -0.0030838824592710114 0.0021751704047417242 0 -0.0031944948604297582 0.002225991044399642 0 -0.0027716485343379318 0.0018506851213569036 0 -0.0020185336524765262 -0.0030444164053850227 0 -0.002621921154832476 0.003783658503755164 0 -0.00053493554349618962 -0.015828781553520872 0 -0.0015384786924540898 -0.015734712011810599 0 -0.00089252123900638441 -0.010469430331497488 0 -0.0011072156667205351 -0.010276501215940672 0 -0.0010378730855212718 -0.010753989200560187 0 -0.00089252123900638441 -0.010469430331497488 0 -0.0011072156667205351 -0.010276501215940672 0 -0.0010055724634070347 -0.010079781356813776 0 -0.0020185336524765262 -0.0030444164053850227 0 -0.0015630642477569854 -0.0043830853451293479 0 -0.00040247854900588254 -0.021376078341637319 0 -0.00019793418375998098 -0.021194744972303652 0 -0.0003003186785366978 -0.021462545142238873 0 -0.0020185336524765262 -0.0030444164053850227 0 -0.0015384786924540898 -0.015734712011810599 0 -0.0020185336524765262 -0.0030444164053850227 0 -0.003103596495429527 -0.0032012651037973293 0 -0.0031944948604297582 0.002225991044399642 0 -0.0036324536149839647 0.0020046334616086771 0 -0.003263750489063787 0.0022380347207543142 0 -0.002581272339246645 -0.0078521120226038021 0 -0.0028302158316710017 -0.0083396543861101336 0 -0.002392835406727209 -0.0086024470509884852 0 -0.0030838824592710114 0.0021751704047417242 0 -0.0031944948604297582 0.002225991044399642 0 -0.003263750489063787 0.0022380347207543142 0 -0.0028302158316710017 -0.0083396543861101336 0 -0.002392835406727209 -0.0086024470509884852 0 -0.0026605652987640748 -0.0090160210319741863 0 -0.0015384786924540898 -0.015734712011810599 0 -0.0013960542185030068 -0.01577887751096993 0 -0.00074592621121468479 -0.020211389974755963 0 -0.0006223303404364138 -0.020810514820379728 0 -0.00099871376881370284 -0.02089495860433075 0 -0.0015384786924540898 -0.015734712011810599 0 -0.0008824315932648225 -0.022263086588784436 0 -0.0006223303404364138 -0.020810514820379728 0 -0.00099871376881370284 -0.02089495860433075 0 -0.00086777578819922257 -0.021251162317987942 0 -0.0036324536149839647 0.0020046334616086771 0 -0.0041999161596142269 0.0010369985329649247 0 -0.0036684475499424002 0.0015178834147745062 0 -0.002392835406727209 -0.0086024470509884852 0 -0.0026605652987640748 -0.0090160210319741863 0 -0.002225082915793839 -0.0092595533481520144 0 -0.003103596495429527 -0.0032012651037973293 0 -0.0033813779594991295 -0.0045823525990548704 0 -0.0013960542185030068 -0.01577887751096993 0 -0.0033784021545999717 -0.0095525626297130375 0 -0.0026605652987640748 -0.0090160210319741863 0 -0.002225082915793839 -0.0092595533481520144 0 -0.002518103342120887 -0.0096135446251095734 0 -0.00073011782675175621 -0.021585886252645056 0 -0.00057416527351377886 -0.021524954068874922 0 -0.0007139904985497494 -0.0216846800215004 0 -0.00057416527351377886 -0.021524954068874922 0 -0.00051737057835761198 -0.021554012601944148 0 -0.0007139904985497494 -0.0216846800215004 0 -0.00051737057835761198 -0.021554012601944148 0 -0.00061920657834743187 -0.021660053756127954 0 -0.0007139904985497494 -0.0216846800215004 0 -0.0003003186785366978 -0.021462545142238873 0 -0.00051737057835761198 -0.021554012601944148 0 -0.00061920657834743187 -0.021660053756127954 0 -0.00061920657834743187 -0.021660053756127954 0 -0.0007139904985497494 -0.0216846800215004 0 -0.0009251731446701147 -0.021496200241236916 0 -0.00083283188729464512 -0.021709051586631424 0 -0.0007139904985497494 -0.0216846800215004 0 -0.0009251731446701147 -0.021496200241236916 0 -0.00083283188729464512 -0.021709051586631424 0 -0.0009251731446701147 -0.021496200241236916 0 -0.00088305891622873312 -0.021509192367332335 0 -0.0009251731446701147 -0.021496200241236916 0 -0.00088305891622873312 -0.021509192367332335 0 -0.00095919115619677803 -0.021350767390721382 0 -0.0009251731446701147 -0.021496200241236916 0 -0.00086777578819922257 -0.021251162317987942 0 -0.00095836988986662129 -0.021356987502620477 0 -0.0009251731446701147 -0.021496200241236916 0 -0.00095836988986662129 -0.021356987502620477 0 -0.00095919115619677803 -0.021350767390721382 0 -0.00099871376881370284 -0.02089495860433075 0 -0.0009251731446701147 -0.021496200241236916 0 -0.00086777578819922257 -0.021251162317987942 0 -0.0008824315932648225 -0.022263086588784436 0 -0.00079914865289914031 -0.021062335688096453 0 -0.00086777578819922257 -0.021251162317987942 0 -0.0006356874051162279 -0.021181516720905718 0 -0.00095836988986662129 -0.021356987502620477 0 -0.0006223303404364138 -0.020810514820379728 0 -0.00086777578819922257 -0.021251162317987942 0 -0.0006356874051162279 -0.021181516720905718 0 -0.0041999161596142269 0.0010369985329649247 0 -0.0046419201278432394 0.00018438391461314372 0 -0.0041640533052874525 0.00065350524591913691 0 -0.0041999161596142269 0.0010369985329649247 0 -0.0046419201278432394 0.00018438391461314372 0 -0.0054422634008884059 2.1874326975051633e-05 0 -0.0033813779594991295 -0.0045823525990548704 0 -0.0033784021545999717 -0.0095525626297130375 0 -0.0046419201278432394 0.00018438391461314372 0 -0.0053424268134528502 -0.0005014840338818451 0 -0.0054422634008884059 2.1874326975051633e-05 0 -0.0049548830194879297 -0.0029168793002244779 0 -0.0033784021545999717 -0.0095525626297130375 0 -0.0046862973771165262 -0.00041882717911462985 0 -0.0046392271199962249 -0.0010095455922182423 0 -0.0041130715402442029 -0.00015630312840191348 0 -0.0046419201278432394 0.00018438391461314372 0 -0.0053424268134528502 -0.0005014840338818451 0 -0.0046862973771165262 -0.00041882717911462985 0 -0.0046419201278432394 0.00018438391461314372 0 -0.0046862973771165262 -0.00041882717911462985 0 -0.0041130715402442029 -0.00015630312840191348 0 -0.0053424268134528502 -0.0005014840338818451 0 -0.0046392271199962249 -0.0010095455922182423 0 -0.0056774900530768106 -0.0019020901933686747 0 -0.0053424268134528502 -0.0005014840338818451 0 -0.0046862973771165262 -0.00041882717911462985 0 -0.0046392271199962249 -0.0010095455922182423 0 -0.0046392271199962249 -0.0010095455922182423 0 -0.0056774900530768106 -0.0019020901933686747 0 -0.0044709451481938795 -0.0019809708579832884 0 -0.0033784021545999717 -0.0095525626297130375 0 -0.0039170652872385107 -0.011621379928137712 0 -0.0053424268134528502 -0.0005014840338818451 0 -0.0056774900530768106 -0.0019020901933686747 0 -0.0069823266644630719 -0.0017446185805198443 0 -0.0053424268134528502 -0.0005014840338818451 0 -0.0054603930969261121 -1.4603060372483814e-05 0 -0.0069823266644630719 -0.0017446185805198443 0 -0.0056774900530768106 -0.0019020901933686747 0 -0.005542452591337837 -0.0032316836765511506 0 -0.0067178600760491279 -0.0035670146055756728 0 -0.0056774900530768106 -0.0019020901933686747 0 -0.0069823266644630719 -0.0017446185805198443 0 -0.0067178600760491279 -0.0035670146055756728 0 -0.005542452591337837 -0.0032316836765511506 0 -0.0043454359303877728 -0.0034963353177327322 0 -0.0044709451481938795 -0.0019809708579832884 0 -0.0056774900530768106 -0.0019020901933686747 0 -0.005542452591337837 -0.0032316836765511506 0 -0.0044709451481938795 -0.0019809708579832884 0 -0.005542452591337837 -0.0032316836765511506 0 -0.0055583404494842347 -0.0046129131101536351 0 -0.0067178600760491279 -0.0035670146055756728 0 -0.005542452591337837 -0.0032316836765511506 0 -0.0055583404494842347 -0.0046129131101536351 0 -0.0043454359303877728 -0.0034963353177327322 0 -0.004246960055863982 -0.0055567763576753314 0 -0.0055583404494842347 -0.0046129131101536351 0 -0.0043454359303877728 -0.0034963353177327322 0 -0.0075608538827498413 -0.0050438027623048122 0 -0.006537476091914165 -0.0051298749171469014 0 -0.0067178600760491279 -0.0035670146055756728 0 -0.006537476091914165 -0.0051298749171469014 0 -0.0055583404494842347 -0.0046129131101536351 0 -0.0067178600760491279 -0.0035670146055756728 0 -0.0075608538827498413 -0.0050438027623048122 0 -0.0085325128193708098 -0.0052109152515258496 0 -0.0084213950812488531 -0.0035103720468642151 0 -0.0075608538827498413 -0.0050438027623048122 0 -0.0067178600760491279 -0.0035670146055756728 0 -0.0084213950812488531 -0.0035103720468642151 0 -0.00089824076602624918 -0.020682453626650513 0 -0.000820472975443822 -0.021036276691596252 0 -0.0010583448317953916 -0.021131901237038623 0 -0.0097727632354021269 -0.0052164927929351009 0 -0.0085325128193708098 -0.0052109152515258496 0 -0.0084213950812488531 -0.0035103720468642151 0 -0.0049897254122007852 -0.01052181610125435 0 -0.0048981493714158912 -0.012721943742527678 0 -0.000820472975443822 -0.021036276691596252 0 -0.00082609079449682003 -0.021317908360831989 0 -0.00095919115619677803 -0.021350767390721382 0 -0.000820472975443822 -0.021036276691596252 0 -0.0010583448317953916 -0.021131901237038623 0 -0.00095919115619677803 -0.021350767390721382 0 -0.00082609079449682003 -0.021317908360831989 0 -0.00088305891622873312 -0.021509192367332335 0 -0.00095919115619677803 -0.021350767390721382 0 -0.0039170652872385107 -0.011621379928137712 0 -0.0048981493714158912 -0.012721943742527678 0 -0.00095836988986662129 -0.021356987502620477 0 -0.0010583448317953916 -0.021131901237038623 0 -0.00095919115619677803 -0.021350767390721382 0 -0.0069823266644630719 -0.0017446185805198443 0 -0.0067178600760491279 -0.0035670146055756728 0 -0.0084213950812488531 -0.0035103720468642151 0 -0.00080338267379947178 -0.0027617169276753341 0 -0.0020376460196092475 -0.0014558476548281814 0 -0.00069592579085717794 -0.0014761037070906912 0 -0.00080338267379947178 -0.0027617169276753341 0 -0.0028816851364196041 -0.0036397607583507651 0 -0.0020376460196092475 -0.0014558476548281814 0 -0.00028826289313372037 -0.0030756172570559608 0 -0.00044694528418725248 -0.00053618549957237869 0 -0.00080338267379947178 -0.0027617169276753341 0 -0.00069592579085717794 -0.0014761037070906912 0 0.00040357653218546247 -0.0017419040794945495 0 -0.00080338267379947178 -0.0027617169276753341 0 0.0014122137699959247 -0.0020990305735088988 0 0.00040357653218546247 -0.0017419040794945495 0 -0.0012178194249151712 -0.0050133343326931017 0 -0.00055390230848547186 -0.0029782744721892707 0 -8.0187977529944072e-05 -0.0044543164816181662 0 -0.00055390230848547186 -0.0029782744721892707 0 0.00032076515788125308 -0.0036107894223992342 0 0.00095764419756091544 -0.0031272988180404589 0 -0.00055390230848547186 -0.0029782744721892707 0 0.00032076515788125308 -0.0036107894223992342 0 -8.0187977529944072e-05 -0.0044543164816181662 0 0.00032076515788125308 -0.0036107894223992342 0 0.00062094039097242756 -0.0041317762030042404 0 0.00080300520727657923 -0.0037235296459982429 0 0.00057803201106807281 -0.0048073451463952104 0 0.00062094039097242756 -0.0041317762030042404 0 -8.0187977529944072e-05 -0.0044543164816181662 0 0.00032076515788125308 -0.0036107894223992342 0 0.00062094039097242756 -0.0041317762030042404 0 -8.0187977529944072e-05 -0.0044543164816181662 0 -0.00028826289313372037 -0.0030756172570559608 0 -0.002958274514715334 -0.0035612166385024439 0 -0.0012178194249151712 -0.0050133343326931017 0 -0.00055390230848547186 -0.0029782744721892707 0 -0.0028816851364196041 -0.0036397607583507651 0 -0.004246960055863982 -0.0055567763576753314 0 -0.0028816851364196041 -0.0036397607583507651 0 -0.0043454359303877728 -0.0034963353177327322 0 -0.0043454359303877728 -0.0034963353177327322 0 -0.0033836324447419465 -0.0019923429998908986 0 -0.0044709451481938795 -0.0019809708579832884 0 -0.0028816851364196041 -0.0036397607583507651 0 -0.0043454359303877728 -0.0034963353177327322 0 -0.0033836324447419465 -0.0019923429998908986 0 -0.0028816851364196041 -0.0036397607583507651 0 -0.0033836324447419465 -0.0019923429998908986 0 -0.0020376460196092475 -0.0014558476548281814 0 -0.0033836324447419465 -0.0019923429998908986 0 -0.0029262570909980154 -0.00078306321151350015 0 -0.0020376460196092475 -0.0014558476548281814 0 -0.0029262570909980154 -0.00078306321151350015 0 -0.0024935438388243103 0.00040844331598574829 0 -0.0020376460196092475 -0.0014558476548281814 0 -0.0046392271199962249 -0.0010095455922182423 0 -0.0044709451481938795 -0.0019809708579832884 0 -0.0038306117582556499 -0.00088937489578707122 0 -0.0033836324447419465 -0.0019923429998908986 0 -0.0044709451481938795 -0.0019809708579832884 0 -0.0038306117582556499 -0.00088937489578707122 0 -0.0033836324447419465 -0.0019923429998908986 0 -0.0029262570909980154 -0.00078306321151350015 0 -0.0038306117582556499 -0.00088937489578707122 0 -0.0046392271199962249 -0.0010095455922182423 0 -0.0038306117582556499 -0.00088937489578707122 0 -0.0041130715402442029 -0.00015630312840191348 0 -0.0038306117582556499 -0.00088937489578707122 0 -0.0041130715402442029 -0.00015630312840191348 0 -0.0034367837061489753 0.00026175444210286831 0 -0.0029262570909980154 -0.00078306321151350015 0 -0.0038306117582556499 -0.00088937489578707122 0 -0.0034367837061489753 0.00026175444210286831 0 -0.0034367837061489753 0.00026175444210286831 0 -0.0039820339550657195 0.00042640154702410692 0 -0.0037114534999479953 0.00059504510825703972 0 -0.0034367837061489753 0.00026175444210286831 0 -0.0035173870869676686 0.00084151871781287411 0 -0.0030371641136868223 0.00079356054050531489 0 -0.0034367837061489753 0.00026175444210286831 0 -0.0037114534999479953 0.00059504510825703972 0 -0.0035173870869676686 0.00084151871781287411 0 -0.0041130715402442029 -0.00015630312840191348 0 -0.0034367837061489753 0.00026175444210286831 0 -0.0039820339550657195 0.00042640154702410692 0 -0.0039820339550657195 0.00042640154702410692 0 -0.0037114534999479953 0.00059504510825703972 0 -0.0039034145481093227 0.00084229598454357358 0 -0.0039820339550657195 0.00042640154702410692 0 -0.0041640533052874525 0.00065350524591913691 0 -0.0039034145481093227 0.00084229598454357358 0 -0.0046419201278432394 0.00018438391461314372 0 -0.0039820339550657195 0.00042640154702410692 0 -0.0041640533052874525 0.00065350524591913691 0 -0.0046419201278432394 0.00018438391461314372 0 -0.0041130715402442029 -0.00015630312840191348 0 -0.0039820339550657195 0.00042640154702410692 0 -0.0029262570909980154 -0.00078306321151350015 0 -0.0034367837061489753 0.00026175444210286831 0 -0.0024935438388243103 0.00040844331598574829 0 -0.0034367837061489753 0.00026175444210286831 0 -0.0024935438388243103 0.00040844331598574829 0 -0.0030371641136868223 0.00079356054050531489 0 -0.0024935438388243103 0.00040844331598574829 0 -0.0014499988580544258 0.00042066629167914605 0 -0.0020376460196092475 -0.0014558476548281814 0 -0.0024935438388243103 0.00040844331598574829 0 -0.0014499988580544258 0.00042066629167914605 0 -0.0020243756491377008 0.0015473290094347458 0 -0.0014499988580544258 0.00042066629167914605 0 -0.0020376460196092475 -0.0014558476548281814 0 -0.00069592579085717794 -0.0014761037070906912 0 -0.0014499988580544258 0.00042066629167914605 0 -0.00069592579085717794 -0.0014761037070906912 0 0.00014147645553525445 -0.00066355964558751713 0 -0.00069592579085717794 -0.0014761037070906912 0 0.00014147645553525445 -0.00066355964558751713 0 0.00040357653218546247 -0.0017419040794945495 0 -0.0014499988580544258 0.00042066629167914605 0 -0.00081171289712652413 7.3263123545322254e-05 0 -0.00088911643619207922 0.0013242748202651985 0 -0.0013882318178349772 0.00040462687263866857 0 -0.00023026293996982348 -0.00038841900640785063 0 -0.0014499988580544258 0.00042066629167914605 0 -0.00088911643619207922 0.0013242748202651985 0 -0.0020243756491377008 0.0015473290094347458 0 -0.0020243756491377008 0.0015473290094347458 0 -0.0011701584583779423 0.0027344786455026546 0 -0.0027557648173367508 0.0024302974597194137 0 -0.00088911643619207922 0.0013242748202651985 0 -0.0020243756491377008 0.0015473290094347458 0 -0.0011701584583779423 0.0027344786455026546 0 -0.0036684475499424002 0.0015178834147745062 0 -0.0037407320472745502 0.0011296087119206405 0 -0.0032426074519176537 0.0013229527499564778 0 -0.0041999161596142269 0.0010369985329649247 0 -0.004021536682710599 0.00096513302774038005 0 -0.0037407320472745502 0.0011296087119206405 0 -0.0041999161596142269 0.0010369985329649247 0 -0.0036684475499424002 0.0015178834147745062 0 -0.0037407320472745502 0.0011296087119206405 0 -0.0041999161596142269 0.0010369985329649247 0 -0.004021536682710599 0.00096513302774038005 0 -0.0040738290424093219 0.00084694835261004417 0 -0.0041999161596142269 0.0010369985329649247 0 -0.0041640533052874525 0.00065350524591913691 0 -0.0040738290424093219 0.00084694835261004417 0 -0.004021536682710599 0.00096513302774038005 0 -0.0039034145481093227 0.00084229598454357358 0 -0.0037407320472745502 0.0011296087119206405 0 -0.004021536682710599 0.00096513302774038005 0 -0.0039034145481093227 0.00084229598454357358 0 -0.0040738290424093219 0.00084694835261004417 0 -0.0041640533052874525 0.00065350524591913691 0 -0.0039034145481093227 0.00084229598454357358 0 -0.0040738290424093219 0.00084694835261004417 0 -0.0037114534999479953 0.00059504510825703972 0 -0.0039034145481093227 0.00084229598454357358 0 -0.0035173870869676686 0.00084151871781287411 0 -0.0039034145481093227 0.00084229598454357358 0 -0.0037407320472745502 0.0011296087119206405 0 -0.0035173870869676686 0.00084151871781287411 0 -0.0037407320472745502 0.0011296087119206405 0 -0.0035173870869676686 0.00084151871781287411 0 -0.0032426074519176537 0.0013229527499564778 0 -0.0035173870869676686 0.00084151871781287411 0 -0.0032426074519176537 0.0013229527499564778 0 -0.0030371641136868223 0.00079356054050531489 0 -0.0036684475499424002 0.0015178834147745062 0 -0.0032426074519176537 0.0013229527499564778 0 -0.0033672182348497576 0.0018935899705178007 0 -0.0024935438388243103 0.00040844331598574829 0 -0.0020243756491377008 0.0015473290094347458 0 -0.0027139232043648931 0.0012343193913712815 0 -0.0020243756491377008 0.0015473290094347458 0 -0.0027139232043648931 0.0012343193913712815 0 -0.0028999530846427674 0.0018097453945100737 0 -0.0032426074519176537 0.0013229527499564778 0 -0.0027139232043648931 0.0012343193913712815 0 -0.0028999530846427674 0.0018097453945100737 0 -0.0032426074519176537 0.0013229527499564778 0 -0.0030371641136868223 0.00079356054050531489 0 -0.0027139232043648931 0.0012343193913712815 0 -0.0024935438388243103 0.00040844331598574829 0 -0.0030371641136868223 0.00079356054050531489 0 -0.0027139232043648931 0.0012343193913712815 0 -0.0020243756491377008 0.0015473290094347458 0 -0.0028999530846427674 0.0018097453945100737 0 -0.0027557648173367508 0.0024302974597194137 0 -0.0030960017834972438 0.002197770597846318 0 -0.0028999530846427674 0.0018097453945100737 0 -0.0027557648173367508 0.0024302974597194137 0 -0.0036324536149839647 0.0020046334616086771 0 -0.0036684475499424002 0.0015178834147745062 0 -0.0033672182348497576 0.0018935899705178007 0 -0.0036324536149839647 0.0020046334616086771 0 -0.0033672182348497576 0.0018935899705178007 0 -0.003263750489063787 0.0022380347207543142 0 -0.0032426074519176537 0.0013229527499564778 0 -0.0028999530846427674 0.0018097453945100737 0 -0.0033672182348497576 0.0018935899705178007 0 -0.0030960017834972438 0.002197770597846318 0 -0.0033672182348497576 0.0018935899705178007 0 -0.003263750489063787 0.0022380347207543142 0 -0.0030960017834972438 0.002197770597846318 0 -0.0028999530846427674 0.0018097453945100737 0 -0.0033672182348497576 0.0018935899705178007 0 -0.003263750489063787 0.0022380347207543142 0 -0.0030588310988833183 0.0023407633905026025 0 -0.0031323721976961598 0.0022936324792643343 0 -0.0030960017834972438 0.002197770597846318 0 -0.003263750489063787 0.0022380347207543142 0 -0.0030588310988833183 0.0023407633905026025 0 -0.0030588310988833183 0.0023407633905026025 0 -0.0027557648173367508 0.0024302974597194137 0 -0.0030695749804477081 0.002359644860167901 0 -0.0028308914396255737 0.0026445809213018708 0 -0.002766990268034163 0.0025775039272902386 0 -0.0027557648173367508 0.0024302974597194137 0 -0.002849333558587431 0.003779365717156145 0 -0.0020707702539084173 0.003199029626174783 0 -0.0030960017834972438 0.002197770597846318 0 -0.0030588310988833183 0.0023407633905026025 0 -0.0027557648173367508 0.0024302974597194137 0 -0.0034446276891532987 0.0022549012025198981 0 -0.0031323721976961598 0.0022936324792643343 0 -0.0032679367345064239 0.0019900568294482827 0 -0.002766990268034163 0.0025775039272902386 0 -0.0032579082111680825 0.0023440943180892695 0 -0.0030588310988833183 0.0023407633905026025 0 -0.0030695749804477081 0.002359644860167901 0 -0.0031323721976961598 0.0022936324792643343 0 -0.0030838824592710114 0.0021751704047417242 0 -0.003263750489063787 0.0022380347207543142 0 -0.0031323721976961598 0.0022936324792643343 0 -0.0030838824592710114 0.0021751704047417242 0 -0.0030630595423169604 0.0020989758640613376 0 -0.0027716485343379318 0.0018506851213569036 0 -0.0031323721976961598 0.0022936324792643343 0 -0.0030630595423169604 0.0020989758640613376 0 -0.0032679367345064239 0.0019900568294482827 0 -0.0030838824592710114 0.0021751704047417242 0 -0.0031323721976961598 0.0022936324792643343 0 -0.0030630595423169604 0.0020989758640613376 0 -0.0011701584583779423 0.0027344786455026546 0 -0.0020707702539084173 0.003199029626174783 0 -0.0013954595957681891 0.0034506426363973683 0 -0.001021956813608988 0.0028246452149045063 0 -0.0011579972777413208 0.0041401778092588848 0 -0.0011701584583779423 0.0027344786455026546 0 -0.0013954595957681891 0.0034506426363973683 0 -0.00070427802121198976 0.003718126941112317 0 -0.0011701584583779423 0.0027344786455026546 0 -0.0027557648173367508 0.0024302974597194137 0 -0.0020707702539084173 0.003199029626174783 0 -0.0020707702539084173 0.003199029626174783 0 -0.0019339910106672613 0.0038950653438648624 0 -0.0013954595957681891 0.0034506426363973683 0 -0.0022744661009099412 0.0019633519771972852 0 -0.0021723474605935475 0.0019804799726957194 0 -0.0022803216590905379 0.0020273857337179723 0 -0.002367950823357356 0.001952200915865827 0 -0.0022744661009099412 0.0019633519771972852 0 -0.0023264007021313376 0.0020004934653475677 0 -0.002766990268034163 0.0025775039272902386 0 -0.0020481139226555924 0.0029158331496702645 0 -0.002849333558587431 0.003779365717156145 0 -0.0020707702539084173 0.003199029626174783 0 -0.0019339910106672613 0.0038950653438648624 0 -0.0020481139226555924 0.0029158331496702645 0 -0.0017621648402692837 0.0023577212763993887 0 -0.0013954595957681891 0.0034506426363973683 0 -0.0011629047607568017 0.0039784430870044097 0 -0.00070427802121198976 0.003718126941112317 0 -0.0019339910106672613 0.0038950653438648624 0 -0.0013954595957681891 0.0034506426363973683 0 -0.0011629047607568017 0.0039784430870044097 0 -0.0017621648402692837 0.0023577212763993887 0 -0.0011579972777413208 0.0041401778092588848 0 -0.0022430940643979884 5.3065470313299957e-05 0 -0.0023503505228881201 0.00030727574489987759 0 -0.0025413288402679887 0.00019980095417898865 0 -0.0022430940643979884 5.3065470313299957e-05 0 -0.0023503505228881201 0.00030727574489987759 0 -0.00214000916957427 0.00028473437827153131 0 -0.0017621648402692837 0.0023577212763993887 0 -0.0023500440024050101 0.0010392976991725469 0 -0.0023503505228881201 0.00030727574489987759 0 -0.0025413288402679887 0.00019980095417898865 0 -0.0025804066791921556 0.00047567437128340917 0 -0.0025413288402679887 0.00019980095417898865 0 -0.0025804066791921556 0.00047567437128340917 0 -0.0028200486485935542 0.00035088033994240932 0 -0.0023264007021313376 0.0020004934653475677 0 -0.0022803216590905379 0.0020273857337179723 0 -0.0023777673313544424 0.0020701370881863702 0 -0.0023500440024050101 0.0010392976991725469 0 -0.0028093182407014782 0.0013682549979251327 0 -0.0022744661009099412 0.0019633519771972852 0 -0.0023264007021313376 0.0020004934653475677 0 -0.0022803216590905379 0.0020273857337179723 0 -0.0025804066791921556 0.00047567437128340917 0 -0.0022462026920176564 0.0005208675763357524 0 -0.0025091680609469771 0.00068784559685554217 0 -0.0023503505228881201 0.00030727574489987759 0 -0.0025804066791921556 0.00047567437128340917 0 -0.0022462026920176564 0.0005208675763357524 0 -0.0023503505228881201 0.00030727574489987759 0 -0.0022462026920176564 0.0005208675763357524 0 -0.00214000916957427 0.00028473437827153131 0 -0.0022462026920176564 0.0005208675763357524 0 -0.0022524523202994999 0.00075458278854260215 0 -0.0020344327515078265 0.00070344083026122419 0 -0.0022524523202994999 0.00075458278854260215 0 -0.0022121336511679575 0.00092976949218951418 0 -0.0024161170330656576 0.00087228966840576763 0 -0.0022524523202994999 0.00075458278854260215 0 -0.0022121336511679575 0.00092976949218951418 0 -0.0020287884367214269 0.00088236670728342973 0 -0.0022524523202994999 0.00075458278854260215 0 -0.0025091680609469771 0.00068784559685554217 0 -0.0024161170330656576 0.00087228966840576763 0 -0.0022462026920176564 0.0005208675763357524 0 -0.0022524523202994999 0.00075458278854260215 0 -0.0025091680609469771 0.00068784559685554217 0 -0.0025091680609469771 0.00068784559685554217 0 -0.0026275632077694699 0.00082357747858104896 0 -0.0028442793058924549 0.00070500844905731013 0 -0.0025804066791921556 0.00047567437128340917 0 -0.0025091680609469771 0.00068784559685554217 0 -0.0028442793058924549 0.00070500844905731013 0 -0.0025091680609469771 0.00068784559685554217 0 -0.0026275632077694699 0.00082357747858104896 0 -0.0024161170330656576 0.00087228966840576763 0 -0.0026275632077694699 0.00082357747858104896 0 -0.0025446806709364962 0.00098041618294730727 0 -0.0024161170330656576 0.00087228966840576763 0 -0.0026275632077694699 0.00082357747858104896 0 -0.0027546100513004042 0.0009158594615228579 0 -0.0025446806709364962 0.00098041618294730727 0 -0.0027546100513004042 0.0009158594615228579 0 -0.0025446806709364962 0.00098041618294730727 0 -0.0025856075237107182 0.001123616070728733 0 -0.0027546100513004042 0.0009158594615228579 0 -0.0025856075237107182 0.001123616070728733 0 -0.0028871506028393203 0.0009715098654628371 0 -0.0025446806709364962 0.00098041618294730727 0 -0.0023014271407283821 0.001113194614849864 0 -0.0025856075237107182 0.001123616070728733 0 -0.0025446806709364962 0.00098041618294730727 0 -0.0023014271407283821 0.001113194614849864 0 -0.0024161170330656576 0.00087228966840576763 0 -0.0023014271407283821 0.001113194614849864 0 -0.0022121336511679575 0.00092976949218951418 0 -0.0020136702492080886 0.0010623919230405049 0 -0.0023014271407283821 0.001113194614849864 0 -0.0022121336511679575 0.00092976949218951418 0 -0.0024161170330656576 0.00087228966840576763 0 -0.0026834197555440599 0.0010267545635081082 0 -0.0024373088420541482 0.00080448717179863456 0 -0.0026503023925946649 0.00079061547003553214 0 -0.0026834197555440599 0.0010267545635081082 0 -0.0028483608068909719 0.00091727535307526895 0 -0.0026503023925946649 0.00079061547003553214 0 -0.0027546100513004042 0.0009158594615228579 0 -0.0028483608068909719 0.00091727535307526895 0 -0.0028442793058924549 0.00070500844905731013 0 -0.0028603130799277204 0.00096417102014830793 0 -0.0028885184141726116 0.00085401485486513739 0 -0.0026834197555440599 0.0010267545635081082 0 -0.0028483608068909719 0.00091727535307526895 0 -0.002938695786297752 0.0012057774776673097 0 -0.0027546100513004042 0.0009158594615228579 0 -0.0028483608068909719 0.00091727535307526895 0 -0.0028871506028393203 0.0009715098654628371 0 -0.0026275632077694699 0.00082357747858104896 0 -0.0027546100513004042 0.0009158594615228579 0 -0.0028442793058924549 0.00070500844905731013 0 -0.0026834197555440599 0.0010267545635081082 0 -0.002938695786297752 0.0012057774776673097 0 -0.0027684697458269063 0.0013693994648896724 0 -0.0029491272057737519 0.0014617417039793396 0 -0.0028093182407014782 0.0013682549979251327 0 -0.0027684697458269063 0.0013693994648896724 0 -0.003409677210809741 0.001694558689625726 0 -0.0027716485343379318 0.0018506851213569036 0 -0.0028885184141726116 0.00085401485486513739 0 -0.0028093182407014782 0.0013682549979251327 0 -0.0025804066791921556 0.00047567437128340917 0 -0.0028442793058924549 0.00070500844905731013 0 -0.0028200486485935542 0.00035088033994240932 0 -0.002938695786297752 0.0012057774776673097 0 -0.0027684697458269063 0.0013693994648896724 0 -0.0029639502331397227 0.0014488665958454416 0 -0.002766990268034163 0.0025775039272902386 0 -0.0028093182407014782 0.0013682549979251327 0 -0.0034446276891532987 0.0022549012025198981 0 -0.003409677210809741 0.001694558689625726 0 -0.0032679367345064239 0.0019900568294482827 0 -0.002367950823357356 0.001952200915865827 0 -0.0023264007021313376 0.0020004934653475677 0 -0.0023777673313544424 0.0020701370881863702 0 -0.003409677210809741 0.001694558689625726 0 -0.0032679367345064239 0.0019900568294482827 0 -0.0027716485343379318 0.0018506851213569036 0 -0.0030630595423169604 0.0020989758640613376 0 -0.0032679367345064239 0.0019900568294482827 0 -0.0027716485343379318 0.0018506851213569036 0 -0.0024518807393361822 0.0022281887881931031 0 -0.0027716485343379318 0.0018506851213569036 0 -0.0022564196950778234 0.0017538106019706094 0 -0.0027716485343379318 0.0018506851213569036 0 -0.0022564196950778234 0.0017538106019706094 0 -0.0024321519813305429 0.0014173749660229755 0 -0.0011072156667205351 -0.010276501215940672 0 -0.0010055724634070347 -0.010079781356813776 0 -0.0011275292991651811 -0.0099326628808496364 0 -0.0022564196950778234 0.0017538106019706094 0 -0.0024321519813305429 0.0014173749660229755 0 -0.0020529554354865279 0.0012039535240494521 0 -0.0015630642477569854 -0.0043830853451293479 0 -0.0015348675291124417 -0.0043449026162921981 0 -0.0010055724634070347 -0.010079781356813776 0 -0.0011275292991651811 -0.0099326628808496364 0 -0.0010660371921319997 -0.0098174115113496864 0 -0.0027684697458269063 0.0013693994648896724 0 -0.0024321519813305429 0.0014173749660229755 0 -0.0023568898677913766 0.0010445796905422936 0 -0.0027684697458269063 0.0013693994648896724 0 -0.0027716485343379318 0.0018506851213569036 0 -0.0024321519813305429 0.0014173749660229755 0 -0.0005393858356786969 -0.021354252603117709 0 -0.00028848371261214412 -0.021125222195129648 0 -0.00050324227430627918 -0.021039653681588267 0 -0.00019793418375998098 -0.021194744972303652 0 -0.00028848371261214412 -0.021125222195129648 0 -2.5509190061578088e-05 -0.020857467845936246 0 -0.00053493554349618962 -0.015828781553520872 0 -0.00058461019280262754 -0.015363789172448605 0 -0.00028848371261214412 -0.021125222195129648 0 -2.5509190061578088e-05 -0.020857467845936246 0 -0.00014962500049854407 -0.020753169356211347 0 -0.00028848371261214412 -0.021125222195129648 0 -0.00014962500049854407 -0.020753169356211347 0 -0.00050324227430627918 -0.021039653681588267 0 -0.00014962500049854407 -0.020753169356211347 0 -0.00050324227430627918 -0.021039653681588267 0 -0.00038215146586885701 -0.020724201639390216 0 -0.00014962500049854407 -0.020753169356211347 0 -6.8318089850098707e-05 -0.020428831160639902 0 -0.00038215146586885701 -0.020724201639390216 0 -0.00014962500049854407 -0.020753169356211347 0 0.0002054027931995253 -0.020398637660161981 0 -6.8318089850098707e-05 -0.020428831160639902 0 -0.0017097750001853567 -0.0040471635279260331 0 -0.0015348675291124417 -0.0043449026162921981 0 -0.00058461019280262754 -0.015363789172448605 0 -0.00051813888431440276 -0.015033102477905012 0 -2.5509190061578088e-05 -0.020857467845936246 0 -0.00014962500049854407 -0.020753169356211347 0 0.0002054027931995253 -0.020398637660161981 0 -0.0011275292991651811 -0.0099326628808496364 0 -0.0011155491336042728 -0.009713699563976573 0 -0.0010660371921319997 -0.0098174115113496864 0 -0.0010750727886570542 -0.0096418904394996677 0 -0.0011155491336042728 -0.009713699563976573 0 -0.0010660371921319997 -0.0098174115113496864 0 -0.0010750727886570542 -0.0096418904394996677 0 -0.0011155491336042728 -0.009713699563976573 0 -0.0010936045760171463 -0.0095493837963980862 0 -0.00051813888431440276 -0.015033102477905012 0 0.00016655606558473127 -0.014723173301835641 0 0.0002054027931995253 -0.020398637660161981 0 0.00031153035181309875 -0.020072402103605034 0 0.00043148142321314167 -0.019893353649558385 0 0.0002054027931995253 -0.020398637660161981 0 -6.8318089850098707e-05 -0.020428831160639902 0 0.00031153035181309875 -0.020072402103605034 0 -6.8318089850098707e-05 -0.020428831160639902 0 0.00031153035181309875 -0.020072402103605034 0 -6.0240366032704817e-05 -0.020102168857450638 0 -0.0026834197555440599 0.0010267545635081082 0 -0.0027684697458269063 0.0013693994648896724 0 -0.0023568898677913766 0.0010445796905422936 0 -0.0018819925222101257 0.00076576156789091951 0 -0.0023568898677913766 0.0010445796905422936 0 -0.0020529554354865279 0.0012039535240494521 0 -0.0024321519813305429 0.0014173749660229755 0 -0.0023568898677913766 0.0010445796905422936 0 -0.0020529554354865279 0.0012039535240494521 0 -0.0018819925222101257 0.00076576156789091951 0 -0.0023568898677913766 0.0010445796905422936 0 -0.0021112800223706298 0.0006143916282329464 0 -0.0026834197555440599 0.0010267545635081082 0 -0.0023568898677913766 0.0010445796905422936 0 -0.0024373088420541482 0.00080448717179863456 0 -0.0023568898677913766 0.0010445796905422936 0 -0.0024373088420541482 0.00080448717179863456 0 -0.0021112800223706298 0.0006143916282329464 0 -0.0024222996144398256 0.00053236655632757899 0 -0.0021112800223706298 0.0006143916282329464 0 -0.0021835469633935821 0.00030715078144472703 0 -0.0024373088420541482 0.00080448717179863456 0 -0.0024222996144398256 0.00053236655632757899 0 -0.0026503023925946649 0.00079061547003553214 0 -0.0024373088420541482 0.00080448717179863456 0 -0.0024222996144398256 0.00053236655632757899 0 -0.0021112800223706298 0.0006143916282329464 0 -0.0021112800223706298 0.0006143916282329464 0 -0.0019685691969661421 0.0002640401846868524 0 -0.0021835469633935821 0.00030715078144472703 0 -0.0019685691969661421 0.0002640401846868524 0 -0.0021835469633935821 0.00030715078144472703 0 -0.0020329794317611354 -3.6213677245750894e-05 0 -0.0021835469633935821 0.00030715078144472703 0 -0.0023632346254437598 0.00026537180982318749 0 -0.002225839380179661 2.8421502037210413e-05 0 -0.0024222996144398256 0.00053236655632757899 0 -0.0023632346254437598 0.00026537180982318749 0 -0.002557906740228948 0.00033877213353512386 0 -0.0024222996144398256 0.00053236655632757899 0 -0.0021835469633935821 0.00030715078144472703 0 -0.0023632346254437598 0.00026537180982318749 0 0.000278144149681904 -0.01964455339050844 0 0.00031153035181309875 -0.020072402103605034 0 -6.0240366032704817e-05 -0.020102168857450638 0 -0.00062858572508936591 -0.019981695441398179 0 0.00016655606558473127 -0.014723173301835641 0 0.000278144149681904 -0.01964455339050844 0 0.00031153035181309875 -0.020072402103605034 0 0.00072457826242257339 -0.019736237285946676 0 -0.0018819925222101257 0.00076576156789091951 0 -0.0021112800223706298 0.0006143916282329464 0 -0.0017291180122031363 0.000332064586661724 0 -0.0010750727886570542 -0.0096418904394996677 0 -0.0010936045760171463 -0.0095493837963980862 0 -0.0010615982809370342 -0.0094958372928985301 0 -0.0021112800223706298 0.0006143916282329464 0 -0.0019685691969661421 0.0002640401846868524 0 -0.0017291180122031363 0.000332064586661724 0 -0.0017097750001853567 -0.0040471635279260331 0 0.00017096469723041412 -0.0062746287109407637 0 0.00016655606558473127 -0.014723173301835641 0 0.00017096469723041412 -0.0062746287109407637 0 0.00017096469723041412 -0.0062746287109407637 0 -0.00022658649561444207 -0.0048799208355080103 0 -0.0019685691969661421 0.0002640401846868524 0 -0.0017291180122031363 0.000332064586661724 0 -0.0018654355320065657 4.7020977099194158e-05 0 0.0014817749046754547 -0.010141162609559442 0 0.0016538682418893154 -0.01036225605287122 0 0.0012808794091808589 -0.010409896422148087 0 0.0014817749046754547 -0.010141162609559442 0 0.0014501512818930122 -0.010041592531319605 0 0.0012808794091808589 -0.010409896422148087 0 0.00084616229755747131 -0.0083931411695971729 0 0.00017096469723041412 -0.0062746287109407637 0 0.0014953023982523731 -0.0099244196195891581 0 0.0014817749046754547 -0.010141162609559442 0 0.0014459715293904602 -0.010056177659748774 0 0.000278144149681904 -0.01964455339050844 0 0.00072457826242257339 -0.019736237285946676 0 0.0010789389915593602 -0.018742253391550973 0 0.0014953023982523731 -0.0099244196195891581 0 0.0014817749046754547 -0.010141162609559442 0 0.0016538682418893154 -0.01036225605287122 0 0.00016655606558473127 -0.014723173301835641 0 0.0013776628757685664 -0.014402843411292053 0 0.000278144149681904 -0.01964455339050844 0 0.0010789389915593602 -0.018742253391550973 0 0.00026634215142922997 -0.019022961230457127 0 0.0016538682418893154 -0.01036225605287122 0 0.0015439751646069584 -0.010625213456073942 0 0.0018072097413024289 -0.010887574412836604 0 0.0013776628757685664 -0.014402843411292053 0 0.002173298973503851 -0.014695495498528435 0 0.0010789389915593602 -0.018742253391550973 0 0.0014239269432157955 -0.017183157430546141 0 0.00046768973794724717 -0.017960278135901744 0 0.0016538682418893154 -0.01036225605287122 0 0.0015439751646069584 -0.010625213456073942 0 0.0012808794091808589 -0.010409896422148087 0 -0.00022658649561444207 -0.0048799208355080103 0 -5.516814419068106e-05 -0.0062207464182021137 0 0.0015439751646069584 -0.010625213456073942 0 0.0012808794091808589 -0.010409896422148087 0 0.0014452114639048204 -0.010847097038460372 0 0.0012808794091808589 -0.010409896422148087 0 0.0014452114639048204 -0.010847097038460372 0 0.001095212647334107 -0.010803831310771362 0 0.0028420270864075456 -0.013592638064944025 0 -5.516814419068106e-05 -0.0062207464182021137 0 0.0034083885767300149 -0.016888896826447303 0 0.0047595850060038686 -0.016830231684492904 0 0.0040149573610559234 -0.015940678432197295 0 0.0034083885767300149 -0.016888896826447303 0 0.0028600471923563154 -0.015727621558819634 0 0.0040149573610559234 -0.015940678432197295 0 0.0028420270864075456 -0.013592638064944025 0 0.002173298973503851 -0.014695495498528435 0 0.0015439751646069584 -0.010625213456073942 0 0.0014452114639048204 -0.010847097038460372 0 0.0018072097413024289 -0.010887574412836604 0 0.0034083885767300149 -0.016888896826447303 0 0.0019688798149856183 -0.016944133271359841 0 0.0028600471923563154 -0.015727621558819634 0 0.002173298973503851 -0.014695495498528435 0 0.0018283091557674369 -0.016445207333031973 0 -0.002225839380179661 2.8421502037210413e-05 0 -0.0024503691232118457 -0.0001637406749289002 0 -0.002448101387208202 9.843588496343088e-05 0 -0.0023632346254437598 0.00026537180982318749 0 -0.002225839380179661 2.8421502037210413e-05 0 -0.002448101387208202 9.843588496343088e-05 0 -0.0021835469633935821 0.00030715078144472703 0 -0.002225839380179661 2.8421502037210413e-05 0 -0.0020329794317611354 -3.6213677245750894e-05 0 -0.0018654355320065657 4.7020977099194158e-05 0 -0.0020329794317611354 -3.6213677245750894e-05 0 -0.0019907083403067479 -0.00024373230244764744 0 -0.0019685691969661421 0.0002640401846868524 0 -0.0018654355320065657 4.7020977099194158e-05 0 -0.0020329794317611354 -3.6213677245750894e-05 0 -0.002225839380179661 2.8421502037210413e-05 0 -0.0020329794317611354 -3.6213677245750894e-05 0 -0.0019907083403067479 -0.00024373230244764744 0 0.0047595850060038686 -0.016830231684492904 0 0.0052123324277209464 -0.015832664342578972 0 0.0040149573610559234 -0.015940678432197295 0 -5.516814419068106e-05 -0.0062207464182021137 0 0.0012641943711884497 -0.0080269030304637827 0 -0.0016377204266354787 -0.00040868025480716351 0 -0.0018651347789472024 -0.00048093915347446073 0 -0.001730230201309201 -0.00064226815518140937 0 -0.002225839380179661 2.8421502037210413e-05 0 -0.0019907083403067479 -0.00024373230244764744 0 -0.0024503691232118457 -0.0001637406749289002 0 -5.516814419068106e-05 -0.0062207464182021137 0 -0.0027769964916582483 0.00060783071136790161 0 -0.0016377204266354787 -0.00040868025480716351 0 -0.0018651347789472024 -0.00048093915347446073 0 -0.002215730939287295 -0.00028608028177048506 0 -0.0018651347789472024 -0.00048093915347446073 0 -0.002215730939287295 -0.00028608028177048506 0 -0.0021406807554964135 -0.00060534597121217077 0 -0.0027769964916582483 0.00060783071136790161 0 -0.0026137737859866024 -0.0004253570829889766 0 -0.002215730939287295 -0.00028608028177048506 0 -0.0028237834001586218 -0.00019347968970857097 0 -0.0024704514452138326 -0.00045271551799955776 0 -0.0024503691232118457 -0.0001637406749289002 0 -0.0026460401032260381 4.2416303786119065e-05 0 -0.0028237834001586218 -0.00019347968970857097 0 -0.0024503691232118457 -0.0001637406749289002 0 -0.0026460401032260381 4.2416303786119065e-05 0 -0.002448101387208202 9.843588496343088e-05 0 -0.0026460401032260381 4.2416303786119065e-05 0 -0.002448101387208202 9.843588496343088e-05 0 -0.002557906740228948 0.00033877213353512386 0 -0.0026460401032260381 4.2416303786119065e-05 0 -0.0028237834001586218 -0.00019347968970857097 0 -0.0030434949824905844 0.00022783510908626686 0 -0.0028237834001586218 -0.00019347968970857097 0 -0.0027226350780453893 -0.00047460074770229525 0 -0.0024704514452138326 -0.00045271551799955776 0 -0.0028237834001586218 -0.00019347968970857097 0 -0.0030373219773646128 -0.00033197766653348895 0 -0.0027226350780453893 -0.00047460074770229525 0 -0.0028237834001586218 -0.00019347968970857097 0 -0.0030373219773646128 -0.00033197766653348895 0 -0.0030434949824905844 0.00022783510908626686 0 -0.0025189830123094645 0.0026581201001218031 0 -0.0022595707063793481 0.0024335183109544427 0 -0.0023982655672324799 0.0021637726702505326 0 -0.002180921052465516 0.002709720806694274 0 -0.0020905121654777601 0.0024420519694201763 0 -0.0020060956456493628 0.0026188875811818013 0 -0.0025189830123094645 0.0026581201001218031 0 -0.002180921052465516 0.002709720806694274 0 -0.0022595707063793481 0.0024335183109544427 0 -0.002180921052465516 0.002709720806694274 0 -0.0022595707063793481 0.0024335183109544427 0 -0.0020905121654777601 0.0024420519694201763 0 -0.0022595707063793481 0.0024335183109544427 0 -0.0020905121654777601 0.0024420519694201763 0 -0.00211372178633892 0.002187181647514645 0 -0.0022595707063793481 0.0024335183109544427 0 -0.00211372178633892 0.002187181647514645 0 -0.0023982655672324799 0.0021637726702505326 0 -0.00211372178633892 0.002187181647514645 0 -0.0023982655672324799 0.0021637726702505326 0 -0.0020891892191428835 0.0018947386025212319 0 -0.0027504000824601035 0.00115066428511926 0 -0.0028924006606433341 0.0010850574886808642 0 -0.0025189830123094645 0.0026581201001218031 0 -0.0023982655672324799 0.0021637726702505326 0 -0.0027598743736767851 0.0019297287989754545 0 -0.0027598743736767851 0.0019297287989754545 0 -0.0025772850785668331 0.0014061869999892082 0 -0.0028871506028393203 0.0009715098654628371 0 -0.0023982655672324799 0.0021637726702505326 0 -0.0027598743736767851 0.0019297287989754545 0 -0.0023564340640304287 0.001692932829289181 0 -0.0028924006606433341 0.0010850574886808642 0 -0.0028917975300391413 0.00098580655371298506 0 -0.0027598743736767851 0.0019297287989754545 0 -0.0023564340640304287 0.001692932829289181 0 -0.0025772850785668331 0.0014061869999892082 0 -0.0023982655672324799 0.0021637726702505326 0 -0.0023564340640304287 0.001692932829289181 0 -0.0020891892191428835 0.0018947386025212319 0 -0.0023564340640304287 0.001692932829289181 0 -0.0021195136229653628 0.0014937150883529745 0 -0.0020891892191428835 0.0018947386025212319 0 -0.0023564340640304287 0.001692932829289181 0 -0.0021195136229653628 0.0014937150883529745 0 -0.0023840266235542074 0.0013851631704415244 0 -0.0023564340640304287 0.001692932829289181 0 -0.0023840266235542074 0.0013851631704415244 0 -0.0025772850785668331 0.0014061869999892082 0 -0.0023014271407283821 0.001113194614849864 0 -0.0021195136229653628 0.0014937150883529745 0 -0.001951546012834439 0.0013058073195224289 0 -0.0023014271407283821 0.001113194614849864 0 -0.0023840266235542074 0.0013851631704415244 0 -0.0025856075237107182 0.001123616070728733 0 -0.0023014271407283821 0.001113194614849864 0 -0.0021195136229653628 0.0014937150883529745 0 -0.0023840266235542074 0.0013851631704415244 0 -0.0023840266235542074 0.0013851631704415244 0 -0.0025772850785668331 0.0014061869999892082 0 -0.0025856075237107182 0.001123616070728733 0 -0.0025772850785668331 0.0014061869999892082 0 -0.0025856075237107182 0.001123616070728733 0 -0.0028871506028393203 0.0009715098654628371 0 -0.0028871506028393203 0.0009715098654628371 0 -0.002755440635717876 0.00077063056568648367 0 -0.0027485658792292273 0.000492930410243474 0 -0.002755440635717876 0.00077063056568648367 0 -0.002636974364067362 0.0005894395730777081 0 -0.0027485658792292273 0.000492930410243474 0 -0.0028483608068909719 0.00091727535307526895 0 -0.0028871506028393203 0.0009715098654628371 0 -0.002755440635717876 0.00077063056568648367 0 -0.002755440635717876 0.00077063056568648367 0 -0.0026503023925946649 0.00079061547003553214 0 -0.002636974364067362 0.0005894395730777081 0 -0.0028483608068909719 0.00091727535307526895 0 -0.002755440635717876 0.00077063056568648367 0 -0.0026503023925946649 0.00079061547003553214 0 -0.0024222996144398256 0.00053236655632757899 0 -0.0026503023925946649 0.00079061547003553214 0 -0.002636974364067362 0.0005894395730777081 0 -0.0026460401032260381 4.2416303786119065e-05 0 -0.002557906740228948 0.00033877213353512386 0 -0.0027485658792292273 0.000492930410243474 0 -0.002636974364067362 0.0005894395730777081 0 -0.002557906740228948 0.00033877213353512386 0 -0.0027485658792292273 0.000492930410243474 0 -0.0024222996144398256 0.00053236655632757899 0 -0.002636974364067362 0.0005894395730777081 0 -0.002557906740228948 0.00033877213353512386 0 -0.0023632346254437598 0.00026537180982318749 0 -0.002448101387208202 9.843588496343088e-05 0 -0.002557906740228948 0.00033877213353512386 0 -0.0030434949824905844 0.00022783510908626686 0 -0.0028871506028393203 0.0009715098654628371 0 -0.0027485658792292273 0.000492930410243474 0 -0.0026460401032260381 4.2416303786119065e-05 0 -0.0030434949824905844 0.00022783510908626686 0 -0.0027485658792292273 0.000492930410243474 0 -0.0023967675616571997 -0.024179665656828983 0 -0.0030170683037284377 -0.023518868259159539 0 -0.0026412861292820248 -0.024050494242606184 0 -0.0023967675616571997 -0.024179665656828983 0 -0.0030170683037284377 -0.023518868259159539 0 -0.0026072119645826316 -0.023871188914398687 0 -0.0030170683037284377 -0.023518868259159539 0 -0.0028378507689232257 -0.023392228252394179 0 -0.0026072119645826316 -0.023871188914398687 0 -0.0028378507689232257 -0.023392228252394179 0 -0.0026072119645826316 -0.023871188914398687 0 -0.0024506623318784442 -0.02330500778292351 0 -0.0020571126189862271 -0.02482874329475206 0 -0.0023967675616571997 -0.024179665656828983 0 -0.0026072119645826316 -0.023871188914398687 0 -0.0020571126189862271 -0.02482874329475206 0 -0.0026072119645826316 -0.023871188914398687 0 -0.0024506623318784442 -0.02330500778292351 0 -0.001231584148475916 -0.029006682911631013 0 0.00051894312472788211 -0.029110211983815061 0 -0.00037837202854781128 -0.027611203973859796 0 -0.0022909780673296648 -0.02288617573773347 0 -0.0024506623318784442 -0.02330500778292351 0 -0.0026131207365975621 -0.023226173611866185 0 -0.00078101091446550262 -0.026119029422581801 0 -0.0014794101630405015 -0.025387727290713341 0 -0.0028378507689232257 -0.023392228252394179 0 -0.0024506623318784442 -0.02330500778292351 0 -0.0026131207365975621 -0.023226173611866185 0 -0.0028378507689232257 -0.023392228252394179 0 -0.0026131207365975621 -0.023226173611866185 0 -0.0025634190110105956 -0.023345373417411924 0 -0.0022909780673296648 -0.02288617573773347 0 -0.0026131207365975621 -0.023226173611866185 0 -0.0027178821267949222 -0.022997095728532466 0 -0.0026131207365975621 -0.023226173611866185 0 -0.0027178821267949222 -0.022997095728532466 0 -0.0025634190110105956 -0.023345373417411924 0 -0.0022574793780007442 -0.022120098853097198 0 -0.0020926765971235025 -0.022069785781887896 0 -0.0025634190110105956 -0.023345373417411924 0 -0.0028963310860968439 -0.022817778603777615 0 -0.0020219742568121269 -0.022589701723789161 0 -0.0028378507689232257 -0.023392228252394179 0 -0.0025634190110105956 -0.023345373417411924 0 -0.0028963310860968439 -0.022817778603777615 0 -0.0030170683037284377 -0.023518868259159539 0 -0.0028963310860968439 -0.022817778603777615 0 -0.0037443249543203617 -0.021369484842718087 0 -0.0030170683037284377 -0.023518868259159539 0 -0.0028378507689232257 -0.023392228252394179 0 -0.0028963310860968439 -0.022817778603777615 0 -0.0028963310860968439 -0.022817778603777615 0 -0.0020219742568121269 -0.022589701723789161 0 -0.0028285483119240475 -0.020651697828537735 0 -0.0015509513273000604 -0.020455002541846515 0 -0.0011370585161952975 -0.020310671742314799 0 -0.0010642399577106838 -0.020584666847400415 0 -0.0010642399577106838 -0.020584666847400415 0 -0.0012111102048291405 -0.020869653995707515 0 -0.00073211409039227468 -0.020801462338689909 0 -0.0015509513273000604 -0.020455002541846515 0 -0.0010642399577106838 -0.020584666847400415 0 -0.0012111102048291405 -0.020869653995707515 0 -0.0016397648481344706 -0.020839189554911462 0 -0.0015509513273000604 -0.020455002541846515 0 -0.0012111102048291405 -0.020869653995707515 0 -0.0020926765971235025 -0.022069785781887896 0 -0.0018182718640415174 -0.021472602134994179 0 -0.0016397648481344706 -0.020839189554911462 0 -0.0012835636504849326 -0.021198780815414226 0 -0.0012111102048291405 -0.020869653995707515 0 -0.0016116539142986531 -0.021487799418379968 0 -0.0018309020471971652 -0.021227078115810788 0 -0.0012835636504849326 -0.021198780815414226 0 -0.0018309020471971652 -0.021227078115810788 0 -0.0016397648481344706 -0.020839189554911462 0 -0.0012835636504849326 -0.021198780815414226 0 -0.0012835636504849326 -0.021198780815414226 0 -0.0012111102048291405 -0.020869653995707515 0 -0.00090212206750293932 -0.021067541891736055 0 -0.0012111102048291405 -0.020869653995707515 0 -0.00073211409039227468 -0.020801462338689909 0 -0.00090212206750293932 -0.021067541891736055 0 -0.00073211409039227468 -0.020801462338689909 0 -0.00090212206750293932 -0.021067541891736055 0 -0.00050324227430627918 -0.021039653681588267 0 -0.00082401051070803187 -0.021370999160215298 0 -0.00090212206750293932 -0.021067541891736055 0 -0.00050324227430627918 -0.021039653681588267 0 -0.00082401051070803187 -0.021370999160215298 0 -0.0012835636504849326 -0.021198780815414226 0 -0.00090212206750293932 -0.021067541891736055 0 -0.00073211409039227468 -0.020801462338689909 0 -0.00050324227430627918 -0.021039653681588267 0 -0.00038215146586885701 -0.020724201639390216 0 -6.8318089850098707e-05 -0.020428831160639902 0 -0.00038215146586885701 -0.020724201639390216 0 -0.00054201498775051696 -0.020446050580243676 0 -0.00073211409039227468 -0.020801462338689909 0 -0.00038215146586885701 -0.020724201639390216 0 -0.00054201498775051696 -0.020446050580243676 0 -0.0010642399577106838 -0.020584666847400415 0 -0.00073211409039227468 -0.020801462338689909 0 -0.00054201498775051696 -0.020446050580243676 0 -0.0011370585161952975 -0.020310671742314799 0 -0.0010642399577106838 -0.020584666847400415 0 -0.00054201498775051696 -0.020446050580243676 0 -6.8318089850098707e-05 -0.020428831160639902 0 -0.00054201498775051696 -0.020446050580243676 0 -6.0240366032704817e-05 -0.020102168857450638 0 -0.00054201498775051696 -0.020446050580243676 0 -6.0240366032704817e-05 -0.020102168857450638 0 -0.00044554098618124378 -0.019755762448893752 0 0.000278144149681904 -0.01964455339050844 0 -6.0240366032704817e-05 -0.020102168857450638 0 -0.00044554098618124378 -0.019755762448893752 0 -0.0011370585161952975 -0.020310671742314799 0 -0.00054201498775051696 -0.020446050580243676 0 -0.00044554098618124378 -0.019755762448893752 0 -0.0011370585161952975 -0.020310671742314799 0 -0.00044554098618124378 -0.019755762448893752 0 -0.0011310671052004036 -0.019896957380027315 0 -0.00044554098618124378 -0.019755762448893752 0 -0.00036454669713466259 -0.018712901747059616 0 -0.0012019200104622474 -0.019124305924414196 0 -0.00044554098618124378 -0.019755762448893752 0 -0.0012019200104622474 -0.019124305924414196 0 -0.0011310671052004036 -0.019896957380027315 0 0.000278144149681904 -0.01964455339050844 0 -0.00044554098618124378 -0.019755762448893752 0 0.00026634215142922997 -0.019022961230457127 0 -0.00044554098618124378 -0.019755762448893752 0 0.00026634215142922997 -0.019022961230457127 0 -0.00036454669713466259 -0.018712901747059616 0 0.0010789389915593602 -0.018742253391550973 0 0.00026634215142922997 -0.019022961230457127 0 0.00046768973794724717 -0.017960278135901744 0 0.00026634215142922997 -0.019022961230457127 0 0.00046768973794724717 -0.017960278135901744 0 -0.00036454669713466259 -0.018712901747059616 0 0.0014239269432157955 -0.017183157430546141 0 0.00046768973794724717 -0.017960278135901744 0 0.00089839457469670337 -0.016704885370486519 0 0.00046768973794724717 -0.017960278135901744 0 0.0001250891298285834 -0.016980721364222962 0 0.00089839457469670337 -0.016704885370486519 0 0.00046768973794724717 -0.017960278135901744 0 0.0001250891298285834 -0.016980721364222962 0 -0.00040680960241969215 -0.017788754045312709 0 0.0001250891298285834 -0.016980721364222962 0 0.00089839457469670337 -0.016704885370486519 0 0.00015741032859531678 -0.015794899280412375 0 0.0014239269432157955 -0.017183157430546141 0 0.00089839457469670337 -0.016704885370486519 0 0.0015921826670203172 -0.015783013271108891 0 0.0001250891298285834 -0.016980721364222962 0 -0.00068019002793963043 -0.016814087279968474 0 0.00015741032859531678 -0.015794899280412375 0 0.0001250891298285834 -0.016980721364222962 0 -0.00068019002793963043 -0.016814087279968474 0 -0.00040680960241969215 -0.017788754045312709 0 -0.00068019002793963043 -0.016814087279968474 0 -0.00040680960241969215 -0.017788754045312709 0 -0.0011283963484220174 -0.017568498585680537 0 -0.00095244629742731143 -0.018314060867499343 0 -0.00036454669713466259 -0.018712901747059616 0 -0.0012019200104622474 -0.019124305924414196 0 -0.00040680960241969215 -0.017788754045312709 0 -0.00095244629742731143 -0.018314060867499343 0 -0.00036454669713466259 -0.018712901747059616 0 -0.00040680960241969215 -0.017788754045312709 0 -0.00095244629742731143 -0.018314060867499343 0 -0.0011283963484220174 -0.017568498585680537 0 0.00046768973794724717 -0.017960278135901744 0 -0.00040680960241969215 -0.017788754045312709 0 -0.00036454669713466259 -0.018712901747059616 0 -0.00095244629742731143 -0.018314060867499343 0 -0.0016861002539883534 -0.01826533224985067 0 -0.0012019200104622474 -0.019124305924414196 0 -0.0016861002539883534 -0.01826533224985067 0 -0.0021407212824362436 -0.01920460887276387 0 -0.0012019200104622474 -0.019124305924414196 0 -0.00095244629742731143 -0.018314060867499343 0 -0.0016861002539883534 -0.01826533224985067 0 -0.0011283963484220174 -0.017568498585680537 0 -0.0016861002539883534 -0.01826533224985067 0 -0.0011283963484220174 -0.017568498585680537 0 -0.0017137579298578958 -0.017460180111413471 0 -0.0016861002539883534 -0.01826533224985067 0 -0.0017137579298578958 -0.017460180111413471 0 -0.0022898510321822784 -0.017587325973445748 0 -0.0017137579298578958 -0.017460180111413471 0 -0.0017787426996038831 -0.01660952903164337 0 -0.0022898510321822784 -0.017587325973445748 0 -0.0011283963484220174 -0.017568498585680537 0 -0.0017137579298578958 -0.017460180111413471 0 -0.0017787426996038831 -0.01660952903164337 0 -0.00068019002793963043 -0.016814087279968474 0 -0.0011283963484220174 -0.017568498585680537 0 -0.0017787426996038831 -0.01660952903164337 0 -0.0022898510321822784 -0.017587325973445748 0 -0.0026603706369640549 -0.01820972139778625 0 -0.0035650048426537455 -0.017289324386985876 0 -0.0016861002539883534 -0.01826533224985067 0 -0.0026603706369640549 -0.01820972139778625 0 -0.0021407212824362436 -0.01920460887276387 0 -0.0016861002539883534 -0.01826533224985067 0 -0.0022898510321822784 -0.017587325973445748 0 -0.0026603706369640549 -0.01820972139778625 0 -0.0026603706369640549 -0.01820972139778625 0 -0.0021407212824362436 -0.01920460887276387 0 -0.0030140679374838523 -0.01887716216549376 0 -0.0017036335320740877 -0.020222156551688429 0 -0.0021407212824362436 -0.01920460887276387 0 -0.0012019200104622474 -0.019124305924414196 0 -0.0017036335320740877 -0.020222156551688429 0 -0.0021407212824362436 -0.01920460887276387 0 -0.0028285483119240475 -0.020651697828537735 0 -0.0017036335320740877 -0.020222156551688429 0 -0.0012019200104622474 -0.019124305924414196 0 -0.0011310671052004036 -0.019896957380027315 0 -0.0011370585161952975 -0.020310671742314799 0 -0.0017036335320740877 -0.020222156551688429 0 -0.0011310671052004036 -0.019896957380027315 0 -0.0018182718640415174 -0.021472602134994179 0 -0.00167412097536979 -0.020321041624677322 0 -0.0020219742568121269 -0.022589701723789161 0 -0.0017036335320740877 -0.020222156551688429 0 -0.0028285483119240475 -0.020651697828537735 0 -0.0015509513273000604 -0.020455002541846515 0 -0.0011370585161952975 -0.020310671742314799 0 -0.0017036335320740877 -0.020222156551688429 0 -0.0028963310860968439 -0.022817778603777615 0 -0.0037443249543203617 -0.021369484842718087 0 -0.0028285483119240475 -0.020651697828537735 0 -0.0037443249543203617 -0.021369484842718087 0 -0.0028285483119240475 -0.020651697828537735 0 -0.0037098027669468033 -0.019237546842983674 0 -0.0031210956405782159 -0.022641155678553959 0 -0.0027319117046223848 -0.021373969497889111 0 -0.0026653331818063506 -0.024107888913764423 0 -0.002508938527742928 -0.023673941086403184 0 -0.0018679705776844238 -0.023429514333280353 0 -0.0021407212824362436 -0.01920460887276387 0 -0.0028285483119240475 -0.020651697828537735 0 -0.0030140679374838523 -0.01887716216549376 0 -0.0028285483119240475 -0.020651697828537735 0 -0.0030140679374838523 -0.01887716216549376 0 -0.0037098027669468033 -0.019237546842983674 0 -0.0033591024633772763 -0.017934816178595332 0 -0.0034656558287451396 -0.017354391923194962 0 -0.0037098027669468033 -0.019237546842983674 0 -0.0027805997965106091 -0.019208701079169329 0 -0.0027319117046223848 -0.021373969497889111 0 -0.0030140679374838523 -0.01887716216549376 0 -0.0033591024633772763 -0.017934816178595332 0 -0.0037098027669468033 -0.019237546842983674 0 -0.0026603706369640549 -0.01820972139778625 0 -0.0030140679374838523 -0.01887716216549376 0 -0.0033591024633772763 -0.017934816178595332 0 -0.0011408874659741162 -0.02226666607507025 0 -0.0020278589891783365 -0.022440400269739445 0 -0.0018679705776844238 -0.023429514333280353 0 -0.0026603706369640549 -0.01820972139778625 0 -0.0033591024633772763 -0.017934816178595332 0 -0.0035650048426537455 -0.017289324386985876 0 -0.0011408874659741162 -0.02226666607507025 0 -0.0020278589891783365 -0.022440400269739445 0 -0.0017010900318927403 -0.021741773595643551 0 -0.0029919049906717435 -0.017922340245415298 0 -0.0027805997965106091 -0.019208701079169329 0 -0.0020278589891783365 -0.022440400269739445 0 -0.0026375418062504347 -0.023041562084452311 0 -0.0027278644000191571 -0.022086479469041131 0 -0.0020278589891783365 -0.022440400269739445 0 -0.0027278644000191571 -0.022086479469041131 0 -0.0022347196693278479 -0.021810028236549754 0 -0.0020278589891783365 -0.022440400269739445 0 -0.0017010900318927403 -0.021741773595643551 0 -0.0022347196693278479 -0.021810028236549754 0 -0.002508938527742928 -0.023673941086403184 0 -0.0018679705776844238 -0.023429514333280353 0 -0.0026375418062504347 -0.023041562084452311 0 -0.0020278589891783365 -0.022440400269739445 0 -0.0018679705776844238 -0.023429514333280353 0 -0.0026375418062504347 -0.023041562084452311 0 -0.002508938527742928 -0.023673941086403184 0 -0.0026375418062504347 -0.023041562084452311 0 -0.0032243147692572528 -0.023096620919727973 0 -0.0026375418062504347 -0.023041562084452311 0 -0.0030923663566064454 -0.022692992015054946 0 -0.0032243147692572528 -0.023096620919727973 0 -0.0026375418062504347 -0.023041562084452311 0 -0.0027278644000191571 -0.022086479469041131 0 -0.0033843309173914476 -0.022373341944826274 0 -0.0026611405600598065 -0.023027069193257556 0 -0.0033541603382529024 -0.022425188919400377 0 -0.0027278644000191571 -0.022086479469041131 0 -0.0033843309173914476 -0.022373341944826274 0 -0.0034043002781447285 -0.021598809964089659 0 -0.0030923663566064454 -0.022692992015054946 0 -0.0032243147692572528 -0.023096620919727973 0 -0.0035171089144063307 -0.022316043149723675 0 -0.0028922829591964735 -0.023757216536780416 0 -0.0031252287560564812 -0.022765318590203368 0 -0.0025648455304336623 -0.024200775135331344 0 -0.0026349133524757882 -0.024169626917663285 0 -0.0025828351342498564 -0.024315970857380395 0 -0.0033541603382529024 -0.022425188919400377 0 -0.0031252287560564812 -0.022765318590203368 0 -0.0025645200134247394 -0.024122084837720201 0 -0.0026349133524757882 -0.024169626917663285 0 -0.0025699338501510467 -0.024077564173311413 0 -0.0025645200134247394 -0.024122084837720201 0 -0.0025648455304336623 -0.024200775135331344 0 -0.0026349133524757882 -0.024169626917663285 0 -0.0026349133524757882 -0.024169626917663285 0 -0.0025699338501510467 -0.024077564173311413 0 -0.0027441266445107511 -0.024023291293969459 0 -0.0025699338501510467 -0.024077564173311413 0 -0.0027441266445107511 -0.024023291293969459 0 -0.0026040283310149034 -0.024077607510900479 0 -0.0028922829591964735 -0.023757216536780416 0 -0.0027794069209873986 -0.023942404399315952 0 -0.002508938527742928 -0.023673941086403184 0 -0.0032243147692572528 -0.023096620919727973 0 -0.0027441266445107511 -0.024023291293969459 0 -0.0026653331818063506 -0.024107888913764423 0 -0.002508938527742928 -0.023673941086403184 0 -0.0027441266445107511 -0.024023291293969459 0 -0.0026653331818063506 -0.024107888913764423 0 -0.0027441266445107511 -0.024023291293969459 0 -0.0026412861292820248 -0.024050494242606184 0 -0.0030170683037284377 -0.023518868259159539 0 -0.0026653331818063506 -0.024107888913764423 0 -0.0026412861292820248 -0.024050494242606184 0 -0.0030472541112165582 -0.023339463963076724 0 -0.0031210956405782159 -0.022641155678553959 0 -0.0024629259307331485 -0.024167668307020124 0 -0.0026412861292820248 -0.024050494242606184 0 -0.0026040283310149034 -0.024077607510900479 0 -0.0024629259307331485 -0.024167668307020124 0 -0.0025699338501510467 -0.024077564173311413 0 -0.0026040283310149034 -0.024077607510900479 0 -0.0024629259307331485 -0.024167668307020124 0 -0.0023967675616571997 -0.024179665656828983 0 -0.0026412861292820248 -0.024050494242606184 0 -0.0027441266445107511 -0.024023291293969459 0 -0.0026412861292820248 -0.024050494242606184 0 -0.0026040283310149034 -0.024077607510900479 0 -0.00057337280686819568 -0.018374994834956217 0 -0.0011401540767278847 -0.018620017239241365 0 -0.001059537914261686 -0.017909759691204452 0 -0.00057337280686819568 -0.018374994834956217 0 -0.0003078302932856882 -0.017757328560137356 0 -0.001059537914261686 -0.017909759691204452 0 -0.00057337280686819568 -0.018374994834956217 0 0.0001761999757233642 -0.018426875919957553 0 -0.0003078302932856882 -0.017757328560137356 0 -0.00057337280686819568 -0.018374994834956217 0 -0.00041554504874951036 -0.018949946106883039 0 0.0001761999757233642 -0.018426875919957553 0 -0.00041554504874951036 -0.018949946106883039 0 -0.0011401540767278847 -0.018620017239241365 0 -0.0011586525531574942 -0.019241746820317235 0 -0.00057337280686819568 -0.018374994834956217 0 -0.00041554504874951036 -0.018949946106883039 0 -0.0011401540767278847 -0.018620017239241365 0 -0.0024179192932812952 -0.021648197646463967 0 -0.0019815158613131515 -0.020059676317093586 0 -0.00041554504874951036 -0.018949946106883039 0 -0.0011586525531574942 -0.019241746820317235 0 -0.00062278357742621829 -0.019546806276233977 0 -0.0014064560347295963 -0.019828263874262925 0 -0.0011586525531574942 -0.019241746820317235 0 -0.00062278357742621829 -0.019546806276233977 0 -0.0043081664166233179 -0.021140042783140113 0 -0.0034043002781447285 -0.021598809964089659 0 -0.0040797443066460364 -0.021736213627012384 0 -0.0043081664166233179 -0.021140042783140113 0 -0.0034043002781447285 -0.021598809964089659 0 -0.0032258954367559004 -0.020747657788058597 0 -0.0033843309173914476 -0.022373341944826274 0 -0.0034043002781447285 -0.021598809964089659 0 -0.0040797443066460364 -0.021736213627012384 0 -0.0027278644000191571 -0.022086479469041131 0 -0.0026740898300750379 -0.021282684049354253 0 -0.0022347196693278479 -0.021810028236549754 0 -0.0027278644000191571 -0.022086479469041131 0 -0.0034043002781447285 -0.021598809964089659 0 -0.0026740898300750379 -0.021282684049354253 0 -0.0034043002781447285 -0.021598809964089659 0 -0.0026740898300750379 -0.021282684049354253 0 -0.0032258954367559004 -0.020747657788058597 0 -0.00041554504874951036 -0.018949946106883039 0 -0.00062278357742621829 -0.019546806276233977 0 0.00016316784127570511 -0.019260850361168608 0 -0.0019815158613131515 -0.020059676317093586 0 -0.00080297826168334685 -0.020006057541780694 0 -0.0026740898300750379 -0.021282684049354253 0 -0.0032258954367559004 -0.020747657788058597 0 -0.0021303049357509611 -0.020330525869557272 0 -0.0021303049357509611 -0.020330525869557272 0 -0.0020022997578161522 -0.021173712088883728 0 -0.001060814832876972 -0.021097092278487578 0 -0.0026740898300750379 -0.021282684049354253 0 -0.0021303049357509611 -0.020330525869557272 0 -0.0020022997578161522 -0.021173712088883728 0 -0.0026740898300750379 -0.021282684049354253 0 -0.0020022997578161522 -0.021173712088883728 0 -0.0022347196693278479 -0.021810028236549754 0 -0.0020022997578161522 -0.021173712088883728 0 -0.0017010900318927403 -0.021741773595643551 0 -0.0022347196693278479 -0.021810028236549754 0 -0.0011408874659741162 -0.02226666607507025 0 -0.0017010900318927403 -0.021741773595643551 0 -0.001060814832876972 -0.021097092278487578 0 -0.0027805997965106091 -0.019208701079169329 0 -0.0020167621630025816 -0.019755291260434342 0 -0.0030826421954462772 -0.019472349857806728 0 -0.002986087803546162 -0.017243985864010148 0 -0.0016463301714184104 -0.016775443941465091 0 -0.0020022997578161522 -0.021173712088883728 0 -0.0017010900318927403 -0.021741773595643551 0 -0.001060814832876972 -0.021097092278487578 0 -0.002986087803546162 -0.017243985864010148 0 -0.0028901680419287775 -0.015007784538720804 0 -0.0016463301714184104 -0.016775443941465091 0 -0.0021303049357509611 -0.020330525869557272 0 -0.001060814832876972 -0.021097092278487578 0 -0.0010009350892620844 -0.019902615960744184 0 -0.0020167621630025816 -0.019755291260434342 0 -0.0017107712176610804 -0.016025498375129038 0 -0.00080297826168334685 -0.020006057541780694 0 -0.0017107712176610804 -0.016025498375129038 0 -0.00041554504874951036 -0.018949946106883039 0 0.00016316784127570511 -0.019260850361168608 0 0.0001761999757233642 -0.018426875919957553 0 0.00016316784127570511 -0.019260850361168608 0 0.00095125404647913826 -0.018966457967554199 0 0.0001761999757233642 -0.018426875919957553 0 0.0001761999757233642 -0.018426875919957553 0 0.00035627188015067729 -0.017750611560435142 0 -0.0003078302932856882 -0.017757328560137356 0 0.00095125404647913826 -0.018966457967554199 0 0.0001761999757233642 -0.018426875919957553 0 0.0010310482541488731 -0.017917165081150335 0 0.0001761999757233642 -0.018426875919957553 0 0.0010310482541488731 -0.017917165081150335 0 0.00035627188015067729 -0.017750611560435142 0 -0.0017107712176610804 -0.016025498375129038 0 -0.0010122517158177881 -0.013579020251552427 0 -0.0033115723375741687 -0.011213503101838792 0 -0.0032245996243725856 -0.009545432812786827 0 -0.0025851558786260291 -0.010245272538724723 0 -0.0032245996243725856 -0.009545432812786827 0 -0.0025851558786260291 -0.010245272538724723 0 -0.0021412467863174277 -0.0094962981508040882 0 -0.0025851558786260291 -0.010245272538724723 0 -0.0021412467863174277 -0.0094962981508040882 0 -0.001597828991898146 -0.010149955053157574 0 -0.0025851558786260291 -0.010245272538724723 0 -0.001597828991898146 -0.010149955053157574 0 -0.0018418358764751698 -0.010647618458784884 0 -0.0015776484875884165 -0.01195974254492959 0 -0.00089721719205766378 -0.010577669471722497 0 -0.0021412467863174277 -0.0094962981508040882 0 -0.0014681951710446399 -0.0095170866982143346 0 -0.001597828991898146 -0.010149955053157574 0 -0.0014681951710446399 -0.0095170866982143346 0 -0.001597828991898146 -0.010149955053157574 0 -0.0011946650581609504 -0.010150454361690858 0 -0.0013288106126199686 -0.010385396712496008 0 -0.0015776484875884165 -0.01195974254492959 0 -0.001597828991898146 -0.010149955053157574 0 -0.0019288211798622653 -0.010692736582135378 0 -0.0011946650581609504 -0.010150454361690858 0 -0.0024878394017968032 -0.011791398528784833 0 -0.0019462851636504064 -0.013837132425069095 0 -0.0011468971069551451 -0.012537331131786409 0 -0.0015776484875884165 -0.01195974254492959 0 -0.0024552277870811046 -0.015773964996177049 0 -0.0033115723375741687 -0.011213503101838792 0 -0.0025851558786260291 -0.010245272538724723 0 -0.0018418358764751698 -0.010647618458784884 0 -0.0017107712176610804 -0.016025498375129038 0 -0.0015776484875884165 -0.01195974254492959 0 -0.0028901680419287775 -0.015007784538720804 0 -0.00021542997092758602 -0.014061737101927265 0 -0.0016463301714184104 -0.016775443941465091 0 -0.0027805997965106091 -0.019208701079169329 0 -0.0024552277870811046 -0.015773964996177049 0 -0.0017787426996038831 -0.01660952903164337 0 -0.0022898510321822784 -0.017587325973445748 0 -0.0032178771724680369 -0.014793772965863572 0 -0.0022898510321822784 -0.017587325973445748 0 -0.0035650048426537455 -0.017289324386985876 0 -0.0032178771724680369 -0.014793772965863572 0 -0.0017787426996038831 -0.01660952903164337 0 -0.0032178771724680369 -0.014793772965863572 0 -0.0017992328128693803 -0.015166691233343349 0 -0.0017787426996038831 -0.01660952903164337 0 -0.0017992328128693803 -0.015166691233343349 0 -0.0010001581657309317 -0.015806798474532299 0 -0.00068019002793963043 -0.016814087279968474 0 -0.0017787426996038831 -0.01660952903164337 0 -0.0010001581657309317 -0.015806798474532299 0 -0.0024878394017968032 -0.011791398528784833 0 -0.0032178771724680369 -0.014793772965863572 0 -0.0019462851636504064 -0.013837132425069095 0 -0.0032178771724680369 -0.014793772965863572 0 -0.0017992328128693803 -0.015166691233343349 0 -0.0019462851636504064 -0.013837132425069095 0 -0.0017992328128693803 -0.015166691233343349 0 -0.0019462851636504064 -0.013837132425069095 0 -0.00067029898055398756 -0.014227033112554112 0 -0.0019462851636504064 -0.013837132425069095 0 -0.00067029898055398756 -0.014227033112554112 0 -0.0011468971069551451 -0.012537331131786409 0 -0.0017992328128693803 -0.015166691233343349 0 -0.00067029898055398756 -0.014227033112554112 0 -0.0010001581657309317 -0.015806798474532299 0 -0.00067029898055398756 -0.014227033112554112 0 -0.0010001581657309317 -0.015806798474532299 0 0.00015741032859531678 -0.015794899280412375 0 -0.00068019002793963043 -0.016814087279968474 0 -0.0010001581657309317 -0.015806798474532299 0 0.00015741032859531678 -0.015794899280412375 0 0.00015741032859531678 -0.015794899280412375 0 0.0010216779503179232 -0.013936146378104208 0 0.0015921826670203172 -0.015783013271108891 0 0.00089839457469670337 -0.016704885370486519 0 0.00015741032859531678 -0.015794899280412375 0 0.0015921826670203172 -0.015783013271108891 0 0.0010216779503179232 -0.013936146378104208 0 0.0015921826670203172 -0.015783013271108891 0 0.0023013143529565213 -0.014443861074684691 0 -0.00067029898055398756 -0.014227033112554112 0 0.00015741032859531678 -0.015794899280412375 0 0.0010216779503179232 -0.013936146378104208 0 -0.00067029898055398756 -0.014227033112554112 0 0.0010216779503179232 -0.013936146378104208 0 0.00041292055710370686 -0.012032939222684854 0 0.00041292055710370686 -0.012032939222684854 0 2.6975627974375738e-05 -0.0098218849905107632 0 0.002225970475090309 -0.012383450056126406 0 0.00017165624508700474 -0.0099655375672537457 0 0.0012005698941340377 -0.01094104651449029 0 0.0010216779503179232 -0.013936146378104208 0 0.00041292055710370686 -0.012032939222684854 0 0.002225970475090309 -0.012383450056126406 0 -0.00067029898055398756 -0.014227033112554112 0 0.00041292055710370686 -0.012032939222684854 0 -0.0011468971069551451 -0.012537331131786409 0 -0.0024878394017968032 -0.011791398528784833 0 -0.0011468971069551451 -0.012537331131786409 0 -0.00069543387269079373 -0.010531209891951126 0 0.00041292055710370686 -0.012032939222684854 0 -0.0011468971069551451 -0.012537331131786409 0 -0.00069543387269079373 -0.010531209891951126 0 -0.0019288211798622653 -0.010692736582135378 0 -0.00069543387269079373 -0.010531209891951126 0 -0.0011946650581609504 -0.010150454361690858 0 0.00041292055710370686 -0.012032939222684854 0 -0.00069543387269079373 -0.010531209891951126 0 2.6975627974375738e-05 -0.0098218849905107632 0 -0.00069543387269079373 -0.010531209891951126 0 -0.0011946650581609504 -0.010150454361690858 0 -0.0007797032666897383 -0.0094767193152449254 0 -0.0014681951710446399 -0.0095170866982143346 0 -0.0011946650581609504 -0.010150454361690858 0 -0.0007797032666897383 -0.0094767193152449254 0 -0.0007797032666897383 -0.0094767193152449254 0 2.6975627974375738e-05 -0.0098218849905107632 0 -0.00027209791493480495 -0.009169718443817667 0 -0.00069543387269079373 -0.010531209891951126 0 -0.0007797032666897383 -0.0094767193152449254 0 2.6975627974375738e-05 -0.0098218849905107632 0 2.6975627974375738e-05 -0.0098218849905107632 0 0.00062788163553762096 -0.0099742523543569321 0 0.00046632089118999598 -0.0094850628619898292 0 2.6975627974375738e-05 -0.0098218849905107632 0 0.0001164615491061712 -0.0090064554624921279 0 -0.00027209791493480495 -0.009169718443817667 0 2.6975627974375738e-05 -0.0098218849905107632 0 0.0001164615491061712 -0.0090064554624921279 0 0.00046632089118999598 -0.0094850628619898292 0 -5.4122191745231415e-05 -0.0083047923466114792 0 -0.00042596460743558472 -0.0085772567455663969 0 -0.00032834414860971866 -0.0080754116485176452 0 -5.4122191745231415e-05 -0.0083047923466114792 0 0.0001164615491061712 -0.0090064554624921279 0 -0.00042596460743558472 -0.0085772567455663969 0 -5.4122191745231415e-05 -0.0083047923466114792 0 0.0001164615491061712 -0.0090064554624921279 0 0.00027664845040822542 -0.0081929404528337038 0 -5.4122191745231415e-05 -0.0083047923466114792 0 -3.7800581984770547e-06 -0.0077806478922052827 0 0.00027664845040822542 -0.0081929404528337038 0 0.0001164615491061712 -0.0090064554624921279 0 -0.00027209791493480495 -0.009169718443817667 0 -0.00042596460743558472 -0.0085772567455663969 0 -0.0007797032666897383 -0.0094767193152449254 0 -0.00027209791493480495 -0.009169718443817667 0 -0.00072955957208079882 -0.0089233971423544941 0 -0.00027209791493480495 -0.009169718443817667 0 -0.00072955957208079882 -0.0089233971423544941 0 -0.00042596460743558472 -0.0085772567455663969 0 -0.0014681951710446399 -0.0095170866982143346 0 -0.0007797032666897383 -0.0094767193152449254 0 -0.0011816439819373511 -0.0089614149132936933 0 -0.0007797032666897383 -0.0094767193152449254 0 -0.00072955957208079882 -0.0089233971423544941 0 -0.0011816439819373511 -0.0089614149132936933 0 -0.0011816439819373511 -0.0089614149132936933 0 -0.00096301587955955649 -0.0085076255586315503 0 -0.0015071697804105006 -0.0085038264700971408 0 -0.00072955957208079882 -0.0089233971423544941 0 -0.0011816439819373511 -0.0089614149132936933 0 -0.00096301587955955649 -0.0085076255586315503 0 -0.00096301587955955649 -0.0085076255586315503 0 -0.00042596460743558472 -0.0085772567455663969 0 -0.00081855684062157898 -0.0081153889173725419 0 -0.00072955957208079882 -0.0089233971423544941 0 -0.00096301587955955649 -0.0085076255586315503 0 -0.00042596460743558472 -0.0085772567455663969 0 -0.00042596460743558472 -0.0085772567455663969 0 -0.00081855684062157898 -0.0081153889173725419 0 -0.00032834414860971866 -0.0080754116485176452 0 -0.00081855684062157898 -0.0081153889173725419 0 -0.0005256595488250228 -0.0078524112342150069 0 -0.00032834414860971866 -0.0080754116485176452 0 -0.00096301587955955649 -0.0085076255586315503 0 -0.00081855684062157898 -0.0081153889173725419 0 -0.0011662281512018443 -0.0080448878627577061 0 -0.00096301587955955649 -0.0085076255586315503 0 -0.0011662281512018443 -0.0080448878627577061 0 -0.0015071697804105006 -0.0085038264700971408 0 -0.00081855684062157898 -0.0081153889173725419 0 -0.0011662281512018443 -0.0080448878627577061 0 -0.00081697773405921975 -0.0075703993551803715 0 -0.0011662281512018443 -0.0080448878627577061 0 -0.00081697773405921975 -0.0075703993551803715 0 -0.0013280376801861392 -0.0076215689659514798 0 -0.00081697773405921975 -0.0075703993551803715 0 -0.0005256595488250228 -0.0078524112342150069 0 -0.00043152981480286238 -0.0075338109137600834 0 -0.00081855684062157898 -0.0081153889173725419 0 -0.00081697773405921975 -0.0075703993551803715 0 -0.0005256595488250228 -0.0078524112342150069 0 -0.00043152981480286238 -0.0075338109137600834 0 -0.0002219835466725222 -0.0076530138841497692 0 -0.0002024415207351658 -0.0073807284538065249 0 -0.0005256595488250228 -0.0078524112342150069 0 -0.00043152981480286238 -0.0075338109137600834 0 -0.0002219835466725222 -0.0076530138841497692 0 -0.0005256595488250228 -0.0078524112342150069 0 -0.0002219835466725222 -0.0076530138841497692 0 -0.00032834414860971866 -0.0080754116485176452 0 -5.4122191745231415e-05 -0.0083047923466114792 0 -0.00032834414860971866 -0.0080754116485176452 0 -3.7800581984770547e-06 -0.0077806478922052827 0 -0.0002219835466725222 -0.0076530138841497692 0 -0.00032834414860971866 -0.0080754116485176452 0 -3.7800581984770547e-06 -0.0077806478922052827 0 -3.7800581984770547e-06 -0.0077806478922052827 0 0.00027664845040822542 -0.0081929404528337038 0 0.00022936851675277615 -0.0074720363465567933 0 -0.0002219835466725222 -0.0076530138841497692 0 -3.7800581984770547e-06 -0.0077806478922052827 0 7.8941355201787866e-05 -0.0072965378249415531 0 -0.0002219835466725222 -0.0076530138841497692 0 7.8941355201787866e-05 -0.0072965378249415531 0 -0.0002024415207351658 -0.0073807284538065249 0 -3.7800581984770547e-06 -0.0077806478922052827 0 7.8941355201787866e-05 -0.0072965378249415531 0 0.00022936851675277615 -0.0074720363465567933 0 -7.9259045766621797e-05 -0.0071980152407618136 0 7.8941355201787866e-05 -0.0072965378249415531 0 5.8473026934081336e-05 -0.0070907473972508439 0 -7.9259045766621797e-05 -0.0071980152407618136 0 7.8941355201787866e-05 -0.0072965378249415531 0 -0.0002024415207351658 -0.0073807284538065249 0 -7.9259045766621797e-05 -0.0071980152407618136 0 -0.0002024415207351658 -0.0073807284538065249 0 -0.00040741078187895338 -0.0072419964193020563 0 -0.00043152981480286238 -0.0075338109137600834 0 -0.0002024415207351658 -0.0073807284538065249 0 -0.00040741078187895338 -0.0072419964193020563 0 -0.00014375903131351068 -0.0070511638845662762 0 -7.7664481475112052e-05 -0.0069560226443561527 0 -0.00040347286462673305 -0.0069492199741176602 0 -0.00014375903131351068 -0.0070511638845662762 0 -0.00040347286462673305 -0.0069492199741176602 0 -0.00040741078187895338 -0.0072419964193020563 0 -7.9259045766621797e-05 -0.0071980152407618136 0 -0.00014375903131351068 -0.0070511638845662762 0 -0.00040741078187895338 -0.0072419964193020563 0 5.8473026934081336e-05 -0.0070907473972508439 0 -7.7664481475112052e-05 -0.0069560226443561527 0 3.1168639616764511e-05 -0.0070649243332950125 0 -0.00014375903131351068 -0.0070511638845662762 0 5.8473026934081336e-05 -0.0070907473972508439 0 -7.7664481475112052e-05 -0.0069560226443561527 0 -7.9259045766621797e-05 -0.0071980152407618136 0 -0.00014375903131351068 -0.0070511638845662762 0 5.8473026934081336e-05 -0.0070907473972508439 0 -7.7664481475112052e-05 -0.0069560226443561527 0 -0.00015744766697733495 -0.0066853988493821249 0 3.1168639616764511e-05 -0.0070649243332950125 0 2.6024985034279323e-07 -0.009453329370342654 0 -1.7483072028205777e-06 -0.0096427582756984168 0 8.1681920299836547e-05 -0.007498078546031601 0 -7.7664481475112052e-05 -0.0069560226443561527 0 -0.00015744766697733495 -0.0066853988493821249 0 -0.00040347286462673305 -0.0069492199741176602 0 2.6024985034279323e-07 -0.009453329370342654 0 -1.7483072028205777e-06 -0.0096427582756984168 0 -3.1582158605124752e-07 -0.011281033627358186 0 -0.00015413649521748191 -0.0081888165412027352 0 -0.0011362832078968268 -0.0086761001338633188 0 -0.00015744766697733495 -0.0066853988493821249 0 -0.00083335954036006614 -0.0068548154015428426 0 -0.0015098195170969227 -0.0064844965451125421 0 -1.7483072028205777e-06 -0.0096427582756984168 0 -3.1582158605124752e-07 -0.011281033627358186 0 -3.2011519335153389e-05 -0.011371342666430945 0 -0.00015744766697733495 -0.0066853988493821249 0 -0.00040347286462673305 -0.0069492199741176602 0 -0.00083335954036006614 -0.0068548154015428426 0 -0.00082462988243796331 -0.0070982120349767242 0 -0.0010575324430721117 -0.0073533649976329834 0 -0.0013168129619826325 -0.0070729833291356776 0 -0.00083335954036006614 -0.0068548154015428426 0 -0.00082462988243796331 -0.0070982120349767242 0 -0.0013168129619826325 -0.0070729833291356776 0 -0.00040347286462673305 -0.0069492199741176602 0 -0.00083335954036006614 -0.0068548154015428426 0 -0.00082462988243796331 -0.0070982120349767242 0 -0.00040347286462673305 -0.0069492199741176602 0 -0.00082462988243796331 -0.0070982120349767242 0 -0.00040741078187895338 -0.0072419964193020563 0 -0.00081697773405921975 -0.0075703993551803715 0 -0.00082462988243796331 -0.0070982120349767242 0 -0.00040741078187895338 -0.0072419964193020563 0 -0.00081697773405921975 -0.0075703993551803715 0 -0.00043152981480286238 -0.0075338109137600834 0 -0.00040741078187895338 -0.0072419964193020563 0 -0.00081697773405921975 -0.0075703993551803715 0 -0.00082462988243796331 -0.0070982120349767242 0 -0.0010575324430721117 -0.0073533649976329834 0 -0.00081697773405921975 -0.0075703993551803715 0 -0.0010575324430721117 -0.0073533649976329834 0 -0.0013280376801861392 -0.0076215689659514798 0 -0.0013280376801861392 -0.0076215689659514798 0 -0.001769454991903461 -0.007365489177069807 0 -0.0013168129619826325 -0.0070729833291356776 0 -0.0010575324430721117 -0.0073533649976329834 0 -0.0013280376801861392 -0.0076215689659514798 0 -0.0013168129619826325 -0.0070729833291356776 0 -0.001769454991903461 -0.007365489177069807 0 -0.0016989532519224417 -0.006938572530828073 0 -0.0021928114565134341 -0.0068268264495923983 0 -0.001769454991903461 -0.007365489177069807 0 -0.0016989532519224417 -0.006938572530828073 0 -0.0013168129619826325 -0.0070729833291356776 0 -3.1582158605124752e-07 -0.011281033627358186 0 -3.2011519335153389e-05 -0.011371342666430945 0 4.1138373393877727e-07 -0.013105951580130023 0 -0.00083335954036006614 -0.0068548154015428426 0 -0.0013168129619826325 -0.0070729833291356776 0 -0.0015098195170969227 -0.0064844965451125421 0 -0.0016989532519224417 -0.006938572530828073 0 -0.0013168129619826325 -0.0070729833291356776 0 -0.0015098195170969227 -0.0064844965451125421 0 -0.0016989532519224417 -0.006938572530828073 0 -0.0015098195170969227 -0.0064844965451125421 0 -0.0021928114565134341 -0.0068268264495923983 0 -3.2011519335153389e-05 -0.011371342666430945 0 4.1138373393877727e-07 -0.013105951580130023 0 5.8746245449583546e-05 -0.012748131557826838 0 -0.0015098195170969227 -0.0064844965451125421 0 -0.0021928114565134341 -0.0068268264495923983 0 -0.0028704959256077578 -0.0065462211355746076 0 -0.0011362832078968268 -0.0086761001338633188 0 -9.6723526577620377e-05 -0.012026831905442239 0 -8.423072561836341e-08 -0.013108037514488226 0 -9.6723526577620377e-05 -0.012026831905442239 0 -0.001769454991903461 -0.007365489177069807 0 -0.0021928114565134341 -0.0068268264495923983 0 -0.0022067278775323037 -0.0077682644235907827 0 -0.0021928114565134341 -0.0068268264495923983 0 -0.0022067278775323037 -0.0077682644235907827 0 -0.0030195901014697618 -0.0079552988993746888 0 -0.0021928114565134341 -0.0068268264495923983 0 -0.0030195901014697618 -0.0079552988993746888 0 -0.0028704959256077578 -0.0065462211355746076 0 -0.0022036953554147596 -0.008536913680359276 0 -0.0022067278775323037 -0.0077682644235907827 0 -0.0030195901014697618 -0.0079552988993746888 0 -0.001769454991903461 -0.007365489177069807 0 -0.0022067278775323037 -0.0077682644235907827 0 -0.0017003755222674882 -0.0080396340281565001 0 -0.0011662281512018443 -0.0080448878627577061 0 -0.0013280376801861392 -0.0076215689659514798 0 -0.0017003755222674882 -0.0080396340281565001 0 -0.0013280376801861392 -0.0076215689659514798 0 -0.001769454991903461 -0.007365489177069807 0 -0.0017003755222674882 -0.0080396340281565001 0 -0.0011662281512018443 -0.0080448878627577061 0 -0.0017003755222674882 -0.0080396340281565001 0 -0.0015071697804105006 -0.0085038264700971408 0 -0.0022036953554147596 -0.008536913680359276 0 -0.0017003755222674882 -0.0080396340281565001 0 -0.0015071697804105006 -0.0085038264700971408 0 -0.0022036953554147596 -0.008536913680359276 0 -0.0022067278775323037 -0.0077682644235907827 0 -0.0017003755222674882 -0.0080396340281565001 0 -0.0022036953554147596 -0.008536913680359276 0 -0.0015071697804105006 -0.0085038264700971408 0 -0.0017407621325721263 -0.0089817275514362735 0 -0.0021412467863174277 -0.0094962981508040882 0 -0.0022036953554147596 -0.008536913680359276 0 -0.0017407621325721263 -0.0089817275514362735 0 -0.0011816439819373511 -0.0089614149132936933 0 -0.0015071697804105006 -0.0085038264700971408 0 -0.0017407621325721263 -0.0089817275514362735 0 -0.0014681951710446399 -0.0095170866982143346 0 -0.0011816439819373511 -0.0089614149132936933 0 -0.0017407621325721263 -0.0089817275514362735 0 -0.0021412467863174277 -0.0094962981508040882 0 -0.0014681951710446399 -0.0095170866982143346 0 -0.0017407621325721263 -0.0089817275514362735 0 -0.0032245996243725856 -0.009545432812786827 0 -0.0022036953554147596 -0.008536913680359276 0 -0.0030195901014697618 -0.0079552988993746888 0 -0.0032245996243725856 -0.009545432812786827 0 -0.0021412467863174277 -0.0094962981508040882 0 -0.0022036953554147596 -0.008536913680359276 0 -0.0010122517158177881 -0.013579020251552427 0 -0.0010016481419182779 -0.012176436712008201 0 0.0010310482541488731 -0.017917165081150335 0 0.00035627188015067729 -0.017750611560435142 0 0.0011718966734507715 -0.016845689287621146 0 0.00035627188015067729 -0.017750611560435142 0 7.0177547416500559e-05 -0.01714642112627229 0 -0.0003078302932856882 -0.017757328560137356 0 7.0177547416500559e-05 -0.01714642112627229 0 0.00028393778988108567 -0.016449209466707828 0 -0.00019691806832343244 -0.016759351073955524 0 7.0177547416500559e-05 -0.01714642112627229 0 0.0011718966734507715 -0.016845689287621146 0 0.00028393778988108567 -0.016449209466707828 0 0.00035627188015067729 -0.017750611560435142 0 7.0177547416500559e-05 -0.01714642112627229 0 0.0011718966734507715 -0.016845689287621146 0 0.0011718966734507715 -0.016845689287621146 0 0.00080407335610849196 -0.01592536524174977 0 0.0014497384152260255 -0.015146231472437982 0 0.00080407335610849196 -0.01592536524174977 0 0.000169559616951608 -0.015034481601024328 0 0.00028393778988108567 -0.016449209466707828 0 0.0011718966734507715 -0.016845689287621146 0 0.00080407335610849196 -0.01592536524174977 0 0.00028393778988108567 -0.016449209466707828 0 -0.0010016481419182779 -0.012176436712008201 0 -9.6723526577620377e-05 -0.012026831905442239 0 0.00080407335610849196 -0.01592536524174977 0 0.0014497384152260255 -0.015146231472437982 0 0.000169559616951608 -0.015034481601024328 0 1.5223037080689022e-06 -0.013110169440771783 0 -3.31315326774002e-07 -0.015157939877046164 0 0.000169559616951608 -0.015034481601024328 0 1.5223037080689022e-06 -0.013110169440771783 0 0.0001874892329082297 -0.013831046781446569 0 0.000169559616951608 -0.015034481601024328 0 -9.6723526577620377e-05 -0.012026831905442239 0 0.00038464179693381198 -0.014803727616908617 0 -3.31315326774002e-07 -0.015157939877046164 0 0.000169559616951608 -0.015034481601024328 0 -6.1681692248120474e-05 -0.015988787798349346 0 -6.1681692248120474e-05 -0.015988787798349346 0 0.00028393778988108567 -0.016449209466707828 0 -0.00019691806832343244 -0.016759351073955524 0 0.000169559616951608 -0.015034481601024328 0 -6.1681692248120474e-05 -0.015988787798349346 0 0.00028393778988108567 -0.016449209466707828 0 -6.1681692248120474e-05 -0.015988787798349346 0 -0.00019691806832343244 -0.016759351073955524 0 -0.00021440380770798462 -0.016818122003357187 0 -3.31315326774002e-07 -0.015157939877046164 0 -6.1681692248120474e-05 -0.015988787798349346 0 -0.00021440380770798462 -0.016818122003357187 0 -3.31315326774002e-07 -0.015157939877046164 0 -0.00021440380770798462 -0.016818122003357187 0 -7.9621731170717786e-07 -0.017207238882962689 0 -0.00019841076300268086 -0.018066699953589668 0 -0.00021440380770798462 -0.016818122003357187 0 -7.9621731170717786e-07 -0.017207238882962689 0 -0.00019691806832343244 -0.016759351073955524 0 -0.00021440380770798462 -0.016818122003357187 0 -0.00035912573051963455 -0.017479232140770608 0 -0.00019841076300268086 -0.018066699953589668 0 -0.00021440380770798462 -0.016818122003357187 0 -0.00035912573051963455 -0.017479232140770608 0 -0.00096405296510872728 -0.017310405035938101 0 -0.0005394558083076233 -0.017310601125979781 0 -0.00035685984255329206 -0.017607072891552271 0 -0.00035912573051963455 -0.017479232140770608 0 -0.0003493961612205189 -0.017364812747359456 0 -0.00019691806832343244 -0.016759351073955524 0 -0.00035912573051963455 -0.017479232140770608 0 -0.0003493961612205189 -0.017364812747359456 0 8.8980045656845717e-06 -0.017178569682849434 0 -0.0005394558083076233 -0.017310601125979781 0 7.0177547416500559e-05 -0.01714642112627229 0 -0.00019691806832343244 -0.016759351073955524 0 -0.0003493961612205189 -0.017364812747359456 0 7.0177547416500559e-05 -0.01714642112627229 0 -0.00074580634780179605 -0.017236703806432829 0 -0.0003078302932856882 -0.017757328560137356 0 -0.00074580634780179605 -0.017236703806432829 0 -0.0003078302932856882 -0.017757328560137356 0 -0.001059537914261686 -0.017909759691204452 0 -0.0015391706137788358 -0.01731846862455548 0 -0.00074580634780179605 -0.017236703806432829 0 -0.001059537914261686 -0.017909759691204452 0 -0.002515352838353236 -0.0010545707987895973 0 -0.0030932628001211107 -0.00076600857573712864 0 -0.0026872188985647976 -0.00092773817943386154 0 -0.0027150590831414535 -0.00092623462381929836 0 -0.0026509211162350443 -0.00092331357949731064 0 -0.0026872188985647976 -0.00092773817943386154 0 -0.0027150590831414535 -0.00092623462381929836 0 -0.0027684948770035447 -0.00093504078041454998 0 -0.0027150590831414535 -0.00092623462381929836 0 -0.0024599390989406065 -0.0011896622203453817 0 -0.0024757803010546776 -0.00090146161652518593 0 -0.0022687989419502897 -0.0010483386427365656 0 -0.0024599390989406065 -0.0011896622203453817 0 -0.0021752305596238666 -0.0013835329473982222 0 -0.0022687989419502897 -0.0010483386427365656 0 -0.0024599390989406065 -0.0011896622203453817 0 -0.0024757803010546776 -0.00090146161652518593 0 -0.0026391597395678278 -0.00078809015303822377 0 -0.0028038076626284302 -0.00028950340535230086 0 -0.0014160902868889708 -0.00019799988231904337 0 -0.0030932628001211107 -0.00076600857573712864 0 -0.00056643073030387904 -0.0046294493361037229 0 -0.0026509211162350443 -0.00092331357949731064 0 -0.0026391597395678278 -0.00078809015303822377 0 -0.0029020458719214307 -0.0008998650541896504 0 -0.00056643073030387904 -0.0046294493361037229 0 -0.00070687181381210394 -0.0030004534282598318 0 -0.0026391597395678278 -0.00078809015303822377 0 -0.0029020458719214307 -0.0008998650541896504 0 -0.0028038076626284302 -0.00028950340535230086 0 -0.0026391597395678278 -0.00078809015303822377 0 -0.0012276863929921173 -0.00059685566798111072 0 -0.0014160902868889708 -0.00019799988231904337 0 -0.0026872188985647976 -0.00092773817943386154 0 -0.0026391597395678278 -0.00078809015303822377 0 -0.0027452719459597776 -0.00099662776620556594 0 -0.002592218377800009 -0.00075235938612546447 0 -0.0020937250558999299 -0.00094466900676111075 0 -0.0026872188985647976 -0.00092773817943386154 0 -0.0026509211162350443 -0.00092331357949731064 0 -0.0026391597395678278 -0.00078809015303822377 0 -0.0012276863929921173 -0.00059685566798111072 0 -0.00015137515361890135 -8.293215956484655e-05 0 -0.0014160902868889708 -0.00019799988231904337 0 -8.5716391636030494e-05 -0.00016530003195456102 0 -0.00076553808645002733 0.00033258666918795299 0 -0.0027452719459597776 -0.00099662776620556594 0 -0.0028196154058071532 -0.00095736315815497602 0 -0.0028614641495526504 -0.0009699940352265985 0 -0.0027452719459597776 -0.00099662776620556594 0 -0.0028196154058071532 -0.00095736315815497602 0 -0.0027684948770035447 -0.00093504078041454998 0 -0.0026872188985647976 -0.00092773817943386154 0 -0.0027452719459597776 -0.00099662776620556594 0 -0.0027684948770035447 -0.00093504078041454998 0 -0.0012276863929921173 -0.00059685566798111072 0 -0.00015137515361890135 -8.293215956484655e-05 0 -4.2140760330457774e-05 -0.00023251361326075728 0 -0.0027452719459597776 -0.00099662776620556594 0 -0.0028614641495526504 -0.0009699940352265985 0 -0.0029578482492409646 -0.00099753472259257541 0 -0.0020937250558999299 -0.00094466900676111075 0 -0.0011710702574000225 0.00083412050365185345 0 -0.0028614641495526504 -0.0009699940352265985 0 -0.0029578482492409646 -0.00099753472259257541 0 -0.0028753861491478488 -0.00091663456159687604 0 -0.0029578482492409646 -0.00099753472259257541 0 -0.0028753861491478488 -0.00091663456159687604 0 -0.002979877016953176 -0.00077366419374878023 0 -0.0011710702574000225 0.00083412050365185345 0 -0.0028153712706887632 0.0013712372844776387 0 -0.0020674895503900452 0.0038371067118522307 0 -0.0022723431562243213 0.0033066371004282589 0 -0.0020165043326691241 0.0035177992390647041 0 -0.0028753861491478488 -0.00091663456159687604 0 -0.0028226917243232307 -0.00084908260133917867 0 -0.002979877016953176 -0.00077366419374878023 0 -0.0028196154058071532 -0.00095736315815497602 0 -0.0028753861491478488 -0.00091663456159687604 0 -0.0027684948770035447 -0.00093504078041454998 0 -0.0028196154058071532 -0.00095736315815497602 0 -0.0028614641495526504 -0.0009699940352265985 0 -0.0028753861491478488 -0.00091663456159687604 0 -0.0028753861491478488 -0.00091663456159687604 0 -0.0027684948770035447 -0.00093504078041454998 0 -0.0028226917243232307 -0.00084908260133917867 0 -0.0027150590831414535 -0.00092623462381929836 0 -0.0027684948770035447 -0.00093504078041454998 0 -0.0028226917243232307 -0.00084908260133917867 0 -0.0028226917243232307 -0.00084908260133917867 0 -0.002979877016953176 -0.00077366419374878023 0 -0.0028270615088467053 -0.00064078161708857803 0 -0.0028226917243232307 -0.00084908260133917867 0 -0.0028270615088467053 -0.00064078161708857803 0 -0.0026768821495550023 -0.00078055793276148413 0 -0.0022723431562243213 0.0033066371004282589 0 -0.0020165043326691241 0.0035177992390647041 0 -0.001944415377835353 0.0032466898745093452 0 -0.0022723431562243213 0.0033066371004282589 0 -0.0021808145750587737 0.0029716652855550103 0 -0.001944415377835353 0.0032466898745093452 0 -0.0027504000824601035 0.00115066428511926 0 -0.0028153712706887632 0.0013712372844776387 0 -0.0025189830123094645 0.0026581201001218031 0 -0.0022723431562243213 0.0033066371004282589 0 -0.0021808145750587737 0.0029716652855550103 0 -0.0025189830123094645 0.0026581201001218031 0 -0.002180921052465516 0.002709720806694274 0 -0.0021808145750587737 0.0029716652855550103 0 -0.002180921052465516 0.002709720806694274 0 -0.0021808145750587737 0.0029716652855550103 0 -0.0020060048956559531 0.0029209775422361743 0 -0.0030373219773646128 -0.00033197766653348895 0 -0.002979877016953176 -0.00077366419374878023 0 -0.0028270615088467053 -0.00064078161708857803 0 -0.0030373219773646128 -0.00033197766653348895 0 -0.0028270615088467053 -0.00064078161708857803 0 -0.0027226350780453893 -0.00047460074770229525 0 -0.0028270615088467053 -0.00064078161708857803 0 -0.0027226350780453893 -0.00047460074770229525 0 -0.0026768821495550023 -0.00078055793276148413 0 -0.0027226350780453893 -0.00047460074770229525 0 -0.0026768821495550023 -0.00078055793276148413 0 -0.0024624644353085159 -0.00067077728421303527 0 -0.0027226350780453893 -0.00047460074770229525 0 -0.0024624644353085159 -0.00067077728421303527 0 -0.0024704514452138326 -0.00045271551799955776 0 -0.0026768821495550023 -0.00078055793276148413 0 -0.0024757803010546776 -0.00090146161652518593 0 -0.0024624644353085159 -0.00067077728421303527 0 -0.0027150590831414535 -0.00092623462381929836 0 -0.0026768821495550023 -0.00078055793276148413 0 -0.0024757803010546776 -0.00090146161652518593 0 -0.0027150590831414535 -0.00092623462381929836 0 -0.0028226917243232307 -0.00084908260133917867 0 -0.0026768821495550023 -0.00078055793276148413 0 -0.0022687989419502897 -0.0010483386427365656 0 -0.0024757803010546776 -0.00090146161652518593 0 -0.0022582098168368787 -0.00082724535722695515 0 -0.0024757803010546776 -0.00090146161652518593 0 -0.0022582098168368787 -0.00082724535722695515 0 -0.0024624644353085159 -0.00067077728421303527 0 -0.002215730939287295 -0.00028608028177048506 0 -0.0024704514452138326 -0.00045271551799955776 0 -0.0021406807554964135 -0.00060534597121217077 0 -0.0022582098168368787 -0.00082724535722695515 0 -0.0024624644353085159 -0.00067077728421303527 0 -0.0021406807554964135 -0.00060534597121217077 0 -0.0024624644353085159 -0.00067077728421303527 0 -0.0024704514452138326 -0.00045271551799955776 0 -0.0021406807554964135 -0.00060534597121217077 0 -0.0018651347789472024 -0.00048093915347446073 0 -0.0021406807554964135 -0.00060534597121217077 0 -0.0017701104555941298 -0.00058789230563734748 0 -0.0021406807554964135 -0.00060534597121217077 0 -0.0017701104555941298 -0.00058789230563734748 0 -0.0019851654695104289 -0.0009547161688579376 0 0.0012641943711884497 -0.0080269030304637827 0 0.00011775085695873588 -0.0052890185759817149 0 -0.002824283334951281 -0.0019767873718709934 0 0.0012641943711884497 -0.0080269030304637827 0 0.0018652934730235523 -0.010977347911495884 0 0.0022343254040175825 -0.010189471710975328 0 0.0012939226764680748 -0.010481922182765245 0 0.0022343254040175825 -0.010189471710975328 0 0.0012939226764680748 -0.010481922182765245 0 0.0014802015560989503 -0.0098166517227359657 0 -0.0022582098168368787 -0.00082724535722695515 0 -0.0021406807554964135 -0.00060534597121217077 0 -0.0019851654695104289 -0.0009547161688579376 0 -0.0022687989419502897 -0.0010483386427365656 0 -0.0022582098168368787 -0.00082724535722695515 0 -0.0019851654695104289 -0.0009547161688579376 0 0.0015921826670203172 -0.015783013271108891 0 0.0028600471923563154 -0.015727621558819634 0 0.0023013143529565213 -0.014443861074684691 0 0.0019688798149856183 -0.016944133271359841 0 0.0015921826670203172 -0.015783013271108891 0 0.0028600471923563154 -0.015727621558819634 0 0.0028600471923563154 -0.015727621558819634 0 0.003726892428197208 -0.014282894882747589 0 0.0023013143529565213 -0.014443861074684691 0 0.0012641943711884497 -0.0080269030304637827 0 0.0031824926573183203 -0.013351727431868819 0 0.0028600471923563154 -0.015727621558819634 0 0.0040149573610559234 -0.015940678432197295 0 0.003726892428197208 -0.014282894882747589 0 0.0052123324277209464 -0.015832664342578972 0 0.0040149573610559234 -0.015940678432197295 0 0.003726892428197208 -0.014282894882747589 0 0.0010216779503179232 -0.013936146378104208 0 0.0023013143529565213 -0.014443861074684691 0 0.002225970475090309 -0.012383450056126406 0 0.0031824926573183203 -0.013351727431868819 0 0.0012005698941340377 -0.01094104651449029 0 0.003726892428197208 -0.014282894882747589 0 0.0023013143529565213 -0.014443861074684691 0 0.002225970475090309 -0.012383450056126406 0 0.00062788163553762096 -0.0099742523543569321 0 0.0014802015560989503 -0.0098166517227359657 0 0.0010062452675814926 -0.0093590152833603439 0 0.0012939226764680748 -0.010481922182765245 0 0.00062788163553762096 -0.0099742523543569321 0 0.0014802015560989503 -0.0098166517227359657 0 0.0016142892942870247 -0.0092851318349925806 0 0.0010062452675814926 -0.0093590152833603439 0 0.0015772499092605329 -0.0086540358370917406 0 0.0014802015560989503 -0.0098166517227359657 0 0.0016142892942870247 -0.0092851318349925806 0 0.0010062452675814926 -0.0093590152833603439 0 0.00062788163553762096 -0.0099742523543569321 0 0.0010062452675814926 -0.0093590152833603439 0 0.00046632089118999598 -0.0094850628619898292 0 0.0010062452675814926 -0.0093590152833603439 0 0.00046632089118999598 -0.0094850628619898292 0 0.00067825273393470474 -0.0089373153130676477 0 0.0001164615491061712 -0.0090064554624921279 0 0.00046632089118999598 -0.0094850628619898292 0 0.00067825273393470474 -0.0089373153130676477 0 -0.0022687989419502897 -0.0010483386427365656 0 -0.0019851654695104289 -0.0009547161688579376 0 -0.0021752305596238666 -0.0013835329473982222 0 0.00011775085695873588 -0.0052890185759817149 0 -0.00056643073030387904 -0.0046294493361037229 0 0.0022343254040175825 -0.010189471710975328 0 0.0020535071045354575 -0.0095616845411993518 0 0.0025987729575065962 -0.0093545387750576872 0 0.0022343254040175825 -0.010189471710975328 0 0.0014802015560989503 -0.0098166517227359657 0 0.0020535071045354575 -0.0095616845411993518 0 0.0014802015560989503 -0.0098166517227359657 0 0.0016142892942870247 -0.0092851318349925806 0 0.0020535071045354575 -0.0095616845411993518 0 0.0016142892942870247 -0.0092851318349925806 0 0.0020535071045354575 -0.0095616845411993518 0 0.002077775115575292 -0.0090569599958056028 0 0.00088245175374982257 -0.0056059865651833076 0 -0.00018381585848021401 -0.0049764710454227191 0 0.00067556321779165863 -0.0060572520242708362 0 0.0019921893199347268 -0.0076710601634142625 0 -0.00056643073030387904 -0.0046294493361037229 0 0.0020535071045354575 -0.0095616845411993518 0 0.002077775115575292 -0.0090569599958056028 0 0.0025987729575065962 -0.0093545387750576872 0 -0.00013023438423806879 -0.0062864278189805611 0 -0.00014840235791542986 -0.0063456661442378923 0 -2.1201571160564851e-05 -0.0061219667896306 0 0.00036535733902025639 -0.0062996680603254309 0 -0.00070687181381210394 -0.0030004534282598318 0 -0.00013023438423806879 -0.0062864278189805611 0 -2.1201571160564851e-05 -0.0061219667896306 0 0.00014522701533488882 -0.006324016610382603 0 -0.00018381585848021401 -0.0049764710454227191 0 0.00067556321779165863 -0.0060572520242708362 0 -0.00059512548429063315 -0.0058771699164416619 0 0.00036535733902025639 -0.0062996680603254309 0 0.0011734942362624961 -0.0072924147871279007 0 0.00088245175374982257 -0.0056059865651833076 0 0.00067556321779165863 -0.0060572520242708362 0 0.0019338220850794988 -0.006234476289775203 0 -0.00013023438423806879 -0.0062864278189805611 0 -0.00014840235791542986 -0.0063456661442378923 0 1.281968876877638e-05 -0.0064251928589717988 0 0.0019921893199347268 -0.0076710601634142625 0 0.0011734942362624961 -0.0072924147871279007 0 0.0016142892942870247 -0.0092851318349925806 0 0.002077775115575292 -0.0090569599958056028 0 0.0015772499092605329 -0.0086540358370917406 0 -0.00014840235791542986 -0.0063456661442378923 0 -2.1201571160564851e-05 -0.0061219667896306 0 -9.6745258522751623e-05 -0.0058658227093103176 0 0.00055352898009645101 -0.0084638723273874911 0 0.0011734942362624961 -0.0072924147871279007 0 0.00027664845040822542 -0.0081929404528337038 0 0.00067825273393470474 -0.0089373153130676477 0 0.0015772499092605329 -0.0086540358370917406 0 0.00027664845040822542 -0.0081929404528337038 0 0.0018130472131397809 -0.0080832164491893392 0 0.00050072720540328755 -0.0073630352242375638 0 0.0001164615491061712 -0.0090064554624921279 0 0.00027664845040822542 -0.0081929404528337038 0 0.00067825273393470474 -0.0089373153130676477 0 0.0010062452675814926 -0.0093590152833603439 0 0.00067825273393470474 -0.0089373153130676477 0 0.0015772499092605329 -0.0086540358370917406 0 0.0011734942362624961 -0.0072924147871279007 0 0.00042542616964154415 -0.0072577120699518181 0 1.281968876877638e-05 -0.0064251928589717988 0 0.00018251905573267099 -0.006951410377437601 0 0.00050072720540328755 -0.0073630352242375638 0 -0.00014840235791542986 -0.0063456661442378923 0 1.281968876877638e-05 -0.0064251928589717988 0 0.00018251905573267099 -0.006951410377437601 0 -0.00014840235791542986 -0.0063456661442378923 0 0.00018251905573267099 -0.006951410377437601 0 -4.7994581122969042e-05 -0.0065711043601822949 0 0.00018251905573267099 -0.006951410377437601 0 0.00050072720540328755 -0.0073630352242375638 0 0.00027985293610064961 -0.0071808038233583176 0 7.8941355201787866e-05 -0.0072965378249415531 0 0.00027985293610064961 -0.0071808038233583176 0 0.00022936851675277615 -0.0074720363465567933 0 0.00050072720540328755 -0.0073630352242375638 0 0.00027985293610064961 -0.0071808038233583176 0 0.00022936851675277615 -0.0074720363465567933 0 0.00027664845040822542 -0.0081929404528337038 0 0.00050072720540328755 -0.0073630352242375638 0 0.00022936851675277615 -0.0074720363465567933 0 5.8473026934081336e-05 -0.0070907473972508439 0 0.00017553398481809837 -0.0070725908318061779 0 0.00012800025419658478 -0.0070752139069177452 0 5.8473026934081336e-05 -0.0070907473972508439 0 0.00012800025419658478 -0.0070752139069177452 0 3.1168639616764511e-05 -0.0070649243332950125 0 7.8941355201787866e-05 -0.0072965378249415531 0 0.00027985293610064961 -0.0071808038233583176 0 0.00017553398481809837 -0.0070725908318061779 0 7.8941355201787866e-05 -0.0072965378249415531 0 5.8473026934081336e-05 -0.0070907473972508439 0 0.00017553398481809837 -0.0070725908318061779 0 0.00018251905573267099 -0.006951410377437601 0 0.00017553398481809837 -0.0070725908318061779 0 8.2302080416356339e-05 -0.0069016024611440099 0 0.00018251905573267099 -0.006951410377437601 0 0.00027985293610064961 -0.0071808038233583176 0 0.00017553398481809837 -0.0070725908318061779 0 0.00012800025419658478 -0.0070752139069177452 0 8.2302080416356339e-05 -0.0069016024611440099 0 3.1440344488723135e-05 -0.0070635077312677166 0 0.00017553398481809837 -0.0070725908318061779 0 0.00012800025419658478 -0.0070752139069177452 0 8.2302080416356339e-05 -0.0069016024611440099 0 8.2302080416356339e-05 -0.0069016024611440099 0 -9.4615736627255302e-05 -0.0066615271087566265 0 3.1440344488723135e-05 -0.0070635077312677166 0 0.00018251905573267099 -0.006951410377437601 0 8.2302080416356339e-05 -0.0069016024611440099 0 -4.7994581122969042e-05 -0.0065711043601822949 0 8.2302080416356339e-05 -0.0069016024611440099 0 -4.7994581122969042e-05 -0.0065711043601822949 0 -9.4615736627255302e-05 -0.0066615271087566265 0 -9.4615736627255302e-05 -0.0066615271087566265 0 2.7263334094334891e-08 -0.007625225219449373 0 -2.951782320436561e-07 -0.0057991808606260168 0 -9.4615736627255302e-05 -0.0066615271087566265 0 2.7263334094334891e-08 -0.007625225219449373 0 3.1440344488723135e-05 -0.0070635077312677166 0 2.6024985034279323e-07 -0.009453329370342654 0 2.7263334094334891e-08 -0.007625225219449373 0 8.1681920299836547e-05 -0.007498078546031601 0 -0.00015744766697733495 -0.0066853988493821249 0 8.1681920299836547e-05 -0.007498078546031601 0 3.1168639616764511e-05 -0.0070649243332950125 0 -0.00015413649521748191 -0.0081888165412027352 0 -0.00010262717576577726 -0.0076255878987473271 0 0.00012800025419658478 -0.0070752139069177452 0 3.1440344488723135e-05 -0.0070635077312677166 0 8.1681920299836547e-05 -0.007498078546031601 0 2.7263334094334891e-08 -0.007625225219449373 0 3.1440344488723135e-05 -0.0070635077312677166 0 8.1681920299836547e-05 -0.007498078546031601 0 0.00012800025419658478 -0.0070752139069177452 0 8.1681920299836547e-05 -0.007498078546031601 0 3.1168639616764511e-05 -0.0070649243332950125 0 -0.00014840235791542986 -0.0063456661442378923 0 -9.6745258522751623e-05 -0.0058658227093103176 0 -0.00015663139213832765 -0.0059390026305659776 0 -9.6745258522751623e-05 -0.0058658227093103176 0 -0.00015663139213832765 -0.0059390026305659776 0 4.3266001348918267e-05 -0.0051456951829669624 0 -0.00014840235791542986 -0.0063456661442378923 0 -4.7994581122969042e-05 -0.0065711043601822949 0 -0.00015663139213832765 -0.0059390026305659776 0 -4.7994581122969042e-05 -0.0065711043601822949 0 -9.4615736627255302e-05 -0.0066615271087566265 0 -0.00015663139213832765 -0.0059390026305659776 0 -9.4615736627255302e-05 -0.0066615271087566265 0 -0.00015663139213832765 -0.0059390026305659776 0 -2.951782320436561e-07 -0.0057991808606260168 0 -0.00015663139213832765 -0.0059390026305659776 0 -2.951782320436561e-07 -0.0057991808606260168 0 -7.8680433390532107e-07 -0.003971602294344307 0 -0.00015663139213832765 -0.0059390026305659776 0 -7.8680433390532107e-07 -0.003971602294344307 0 4.3266001348918267e-05 -0.0051456951829669624 0 -7.8680433390532107e-07 -0.003971602294344307 0 0.00047919255037317539 -0.0045549322685427465 0 4.3266001348918267e-05 -0.0051456951829669624 0 0.00038662092637770079 -0.0026435045479559823 0 1.5837614925186202e-07 -0.0021447486693181189 0 -7.8680433390532107e-07 -0.003971602294344307 0 0.00047919255037317539 -0.0045549322685427465 0 2.3784041788824115e-06 -0.0021475613198085864 0 0.00038662092637770079 -0.0026435045479559823 0 0.00049667531486603431 -0.0029312033588214732 0 0.0005128240929677799 -0.00058312470009780684 0 0.00047024034605483488 -0.00013062614104936409 0 0.00010302112545863816 -0.00015438640381761531 0 0.00047919255037317539 -0.0045549322685427465 0 4.3266001348918267e-05 -0.0051456951829669624 0 0.00036665889499233926 -0.0058173767804143538 0 -9.6745258522751623e-05 -0.0058658227093103176 0 4.3266001348918267e-05 -0.0051456951829669624 0 0.00036665889499233926 -0.0058173767804143538 0 -2.1201571160564851e-05 -0.0061219667896306 0 -9.6745258522751623e-05 -0.0058658227093103176 0 0.00036665889499233926 -0.0058173767804143538 0 0.00047024034605483488 -0.00013062614104936409 0 0.00012060738790504525 1.0955970752334248e-05 0 0.00010302112545863816 -0.00015438640381761531 0 0.00047024034605483488 -0.00013062614104936409 0 0.00030847468974942732 5.3507435853947458e-05 0 0.00012060738790504525 1.0955970752334248e-05 0 -0.00070687181381210394 -0.0030004534282598318 0 -0.00076553808645002733 0.00033258666918795299 0 0.00030847468974942732 5.3507435853947458e-05 0 0.00054504692172859285 0.00014154745527068444 0 0.00010392665874290954 0.00017802095102710609 0 0.00030847468974942732 5.3507435853947458e-05 0 0.00010392665874290954 0.00017802095102710609 0 0.00012060738790504525 1.0955970752334248e-05 0 -2.1201571160564851e-05 -0.0061219667896306 0 0.00036665889499233926 -0.0058173767804143538 0 0.00014522701533488882 -0.006324016610382603 0 0.00049667531486603431 -0.0029312033588214732 0 -0.00070687181381210394 -0.0030004534282598318 0 0.00047024034605483488 -0.00013062614104936409 0 0.00030847468974942732 5.3507435853947458e-05 0 0.00054504692172859285 0.00014154745527068444 0 -0.00015137515361890135 -8.293215956484655e-05 0 -0.00010925600033167856 2.6794831991832554e-07 0 -8.8061925036283354e-05 4.714610491451986e-05 0 -0.00015137515361890135 -8.293215956484655e-05 0 -4.2140760330457774e-05 -0.00023251361326075728 0 -8.8061925036283354e-05 4.714610491451986e-05 0 -0.00010925600033167856 2.6794831991832554e-07 0 -0.00010201204748086639 2.880849134509865e-05 0 -8.8061925036283354e-05 4.714610491451986e-05 0 -0.00015137515361890135 -8.293215956484655e-05 0 -0.00010925600033167856 2.6794831991832554e-07 0 -3.6782411889496007e-06 6.9741254726144253e-05 0 -0.00015137515361890135 -8.293215956484655e-05 0 -3.6782411889496007e-06 6.9741254726144253e-05 0 0.00010392665874290954 0.00017802095102710609 0 -3.6782411889496007e-06 6.9741254726144253e-05 0 0.00010392665874290954 0.00017802095102710609 0 0.00012060738790504525 1.0955970752334248e-05 0 -0.00010925600033167856 2.6794831991832554e-07 0 -3.6782411889496007e-06 6.9741254726144253e-05 0 -0.00010201204748086639 2.880849134509865e-05 0 -3.6782411889496007e-06 6.9741254726144253e-05 0 0.00012060738790504525 1.0955970752334248e-05 0 -0.00010201204748086639 2.880849134509865e-05 0 0.00010302112545863816 -0.00015438640381761531 0 -0.00020155475100719122 8.7934544065596275e-05 0 -0.00010201204748086639 2.880849134509865e-05 0 0.00012060738790504525 1.0955970752334248e-05 0 0.00010302112545863816 -0.00015438640381761531 0 -0.00010201204748086639 2.880849134509865e-05 0 -0.00020155475100719122 8.7934544065596275e-05 0 -0.00010201204748086639 2.880849134509865e-05 0 -8.8061925036283354e-05 4.714610491451986e-05 0 -0.00020155475100719122 8.7934544065596275e-05 0 -0.00016427676051111178 -0.0003874382159564136 0 -0.00016385528253376138 0.00070525460420951965 0 0.0005128240929677799 -0.00058312470009780684 0 0.00010302112545863816 -0.00015438640381761531 0 -0.00016427676051111178 -0.0003874382159564136 0 0.00010302112545863816 -0.00015438640381761531 0 -0.00020155475100719122 8.7934544065596275e-05 0 -0.00016427676051111178 -0.0003874382159564136 0 -0.00016427676051111178 -0.0003874382159564136 0 1.3625222420345448e-06 -0.0021408164489065389 0 -8.7176812297500294e-07 -0.00022834550489285598 0 0.0005128240929677799 -0.00058312470009780684 0 -0.00016427676051111178 -0.0003874382159564136 0 1.3625222420345448e-06 -0.0021408164489065389 0 -0.00016427676051111178 -0.0003874382159564136 0 -8.7176812297500294e-07 -0.00022834550489285598 0 -0.00016385528253376138 0.00070525460420951965 0 -8.7176812297500294e-07 -0.00022834550489285598 0 -7.1327717556855225e-07 0.0016885559562832368 0 -0.00016385528253376138 0.00070525460420951965 0 -7.1327717556855225e-07 0.0016885559562832368 0 -0.00016385528253376138 0.00070525460420951965 0 -7.7643798319785212e-05 0.0017304983033195856 0 -0.00011566723817242257 0.0012390632040713986 0 -0.00016385528253376138 0.00070525460420951965 0 -7.7643798319785212e-05 0.0017304983033195856 0 -0.00011566723817242257 0.0012390632040713986 0 -0.00016385528253376138 0.00070525460420951965 0 -0.00015788952764599011 0.00095871005956758262 0 2.0975148633389112e-07 0.0036049824361176225 0 0.00028828455261070007 0.0027504527184603013 0 -9.7428403891459817e-05 0.0043407271819475802 0 5.3230811264037942e-07 0.003606579652932442 0 -5.2587855636405142e-07 0.0048713750048348398 0 -9.7428403891459817e-05 0.0043407271819475802 0 5.3230811264037942e-07 0.003606579652932442 0 0.00013934737308778534 0.0045314503091807689 0 1.6798866679385765e-06 0.0036020237707726985 0 0.00015918913268835662 0.0019549513535390538 0 0.00058829061479591025 0.0016094051118211972 0 -7.1327717556855225e-07 0.0016885559562832368 0 1.6798866679385765e-06 0.0036020237707726985 0 -7.7643798319785212e-05 0.0017304983033195856 0 1.6798866679385765e-06 0.0036020237707726985 0 0.00015918913268835662 0.0019549513535390538 0 -7.7643798319785212e-05 0.0017304983033195856 0 0.00015918913268835662 0.0019549513535390538 0 0.00058829061479591025 0.0016094051118211972 0 0.00011549829065387278 0.00098852009677854622 0 -0.00011566723817242257 0.0012390632040713986 0 0.00015918913268835662 0.0019549513535390538 0 5.8819117047999908e-05 0.0010099974190748706 0 0.00020609429686763685 0.0019796387383897085 0 4.7156425410696399e-06 0.00072827620361346206 0 -0.00011566723817242257 0.0012390632040713986 0 0.00015918913268835662 0.0019549513535390538 0 -7.7643798319785212e-05 0.0017304983033195856 0 0.00028828455261070007 0.0027504527184603013 0 0.00042283798327531779 0.0044659696642329579 0 0.00042283798327531779 0.0044659696642329579 0 0.00038403757735275306 0.0060846350529638153 0 0.00013934737308778534 0.0045314503091807689 0 0.00015191931519945205 0.0047488812381717505 0 -5.795261148022464e-05 0.0044507255899810909 0 -9.7428403891459817e-05 0.0043407271819475802 0 0.00013934737308778534 0.0045314503091807689 0 -5.795261148022464e-05 0.0044507255899810909 0 4.7156425410696399e-06 0.00072827620361346206 0 0.0001430102338064606 0.0022767916608415319 0 0.00047305235660804681 0.00082293352964483393 0 0.00011549829065387278 0.00098852009677854622 0 -1.7314203671762263e-05 0.00036887321016546243 0 5.8819117047999908e-05 0.0010099974190748706 0 -8.727463800538838e-05 0.00093154468912447913 0 -0.00015788952764599011 0.00095871005956758262 0 0.00058829061479591025 0.0016094051118211972 0 0.00047305235660804681 0.00082293352964483393 0 0.00011549829065387278 0.00098852009677854622 0 -0.00011566723817242257 0.0012390632040713986 0 5.8819117047999908e-05 0.0010099974190748706 0 -0.00015788952764599011 0.00095871005956758262 0 -8.9678263973030749e-05 0.0041872565819618558 0 0.00093165913055951463 0.0052520496349201581 0 -3.6029556034373631e-05 0.0053946282779315452 0 0.00093165913055951463 0.0052520496349201581 0 -3.6029556034373631e-05 0.0053946282779315452 0 0.00053656464053022576 0.0059725203539986796 0 0.00042283798327531779 0.0044659696642329579 0 0.0001430102338064606 0.0022767916608415319 0 0.00042283798327531779 0.0044659696642329579 0 0.00052901429956723751 0.0067321707631878636 0 0.0010776254013548188 0.0075389936892856909 0 0.0010809854732121236 0.0079142983627721319 0 0.0006078827197255898 0.0078531016587986072 0 0.0010809854732121236 0.0079142983627721319 0 0.00086147735277662197 0.0081095508578868398 0 0.0006078827197255898 0.0078531016587986072 0 -0.00020155475100719122 8.7934544065596275e-05 0 -0.00016385528253376138 0.00070525460420951965 0 -8.8061925036283354e-05 4.714610491451986e-05 0 -0.00017093454022893236 0.0006971066502705121 0 2.9232914711303643e-05 0.00043504063480861971 0 -0.00016385528253376138 0.00070525460420951965 0 -7.6907724359896135e-05 0.00096543976254146401 0 -0.00015788952764599011 0.00095871005956758262 0 -7.6907724359896135e-05 0.00096543976254146401 0 -0.00015788952764599011 0.00095871005956758262 0 -0.0001166403878894148 0.00096604500005086015 0 -0.0001166403878894148 0.00096604500005086015 0 -0.00010020361726431421 0.00098117604074341759 0 -0.00011214320451126159 0.00099246717976084805 0 -8.727463800538838e-05 0.00093154468912447913 0 -0.00015788952764599011 0.00095871005956758262 0 -0.0001166403878894148 0.00096604500005086015 0 -8.727463800538838e-05 0.00093154468912447913 0 -0.0001166403878894148 0.00096604500005086015 0 -0.00011214320451126159 0.00099246717976084805 0 -0.0011710702574000225 0.00083412050365185345 0 2.9232914711303643e-05 0.00043504063480861971 0 -9.5901795654824987e-05 0.00099279393948958038 0 -7.6907724359896135e-05 0.00096543976254146401 0 -0.00010020361726431421 0.00098117604074341759 0 -7.6907724359896135e-05 0.00096543976254146401 0 -0.0001166403878894148 0.00096604500005086015 0 -0.00010020361726431421 0.00098117604074341759 0 -9.5901795654824987e-05 0.00099279393948958038 0 -0.00011287430598407913 0.0009967249894399365 0 -0.00011214320451126159 0.00099246717976084805 0 -0.0011710702574000225 0.00083412050365185345 0 -0.0006947199299544432 0.0035523471302293238 0 -0.0020674895503900452 0.0038371067118522307 0 -0.0020165043326691241 0.0035177992390647041 0 -0.0016956159064733514 0.0038194903646749444 0 -9.5901795654824987e-05 0.00099279393948958038 0 -0.00010020361726431421 0.00098117604074341759 0 -0.00011214320451126159 0.00099246717976084805 0 -0.0020165043326691241 0.0035177992390647041 0 -0.0016817951527914924 0.0035898875489366994 0 -0.0016390030307939479 0.0039206805518249531 0 -0.0022389969284229471 0.0035274064969853755 0 -0.0006947199299544432 0.0035523471302293238 0 -0.0016817951527914924 0.0035898875489366994 0 -0.0018344469179501406 0.0034289651271051927 0 -0.001712013434654282 0.0033028165026511478 0 -0.0020165043326691241 0.0035177992390647041 0 -0.0016817951527914924 0.0035898875489366994 0 -0.0018344469179501406 0.0034289651271051927 0 -0.00015852409228601 0.0053860961285592352 0 0.0003855939708269768 0.0053571409061959748 0 0.00010985520335145087 0.0065599920392276677 0 -0.0006947199299544432 0.0035523471302293238 0 0.0002650767883868353 0.0068521202943337915 0 -0.0016817951527914924 0.0035898875489366994 0 -0.0016390030307939479 0.0039206805518249531 0 -0.0015068714512987012 0.00332144563892048 0 0.00096941028315632074 0.0068626574820299944 0 0.0002650767883868353 0.0068521202943337915 0 0.0016132072722090122 0.0091894597236153678 0 0.0014352661144134027 0.0097896509333103357 0 0.0017873249722494123 0.010008714299136603 0 -0.00015708401239865035 0.0034403484359182314 0 4.3443235126684213e-05 0.0043395166881761314 0 0.00065880545407537208 0.0043114070443787678 0 0.00096941028315632074 0.0068626574820299944 0 -0.0006947199299544432 0.0035523471302293238 0 0.0001430102338064606 0.0022767916608415319 0 -0.0006947199299544432 0.0035523471302293238 0 -8.727463800538838e-05 0.00093154468912447913 0 -0.00011555931615554602 0.0010003178048666858 0 -0.00011214320451126159 0.00099246717976084805 0 -0.0006947199299544432 0.0035523471302293238 0 -0.0006758822143560759 0.0030326147254215088 0 -3.6029556034373631e-05 0.0053946282779315452 0 0.00053656464053022576 0.0059725203539986796 0 2.1619653258264429e-05 0.0066117366701570418 0 0.00093165913055951463 0.0052520496349201581 0 0.0012328905196163705 0.0065545546109758391 0 0.00053656464053022576 0.0059725203539986796 0 0.0012328905196163705 0.0065545546109758391 0 0.00053656464053022576 0.0059725203539986796 0 2.1619653258264429e-05 0.0066117366701570418 0 0.0001430102338064606 0.0022767916608415319 0 0.00096941028315632074 0.0068626574820299944 0 0.00096941028315632074 0.0068626574820299944 0 0.00081438736270157133 0.0083467333071042087 0 0.00052901429956723751 0.0067321707631878636 0 0.00081438736270157133 0.0083467333071042087 0 0.00081438736270157133 0.0083467333071042087 0 0.00069820316006095765 0.0088993224067315125 0 0.00086147735277662197 0.0081095508578868398 0 0.0010896854630642534 0.0082769569715271194 0 0.0006475896460624562 0.0082892352656411244 0 0.0010809854732121236 0.0079142983627721319 0 0.00086147735277662197 0.0081095508578868398 0 0.0010896854630642534 0.0082769569715271194 0 0.00081438736270157133 0.0083467333071042087 0 0.0012257688945834905 0.010325644425154809 0 0.0011269076078282779 0.0094115454571023251 0 0.00079988848081550808 0.0098046309925466854 0 0.00060742863158165777 0.0094399692115079269 0 0.0011269076078282779 0.0094115454571023251 0 0.00079988848081550808 0.0098046309925466854 0 0.0011679095172490567 0.0099727093104781863 0 0.0010944148503208174 0.0092157658475447643 0 0.0014352661144134027 0.0097896509333103357 0 0.0011679095172490567 0.0099727093104781863 0 0.0016132072722090122 0.0091894597236153678 0 0.0010944148503208174 0.0092157658475447643 0 0.0014352661144134027 0.0097896509333103357 0 0.001343666481650434 0.010246711480805299 0 0.0016668476604336244 0.010568679728195852 0 0.0017873249722494123 0.010008714299136603 0 0.0014352661144134027 0.0097896509333103357 0 0.001343666481650434 0.010246711480805299 0 0.0017873249722494123 0.010008714299136603 0 0.0014044285145186368 0.009819483310969249 0 0.00090260657630660283 0.010214158178743687 0 0.0014352661144134027 0.0097896509333103357 0 0.001343666481650434 0.010246711480805299 0 0.00089469781118525109 0.010175003219739531 0 0.0014352661144134027 0.0097896509333103357 0 0.0011679095172490567 0.0099727093104781863 0 0.00091824018502302551 0.010222051968737565 0 0.00079988848081550808 0.0098046309925466854 0 0.0011679095172490567 0.0099727093104781863 0 0.00091824018502302551 0.010222051968737565 0 0.001343666481650434 0.010246711480805299 0 0.00089469781118525109 0.010175003219739531 0 0.0011855167544719634 0.01065528561223078 0 0.00089469781118525109 0.010175003219739531 0 0.0007627838677836319 0.010691357065225431 0 0.0011855167544719634 0.01065528561223078 0 0.001343666481650434 0.010246711480805299 0 0.0011855167544719634 0.01065528561223078 0 0.0016668476604336244 0.010568679728195852 0 0.00010391514537996457 0.0073167576219922877 0 0.00056115577060261907 0.0076453240973751056 0 0.00023372516625662783 0.0081269143690744627 0 0.00010391514537996457 0.0073167576219922877 0 0.0006230690447410214 0.0068341487935393826 0 0.00039838507042034172 0.0059498749912634298 0 0.00010391514537996457 0.0073167576219922877 0 0.0006230690447410214 0.0068341487935393826 0 0.00056115577060261907 0.0076453240973751056 0 -0.0015750324305137207 0.0030440782433053203 0 -0.0016687853480456341 0.002990612641494412 0 -0.0015484848925353392 0.0027868160936688098 0 -0.0016687853480456341 0.002990612641494412 0 -0.001772164655863058 0.0031103072323065187 0 -0.0015863792984416791 0.0031486142364694002 0 -0.0015750324305137207 0.0030440782433053203 0 -0.0016687853480456341 0.002990612641494412 0 -0.0015863792984416791 0.0031486142364694002 0 -0.00080108344494782041 0.0044299719327361943 0 -0.00090757795523160553 0.0037512450547719013 0 -0.0015484848925353392 0.0027868160936688098 0 -0.0017237164401224382 0.0027520450873443972 0 -0.0017667480139613981 0.0029174602118386518 0 -0.00080108344494782041 0.0044299719327361943 0 -0.00050547841907374875 0.0049052852817284441 0 -0.0016687853480456341 0.002990612641494412 0 -0.0015484848925353392 0.0027868160936688098 0 -0.0017667480139613981 0.0029174602118386518 0 -0.0017237164401224382 0.0027520450873443972 0 -0.0018615810418513964 0.0027675236735728017 0 -0.0017667480139613981 0.0029174602118386518 0 -0.0018615810418513964 0.0027675236735728017 0 -0.0017667480139613981 0.0029174602118386518 0 -0.0020060048956559531 0.0029209775422361743 0 -0.002180921052465516 0.002709720806694274 0 -0.0020060048956559531 0.0029209775422361743 0 -0.0020060956456493628 0.0026188875811818013 0 -0.0018615810418513964 0.0027675236735728017 0 -0.0020060048956559531 0.0029209775422361743 0 -0.0020060956456493628 0.0026188875811818013 0 -0.0020060048956559531 0.0029209775422361743 0 -0.001772164655863058 0.0031103072323065187 0 -0.001944415377835353 0.0032466898745093452 0 -0.0021808145750587737 0.0029716652855550103 0 -0.0020060048956559531 0.0029209775422361743 0 -0.001944415377835353 0.0032466898745093452 0 -0.0016687853480456341 0.002990612641494412 0 -0.0017667480139613981 0.0029174602118386518 0 -0.001772164655863058 0.0031103072323065187 0 -0.0017667480139613981 0.0029174602118386518 0 -0.0020060048956559531 0.0029209775422361743 0 -0.001772164655863058 0.0031103072323065187 0 -0.001772164655863058 0.0031103072323065187 0 -0.001944415377835353 0.0032466898745093452 0 -0.001712013434654282 0.0033028165026511478 0 -0.0020165043326691241 0.0035177992390647041 0 -0.001944415377835353 0.0032466898745093452 0 -0.0018344469179501406 0.0034289651271051927 0 -0.001944415377835353 0.0032466898745093452 0 -0.0018344469179501406 0.0034289651271051927 0 -0.001712013434654282 0.0033028165026511478 0 0.00093151665242010271 0.008850924616212702 0 0.0002650767883868353 0.0068521202943337915 0 -0.0016817951527914924 0.0035898875489366994 0 -0.001712013434654282 0.0033028165026511478 0 -0.0015068714512987012 0.00332144563892048 0 -0.001772164655863058 0.0031103072323065187 0 -0.001712013434654282 0.0033028165026511478 0 -0.0015863792984416791 0.0031486142364694002 0 -0.001712013434654282 0.0033028165026511478 0 -0.0015068714512987012 0.00332144563892048 0 -0.0015863792984416791 0.0031486142364694002 0 -0.00080108344494782041 0.0044299719327361943 0 0.0002650767883868353 0.0068521202943337915 0 -0.0015793279071727787 0.0030554512653397487 0 -0.0015068714512987012 0.00332144563892048 0 -0.0015863792984416791 0.0031486142364694002 0 -0.00032200987962127507 0.010225398604017473 0 8.9396067391591405e-06 0.010514146024020057 0 -1.1338707438674304e-05 0.0099294860934417417 0 0.00038631874088185112 0.014260688771407636 0 0.00033450476170051392 0.014341979968727414 0 0.00025862895724873926 0.014279703239932237 0 0.00038631874088185112 0.014260688771407636 0 0.00035305044398769382 0.014088458433737818 0 0.00025862895724873926 0.014279703239932237 0 0.00033450476170051392 0.014341979968727414 0 0.00025862895724873926 0.014279703239932237 0 0.00027596391784438719 0.014415467017875872 0 0.00033450476170051392 0.014341979968727414 0 0.00041575260109956289 0.014410474916136262 0 0.00027596391784438719 0.014415467017875872 0 -7.8145852745873143e-06 0.012335052839880558 0 0.00029932158835592351 0.013132624744299484 0 -0.00032200987962127507 0.010225398604017473 0 8.9396067391591405e-06 0.010514146024020057 0 -0.00016536759348721107 0.010959461882946428 0 0.00038631874088185112 0.014260688771407636 0 0.00033450476170051392 0.014341979968727414 0 0.00041575260109956289 0.014410474916136262 0 8.9396067391591405e-06 0.010514146024020057 0 0.00044026734491548305 0.010594773241851154 0 -6.5147042018281302e-05 0.010970258338496011 0 0.00039834676175229226 0.010405077887261234 0 0.00041999602891379037 0.012571210262347452 0 8.9396067391591405e-06 0.010514146024020057 0 0.00044026734491548305 0.010594773241851154 0 0.0002803083116689322 0.010227162116662161 0 0.00090260657630660283 0.010214158178743687 0 0.00039834676175229226 0.010405077887261234 0 0.00089469781118525109 0.010175003219739531 0 0.0007627838677836319 0.010691357065225431 0 0.00036265676231737507 0.010560648475131745 0 0.0007627838677836319 0.010691357065225431 0 0.00036265676231737507 0.010560648475131745 0 0.0004025266966584133 0.010999198764831611 0 0.00079988848081550808 0.0098046309925466854 0 0.00091824018502302551 0.010222051968737565 0 0.00056598156596369899 0.010172546403995371 0 0.00091824018502302551 0.010222051968737565 0 0.00044026734491548305 0.010594773241851154 0 0.00056598156596369899 0.010172546403995371 0 0.00079988848081550808 0.0098046309925466854 0 0.00056598156596369899 0.010172546403995371 0 0.00039687890085568083 0.0099292206012343356 0 0.00044026734491548305 0.010594773241851154 0 0.00056598156596369899 0.010172546403995371 0 0.0002803083116689322 0.010227162116662161 0 0.00056598156596369899 0.010172546403995371 0 0.0002803083116689322 0.010227162116662161 0 0.00039687890085568083 0.0099292206012343356 0 8.9396067391591405e-06 0.010514146024020057 0 0.0002803083116689322 0.010227162116662161 0 -1.1338707438674304e-05 0.0099294860934417417 0 0.0002803083116689322 0.010227162116662161 0 -1.1338707438674304e-05 0.0099294860934417417 0 0.00039687890085568083 0.0099292206012343356 0 0.00039687890085568083 0.0099292206012343356 0 0.00060742863158165777 0.0094399692115079269 0 6.688092540457305e-05 0.0094795757077795525 0 -1.1338707438674304e-05 0.0099294860934417417 0 0.00039687890085568083 0.0099292206012343356 0 6.688092540457305e-05 0.0094795757077795525 0 0.00079988848081550808 0.0098046309925466854 0 0.00039687890085568083 0.0099292206012343356 0 0.00060742863158165777 0.0094399692115079269 0 0.0006475896460624562 0.0082892352656411244 0 0.00021829240943054118 0.0082946398643280756 0 0.0006078827197255898 0.0078531016587986072 0 0.00086147735277662197 0.0081095508578868398 0 0.0006475896460624562 0.0082892352656411244 0 0.0006078827197255898 0.0078531016587986072 0 0.00069820316006095765 0.0088993224067315125 0 5.7097950716378804e-05 0.0087698526921917291 0 5.7097950716378804e-05 0.0087698526921917291 0 0.00013431704955674779 0.010889305131613914 0 0.00021829240943054118 0.0082946398643280756 0 -0.00016393303395729857 0.0082991898395164878 0 0.00011343851200150485 0.0079303581229818558 0 -0.00032200987962127507 0.010225398604017473 0 -1.1338707438674304e-05 0.0099294860934417417 0 -0.00047062822498211877 0.0095178180152815754 0 -7.8145852745873143e-06 0.012335052839880558 0 0.00013431704955674779 0.010889305131613914 0 -1.1338707438674304e-05 0.0099294860934417417 0 6.688092540457305e-05 0.0094795757077795525 0 -0.00047062822498211877 0.0095178180152815754 0 0.00041979382592928949 0.011379048133827925 0 0.00039614978614719958 0.011152882379329824 0 0.00012685287043372922 0.011376348364383771 0 0.00013431704955674779 0.010889305131613914 0 7.3533909011462852e-05 0.0092505124851839302 0 0.00013431704955674779 0.010889305131613914 0 0.0002173550594318235 0.012977155207752783 0 -0.00016393303395729857 0.0082991898395164878 0 -0.00022777626249317225 0.0078000934449913139 0 0.00011343851200150485 0.0079303581229818558 0 -0.00022777626249317225 0.0078000934449913139 0 0.00011343851200150485 0.0079303581229818558 0 0.00016790638080054006 0.0076291982283294415 0 -0.00022777626249317225 0.0078000934449913139 0 0.00016790638080054006 0.0076291982283294415 0 -8.5362414884878433e-05 0.0073001965218467378 0 -0.00022777626249317225 0.0078000934449913139 0 -0.00012576939164702614 0.007568557108629719 0 -8.5362414884878433e-05 0.0073001965218467378 0 7.3533909011462852e-05 0.0092505124851839302 0 0.00014918434410778069 0.0092038279857336175 0 0.0010776254013548188 0.0075389936892856909 0 0.0006078827197255898 0.0078531016587986072 0 0.00071651984542613675 0.0071051212178035164 0 0.0006078827197255898 0.0078531016587986072 0 0.00016790638080054006 0.0076291982283294415 0 0.00071651984542613675 0.0071051212178035164 0 0.00011343851200150485 0.0079303581229818558 0 0.0006078827197255898 0.0078531016587986072 0 0.00016790638080054006 0.0076291982283294415 0 0.00021829240943054118 0.0082946398643280756 0 0.00011343851200150485 0.0079303581229818558 0 0.0006078827197255898 0.0078531016587986072 0 0.00016790638080054006 0.0076291982283294415 0 0.00071651984542613675 0.0071051212178035164 0 -8.5362414884878433e-05 0.0073001965218467378 0 0.00071651984542613675 0.0071051212178035164 0 1.2711677802515548e-06 0.0061401847610900017 0 -8.5362414884878433e-05 0.0073001965218467378 0 0.00038403757735275306 0.0060846350529638153 0 -3.2190534865422121e-07 0.0061365586251321252 0 -5.795261148022464e-05 0.0044507255899810909 0 5.3549438639802763e-07 0.0061350956354299813 0 -5.2587855636405142e-07 0.0048713750048348398 0 -9.7428403891459817e-05 0.0043407271819475802 0 -5.795261148022464e-05 0.0044507255899810909 0 -5.2587855636405142e-07 0.0048713750048348398 0 -0.00012576939164702614 0.007568557108629719 0 -8.5362414884878433e-05 0.0073001965218467378 0 -1.2789235156374332e-06 0.007543045419585611 0 1.2711677802515548e-06 0.0061401847610900017 0 -8.5362414884878433e-05 0.0073001965218467378 0 -1.2789235156374332e-06 0.007543045419585611 0 -0.00012576939164702614 0.007568557108629719 0 -1.2789235156374332e-06 0.007543045419585611 0 1.2664350715678468e-06 0.0089454353151027736 0 0.00014918434410778069 0.0092038279857336175 0 4.8952097228306681e-08 0.0089484930574284405 0 0.00046100632041828091 0.01073996546284871 0 1.4945818298790983e-06 0.0089523359778930691 0 -0.00016530332774703459 0.010723852952476229 0 0.00046100632041828091 0.01073996546284871 0 -0.00016530332774703459 0.010723852952476229 0 4.8556062193667033e-05 0.011122298127434501 0 -0.00016530332774703459 0.010723852952476229 0 -0.00013724682072197028 0.01115250359170775 0 4.8556062193667033e-05 0.011122298127434501 0 1.4945818298790983e-06 0.0089523359778930691 0 -0.00016530332774703459 0.010723852952476229 0 -9.3898990599859599e-07 0.01074173686395081 0 -0.00016530332774703459 0.010723852952476229 0 -9.3898990599859599e-07 0.01074173686395081 0 -0.00016644532737203688 0.011284074846436879 0 -9.3898990599859599e-07 0.01074173686395081 0 -0.00016644532737203688 0.011284074846436879 0 -3.8146064354767158e-07 0.012537650416524037 0 1.0570207228075335e-06 0.012650609141877297 0 -4.3374539288111436e-05 0.011574002343365032 0 0.00030167700384241871 0.011388272966902665 0 1.0570207228075335e-06 0.012650609141877297 0 -3.8146064354767158e-07 0.012537650416524037 0 -4.3374539288111436e-05 0.011574002343365032 0 -0.00016644532737203688 0.011284074846436879 0 -3.8146064354767158e-07 0.012537650416524037 0 -4.3374539288111436e-05 0.011574002343365032 0 -4.3374539288111436e-05 0.011574002343365032 0 -0.00013724682072197028 0.01115250359170775 0 7.7074412952777551e-05 0.011250627680751881 0 -4.3374539288111436e-05 0.011574002343365032 0 7.7074412952777551e-05 0.011250627680751881 0 0.00030167700384241871 0.011388272966902665 0 -0.00016644532737203688 0.011284074846436879 0 -4.3374539288111436e-05 0.011574002343365032 0 -0.00013724682072197028 0.01115250359170775 0 -0.00016530332774703459 0.010723852952476229 0 -0.00016644532737203688 0.011284074846436879 0 -0.00013724682072197028 0.01115250359170775 0 -0.00013724682072197028 0.01115250359170775 0 -3.860686814518818e-05 0.011224119066699047 0 4.8556062193667033e-05 0.011122298127434501 0 -0.00013724682072197028 0.01115250359170775 0 -3.860686814518818e-05 0.011224119066699047 0 4.9713004412319024e-05 0.011235754125795491 0 -0.00013724682072197028 0.01115250359170775 0 7.7074412952777551e-05 0.011250627680751881 0 4.9713004412319024e-05 0.011235754125795491 0 -3.860686814518818e-05 0.011224119066699047 0 4.9713004412319024e-05 0.011235754125795491 0 4.2599458968290019e-05 0.011272086256038216 0 0.00039614978614719958 0.011152882379329824 0 4.8556062193667033e-05 0.011122298127434501 0 0.00012685287043372922 0.011376348364383771 0 -3.860686814518818e-05 0.011224119066699047 0 4.8556062193667033e-05 0.011122298127434501 0 0.00012685287043372922 0.011376348364383771 0 0.00039614978614719958 0.011152882379329824 0 0.00046100632041828091 0.01073996546284871 0 4.8556062193667033e-05 0.011122298127434501 0 -0.00035520999734125835 0.01734341765109363 0 -0.00065162309545768965 0.015881929845734177 0 -0.00061478723208191412 0.01677295827381995 0 -0.00035520999734125835 0.01734341765109363 0 -0.00061478723208191412 0.01677295827381995 0 -0.00032839358645423902 0.017431101196899224 0 -0.00037067750113676953 0.017083861400382903 0 -0.00031236665599110774 0.016052193083383764 0 -0.00035520999734125835 0.01734341765109363 0 -1.2080406176070321e-06 0.016439331558550534 0 4.0987777393867005e-05 0.016245482002017642 0 -1.2080406176070321e-06 0.016439331558550534 0 4.0987777393867005e-05 0.016245482002017642 0 9.358270180608506e-07 0.014332320886737807 0 -0.00061478723208191412 0.01677295827381995 0 -0.00033904367527473161 0.016019421378738019 0 -0.00031216051766422889 0.016758495168971963 0 -0.00065162309545768965 0.015881929845734177 0 -0.00061478723208191412 0.01677295827381995 0 -0.00033904367527473161 0.016019421378738019 0 -0.00033904367527473161 0.016019421378738019 0 0.00030617917006762026 0.015438111787564015 0 -0.00031216051766422889 0.016758495168971963 0 0.00019684497904005652 0.013427868803093315 0 -0.00010003038132232183 0.014015379960227085 0 -0.00065162309545768965 0.015881929845734177 0 -0.00033904367527473161 0.016019421378738019 0 -1.778201127813567e-06 0.014330188779957167 0 -0.00031236665599110774 0.016052193083383764 0 -8.5832642612657644e-08 0.014332075954092029 0 -0.00033904367527473161 0.016019421378738019 0 -1.778201127813567e-06 0.014330188779957167 0 0.00030617917006762026 0.015438111787564015 0 2.294371821229242e-06 0.012656368592555567 0 -1.778201127813567e-06 0.014330188779957167 0 0.00030617917006762026 0.015438111787564015 0 1.5261460387307055e-05 0.01286902449662279 0 0.00019684497904005652 0.013427868803093315 0 7.7074412952777551e-05 0.011250627680751881 0 4.9713004412319024e-05 0.011235754125795491 0 0.00013108816393018856 0.011271538211919362 0 7.7074412952777551e-05 0.011250627680751881 0 0.00030167700384241871 0.011388272966902665 0 0.00013108816393018856 0.011271538211919362 0 7.3596280809494504e-05 0.011275506148549235 0 0.00013108816393018856 0.011271538211919362 0 2.4048960537104266e-05 0.011298495164562361 0 4.9713004412319024e-05 0.011235754125795491 0 7.3596280809494504e-05 0.011275506148549235 0 0.00013108816393018856 0.011271538211919362 0 -0.00061478723208191412 0.01677295827381995 0 -0.00031216051766422889 0.016758495168971963 0 -0.00054369578512498886 0.016876984189000046 0 -0.00010003038132232183 0.014015379960227085 0 -0.00021431264224240718 0.013976596235609479 0 -0.00031216051766422889 0.016758495168971963 0 -0.00054369578512498886 0.016876984189000046 0 -0.0005722156828062312 0.016826451886526868 0 -0.00054369578512498886 0.016876984189000046 0 -0.00041787849467331002 0.016810348190266944 0 -0.00043452909323525232 0.01702318296469291 0 -0.00054369578512498886 0.016876984189000046 0 -0.0005722156828062312 0.016826451886526868 0 -0.00041787849467331002 0.016810348190266944 0 -0.00061478723208191412 0.01677295827381995 0 -0.00054369578512498886 0.016876984189000046 0 -0.00043452909323525232 0.01702318296469291 0 -0.00061478723208191412 0.01677295827381995 0 -0.00043452909323525232 0.01702318296469291 0 -0.00032839358645423902 0.017431101196899224 0 -0.0006836703136540121 0.014194585727157044 0 -0.00058057629029541463 0.014281526219204197 0 -0.00083099638827349362 0.01438779081167804 0 -0.00021431264224240718 0.013976596235609479 0 -0.00042832230598494942 0.014279552084343795 0 -0.0005722156828062312 0.016826451886526868 0 -0.00041787849467331002 0.016810348190266944 0 -0.00044086685434843308 0.016402093196662408 0 7.3596280809494504e-05 0.011275506148549235 0 2.4048960537104266e-05 0.011298495164562361 0 5.1032128747700721e-05 0.011336977397561504 0 2.4048960537104266e-05 0.011298495164562361 0 -5.1556161131284821e-05 0.01139705340432153 0 5.1032128747700721e-05 0.011336977397561504 0 -0.00058057629029541463 0.014281526219204197 0 -0.00039266804584936357 0.014177230451595704 0 -0.00045446576202375273 0.014287534405975799 0 -0.0006836703136540121 0.014194585727157044 0 -0.00058057629029541463 0.014281526219204197 0 -0.00039266804584936357 0.014177230451595704 0 -0.00042832230598494942 0.014279552084343795 0 -0.00015677660941114971 0.012571921943480287 0 -0.00058057629029541463 0.014281526219204197 0 -0.00045446576202375273 0.014287534405975799 0 -0.00050437087654182314 0.014389673698248163 0 -0.00039266804584936357 0.014177230451595704 0 -0.00045446576202375273 0.014287534405975799 0 -0.00035367577632349867 0.014302996422018047 0 -0.00039266804584936357 0.014177230451595704 0 -0.00013213844983304496 0.014175721483513187 0 -0.00023548567026677008 0.014284584609893736 0 -0.00039266804584936357 0.014177230451595704 0 -0.00035367577632349867 0.014302996422018047 0 -0.00023548567026677008 0.014284584609893736 0 -0.00015677660941114971 0.012571921943480287 0 -5.0787299850274927e-05 0.01275363227975764 0 7.3596280809494504e-05 0.011275506148549235 0 5.1032128747700721e-05 0.011336977397561504 0 4.2599458968290019e-05 0.011272086256038216 0 4.9713004412319024e-05 0.011235754125795491 0 7.3596280809494504e-05 0.011275506148549235 0 4.2599458968290019e-05 0.011272086256038216 0 -0.00013213844983304496 0.014175721483513187 0 -0.00023548567026677008 0.014284584609893736 0 -0.00011376343887618788 0.014360567052341455 0 -0.00023548567026677008 0.014284584609893736 0 -0.00011376343887618788 0.014360567052341455 0 -0.00019828942590819899 0.014400914104990158 0 -0.00011376343887618788 0.014360567052341455 0 -0.00019828942590819899 0.014400914104990158 0 -0.00015675077519450225 0.014469179555343988 0 -0.00019828942590819899 0.014400914104990158 0 -0.00024055216722267974 0.014497164882188445 0 -0.00015675077519450225 0.014469179555343988 0 -0.00019828942590819899 0.014400914104990158 0 -0.00024055216722267974 0.014497164882188445 0 -0.00032861101302336242 0.014533999081638794 0 -0.00011376343887618788 0.014360567052341455 0 -0.00015675077519450225 0.014469179555343988 0 -9.4506932631774983e-05 0.014447143185527938 0 -0.00014830480548389452 0.014477615236160311 0 4.2437291236966449e-05 0.014744494829609397 0 -0.00015675077519450225 0.014469179555343988 0 -0.00011695611044566498 0.014867335668126 0 -0.00025516397152722194 0.014682805676735427 0 -0.00011695611044566498 0.014867335668126 0 -0.00025516397152722194 0.014682805676735427 0 -0.00038455823124709814 0.015043268862929402 0 -0.00015675077519450225 0.014469179555343988 0 -0.00011695611044566498 0.014867335668126 0 0.00015978559494483723 0.015004810867552855 0 -0.00015675077519450225 0.014469179555343988 0 -9.4506932631774983e-05 0.014447143185527938 0 -5.5867018521275997e-05 0.014495793024812234 0 -0.00024055216722267974 0.014497164882188445 0 -0.00015675077519450225 0.014469179555343988 0 -0.00025516397152722194 0.014682805676735427 0 -0.00025516397152722194 0.014682805676735427 0 -0.00048195660719830955 0.014630043582518348 0 -0.00032861101302336242 0.014533999081638794 0 -0.00024055216722267974 0.014497164882188445 0 -0.00025516397152722194 0.014682805676735427 0 -0.00032861101302336242 0.014533999081638794 0 -0.00025516397152722194 0.014682805676735427 0 -0.00048195660719830955 0.014630043582518348 0 -0.00038455823124709814 0.015043268862929402 0 -0.00048195660719830955 0.014630043582518348 0 -0.00057856013122189174 0.014835344642204956 0 -0.00038455823124709814 0.015043268862929402 0 -0.00048195660719830955 0.014630043582518348 0 -0.00049296607862583258 0.014539772591772242 0 -0.00032861101302336242 0.014533999081638794 0 -0.00019828942590819899 0.014400914104990158 0 -0.00049296607862583258 0.014539772591772242 0 -0.00073583544586611443 0.014465348175154326 0 -0.00035367577632349867 0.014302996422018047 0 -0.00019828942590819899 0.014400914104990158 0 -0.00050437087654182314 0.014389673698248163 0 -0.00019828942590819899 0.014400914104990158 0 -0.00049296607862583258 0.014539772591772242 0 -0.00032861101302336242 0.014533999081638794 0 -0.00019055887517520007 0.01446368630657534 0 -0.00066023311762796616 0.014233828336599688 0 -0.00035367577632349867 0.014302996422018047 0 -0.00023548567026677008 0.014284584609893736 0 -0.00019828942590819899 0.014400914104990158 0 -0.00045446576202375273 0.014287534405975799 0 -0.00035367577632349867 0.014302996422018047 0 -0.00050437087654182314 0.014389673698248163 0 -0.00073583544586611443 0.014465348175154326 0 -0.00071084293079639769 0.014655917384101592 0 -0.00087526000509082153 0.01457149725946089 0 -0.00049296607862583258 0.014539772591772242 0 -0.00073583544586611443 0.014465348175154326 0 -0.00071084293079639769 0.014655917384101592 0 -0.00048195660719830955 0.014630043582518348 0 -0.00049296607862583258 0.014539772591772242 0 -0.00071084293079639769 0.014655917384101592 0 -0.00048195660719830955 0.014630043582518348 0 -0.00057856013122189174 0.014835344642204956 0 -0.00071084293079639769 0.014655917384101592 0 -0.00057856013122189174 0.014835344642204956 0 -0.00075060163482626875 0.014847816464993172 0 -0.00060343313131822366 0.015025682530316196 0 -0.00057856013122189174 0.014835344642204956 0 -0.00075060163482626875 0.014847816464993172 0 -0.00071084293079639769 0.014655917384101592 0 -0.00075060163482626875 0.014847816464993172 0 -0.00071084293079639769 0.014655917384101592 0 -0.00089210562351643144 0.014749129065628062 0 -0.00085505931805067827 0.014419923893517542 0 -0.00069392245187493702 0.015980862358708586 0 -0.00089210562351643144 0.014749129065628062 0 -0.00087526000509082153 0.01457149725946089 0 -0.0011634341974433575 0.014790885469488143 0 -0.00071084293079639769 0.014655917384101592 0 -0.00089210562351643144 0.014749129065628062 0 -0.00087526000509082153 0.01457149725946089 0 -0.00087526000509082153 0.01457149725946089 0 -0.0011186637414201447 0.014799504627309485 0 -0.0011009640443942329 0.014616336160379955 0 -0.00075060163482626875 0.014847816464993172 0 -0.00089210562351643144 0.014749129065628062 0 -0.00096402774449498617 0.014884546791348695 0 -0.00089210562351643144 0.014749129065628062 0 -0.00096402774449498617 0.014884546791348695 0 -0.0011634341974433575 0.014790885469488143 0 -0.00066023311762796616 0.014233828336599688 0 -0.00085452124792446569 0.015714732983748283 0 -0.00087526000509082153 0.01457149725946089 0 -0.0011009640443942329 0.014616336160379955 0 -0.0012060395696842543 0.014487399309722839 0 -0.00058057629029541463 0.014281526219204197 0 -0.00050437087654182314 0.014389673698248163 0 -0.00083099638827349362 0.01438779081167804 0 -0.00073583544586611443 0.014465348175154326 0 -0.00087526000509082153 0.01457149725946089 0 -0.0012060395696842543 0.014487399309722839 0 0.00019906733250649126 0.014127268583941949 0 4.651474979154158e-05 0.014162009208854983 0 0.0001133132438312418 0.01425922071601023 0 0.00035305044398769382 0.014088458433737818 0 0.00019906733250649126 0.014127268583941949 0 0.00025862895724873926 0.014279703239932237 0 0.00019906733250649126 0.014127268583941949 0 0.0001133132438312418 0.01425922071601023 0 0.00025862895724873926 0.014279703239932237 0 -3.860686814518818e-05 0.011224119066699047 0 0.00012685287043372922 0.011376348364383771 0 -7.7099040870597791e-06 0.01130021001490847 0 0.0002173550594318235 0.012977155207752783 0 1.6708111085465381e-05 0.012701195637486331 0 -3.860686814518818e-05 0.011224119066699047 0 4.2599458968290019e-05 0.011272086256038216 0 -7.7099040870597791e-06 0.01130021001490847 0 -0.00013213844983304496 0.014175721483513187 0 4.651474979154158e-05 0.014162009208854983 0 -1.6926287024130853e-05 0.014294584591519607 0 -5.0787299850274927e-05 0.01275363227975764 0 1.6708111085465381e-05 0.012701195637486331 0 -0.00013213844983304496 0.014175721483513187 0 -0.00011376343887618788 0.014360567052341455 0 -1.6926287024130853e-05 0.014294584591519607 0 4.651474979154158e-05 0.014162009208854983 0 -1.6926287024130853e-05 0.014294584591519607 0 0.0001133132438312418 0.01425922071601023 0 2.8141579899405917e-05 0.014371176328003355 0 -1.6926287024130853e-05 0.014294584591519607 0 0.0001133132438312418 0.01425922071601023 0 2.8141579899405917e-05 0.014371176328003355 0 0.00012860099424638472 0.014431274794453336 0 0.0001133132438312418 0.01425922071601023 0 -0.00011376343887618788 0.014360567052341455 0 -1.6926287024130853e-05 0.014294584591519607 0 -5.1247486393108189e-05 0.01441553364496251 0 2.8141579899405917e-05 0.014371176328003355 0 -1.6926287024130853e-05 0.014294584591519607 0 -5.1247486393108189e-05 0.01441553364496251 0 -0.00011376343887618788 0.014360567052341455 0 -9.4506932631774983e-05 0.014447143185527938 0 -5.1247486393108189e-05 0.01441553364496251 0 -9.4506932631774983e-05 0.014447143185527938 0 -5.1247486393108189e-05 0.01441553364496251 0 -5.5867018521275997e-05 0.014495793024812234 0 -5.1247486393108189e-05 0.01441553364496251 0 -3.0248961758631633e-05 0.014448824397115465 0 -5.5867018521275997e-05 0.014495793024812234 0 2.8141579899405917e-05 0.014371176328003355 0 -5.1247486393108189e-05 0.01441553364496251 0 -3.0248961758631633e-05 0.014448824397115465 0 -9.7314420626017805e-06 0.014446098631971455 0 0.00013394617393914458 0.01440991437788048 0 2.8141579899405917e-05 0.014371176328003355 0 -3.0248961758631633e-05 0.014448824397115465 0 0.00012860099424638472 0.014431274794453336 0 -3.0248961758631633e-05 0.014448824397115465 0 0.0001798437275089267 0.014421143760698299 0 6.1145583624315407e-06 0.014493824014967342 0 0.00012860099424638472 0.014431274794453336 0 0.0001133132438312418 0.01425922071601023 0 0.00025862895724873926 0.014279703239932237 0 0.00012860099424638472 0.014431274794453336 0 0.00025862895724873926 0.014279703239932237 0 0.00027596391784438719 0.014415467017875872 0 0.00013394617393914458 0.01440991437788048 0 0.00042773278127690114 0.014581317927220021 0 0.0001798437275089267 0.014421143760698299 0 0.00035847967352750068 0.01456767421011638 0 0.00044119643673995159 0.014439420993162644 0 0.00035847967352750068 0.01456767421011638 0 0.00022548831078576575 0.014638633363829258 0 0.00037744993912140057 0.0147136813549759 0 0.00035847967352750068 0.01456767421011638 0 0.00037744993912140057 0.0147136813549759 0 0.00051975868437031416 0.014600417345894047 0 0.00013494919673589522 0.014732369738670358 0 0.00022548831078576575 0.014638633363829258 0 0.0001753550478244616 0.014888151319057479 0 0.00022548831078576575 0.014638633363829258 0 0.00037744993912140057 0.0147136813549759 0 0.0001753550478244616 0.014888151319057479 0 0.00013494919673589522 0.014732369738670358 0 0.00022548831078576575 0.014638633363829258 0 9.7934109273196816e-05 0.01461899907817331 0 0.0001798437275089267 0.014421143760698299 0 0.00035847967352750068 0.01456767421011638 0 0.00022548831078576575 0.014638633363829258 0 0.0001798437275089267 0.014421143760698299 0 0.00022548831078576575 0.014638633363829258 0 9.7934109273196816e-05 0.01461899907817331 0 4.9611793852457989e-05 0.014544940540197063 0 -5.5867018521275997e-05 0.014495793024812234 0 2.3750250045674095e-05 0.014700721084235556 0 0.0001798437275089267 0.014421143760698299 0 4.9611793852457989e-05 0.014544940540197063 0 9.7934109273196816e-05 0.01461899907817331 0 4.9611793852457989e-05 0.014544940540197063 0 6.1145583624315407e-06 0.014493824014967342 0 -5.5867018521275997e-05 0.014495793024812234 0 0.0001798437275089267 0.014421143760698299 0 4.9611793852457989e-05 0.014544940540197063 0 6.1145583624315407e-06 0.014493824014967342 0 -3.0248961758631633e-05 0.014448824397115465 0 6.1145583624315407e-06 0.014493824014967342 0 -5.5867018521275997e-05 0.014495793024812234 0 0.00037974485370833433 0.015369232045741971 0 0.00032859095987012601 0.01547177660465239 0 2.5149738056621982e-05 0.015282280984143975 0 0.00015978559494483723 0.015004810867552855 0 0.00037974485370833433 0.015369232045741971 0 2.5149738056621982e-05 0.015282280984143975 0 0.00016034932773558428 0.015384207365737208 0 -0.00010854970395628432 0.015241383594160909 0 4.2437291236966449e-05 0.014744494829609397 0 0.00021394823507682697 0.015048106101053385 0 4.9611793852457989e-05 0.014544940540197063 0 9.7934109273196816e-05 0.01461899907817331 0 2.3750250045674095e-05 0.014700721084235556 0 0.00013494919673589522 0.014732369738670358 0 9.7934109273196816e-05 0.01461899907817331 0 2.3750250045674095e-05 0.014700721084235556 0 0.00016034932773558428 0.015384207365737208 0 0.00034009604992351895 0.015370222901690331 0 -5.0005261640824694e-05 0.015261041671902849 0 6.6961183085549012e-05 0.015281108807059855 0 0.00021641051991898069 0.015258406432275174 0 0.00037974485370833433 0.015369232045741971 0 0.00032859095987012601 0.01547177660465239 0 0.00055795107826266262 0.015639477464241242 0 -5.0005261640824694e-05 0.015261041671902849 0 -3.4510668152213326e-05 0.015307424143477074 0 -9.1593893004043842e-05 0.01530768948716555 0 -5.0005261640824694e-05 0.015261041671902849 0 -3.4510668152213326e-05 0.015307424143477074 0 6.6961183085549012e-05 0.015281108807059855 0 -3.4510668152213326e-05 0.015307424143477074 0 -9.1593893004043842e-05 0.01530768948716555 0 -0.00010671591200486918 0.015356539412723589 0 -5.0005261640824694e-05 0.015261041671902849 0 -0.00017399441525313357 0.015312221383614724 0 -0.00022619193679373239 0.015225226760885604 0 -0.00017399441525313357 0.015312221383614724 0 -0.00022619193679373239 0.015225226760885604 0 -0.0002718663708502483 0.015296884814963562 0 -5.0005261640824694e-05 0.015261041671902849 0 -9.1593893004043842e-05 0.01530768948716555 0 -0.00017399441525313357 0.015312221383614724 0 -9.1593893004043842e-05 0.01530768948716555 0 -0.00017399441525313357 0.015312221383614724 0 -0.00010671591200486918 0.015356539412723589 0 -0.00017399441525313357 0.015312221383614724 0 -0.00024232557443695107 0.015433276732218318 0 -0.00010671591200486918 0.015356539412723589 0 -0.00024232557443695107 0.015433276732218318 0 -0.00010671591200486918 0.015356539412723589 0 -0.00010058927653613065 0.015442903617320576 0 -0.00024232557443695107 0.015433276732218318 0 -0.00010058927653613065 0.015442903617320576 0 -0.00023535172051751413 0.015557279187900926 0 -3.4510668152213326e-05 0.015307424143477074 0 6.6961183085549012e-05 0.015281108807059855 0 9.9487385050871262e-06 0.015357810226601938 0 7.5800357921599612e-05 0.015321308619505099 0 6.6961183085549012e-05 0.015281108807059855 0 9.9487385050871262e-06 0.015357810226601938 0 7.5800357921599612e-05 0.015321308619505099 0 6.6961183085549012e-05 0.015281108807059855 0 0.00013664694338208228 0.015277536502924838 0 -3.4510668152213326e-05 0.015307424143477074 0 -0.00010671591200486918 0.015356539412723589 0 9.9487385050871262e-06 0.015357810226601938 0 -0.00010058927653613065 0.015442903617320576 0 9.9487385050871262e-06 0.015357810226601938 0 2.564157654057538e-05 0.015433668785199032 0 -0.00010671591200486918 0.015356539412723589 0 -0.00010058927653613065 0.015442903617320576 0 9.9487385050871262e-06 0.015357810226601938 0 7.5800357921599612e-05 0.015321308619505099 0 9.9487385050871262e-06 0.015357810226601938 0 0.0001140225996455856 0.015361797707186963 0 9.9487385050871262e-06 0.015357810226601938 0 0.0001140225996455856 0.015361797707186963 0 2.564157654057538e-05 0.015433668785199032 0 0.0001140225996455856 0.015361797707186963 0 0.00017823609899273943 0.015307300322653435 0 0.00022461648831933792 0.015349087874041423 0 0.00017823609899273943 0.015307300322653435 0 0.00013018771280135928 0.015312014168531828 0 0.00017340727491003483 0.015285527483689916 0 0.00017823609899273943 0.015307300322653435 0 0.00017340727491003483 0.015285527483689916 0 0.00020408163747035073 0.015275026855010072 0 7.5800357921599612e-05 0.015321308619505099 0 0.0001140225996455856 0.015361797707186963 0 0.00013018771280135928 0.015312014168531828 0 0.0001140225996455856 0.015361797707186963 0 0.00017823609899273943 0.015307300322653435 0 0.00013018771280135928 0.015312014168531828 0 0.00013018771280135928 0.015312014168531828 0 0.00013664694338208228 0.015277536502924838 0 0.00017340727491003483 0.015285527483689916 0 6.6961183085549012e-05 0.015281108807059855 0 0.00013664694338208228 0.015277536502924838 0 0.00021641051991898069 0.015258406432275174 0 7.5800357921599612e-05 0.015321308619505099 0 0.00013018771280135928 0.015312014168531828 0 0.00013664694338208228 0.015277536502924838 0 0.00013664694338208228 0.015277536502924838 0 0.00017340727491003483 0.015285527483689916 0 0.00021641051991898069 0.015258406432275174 0 0.00021157866841772609 0.015151491354450706 0 0.00034509065907685986 0.015195814541093863 0 0.0001753550478244616 0.014888151319057479 0 0.00021157866841772609 0.015151491354450706 0 0.00026262723332039852 0.015225387247022175 0 0.00034509065907685986 0.015195814541093863 0 0.00017340727491003483 0.015285527483689916 0 0.00021641051991898069 0.015258406432275174 0 0.00020408163747035073 0.015275026855010072 0 0.00021661973601360744 0.015250940106473342 0 0.00023394687960577216 0.015245337874015137 0 0.00026262723332039852 0.015225387247022175 0 0.00034009604992351895 0.015370222901690331 0 0.00029745225928368428 0.015327730373364011 0 0.00021641051991898069 0.015258406432275174 0 0.00023394687960577216 0.015245337874015137 0 0.00020408163747035073 0.015275026855010072 0 0.00034009604992351895 0.015370222901690331 0 0.00032751518781831153 0.015353918499623852 0 0.00026262723332039852 0.015225387247022175 0 0.00023855378835916779 0.015289625319746926 0 0.00031644172302903745 0.01529672296200347 0 0.00023394687960577216 0.015245337874015137 0 0.00023855378835916779 0.015289625319746926 0 0.00020408163747035073 0.015275026855010072 0 0.00023394687960577216 0.015245337874015137 0 0.00026262723332039852 0.015225387247022175 0 0.00023855378835916779 0.015289625319746926 0 0.00017823609899273943 0.015307300322653435 0 0.00023855378835916779 0.015289625319746926 0 0.00020408163747035073 0.015275026855010072 0 0.00017823609899273943 0.015307300322653435 0 0.00023855378835916779 0.015289625319746926 0 0.00022461648831933792 0.015349087874041423 0 0.00023855378835916779 0.015289625319746926 0 0.00031644172302903745 0.01529672296200347 0 0.00022461648831933792 0.015349087874041423 0 0.00048032427668221557 0.015119269486546842 0 0.00034509065907685986 0.015195814541093863 0 0.0001753550478244616 0.014888151319057479 0 0.00031644172302903745 0.01529672296200347 0 0.00034509065907685986 0.015195814541093863 0 0.00041425500391364424 0.015323376849784383 0 0.00026262723332039852 0.015225387247022175 0 0.00031644172302903745 0.01529672296200347 0 0.00034509065907685986 0.015195814541093863 0 0.00034509065907685986 0.015195814541093863 0 0.00041425500391364424 0.015323376849784383 0 0.00050387207209094773 0.015241432787467124 0 0.00048032427668221557 0.015119269486546842 0 0.00034509065907685986 0.015195814541093863 0 0.00050387207209094773 0.015241432787467124 0 0.00043280971925253832 0.015063177823589975 0 0.0001895020096270448 0.014885119701844274 0 0.00045536991604506354 0.014912830641669816 0 0.00037744993912140057 0.0147136813549759 0 0.0001753550478244616 0.014888151319057479 0 2.3750250045674095e-05 0.014700721084235556 0 0.00021157866841772609 0.015151491354450706 0 0.0001753550478244616 0.014888151319057479 0 0.00021394823507682697 0.015048106101053385 0 0.00034009604992351895 0.015370222901690331 0 0.00013494919673589522 0.014732369738670358 0 2.3750250045674095e-05 0.014700721084235556 0 0.0001753550478244616 0.014888151319057479 0 -7.3864407758215454e-05 0.016261076023540731 0 0.00029297839851261066 0.0158697134181645 0 0.00020287767679068072 0.017068853490665743 0 -0.00052516849106797785 0.015980825258217653 0 -0.00069794408067275552 0.015659729570942839 0 -7.3864407758215454e-05 0.016261076023540731 0 -8.0525002902202532e-05 0.016995142821838238 0 -0.00071015977364661143 0.015580427406477635 0 -0.00099919786061181863 0.015119988852498677 0 -0.00079171977288882377 0.015231774556719806 0 -0.00071015977364661143 0.015580427406477635 0 -0.0002815014583883804 0.015684028189817026 0 -0.00013314439838017273 0.015435134256839395 0 0.00029297839851261066 0.0158697134181645 0 -0.0002815014583883804 0.015684028189817026 0 -7.3864407758215454e-05 0.016261076023540731 0 0.00029297839851261066 0.0158697134181645 0 -0.0002815014583883804 0.015684028189817026 0 -7.3864407758215454e-05 0.016261076023540731 0 -0.00071015977364661143 0.015580427406477635 0 -0.0002815014583883804 0.015684028189817026 0 -0.00071015977364661143 0.015580427406477635 0 -0.00060135622208203846 0.015404183670371481 0 -0.00096402774449498617 0.014884546791348695 0 -0.00099919786061181863 0.015119988852498677 0 -0.0011634341974433575 0.014790885469488143 0 -0.00052516849106797785 0.015980825258217653 0 -0.00069392245187493702 0.015980862358708586 0 -7.3864407758215454e-05 0.016261076023540731 0 -8.0525002902202532e-05 0.016995142821838238 0 0.00020287767679068072 0.017068853490665743 0 -0.00075060163482626875 0.014847816464993172 0 -0.00096402774449498617 0.014884546791348695 0 -0.00078699966175849764 0.015039582707516678 0 -0.00096402774449498617 0.014884546791348695 0 -0.00099919786061181863 0.015119988852498677 0 -0.00078699966175849764 0.015039582707516678 0 -0.00099919786061181863 0.015119988852498677 0 -0.00079171977288882377 0.015231774556719806 0 -0.00078699966175849764 0.015039582707516678 0 -0.0006492624622398606 0.015198653738103775 0 -0.00078699966175849764 0.015039582707516678 0 -0.00060343313131822366 0.015025682530316196 0 -0.00079171977288882377 0.015231774556719806 0 -0.0006492624622398606 0.015198653738103775 0 -0.00078699966175849764 0.015039582707516678 0 -0.00075060163482626875 0.014847816464993172 0 -0.00078699966175849764 0.015039582707516678 0 -0.00060343313131822366 0.015025682530316196 0 -0.0006492624622398606 0.015198653738103775 0 -0.00060343313131822366 0.015025682530316196 0 -0.00050666518431361223 0.015183323942602718 0 -0.0006492624622398606 0.015198653738103775 0 -0.00067038571515920368 0.015341803834023168 0 -0.00056855132380190774 0.015358546543409523 0 -0.0006492624622398606 0.015198653738103775 0 -0.00056855132380190774 0.015358546543409523 0 -0.00050666518431361223 0.015183323942602718 0 -0.00079171977288882377 0.015231774556719806 0 -0.00067038571515920368 0.015341803834023168 0 -0.00071015977364661143 0.015580427406477635 0 -0.00079171977288882377 0.015231774556719806 0 -0.0006492624622398606 0.015198653738103775 0 -0.00067038571515920368 0.015341803834023168 0 -0.00067038571515920368 0.015341803834023168 0 -0.00071015977364661143 0.015580427406477635 0 -0.00056855132380190774 0.015358546543409523 0 -0.00071015977364661143 0.015580427406477635 0 -0.00056855132380190774 0.015358546543409523 0 -0.00063450728726276552 0.015458425093434034 0 -0.00056855132380190774 0.015358546543409523 0 -0.0003810991345638545 0.015278530665321846 0 -0.00053667973514017896 0.015417450206198285 0 -0.00056855132380190774 0.015358546543409523 0 -0.0003810991345638545 0.015278530665321846 0 -0.00050666518431361223 0.015183323942602718 0 -0.00060343313131822366 0.015025682530316196 0 -0.00050666518431361223 0.015183323942602718 0 -0.00038455823124709814 0.015043268862929402 0 -0.0003810991345638545 0.015278530665321846 0 -0.00050666518431361223 0.015183323942602718 0 -0.00038455823124709814 0.015043268862929402 0 -0.00057856013122189174 0.014835344642204956 0 -0.00060343313131822366 0.015025682530316196 0 -0.00038455823124709814 0.015043268862929402 0 -0.00037133074194297267 0.015054933998977582 0 -0.00010854970395628432 0.015241383594160909 0 -0.00011695611044566498 0.014867335668126 0 0.00015978559494483723 0.015004810867552855 0 2.5149738056621982e-05 0.015282280984143975 0 -0.00011695611044566498 0.014867335668126 0 -0.00038455823124709814 0.015043268862929402 0 2.5149738056621982e-05 0.015282280984143975 0 -0.0003810991345638545 0.015278530665321846 0 -0.00022619193679373239 0.015225226760885604 0 -0.0002718663708502483 0.015296884814963562 0 -0.0003810991345638545 0.015278530665321846 0 -0.00038455823124709814 0.015043268862929402 0 -0.00022619193679373239 0.015225226760885604 0 -0.00017399441525313357 0.015312221383614724 0 -0.0002718663708502483 0.015296884814963562 0 -0.00033873670715672827 0.015371917899074442 0 -0.00017399441525313357 0.015312221383614724 0 -0.00024232557443695107 0.015433276732218318 0 -0.00033873670715672827 0.015371917899074442 0 -0.0003810991345638545 0.015278530665321846 0 -0.0002718663708502483 0.015296884814963562 0 -0.00033873670715672827 0.015371917899074442 0 -0.00024232557443695107 0.015433276732218318 0 -0.00037108666877510226 0.01554228857044682 0 -0.00023535172051751413 0.015557279187900926 0 -0.00024232557443695107 0.015433276732218318 0 -0.00038313449918088308 0.01546277606956901 0 -0.00037108666877510226 0.01554228857044682 0 -0.00024232557443695107 0.015433276732218318 0 -0.00033873670715672827 0.015371917899074442 0 -0.00038313449918088308 0.01546277606956901 0 -0.00038313449918088308 0.01546277606956901 0 -0.00046665446103252097 0.0154798758972146 0 -0.00044525309115264468 0.015417735543557394 0 -0.00038313449918088308 0.01546277606956901 0 -0.00046271263978106661 0.015533057213503945 0 -0.00046665446103252097 0.0154798758972146 0 -0.00038313449918088308 0.01546277606956901 0 -0.00046271263978106661 0.015533057213503945 0 -0.00037108666877510226 0.01554228857044682 0 -0.00046271263978106661 0.015533057213503945 0 -0.00053593631052173483 0.015517909051740443 0 -0.00052712091911664202 0.015572973737133471 0 -0.00046271263978106661 0.015533057213503945 0 -0.00046665446103252097 0.0154798758972146 0 -0.00053593631052173483 0.015517909051740443 0 -0.00046665446103252097 0.0154798758972146 0 -0.00053520068998728855 0.015465191531747791 0 -0.00053593631052173483 0.015517909051740443 0 -0.0003810991345638545 0.015278530665321846 0 -0.00033873670715672827 0.015371917899074442 0 -0.00044525309115264468 0.015417735543557394 0 -0.00046665446103252097 0.0154798758972146 0 -0.00044525309115264468 0.015417735543557394 0 -0.00053520068998728855 0.015465191531747791 0 -0.00044525309115264468 0.015417735543557394 0 -0.00053667973514017896 0.015417450206198285 0 -0.00053520068998728855 0.015465191531747791 0 -0.0003810991345638545 0.015278530665321846 0 -0.00044525309115264468 0.015417735543557394 0 -0.00053667973514017896 0.015417450206198285 0 -0.00033873670715672827 0.015371917899074442 0 -0.00038313449918088308 0.01546277606956901 0 -0.00044525309115264468 0.015417735543557394 0 -0.00053667973514017896 0.015417450206198285 0 -0.00063450728726276552 0.015458425093434034 0 -0.00059628043309357969 0.015449210901886962 0 -0.00056855132380190774 0.015358546543409523 0 -0.00053667973514017896 0.015417450206198285 0 -0.00063450728726276552 0.015458425093434034 0 -0.00063450728726276552 0.015458425093434034 0 -0.00059628043309357969 0.015449210901886962 0 -0.00060135622208203846 0.015404183670371481 0 -0.00071015977364661143 0.015580427406477635 0 -0.00063450728726276552 0.015458425093434034 0 -0.00060135622208203846 0.015404183670371481 0 -0.00059628043309357969 0.015449210901886962 0 -0.00058670331123032737 0.015493993280204319 0 -0.00061352948990335565 0.01547232634077326 0 -0.00059628043309357969 0.015449210901886962 0 -0.00061352948990335565 0.01547232634077326 0 -0.00060135622208203846 0.015404183670371481 0 -0.00059628043309357969 0.015449210901886962 0 -0.00053520068998728855 0.015465191531747791 0 -0.00058670331123032737 0.015493993280204319 0 -0.00053667973514017896 0.015417450206198285 0 -0.00059628043309357969 0.015449210901886962 0 -0.00053520068998728855 0.015465191531747791 0 -0.00053520068998728855 0.015465191531747791 0 -0.00053593631052173483 0.015517909051740443 0 -0.00058670331123032737 0.015493993280204319 0 -0.00053593631052173483 0.015517909051740443 0 -0.00058685753430645768 0.015538354298162308 0 -0.00052712091911664202 0.015572973737133471 0 -0.00053593631052173483 0.015517909051740443 0 -0.00058685753430645768 0.015538354298162308 0 -0.00058670331123032737 0.015493993280204319 0 -0.00058685753430645768 0.015538354298162308 0 -0.00062586763624931387 0.015532504338645416 0 -0.00061536391919047456 0.015599390193980663 0 -0.00058685753430645768 0.015538354298162308 0 -0.00060974884861981148 0.015506324260996228 0 -0.00062586763624931387 0.015532504338645416 0 -0.00058685753430645768 0.015538354298162308 0 -0.00060974884861981148 0.015506324260996228 0 -0.00058670331123032737 0.015493993280204319 0 -0.00060974884861981148 0.015506324260996228 0 -0.00058670331123032737 0.015493993280204319 0 -0.00061352948990335565 0.01547232634077326 0 -0.00063562293996087646 0.015497306228399841 0 -0.00062586763624931387 0.015532504338645416 0 -0.00067434702875302096 0.015498450137605951 0 -0.00015519409878318732 0.0165014974820967 0 5.270151832712329e-06 0.016547577028089622 0 0.00013204576087961004 0.016641916798321638 0 0.00023532261170208186 0.01687970614830394 0 0.00031603630524327364 0.016917448296639118 0 -0.00015519409878318732 0.0165014974820967 0 0.00023225357782927531 0.017141693343231162 0 -0.00060974884861981148 0.015506324260996228 0 -0.00063562293996087646 0.015497306228399841 0 -0.00061352948990335565 0.01547232634077326 0 -0.00062586763624931387 0.015532504338645416 0 -0.00067434702875302096 0.015498450137605951 0 -0.00061536391919047456 0.015599390193980663 0 -0.00063562293996087646 0.015497306228399841 0 -0.0006418601673227099 0.015467808035727715 0 -0.00061352948990335565 0.01547232634077326 0 -0.00060974884861981148 0.015506324260996228 0 -0.00063562293996087646 0.015497306228399841 0 -0.00062586763624931387 0.015532504338645416 0 -0.00063562293996087646 0.015497306228399841 0 -0.00067434702875302096 0.015498450137605951 0 -0.0006418601673227099 0.015467808035727715 0 -0.00015519409878318732 0.0165014974820967 0 0.00015290397632806085 0.01753009798560835 0 -0.00015519409878318732 0.0165014974820967 0 2.4402056796911163e-05 0.016704356136854788 0 -0.00022856272014861777 0.01673142997187688 0 -0.00013794340718783536 0.017234593061883567 0 2.5453768437275497e-05 0.017121727686539252 0 0.00040704078702295923 0.018179077897208296 0 0.00031769828283278816 0.01771970744347191 0 0.00034818405430669355 0.018221715099136164 0 2.4402056796911163e-05 0.016704356136854788 0 0.00027151951910252953 0.016772890838744423 0 7.943614005455464e-05 0.014879900310003823 0 -0.00013314439838017273 0.015435134256839395 0 0.00029297839851261066 0.0158697134181645 0 2.4402056796911163e-05 0.016704356136854788 0 0.00015290397632806085 0.01753009798560835 0 -0.00067434702875302096 0.015498450137605951 0 -0.00068270474028150061 0.015460443587336208 0 -0.0006418601673227099 0.015467808035727715 0 -0.0006418601673227099 0.015467808035727715 0 -0.00061352948990335565 0.01547232634077326 0 -0.00060135622208203846 0.015404183670371481 0 2.4402056796911163e-05 0.016704356136854788 0 -0.00031902170255497303 0.015411587735348896 0 -0.00068270474028150061 0.015460443587336208 0 -0.0006418601673227099 0.015467808035727715 0 -0.00060135622208203846 0.015404183670371481 0 -0.0002815014583883804 0.015684028189817026 0 -0.00060135622208203846 0.015404183670371481 0 -0.00013314439838017273 0.015435134256839395 0 7.943614005455464e-05 0.014879900310003823 0 -0.00060135622208203846 0.015404183670371481 0 -0.00013314439838017273 0.015435134256839395 0 0.00026705372784262477 0.017274741022137264 0 0.00027385232962790358 0.017045772348974392 0 0.00033646977459964023 0.017114844690259066 0 0.00026705372784262477 0.017274741022137264 0 0.00019784285564657195 0.016969612222642549 0 0.00027385232962790358 0.017045772348974392 0 0.00024895493609810524 0.017231812809412647 0 0.00023225357782927531 0.017141693343231162 0 0.00026705372784262477 0.017274741022137264 0 0.00019601885845301677 0.017216503214282319 0 0.00019834726847538966 0.017159897508836328 0 0.00026705372784262477 0.017274741022137264 0 0.00019601885845301677 0.017216503214282319 0 0.00017682266817025196 0.017246126171356263 0 0.00026705372784262477 0.017274741022137264 0 0.00017682266817025196 0.017246126171356263 0 0.00015978336621669671 0.017328753829030701 0 0.00026705372784262477 0.017274741022137264 0 0.00033646977459964023 0.017114844690259066 0 0.00036922961217929629 0.017231302801868131 0 0.00019601885845301677 0.017216503214282319 0 0.00017682266817025196 0.017246126171356263 0 0.0001455262124722398 0.017184609322029757 0 0.00019834726847538966 0.017159897508836328 0 0.00015208780408677432 0.017135649820663068 0 0.0001455262124722398 0.017184609322029757 0 0.00013204576087961004 0.016641916798321638 0 0.00019784285564657195 0.016969612222642549 0 0.00023532261170208186 0.01687970614830394 0 0.00017042517708207435 0.017013920184621383 0 0.00019834726847538966 0.017159897508836328 0 0.00015208780408677432 0.017135649820663068 0 0.00019601885845301677 0.017216503214282319 0 0.00019834726847538966 0.017159897508836328 0 0.0001455262124722398 0.017184609322029757 0 0.00019784285564657195 0.016969612222642549 0 0.00023532261170208186 0.01687970614830394 0 0.00025391864698669865 0.016955425205852834 0 0.0002205650905244689 0.016711008519886279 0 5.270151832712329e-06 0.016547577028089622 0 0.00023532261170208186 0.01687970614830394 0 0.00031272086694662273 0.016931524145459165 0 0.00025391864698669865 0.016955425205852834 0 0.00031272086694662273 0.016931524145459165 0 0.00025391864698669865 0.016955425205852834 0 0.00027385232962790358 0.017045772348974392 0 0.00031272086694662273 0.016931524145459165 0 0.00027385232962790358 0.017045772348974392 0 0.00033646977459964023 0.017114844690259066 0 0.00019784285564657195 0.016969612222642549 0 0.00025391864698669865 0.016955425205852834 0 0.00027385232962790358 0.017045772348974392 0 5.270151832712329e-06 0.016547577028089622 0 -2.5877463084664541e-05 0.016404550054984913 0 -0.00061536391919047456 0.015599390193980663 0 -0.00052712091911664202 0.015572973737133471 0 -0.00046789196327739623 0.015684250975878715 0 -0.00058685753430645768 0.015538354298162308 0 -0.00061536391919047456 0.015599390193980663 0 -0.00052712091911664202 0.015572973737133471 0 0.00031272086694662273 0.016931524145459165 0 0.00033646977459964023 0.017114844690259066 0 0.0004753932271673772 0.017190837808949207 0 5.270151832712329e-06 0.016547577028089622 0 0.00062082628727649675 0.017396758736769519 0 0.0004433115789230312 0.017154314141754324 0 0.0004753932271673772 0.017190837808949207 0 0.00046987555133294032 0.017183320404684874 0 0.00033646977459964023 0.017114844690259066 0 0.00036922961217929629 0.017231302801868131 0 0.0004753932271673772 0.017190837808949207 0 0.0004753932271673772 0.017190837808949207 0 0.00046987555133294032 0.017183320404684874 0 0.00044433046999316027 0.017099182471643017 0 -0.00052712091911664202 0.015572973737133471 0 -0.00046789196327739623 0.015684250975878715 0 -0.00045153807033871529 0.015597910850537767 0 -0.00046271263978106661 0.015533057213503945 0 -0.00052712091911664202 0.015572973737133471 0 -0.00045153807033871529 0.015597910850537767 0 -0.00046271263978106661 0.015533057213503945 0 -0.00045153807033871529 0.015597910850537767 0 -0.00037108666877510226 0.01554228857044682 0 -0.00046789196327739623 0.015684250975878715 0 -0.00045153807033871529 0.015597910850537767 0 -0.00037454454918985433 0.015642979688364228 0 -0.00045153807033871529 0.015597910850537767 0 -0.00037454454918985433 0.015642979688364228 0 -0.00037108666877510226 0.01554228857044682 0 -0.00037454454918985433 0.015642979688364228 0 -0.00037108666877510226 0.01554228857044682 0 -0.00023535172051751413 0.015557279187900926 0 0.00046987555133294032 0.017183320404684874 0 0.00044433046999316027 0.017099182471643017 0 0.00030985112604228082 0.016981908652345768 0 -0.00046789196327739623 0.015684250975878715 0 -0.00037454454918985433 0.015642979688364228 0 -0.00030978249320546197 0.015853139685136568 0 -0.00037454454918985433 0.015642979688364228 0 -0.00023535172051751413 0.015557279187900926 0 -0.00030978249320546197 0.015853139685136568 0 -2.5877463084664541e-05 0.016404550054984913 0 3.6601589361470079e-05 0.016418142449149419 0 0.00031573500401149267 0.016907972915172962 0 0.00044433046999316027 0.017099182471643017 0 0.00030985112604228082 0.016981908652345768 0 0.00031573500401149267 0.016907972915172962 0 0.00056727243897303626 0.017229357344509536 0 0.00044433046999316027 0.017099182471643017 0 0.00031573500401149267 0.016907972915172962 0 0.00056727243897303626 0.017229357344509536 0 0.00030073229350497239 0.016707236463139395 0 0.0004753932271673772 0.017190837808949207 0 0.00044433046999316027 0.017099182471643017 0 0.0004912527324529238 0.017222903928879221 0 0.00056727243897303626 0.017229357344509536 0 0.00044433046999316027 0.017099182471643017 0 0.0004912527324529238 0.017222903928879221 0 0.0004912527324529238 0.017222903928879221 0 0.00038835220686638802 0.017326836724766002 0 0.00040474153215345511 0.017504223803980468 0 0.0004753932271673772 0.017190837808949207 0 0.0004912527324529238 0.017222903928879221 0 0.00038835220686638802 0.017326836724766002 0 0.00036922961217929629 0.017231302801868131 0 0.0004753932271673772 0.017190837808949207 0 0.00038835220686638802 0.017326836724766002 0 0.00026705372784262477 0.017274741022137264 0 0.00036922961217929629 0.017231302801868131 0 0.00038835220686638802 0.017326836724766002 0 0.00056727243897303626 0.017229357344509536 0 0.00040474153215345511 0.017504223803980468 0 0.0004767838074374795 0.017922989752500354 0 0.00056727243897303626 0.017229357344509536 0 0.0004912527324529238 0.017222903928879221 0 0.00040474153215345511 0.017504223803980468 0 0.00038835220686638802 0.017326836724766002 0 0.00040474153215345511 0.017504223803980468 0 0.00022470224077463007 0.017608631110611391 0 0.00040474153215345511 0.017504223803980468 0 0.00022470224077463007 0.017608631110611391 0 0.00022309880140354698 0.017877333434542935 0 0.00022470224077463007 0.017608631110611391 0 2.0015342138173564e-05 0.017887753407787366 0 0.00022309880140354698 0.017877333434542935 0 0.00022470224077463007 0.017608631110611391 0 0.00022040532908170933 0.017433982346569305 0 -1.547616647166705e-05 0.01767598109638931 0 0.00038835220686638802 0.017326836724766002 0 0.00022470224077463007 0.017608631110611391 0 0.00022040532908170933 0.017433982346569305 0 0.00026705372784262477 0.017274741022137264 0 0.00038835220686638802 0.017326836724766002 0 0.00022040532908170933 0.017433982346569305 0 0.00026705372784262477 0.017274741022137264 0 0.00022040532908170933 0.017433982346569305 0 0.00015978336621669671 0.017328753829030701 0 0.00027049630693067771 0.015618748820036998 0 0.00015152488489440696 0.015476509090726709 0 2.5171106543698431e-05 0.015732691687366036 0 0.00027049630693067771 0.015618748820036998 0 0.00040133178251707305 0.015375176524208604 0 0.00042242842598767474 0.015830410765907098 0 0.00040133178251707305 0.015375176524208604 0 0.00042242842598767474 0.015830410765907098 0 0.00067320858616585404 0.015311689809895012 0 0.00040133178251707305 0.015375176524208604 0 0.00067320858616585404 0.015311689809895012 0 0.00067511275440889609 0.014735966034307038 0 0.00040133178251707305 0.015375176524208604 0 0.00041425500391364424 0.015323376849784383 0 0.00031193116280052175 0.015397643200004904 0 0.00044015517780297424 0.015290209089777561 0 0.00059526382201964144 0.015063900841625495 0 0.00041425500391364424 0.015323376849784383 0 0.00054110267889831442 0.015341308634762039 0 0.00050387207209094773 0.015241432787467124 0 0.00040133178251707305 0.015375176524208604 0 0.00041425500391364424 0.015323376849784383 0 0.00054110267889831442 0.015341308634762039 0 0.00031644172302903745 0.01529672296200347 0 0.00041425500391364424 0.015323376849784383 0 0.00031193116280052175 0.015397643200004904 0 0.00031644172302903745 0.01529672296200347 0 0.00031193116280052175 0.015397643200004904 0 0.00022461648831933792 0.015349087874041423 0 0.00031193116280052175 0.015397643200004904 0 0.00022461648831933792 0.015349087874041423 0 0.00015152488489440696 0.015476509090726709 0 0.00027049630693067771 0.015618748820036998 0 0.00040133178251707305 0.015375176524208604 0 0.00031193116280052175 0.015397643200004904 0 0.00027049630693067771 0.015618748820036998 0 0.00031193116280052175 0.015397643200004904 0 0.00015152488489440696 0.015476509090726709 0 0.0001140225996455856 0.015361797707186963 0 0.00022461648831933792 0.015349087874041423 0 0.00015152488489440696 0.015476509090726709 0 0.00015152488489440696 0.015476509090726709 0 2.564157654057538e-05 0.015433668785199032 0 -3.7203423578078621e-05 0.015546694000795702 0 0.0001140225996455856 0.015361797707186963 0 0.00015152488489440696 0.015476509090726709 0 2.564157654057538e-05 0.015433668785199032 0 -0.00010058927653613065 0.015442903617320576 0 2.564157654057538e-05 0.015433668785199032 0 -3.7203423578078621e-05 0.015546694000795702 0 0.00015152488489440696 0.015476509090726709 0 -3.7203423578078621e-05 0.015546694000795702 0 2.5171106543698431e-05 0.015732691687366036 0 -3.7203423578078621e-05 0.015546694000795702 0 -0.00023535172051751413 0.015557279187900926 0 -0.00016993764778683825 0.015692784024403352 0 -0.00010058927653613065 0.015442903617320576 0 -3.7203423578078621e-05 0.015546694000795702 0 -0.00023535172051751413 0.015557279187900926 0 -0.00023535172051751413 0.015557279187900926 0 -0.00030978249320546197 0.015853139685136568 0 -0.00016993764778683825 0.015692784024403352 0 -0.00030978249320546197 0.015853139685136568 0 -0.00016993764778683825 0.015692784024403352 0 2.5171106543698431e-05 0.015732691687366036 0 -0.00030978249320546197 0.015853139685136568 0 2.5171106543698431e-05 0.015732691687366036 0 0.00011960103794110735 0.016285287327620267 0 0.00027049630693067771 0.015618748820036998 0 2.5171106543698431e-05 0.015732691687366036 0 0.00011960103794110735 0.016285287327620267 0 -3.7203423578078621e-05 0.015546694000795702 0 -0.00016993764778683825 0.015692784024403352 0 2.5171106543698431e-05 0.015732691687366036 0 0.00031573500401149267 0.016907972915172962 0 0.00030985112604228082 0.016981908652345768 0 0.00011960103794110735 0.016285287327620267 0 0.00031573500401149267 0.016907972915172962 0 0.00011960103794110735 0.016285287327620267 0 0.0001844246045141444 0.016636906419303488 0 3.6601589361470079e-05 0.016418142449149419 0 0.00013479306198170134 0.016328290551992385 0 0.00011960103794110735 0.016285287327620267 0 0.00026019421235517478 0.016389587208987158 0 0.0001844246045141444 0.016636906419303488 0 0.00011960103794110735 0.016285287327620267 0 0.00026019421235517478 0.016389587208987158 0 0.00042242842598767474 0.015830410765907098 0 0.00027049630693067771 0.015618748820036998 0 0.00011960103794110735 0.016285287327620267 0 0.00042242842598767474 0.015830410765907098 0 0.00042242842598767474 0.015830410765907098 0 0.00054845172746417368 0.01612153142159254 0 0.00084037402631014239 0.015651314095711608 0 0.00026019421235517478 0.016389587208987158 0 0.00054845172746417368 0.01612153142159254 0 0.00047609293137117729 0.016442722464227802 0 0.00026019421235517478 0.016389587208987158 0 0.00042242842598767474 0.015830410765907098 0 0.00054845172746417368 0.01612153142159254 0 0.00054845172746417368 0.01612153142159254 0 0.00084037402631014239 0.015651314095711608 0 0.0010329049451508381 0.016216120565618376 0 0.00084037402631014239 0.015651314095711608 0 0.0015095224745946779 0.015515689401467145 0 0.0010329049451508381 0.016216120565618376 0 0.0024922176904960671 0.011911177668724559 0 0.002150665798899555 0.011692839398928071 0 0.00084037402631014239 0.015651314095711608 0 0.0011356138753890025 0.014858109009955399 0 0.0015095224745946779 0.015515689401467145 0 0.00042242842598767474 0.015830410765907098 0 0.00084037402631014239 0.015651314095711608 0 0.00067320858616585404 0.015311689809895012 0 0.00084037402631014239 0.015651314095711608 0 0.00067320858616585404 0.015311689809895012 0 0.0011356138753890025 0.014858109009955399 0 0.0011356138753890025 0.014858109009955399 0 0.00067511275440889609 0.014735966034307038 0 0.00099754762332992424 0.014292832425979417 0 0.00067320858616585404 0.015311689809895012 0 0.0011356138753890025 0.014858109009955399 0 0.00067511275440889609 0.014735966034307038 0 0.001609385035298138 0.01408406800587453 0 0.0018907427503934877 0.014476395448809446 0 0.001678970261907066 0.013712465576018249 0 0.001609385035298138 0.01408406800587453 0 0.0015289378902941537 0.014676585728828444 0 0.0018907427503934877 0.014476395448809446 0 0.0011356138753890025 0.014858109009955399 0 0.001609385035298138 0.01408406800587453 0 0.00099754762332992424 0.014292832425979417 0 0.0011356138753890025 0.014858109009955399 0 0.001609385035298138 0.01408406800587453 0 0.0015289378902941537 0.014676585728828444 0 0.0011356138753890025 0.014858109009955399 0 0.0015289378902941537 0.014676585728828444 0 0.0015095224745946779 0.015515689401467145 0 0.0015289378902941537 0.014676585728828444 0 0.0018907427503934877 0.014476395448809446 0 0.0015095224745946779 0.015515689401467145 0 0.0031404880495191512 0.010228584636947936 0 0.0035477841609805202 0.0082265948545815256 0 0.0026600990844661151 0.0087480936827341021 0 0.0035477841609805202 0.0082265948545815256 0 0.0028759416509087331 0.0079015544586545534 0 0.0026600990844661151 0.0087480936827341021 0 0.0024087670755584619 0.012402504283837216 0 0.0024922176904960671 0.011911177668724559 0 0.0035477841609805202 0.0082265948545815256 0 0.0028759416509087331 0.0079015544586545534 0 0.0031523075262218608 0.0073792579080419821 0 0.0035477841609805202 0.0082265948545815256 0 0.0031523075262218608 0.0073792579080419821 0 0.0033275181829219998 0.0071097093274092088 0 0.0028759416509087331 0.0079015544586545534 0 0.0025416841849675454 0.00735065626417863 0 0.0031523075262218608 0.0073792579080419821 0 0.0014743451494950617 0.0070281617019778801 0 0.0017709670501282586 0.008013369025157981 0 0.0035324193286414211 0.006000516412400742 0 0.0028759416509087331 0.0079015544586545534 0 0.0017709670501282586 0.008013369025157981 0 0.0025416841849675454 0.00735065626417863 0 0.0014743451494950617 0.0070281617019778801 0 0.0015365937261238383 0.0059788800544750709 0 0.0035324193286414211 0.006000516412400742 0 0.0018524497798771467 0.0079389856095761942 0 0.0030740591820888649 0.006681968716348294 0 -5.9604412738099754e-05 0.0055570411124938515 0 -0.00032299535773587382 0.0070599850492961691 0 0.0014743451494950617 0.0070281617019778801 0 0.00065579642842080192 0.0066086175991554117 0 0.0001293218945786012 0.0085993471631819873 0 0.0014743451494950617 0.0070281617019778801 0 0.0011766599163349281 0.0064238422022797484 0 0.0015365937261238383 0.0059788800544750709 0 0.0014743451494950617 0.0070281617019778801 0 0.0011766599163349281 0.0064238422022797484 0 0.00065579642842080192 0.0066086175991554117 0 0.00041686704203064114 0.0065690923074529905 0 0.00065579642842080192 0.0066086175991554117 0 0.0001293218945786012 0.0085993471631819873 0 -5.9604412738099754e-05 0.0055570411124938515 0 0.00012229129467105119 0.0059385065174184662 0 0.00044465805553540159 0.0065640699373890558 0 0.00065579642842080192 0.0066086175991554117 0 0.00065713803068949352 0.0058678389120425658 0 -5.9604412738099754e-05 0.0055570411124938515 0 6.914971768619621e-05 0.0056214953701995704 0 0.0011766599163349281 0.0064238422022797484 0 0.00065579642842080192 0.0066086175991554117 0 0.0010289276455923329 0.0060957361666719436 0 0.0014743451494950617 0.0070281617019778801 0 0.0017709670501282586 0.008013369025157981 0 0.0001293218945786012 0.0085993471631819873 0 0.0017709670501282586 0.008013369025157981 0 0.00091440387556675912 0.0093553231029420147 0 0.001832101058816777 0.0096009825918690339 0 0.00091440387556675912 0.0093553231029420147 0 0.0001293218945786012 0.0085993471631819873 0 -0.00010770348452643599 0.010467536238428367 0 0.0017709670501282586 0.008013369025157981 0 0.00091440387556675912 0.0093553231029420147 0 0.0001293218945786012 0.0085993471631819873 0 0.0017709670501282586 0.008013369025157981 0 0.0026600990844661151 0.0087480936827341021 0 0.001832101058816777 0.0096009825918690339 0 0.0028759416509087331 0.0079015544586545534 0 0.0017709670501282586 0.008013369025157981 0 0.0026600990844661151 0.0087480936827341021 0 -0.00214000916957427 0.00028473437827153131 0 -0.0017809315068423334 0.00044270303436489127 0 -0.0019857782085985765 9.5564080249513681e-05 0 -0.0018357305404942505 0.0018684687924784751 0 -0.0017247020816456608 0.0032222027935441713 0 -0.0022430940643979884 5.3065470313299957e-05 0 -0.00214000916957427 0.00028473437827153131 0 -0.0019857782085985765 9.5564080249513681e-05 0 -5.9604412738099754e-05 0.0055570411124938515 0 -0.0017247020816456608 0.0032222027935441713 0 -0.00067639069792565544 0.0040130356018678861 0 -0.0013701790830816254 0.0048476805775493816 0 -0.00075497928145985252 0.0049558073018294881 0 -0.00067639069792565544 0.0040130356018678861 0 -0.0013701790830816254 0.0048476805775493816 0 -0.0018998359428144664 0.0038022708854311706 0 -0.0018357305404942505 0.0018684687924784751 0 -0.00080541828950034049 0.0063379185857639119 0 -0.00032299535773587382 0.0070599850492961691 0 -0.00080541828950034049 0.0063379185857639119 0 -0.0013701790830816254 0.0048476805775493816 0 -0.00075497928145985252 0.0049558073018294881 0 -0.00083046096893858831 0.0059087447605438758 0 -0.0022462026920176564 0.0005208675763357524 0 -0.0017809315068423334 0.00044270303436489127 0 -0.0020344327515078265 0.00070344083026122419 0 -0.0022462026920176564 0.0005208675763357524 0 -0.00214000916957427 0.00028473437827153131 0 -0.0017809315068423334 0.00044270303436489127 0 -0.0017809315068423334 0.00044270303436489127 0 -0.0020344327515078265 0.00070344083026122419 0 -0.0018019799459275158 0.00076239405189309085 0 -0.0022524523202994999 0.00075458278854260215 0 -0.0020287884367214269 0.00088236670728342973 0 -0.0020344327515078265 0.00070344083026122419 0 -0.0020287884367214269 0.00088236670728342973 0 -0.0020344327515078265 0.00070344083026122419 0 -0.0018019799459275158 0.00076239405189309085 0 -0.0020287884367214269 0.00088236670728342973 0 -0.0018019799459275158 0.00076239405189309085 0 -0.0018256123615927459 0.00095111088307035655 0 -0.0017809315068423334 0.00044270303436489127 0 -0.0018019799459275158 0.00076239405189309085 0 -0.0015405008180065661 0.00083847162528502279 0 -0.0018019799459275158 0.00076239405189309085 0 -0.0015405008180065661 0.00083847162528502279 0 -0.0018256123615927459 0.00095111088307035655 0 -0.00080541828950034049 0.0063379185857639119 0 0.00052291356596401888 0.0099720708322695653 0 -0.0001745919613375189 0.010561172188931128 0 0.00024466392682991219 0.011198459608163406 0 0.00015909283164978729 0.012949009232123103 0 -0.0015405008180065661 0.00083847162528502279 0 -0.0017579925331610022 0.0011723359947918089 0 -0.0018256123615927459 0.00095111088307035655 0 -0.0015405008180065661 0.00083847162528502279 0 -0.0017579925331610022 0.0011723359947918089 0 -0.001524405183779546 0.001299045827208057 0 -0.00080541828950034049 0.0063379185857639119 0 -0.00067446671655289002 0.0069088954147002802 0 -0.0023014271407283821 0.001113194614849864 0 -0.0020136702492080886 0.0010623919230405049 0 -0.001951546012834439 0.0013058073195224289 0 -0.0017579925331610022 0.0011723359947918089 0 -0.0018256123615927459 0.00095111088307035655 0 -0.0020136702492080886 0.0010623919230405049 0 -0.0020287884367214269 0.00088236670728342973 0 -0.0018256123615927459 0.00095111088307035655 0 -0.0020136702492080886 0.0010623919230405049 0 -0.0017579925331610022 0.0011723359947918089 0 -0.0020136702492080886 0.0010623919230405049 0 -0.001951546012834439 0.0013058073195224289 0 -0.0022121336511679575 0.00092976949218951418 0 -0.0020287884367214269 0.00088236670728342973 0 -0.0020136702492080886 0.0010623919230405049 0 0.0031404880495191512 0.010228584636947936 0 0.001832101058816777 0.0096009825918690339 0 0.001410984065985423 0.011104771675042535 0 0.0031404880495191512 0.010228584636947936 0 0.0026600990844661151 0.0087480936827341021 0 0.001832101058816777 0.0096009825918690339 0 0.00091440387556675912 0.0093553231029420147 0 0.001832101058816777 0.0096009825918690339 0 0.00087455808731334741 0.010317878681416148 0 0.00091440387556675912 0.0093553231029420147 0 -0.00010770348452643599 0.010467536238428367 0 0.00087455808731334741 0.010317878681416148 0 -0.00010770348452643599 0.010467536238428367 0 0.00024466392682991219 0.011198459608163406 0 0.00087455808731334741 0.010317878681416148 0 0.001832101058816777 0.0096009825918690339 0 0.00087455808731334741 0.010317878681416148 0 0.001410984065985423 0.011104771675042535 0 0.00024466392682991219 0.011198459608163406 0 0.00087455808731334741 0.010317878681416148 0 0.001410984065985423 0.011104771675042535 0 0.001410984065985423 0.011104771675042535 0 0.00081145982200927472 0.012195630335751668 0 0.0015085524691508948 0.013151531021358969 0 0.00081145982200927472 0.012195630335751668 0 0.0015085524691508948 0.013151531021358969 0 0.00015909283164978729 0.012949009232123103 0 0.00024466392682991219 0.011198459608163406 0 0.00081145982200927472 0.012195630335751668 0 0.00015909283164978729 0.012949009232123103 0 0.00024466392682991219 0.011198459608163406 0 0.001410984065985423 0.011104771675042535 0 0.00081145982200927472 0.012195630335751668 0 0.0024087670755584619 0.012402504283837216 0 0.0015274448818087688 0.01319438220519812 0 0.0018907427503934877 0.014476395448809446 0 0.0015085524691508948 0.013151531021358969 0 0.001678970261907066 0.013712465576018249 0 0.0031404880495191512 0.010228584636947936 0 0.001410984065985423 0.011104771675042535 0 0.0015085524691508948 0.013151531021358969 0 0.0015085524691508948 0.013151531021358969 0 0.0011380873272577984 0.013777517163811833 0 0.0015447591475473939 0.013771857900313138 0 0.0015085524691508948 0.013151531021358969 0 0.0015447591475473939 0.013771857900313138 0 0.001678970261907066 0.013712465576018249 0 0.0011380873272577984 0.013777517163811833 0 0.00015909283164978729 0.012949009232123103 0 0.00051296910921876169 0.013901697983886485 0 0.0015085524691508948 0.013151531021358969 0 0.0011380873272577984 0.013777517163811833 0 0.00015909283164978729 0.012949009232123103 0 0.0011380873272577984 0.013777517163811833 0 0.0012584473408814197 0.014072388464285006 0 0.00090752564033181205 0.014142392623332278 0 0.0011380873272577984 0.013777517163811833 0 0.00051296910921876169 0.013901697983886485 0 0.00090752564033181205 0.014142392623332278 0 0.0014728920568728256 0.013997708754252814 0 0.0014509652701162219 0.014267531207704243 0 0.0015749676424021185 0.013906959747940643 0 0.0014728920568728256 0.013997708754252814 0 0.0015447591475473939 0.013771857900313138 0 0.0012584473408814197 0.014072388464285006 0 0.0014728920568728256 0.013997708754252814 0 0.0015447591475473939 0.013771857900313138 0 0.0015749676424021185 0.013906959747940643 0 0.0011380873272577984 0.013777517163811833 0 0.0015447591475473939 0.013771857900313138 0 0.0012584473408814197 0.014072388464285006 0 -0.0021195136229653628 0.0014937150883529745 0 -0.001951546012834439 0.0013058073195224289 0 -0.0018654908725249894 0.0016562050353875048 0 -0.0017579925331610022 0.0011723359947918089 0 -0.001951546012834439 0.0013058073195224289 0 -0.0017191824281390391 0.0014540621504521391 0 -0.001951546012834439 0.0013058073195224289 0 -0.0017191824281390391 0.0014540621504521391 0 -0.0018654908725249894 0.0016562050353875048 0 -0.00067446671655289002 0.0069088954147002802 0 -0.00054708010238110503 0.0080343575578939418 0 -0.0017191824281390391 0.0014540621504521391 0 -0.001524405183779546 0.001299045827208057 0 -0.0014938676199328065 0.0018337350570576901 0 -0.0017579925331610022 0.0011723359947918089 0 -0.0017191824281390391 0.0014540621504521391 0 -0.001524405183779546 0.001299045827208057 0 -0.0017191824281390391 0.0014540621504521391 0 -0.0014938676199328065 0.0018337350570576901 0 -0.0018654908725249894 0.0016562050353875048 0 -0.0021195136229653628 0.0014937150883529745 0 -0.0018654908725249894 0.0016562050353875048 0 -0.0020891892191428835 0.0018947386025212319 0 -0.0014938676199328065 0.0018337350570576901 0 -0.0018654908725249894 0.0016562050353875048 0 -0.001852657892538038 0.0020088388163364578 0 -0.0018654908725249894 0.0016562050353875048 0 -0.0020891892191428835 0.0018947386025212319 0 -0.001852657892538038 0.0020088388163364578 0 -0.0020905121654777601 0.0024420519694201763 0 -0.00211372178633892 0.002187181647514645 0 -0.0019039915973536432 0.0022821113407892248 0 -0.00211372178633892 0.002187181647514645 0 -0.0020891892191428835 0.0018947386025212319 0 -0.001852657892538038 0.0020088388163364578 0 -0.00211372178633892 0.002187181647514645 0 -0.0019039915973536432 0.0022821113407892248 0 -0.001852657892538038 0.0020088388163364578 0 -0.0019039915973536432 0.0022821113407892248 0 -0.001852657892538038 0.0020088388163364578 0 -0.001687046916640059 0.0022183149771335285 0 -0.0019039915973536432 0.0022821113407892248 0 -0.0017595243342002696 0.0023751887121444522 0 -0.001687046916640059 0.0022183149771335285 0 -0.0014938676199328065 0.0018337350570576901 0 -0.001852657892538038 0.0020088388163364578 0 -0.001687046916640059 0.0022183149771335285 0 -0.00054708010238110503 0.0080343575578939418 0 -7.6177446874428872e-05 0.0076778912895751278 0 0.00051296910921876169 0.013901697983886485 0 0.00071742628734386188 0.014217119608880915 0 0.00062559053015098212 0.014376603394462723 0 -0.0014938676199328065 0.0018337350570576901 0 -0.001687046916640059 0.0022183149771335285 0 -0.0015014631908747914 0.0024242030657734099 0 -0.0017595243342002696 0.0023751887121444522 0 -0.001687046916640059 0.0022183149771335285 0 -0.0016142530986121486 0.0024016772143791946 0 -0.001687046916640059 0.0022183149771335285 0 -0.0015014631908747914 0.0024242030657734099 0 -0.0016142530986121486 0.0024016772143791946 0 0.00051296910921876169 0.013901697983886485 0 0.00071742628734386188 0.014217119608880915 0 0.00090752564033181205 0.014142392623332278 0 0.00071742628734386188 0.014217119608880915 0 0.00062559053015098212 0.014376603394462723 0 0.00078526564034763424 0.014404403580483085 0 -0.00050547841907374875 0.0049052852817284441 0 -7.6177446874428872e-05 0.0076778912895751278 0 0.00093151665242010271 0.008850924616212702 0 0.00081335831288399554 0.011470947643967598 0 0.00056115577060261907 0.0076453240973751056 0 0.00046705643028369256 0.008811866431611767 0 0.00023372516625662783 0.0081269143690744627 0 -0.0015484848925353392 0.0027868160936688098 0 -0.0015096921378560607 0.0024255235295683412 0 -0.0015881968592206675 0.002597757618349373 0 0.00010391514537996457 0.0073167576219922877 0 0.00023372516625662783 0.0081269143690744627 0 -0.00019560902549433897 0.0087359801542881178 0 -7.6177446874428872e-05 0.0076778912895751278 0 0.00081335831288399554 0.011470947643967598 0 0.00046705643028369256 0.008811866431611767 0 0.00023372516625662783 0.0081269143690744627 0 -0.00019560902549433897 0.0087359801542881178 0 -0.0017237164401224382 0.0027520450873443972 0 -0.0015881968592206675 0.002597757618349373 0 -0.0018073267238089214 0.0026249370880630065 0 -0.0015484848925353392 0.0027868160936688098 0 -0.0017237164401224382 0.0027520450873443972 0 -0.0015881968592206675 0.002597757618349373 0 -0.0015881968592206675 0.002597757618349373 0 -0.0017105719771942308 0.0024975108387179468 0 -0.0018073267238089214 0.0026249370880630065 0 -0.0015881968592206675 0.002597757618349373 0 -0.0016054656779006026 0.0024807764472704829 0 -0.0017105719771942308 0.0024975108387179468 0 -0.0015096921378560607 0.0024255235295683412 0 -0.0015881968592206675 0.002597757618349373 0 -0.0016054656779006026 0.0024807764472704829 0 -0.0015096921378560607 0.0024255235295683412 0 -0.0016054656779006026 0.0024807764472704829 0 -0.0016142530986121486 0.0024016772143791946 0 -7.6177446874428872e-05 0.0076778912895751278 0 -0.0010467807094798264 0.0066963492056874062 0 -0.0017595243342002696 0.0023751887121444522 0 -0.0016142530986121486 0.0024016772143791946 0 -0.0017105719771942308 0.0024975108387179468 0 -0.0016054656779006026 0.0024807764472704829 0 -0.0016142530986121486 0.0024016772143791946 0 -0.0017105719771942308 0.0024975108387179468 0 -0.0017595243342002696 0.0023751887121444522 0 -0.0018790977983666956 0.0024730797399458286 0 -0.0017105719771942308 0.0024975108387179468 0 -0.0019039915973536432 0.0022821113407892248 0 -0.0017595243342002696 0.0023751887121444522 0 -0.0018790977983666956 0.0024730797399458286 0 -0.0018790977983666956 0.0024730797399458286 0 -0.0017105719771942308 0.0024975108387179468 0 -0.0018073267238089214 0.0026249370880630065 0 -0.0018615810418513964 0.0027675236735728017 0 -0.0018073267238089214 0.0026249370880630065 0 -0.0020060956456493628 0.0026188875811818013 0 -0.0017237164401224382 0.0027520450873443972 0 -0.0018615810418513964 0.0027675236735728017 0 -0.0018073267238089214 0.0026249370880630065 0 -0.0018790977983666956 0.0024730797399458286 0 -0.0018073267238089214 0.0026249370880630065 0 -0.0020060956456493628 0.0026188875811818013 0 -0.0020905121654777601 0.0024420519694201763 0 -0.0018790977983666956 0.0024730797399458286 0 -0.0020060956456493628 0.0026188875811818013 0 -0.0020905121654777601 0.0024420519694201763 0 -0.0019039915973536432 0.0022821113407892248 0 -0.0018790977983666956 0.0024730797399458286 0 0.0014509652701162219 0.014267531207704243 0 0.0011947191788566642 0.014258922372644806 0 0.0013667326253997011 0.014356814903210795 0 0.0014728920568728256 0.013997708754252814 0 0.0014509652701162219 0.014267531207704243 0 0.0012584473408814197 0.014072388464285006 0 0.0014509652701162219 0.014267531207704243 0 0.0012584473408814197 0.014072388464285006 0 0.0011947191788566642 0.014258922372644806 0 0.0012584473408814197 0.014072388464285006 0 0.00090752564033181205 0.014142392623332278 0 0.0011947191788566642 0.014258922372644806 0 0.00090752564033181205 0.014142392623332278 0 0.0011947191788566642 0.014258922372644806 0 0.00091314795538140886 0.014407292556229715 0 0.00071742628734386188 0.014217119608880915 0 0.00090752564033181205 0.014142392623332278 0 0.00078526564034763424 0.014404403580483085 0 0.00065992098016474368 0.014907584585902767 0 0.00081335831288399554 0.011470947643967598 0 0.00081335831288399554 0.011470947643967598 0 0.0012557906035000985 0.012789627333289302 0 0.0011947191788566642 0.014258922372644806 0 0.00091314795538140886 0.014407292556229715 0 0.0013667326253997011 0.014356814903210795 0 0.0011855167544719634 0.01065528561223078 0 0.0015481234829143853 0.011129568264870514 0 0.00097253030504422988 0.011062599924138303 0 0.0011855167544719634 0.01065528561223078 0 0.0016668476604336244 0.010568679728195852 0 0.0015481234829143853 0.011129568264870514 0 0.0007627838677836319 0.010691357065225431 0 0.0011855167544719634 0.01065528561223078 0 0.00097253030504422988 0.011062599924138303 0 0.0014509652701162219 0.014267531207704243 0 0.0013667326253997011 0.014356814903210795 0 0.0013192058959483237 0.014213376358845578 0 0.0012557906035000985 0.012789627333289302 0 0.0008260268986570664 0.01260240188352234 0 0.0007627838677836319 0.010691357065225431 0 0.00097253030504422988 0.011062599924138303 0 0.0004025266966584133 0.010999198764831611 0 0.0014509652701162219 0.014267531207704243 0 0.0013192058959483237 0.014213376358845578 0 0.0012688457337419949 0.014402285398351051 0 0.0014509652701162219 0.014267531207704243 0 0.0012688457337419949 0.014402285398351051 0 0.0011978022043674966 0.01469380749753825 0 0.0014240816836690665 0.014286722326022218 0 0.0014444091121597238 0.014246968409304553 0 0.0013192058959483237 0.014213376358845578 0 0.0012688457337419949 0.014402285398351051 0 0.0010897474163773168 0.014344249867667804 0 0.0010897474163773168 0.014344249867667804 0 0.00092619722807455015 0.014158561647652926 0 0.0010111837648752297 0.014594788470355091 0 0.0011417169725786991 0.014505262030211467 0 0.0010897474163773168 0.014344249867667804 0 0.0010111837648752297 0.014594788470355091 0 0.0012688457337419949 0.014402285398351051 0 0.0011417169725786991 0.014505262030211467 0 0.0010897474163773168 0.014344249867667804 0 0.0012688457337419949 0.014402285398351051 0 0.0011417169725786991 0.014505262030211467 0 0.0011978022043674966 0.01469380749753825 0 0.00036265676231737507 0.010560648475131745 0 0.0004025266966584133 0.010999198764831611 0 -0.00016238757867874007 0.010943179794056694 0 0.0008260268986570664 0.01260240188352234 0 0.00041999602891379037 0.012571210262347452 0 0.0013192058959483237 0.014213376358845578 0 0.0010897474163773168 0.014344249867667804 0 0.00097995940273273526 0.014126293501857035 0 0.00046897213430111039 0.013706101679988723 0 0.00059262004956485979 0.014579107854797697 0 8.9396067391591405e-06 0.010514146024020057 0 -6.5147042018281302e-05 0.010970258338496011 0 -0.00016536759348721107 0.010959461882946428 0 0.00067003013778952757 0.014459338880953868 0 0.00067541155376865127 0.014482868397253601 0 0.00051975868437031416 0.014600417345894047 0 0.00041999602891379037 0.012571210262347452 0 0.00029932158835592351 0.013132624744299484 0 0.00024659291921010502 0.013006482484362661 0 0.00063474781913483381 0.013055750997729805 0 0.0005742428200651424 0.01278665042143658 0 0.00041999602891379037 0.012571210262347452 0 0.00046897213430111039 0.013706101679988723 0 0.00029932158835592351 0.013132624744299484 0 0.00046897213430111039 0.013706101679988723 0 0.0010897474163773168 0.014344249867667804 0 0.00097995940273273526 0.014126293501857035 0 0.00092619722807455015 0.014158561647652926 0 0.00067003013778952757 0.014459338880953868 0 0.00044119643673995159 0.014439420993162644 0 0.00051975868437031416 0.014600417345894047 0 0.00029932158835592351 0.013132624744299484 0 0.00042773278127690114 0.014581317927220021 0 0.00035847967352750068 0.01456767421011638 0 0.00044119643673995159 0.014439420993162644 0 0.00051975868437031416 0.014600417345894047 0 0.00039757795401780467 0.014679714881992632 0 0.00059262004956485979 0.014579107854797697 0 0.00065020881536913678 0.014445236158279064 0 0.00082679545241901302 0.014504254907368687 0 0.00070204328894463489 0.014718301454355986 0 0.00037744993912140057 0.0147136813549759 0 0.00065020881536913678 0.014445236158279064 0 0.00070204328894463489 0.014718301454355986 0 0.00046897213430111039 0.013706101679988723 0 0.0011277290347269013 0.014799469094943223 0 0.00091303005595168621 0.014259199939592267 0 0.00065020881536913678 0.014445236158279064 0 0.00082679545241901302 0.014504254907368687 0 0.00091303005595168621 0.014259199939592267 0 0.00082679545241901302 0.014504254907368687 0 0.0010111837648752297 0.014594788470355091 0 0.00082679545241901302 0.014504254907368687 0 0.00070204328894463489 0.014718301454355986 0 0.0010111837648752297 0.014594788470355091 0 0.00070204328894463489 0.014718301454355986 0 0.0008135400512767891 0.01502340533369083 0 0.0010111837648752297 0.014594788470355091 0 0.00045536991604506354 0.014912830641669816 0 0.00037744993912140057 0.0147136813549759 0 0.00070204328894463489 0.014718301454355986 0 0.00043280971925253832 0.015063177823589975 0 0.00099365326834726514 0.014588715700687144 0 0.00054110267889831442 0.015341308634762039 0 0.00050387207209094773 0.015241432787467124 0 0.00071474796009266472 0.015220793830198191 0 0.00048032427668221557 0.015119269486546842 0 0.00050387207209094773 0.015241432787467124 0 0.00071474796009266472 0.015220793830198191 0 0.00045536991604506354 0.014912830641669816 0 0.00070204328894463489 0.014718301454355986 0 0.0008135400512767891 0.01502340533369083 0 0.00059526382201964144 0.015063900841625495 0 0.00099365326834726514 0.014588715700687144 0 0.0013871785347005471 0.013911365092371413 0 0.0015800630811157927 0.013896420376243217 0 0.0016727144272874793 0.013828609971255448 0 0.00099365326834726514 0.014588715700687144 0 0.0014444091121597238 0.014246968409304553 0 0.001609385035298138 0.01408406800587453 0 0.0013871785347005471 0.013911365092371413 0 0.0015800630811157927 0.013896420376243217 0 0.0016727797852370174 0.013974725566607095 0 0.00099365326834726514 0.014588715700687144 0 0.0015800630811157927 0.013896420376243217 0 0.0016533878379188854 0.013802408700802968 0 0.0016727144272874793 0.013828609971255448 0 0.001609385035298138 0.01408406800587453 0 0.0015800630811157927 0.013896420376243217 0 0.0016533878379188854 0.013802408700802968 0 0.001609385035298138 0.01408406800587453 0 0.001678970261907066 0.013712465576018249 0 0.0016533878379188854 0.013802408700802968 0 0.0015447591475473939 0.013771857900313138 0 0.001678970261907066 0.013712465576018249 0 0.0016533878379188854 0.013802408700802968 0 0.0016533878379188854 0.013802408700802968 0 0.0015749676424021185 0.013906959747940643 0 0.0016727144272874793 0.013828609971255448 0 0.0014509652701162219 0.014267531207704243 0 0.0015749676424021185 0.013906959747940643 0 0.0016727144272874793 0.013828609971255448 0 0.0015447591475473939 0.013771857900313138 0 0.0016533878379188854 0.013802408700802968 0 0.0015749676424021185 0.013906959747940643 0 0.0008135400512767891 0.01502340533369083 0 0.0010111837648752297 0.014594788470355091 0 0.0011978022043674966 0.01469380749753825 0 0.0011417169725786991 0.014505262030211467 0 0.0010111837648752297 0.014594788470355091 0 0.0011978022043674966 0.01469380749753825 0 2.3290846931791607e-06 0.034983975598709256 0 5.2055589327733672e-07 0.034986342239323127 0 4.0715040856490998e-07 0.034992365485374724 0 -0.00021268127967457529 0.034154661387250318 0 0.00030263184199846616 0.031895069771901458 0 2.3290846931791607e-06 0.034983975598709256 0 5.2055589327733672e-07 0.034986342239323127 0 2.9407314122273844e-06 0.034970992303400894 0 4.0715040856490998e-07 0.034992365485374724 0 2.3967551343021641e-08 0.034999949204497519 0 -1.5273883084440659e-08 0.034999981634433006 0 5.2055589327733672e-07 0.034986342239323127 0 4.0715040856490998e-07 0.034992365485374724 0 -1.5273883084440659e-08 0.034999981634433006 0 -0.00021268127967457529 0.034154661387250318 0 -1.195614323045574e-06 0.035249227418010037 0 2.3290846931791607e-06 0.034983975598709256 0 4.0715040856490998e-07 0.034992365485374724 0 -6.1303045134578971e-08 0.034994460801029095 0 -6.1303045134578971e-08 0.034994460801029095 0 -3.0017692883276901e-05 0.034958650485724732 0 -5.7722962178198607e-05 0.034977014241788069 0 -9.6504284062296766e-05 0.035023973257034109 0 -6.1303045134578971e-08 0.034994460801029095 0 -5.7722962178198607e-05 0.034977014241788069 0 4.0715040856490998e-07 0.034992365485374724 0 -6.1303045134578971e-08 0.034994460801029095 0 2.3967551343021641e-08 0.034999949204497519 0 -6.1303045134578971e-08 0.034994460801029095 0 -3.0017692883276901e-05 0.034958650485724732 0 -2.8707127591093498e-05 0.034909166516867582 0 -5.7722962178198607e-05 0.034977014241788069 0 -6.1166616070723479e-05 0.034920075020746552 0 -0.00013315480267438163 0.034955984825538459 0 -0.00021268127967457529 0.034154661387250318 0 -0.00026767960445721686 0.034402346900113685 0 -3.0017692883276901e-05 0.034958650485724732 0 -5.7722962178198607e-05 0.034977014241788069 0 -6.1166616070723479e-05 0.034920075020746552 0 -9.6504284062296766e-05 0.035023973257034109 0 -5.7722962178198607e-05 0.034977014241788069 0 -0.00013315480267438163 0.034955984825538459 0 -0.00043789377140603645 0.033887319456752031 0 2.3632568646696408e-05 0.033622981330027633 0 5.8807620529039456e-05 0.034239275799700722 0 -0.00056788260544405169 0.033166102848226804 0 -0.00043789377140603645 0.033887319456752031 0 2.3632568646696408e-05 0.033622981330027633 0 2.3632568646696408e-05 0.033622981330027633 0 0.00044503842137342761 0.034043039098468959 0 5.8807620529039456e-05 0.034239275799700722 0 2.3632568646696408e-05 0.033622981330027633 0 0.00040623974807434685 0.033471178343662249 0 0.00014523129541505945 0.033164890294392971 0 0.00044503842137342761 0.034043039098468959 0 0.00079885812764050261 0.033562942942681348 0 0.0010857421886414482 0.033915099683931756 0 2.3632568646696408e-05 0.033622981330027633 0 0.00044503842137342761 0.034043039098468959 0 0.00040623974807434685 0.033471178343662249 0 0.00044503842137342761 0.034043039098468959 0 0.00040623974807434685 0.033471178343662249 0 0.00079885812764050261 0.033562942942681348 0 0.00040623974807434685 0.033471178343662249 0 0.00079885812764050261 0.033562942942681348 0 0.00052005875237062186 0.032969452504771422 0 0.00040623974807434685 0.033471178343662249 0 0.00052005875237062186 0.032969452504771422 0 0.00014523129541505945 0.033164890294392971 0 0.00052005875237062186 0.032969452504771422 0 0.00014523129541505945 0.033164890294392971 0 0.00030005493600376485 0.032633614018639977 0 -0.00013154814949889926 0.032538921894770305 0 0.0011996599173345398 0.031677823500793595 0 -0.00026743038675135564 0.031753596391647036 0 -0.00056788260544405169 0.033166102848226804 0 2.3632568646696408e-05 0.033622981330027633 0 0.00014523129541505945 0.033164890294392971 0 -0.00021268127967457529 0.034154661387250318 0 0.00076977080658397444 0.030190107509827133 0 -0.00056788260544405169 0.033166102848226804 0 0.00014523129541505945 0.033164890294392971 0 0.00030005493600376485 0.032633614018639977 0 0.0012254186036624183 0.027102605424652926 0 0.0015269757778752636 0.027318366109757897 0 0.0017177709416527876 0.026977364671467292 0 0.0012254186036624183 0.027102605424652926 0 0.0010448145325789506 0.026976924586216373 0 0.0017177709416527876 0.026977364671467292 0 0.00076977080658397444 0.030190107509827133 0 0.00030263184199846616 0.031895069771901458 0 0.0012254186036624183 0.027102605424652926 0 0.0010128690965362623 0.027245404336707697 0 0.0012495331822376136 0.027351182653064188 0 0.0012254186036624183 0.027102605424652926 0 0.0012495331822376136 0.027351182653064188 0 0.0015269757778752636 0.027318366109757897 0 0.0007535716910655999 0.029715249102955053 0 0.00081766380337937414 0.029677023903772113 0 0.00060619714651122887 0.029685737861463574 0 0.00085777064952179886 0.027899941705318849 0 0.00036899712709634552 0.028415660378090492 0 0.00052005875237062186 0.032969452504771422 0 0.00030005493600376485 0.032633614018639977 0 0.00078525600914966932 0.032627401216706403 0 0.00076977080658397444 0.030190107509827133 0 0.00067957563730851659 0.031267668980034496 0 0.0012254186036624183 0.027102605424652926 0 0.00086824705998725024 0.027092192368425101 0 0.0010448145325789506 0.026976924586216373 0 0.00085777064952179886 0.027899941705318849 0 0.00076977080658397444 0.030190107509827133 0 0.0012254186036624183 0.027102605424652926 0 0.00083184714141368028 0.027038761503791062 0 0.0010128690965362623 0.027245404336707697 0 0.0011216088730052962 0.027284642100518803 0 0.00085777064952179886 0.027899941705318849 0 0.00083184714141368028 0.027038761503791062 0 0.0010128690965362623 0.027245404336707697 0 0.00076401491020002151 0.027302405624258327 0 0.00085777064952179886 0.027899941705318849 0 0.00052228111785594612 0.027247001133245952 0 0.00083184714141368028 0.027038761503791062 0 0.00076401491020002151 0.027302405624258327 0 0.00038162545811126666 0.027321338616788555 0 0.00076401491020002151 0.027302405624258327 0 0.00098000783182726047 0.027430018640556376 0 0.00061580273589211703 0.027541604124357782 0 0.00076401491020002151 0.027302405624258327 0 0.00061580273589211703 0.027541604124357782 0 0.00038162545811126666 0.027321338616788555 0 0.0010128690965362623 0.027245404336707697 0 0.00076401491020002151 0.027302405624258327 0 0.00098000783182726047 0.027430018640556376 0 0.00098000783182726047 0.027430018640556376 0 0.00061580273589211703 0.027541604124357782 0 0.00097355443886363777 0.027715128476918011 0 0.00098000783182726047 0.027430018640556376 0 0.0011942681491330168 0.027560662662233809 0 0.00097355443886363777 0.027715128476918011 0 0.0012495331822376136 0.027351182653064188 0 0.001468632077135043 0.027561010650556071 0 0.0015269757778752636 0.027318366109757897 0 0.0012495331822376136 0.027351182653064188 0 0.0011942681491330168 0.027560662662233809 0 0.001468632077135043 0.027561010650556071 0 0.0010128690965362623 0.027245404336707697 0 0.00098000783182726047 0.027430018640556376 0 0.0012495331822376136 0.027351182653064188 0 0.00098000783182726047 0.027430018640556376 0 0.0012495331822376136 0.027351182653064188 0 0.0011942681491330168 0.027560662662233809 0 0.0011942681491330168 0.027560662662233809 0 0.0013917886217088853 0.0278756386333542 0 0.00097355443886363777 0.027715128476918011 0 0.0011942681491330168 0.027560662662233809 0 0.001468632077135043 0.027561010650556071 0 0.0013917886217088853 0.0278756386333542 0 0.00025864747877249185 0.034990486979679936 0 0.00010233453811342012 0.034802654207915659 0 0.00022332597336920899 0.034634855067108936 0 0.001468632077135043 0.027561010650556071 0 0.0015269757778752636 0.027318366109757897 0 0.0019102413768492706 0.027786543649483887 0 0.001468632077135043 0.027561010650556071 0 0.0019102413768492706 0.027786543649483887 0 0.0013917886217088853 0.0278756386333542 0 -3.3669724985712007e-07 0.034999560137988141 0 -3.59661915629294e-06 0.034880675721214956 0 -7.6794765749967271e-05 0.034628901246803553 0 0.0015269757778752636 0.027318366109757897 0 0.0017177709416527876 0.026977364671467292 0 0.0019102413768492706 0.027786543649483887 0 0.00030263184199846616 0.031895069771901458 0 0.00064713631339121671 0.032258886739638136 0 0.00025864747877249185 0.034990486979679936 0 7.1989660416824062e-08 0.03500044369852906 0 -6.6764220249705133e-08 0.034999472472055732 0 5.2055589327733672e-07 0.034986342239323127 0 2.9407314122273844e-06 0.034970992303400894 0 -1.5273883084440659e-08 0.034999981634433006 0 0.00030263184199846616 0.031895069771901458 0 -3.2782521377277112e-07 0.035001164278158074 0 0.00025864747877249185 0.034990486979679936 0 -6.6764220249705133e-08 0.034999472472055732 0 0.00010233453811342012 0.034802654207915659 0 1.2958031131298327e-07 0.034999760886666197 0 -0.00019052065946262206 0.035073454058694699 0 -0.00019052065946262206 0.035073454058694699 0 0.00064713631339121671 0.032258886739638136 0 -3.59661915629294e-06 0.034880675721214956 0 1.1321703212948115e-05 0.034765178906505677 0 -7.6794765749967271e-05 0.034628901246803553 0 -3.3669724985712007e-07 0.034999560137988141 0 -7.6794765749967271e-05 0.034628901246803553 0 2.3046127932631846e-07 0.034997474678815949 0 2.3046127932631846e-07 0.034997474678815949 0 0.00023535235261702066 0.030895321427939233 0 -2.0604681570783148e-07 0.028174539771799779 0 0.0019102413768492706 0.027786543649483887 0 0.0016372653213552817 0.028285052770544872 0 0.0013917886217088853 0.0278756386333542 0 -2.7432040530407187e-05 0.034808180429152423 0 -7.6794765749967271e-05 0.034628901246803553 0 0.00017304602331433795 0.034434465712995854 0 0.00064713631339121671 0.032258886739638136 0 0.00098678436090741993 0.031204687944868761 0 0.00064713631339121671 0.032258886739638136 0 0.00013784975472475109 0.035348200862842037 0 -7.6794765749967271e-05 0.034628901246803553 0 -2.1775934550843912e-05 0.03379511690634391 0 0.00017304602331433795 0.034434465712995854 0 2.3046127932631846e-07 0.034997474678815949 0 -2.1775934550843912e-05 0.03379511690634391 0 0.00023535235261702066 0.030895321427939233 0 -7.6794765749967271e-05 0.034628901246803553 0 2.3046127932631846e-07 0.034997474678815949 0 -2.1775934550843912e-05 0.03379511690634391 0 -2.1775934550843912e-05 0.03379511690634391 0 0.00023535235261702066 0.030895321427939233 0 0.00040283568271934302 0.033318175762246438 0 0.00032948098282180327 0.031082020494849625 0 0.00073836049261552571 0.03125290569484386 0 0.00023535235261702066 0.030895321427939233 0 0.0013765266629386745 0.029076677000033406 0 0.00038269751010594732 0.028786344010160309 0 0.00038269751010594732 0.028786344010160309 0 0.0009274242732449482 0.028174952049058902 0 0.00018841458496458564 0.027956080957770406 0 0.0013765266629386745 0.029076677000033406 0 0.00038269751010594732 0.028786344010160309 0 0.0009274242732449482 0.028174952049058902 0 0.0013765266629386745 0.029076677000033406 0 0.0016372653213552817 0.028285052770544872 0 0.0009274242732449482 0.028174952049058902 0 0.00073836049261552571 0.03125290569484386 0 0.00098678436090741993 0.031204687944868761 0 -2.1775934550843912e-05 0.03379511690634391 0 0.00040283568271934302 0.033318175762246438 0 0.00017304602331433795 0.034434465712995854 0 0.0016372653213552817 0.028285052770544872 0 0.0013917886217088853 0.0278756386333542 0 0.0009274242732449482 0.028174952049058902 0 0.0013917886217088853 0.0278756386333542 0 0.0009274242732449482 0.028174952049058902 0 0.00097355443886363777 0.027715128476918011 0 0.0009274242732449482 0.028174952049058902 0 0.00056266302172053935 0.027820567429793476 0 0.00018841458496458564 0.027956080957770406 0 0.0009274242732449482 0.028174952049058902 0 0.00097355443886363777 0.027715128476918011 0 0.00056266302172053935 0.027820567429793476 0 0.00061580273589211703 0.027541604124357782 0 0.00097355443886363777 0.027715128476918011 0 0.00056266302172053935 0.027820567429793476 0 0.00056266302172053935 0.027820567429793476 0 0.00018841458496458564 0.027956080957770406 0 0.00017296599133594529 0.027598319655232018 0 0.00016880987360526738 0.027858847761113418 0 -0.00031998549009988879 0.027419819347797462 0 0.00018841458496458564 0.027956080957770406 0 -0.00021217374067928702 0.027682090600460185 0 0.00017296599133594529 0.027598319655232018 0 0.00018841458496458564 0.027956080957770406 0 -0.0003753906423228566 0.027315311155993831 0 -0.00032261406239043699 0.027009384769315723 0 0.00018841458496458564 0.027956080957770406 0 -0.0001587862251619009 0.028381264720328904 0 -0.0003753906423228566 0.027315311155993831 0 0.00038269751010594732 0.028786344010160309 0 0.00018841458496458564 0.027956080957770406 0 -0.0001587862251619009 0.028381264720328904 0 0.00023535235261702066 0.030895321427939233 0 -0.0001587862251619009 0.028381264720328904 0 -2.0604681570783148e-07 0.028174539771799779 0 0.00023535235261702066 0.030895321427939233 0 0.00038269751010594732 0.028786344010160309 0 -0.0001587862251619009 0.028381264720328904 0 -2.0604681570783148e-07 0.028174539771799779 0 -0.00032004020089928745 0.026953396000483645 0 -0.00022661172363861687 0.025798241714154665 0 -0.0001587862251619009 0.028381264720328904 0 -2.0604681570783148e-07 0.028174539771799779 0 -0.00032004020089928745 0.026953396000483645 0 -0.00032004020089928745 0.026953396000483645 0 -0.0003753906423228566 0.027315311155993831 0 -0.00043504814038283443 0.026772807200371899 0 -0.00032004020089928745 0.026953396000483645 0 -0.00043504814038283443 0.026772807200371899 0 -0.00023313784695726792 0.025985956051349738 0 -0.0001587862251619009 0.028381264720328904 0 -0.00032004020089928745 0.026953396000483645 0 -0.0003753906423228566 0.027315311155993831 0 -0.0003753906423228566 0.027315311155993831 0 -0.00032261406239043699 0.027009384769315723 0 -0.00043504814038283443 0.026772807200371899 0 -0.00032261406239043699 0.027009384769315723 0 -0.00043504814038283443 0.026772807200371899 0 -0.00038217455760416774 0.026898912110815357 0 8.3318618348072917e-05 0.027373986886204356 0 7.3129394981390135e-05 0.027495198425786745 0 -0.00010974032322203859 0.027527091658177894 0 0.00042704946128804008 0.028541052564113042 0 0.00042609319354147267 0.028562637015030076 0 0.00029257501069534348 0.028600708770641876 0 0.00057130312942561292 0.032654120030050963 0 0.00089107034224837861 0.032656586183674056 0 0.00083827307839076301 0.032569157267683821 0 0.00047030915715094327 0.031046388063876048 0 0.00037026136110491836 0.029447416959077981 0 0.00015657857565413991 0.028058748820023762 0 0.00037026136110491836 0.029447416959077981 0 -0.00067621610966760008 0.027428845919148837 0 -0.00021931795069569525 0.027142791167062856 0 -0.00014891743976862363 0.027389244599030992 0 -0.00026010078708685531 0.026798424605533902 0 0.00037026136110491836 0.029447416959077981 0 -0.00031998549009988879 0.027419819347797462 0 -0.00026010078708685531 0.026798424605533902 0 -0.00021217374067928702 0.027682090600460185 0 -0.00067621610966760008 0.027428845919148837 0 -0.00014891743976862363 0.027389244599030992 0 -0.00021217374067928702 0.027682090600460185 0 -0.00014891743976862363 0.027389244599030992 0 0.00017296599133594529 0.027598319655232018 0 -0.00014891743976862363 0.027389244599030992 0 0.00017296599133594529 0.027598319655232018 0 0.00012960523392006239 0.027312230807459769 0 0.00061580273589211703 0.027541604124357782 0 0.00056266302172053935 0.027820567429793476 0 0.00017296599133594529 0.027598319655232018 0 0.00061580273589211703 0.027541604124357782 0 0.00017296599133594529 0.027598319655232018 0 0.00038162545811126666 0.027321338616788555 0 0.00017296599133594529 0.027598319655232018 0 0.00038162545811126666 0.027321338616788555 0 0.00012960523392006239 0.027312230807459769 0 0.00060619714651122887 0.029685737861463574 0 0.00057424689838454323 0.029705449695608357 0 0.00039706653085460123 0.02969914803402576 0 0.00067957563730851659 0.031267668980034496 0 0.00042637097898800505 0.029777371955215914 0 0.0007535716910655999 0.029715249102955053 0 0.00060619714651122887 0.029685737861463574 0 0.00057424689838454323 0.029705449695608357 0 0.00065815695844218566 0.027155466868925518 0 0.00038162545811126666 0.027321338616788555 0 0.0003162165842771163 0.027126977059723056 0 0.00038162545811126666 0.027321338616788555 0 0.0003162165842771163 0.027126977059723056 0 0.00012960523392006239 0.027312230807459769 0 0.00078525600914966932 0.032627401216706403 0 0.0009017135288197631 0.03260341499739676 0 0.00090478093114297544 0.03256423420667294 0 0.0003162165842771163 0.027126977059723056 0 0.00012960523392006239 0.027312230807459769 0 -5.2305280227253404e-05 0.027127258132680864 0 0.00036899712709634552 0.028415660378090492 0 0.00042637097898800505 0.029777371955215914 0 -0.00021931795069569525 0.027142791167062856 0 -0.00014891743976862363 0.027389244599030992 0 -5.2305280227253404e-05 0.027127258132680864 0 -0.00014891743976862363 0.027389244599030992 0 0.00012960523392006239 0.027312230807459769 0 -5.2305280227253404e-05 0.027127258132680864 0 0.00037026136110491836 0.029447416959077981 0 0.00042637097898800505 0.029777371955215914 0 0.00095624610186562282 0.032542254546766895 0 0.0009017135288197631 0.03260341499739676 0 0.00090478093114297544 0.03256423420667294 0 0.00089107034224837861 0.032656586183674056 0 0.0009017135288197631 0.03260341499739676 0 0.0008970906627924737 0.03259436765555903 0 0.00037026136110491836 0.029447416959077981 0 0.00021989201560474296 0.031820113372098897 0 0.0008970906627924737 0.03259436765555903 0 0.00089202116298827772 0.032645053929393715 0 0.00088585652830558653 0.032556203140383398 0 0.00089202116298827772 0.032645053929393715 0 0.00086337879760493787 0.032733718281419154 0 0.00088573005681006288 0.032521279527122977 0 0.0009017135288197631 0.03260341499739676 0 0.0008970906627924737 0.03259436765555903 0 0.00089202116298827772 0.032645053929393715 0 0.00078525600914966932 0.032627401216706403 0 0.0009017135288197631 0.03260341499739676 0 0.00089202116298827772 0.032645053929393715 0 0.00089202116298827772 0.032645053929393715 0 0.00088573005681006288 0.032521279527122977 0 0.00088585652830558653 0.032556203140383398 0 0.00052556275967618332 0.03294545757800782 0 0.0010805053219157122 0.033062914951790687 0 0.00052005875237062186 0.032969452504771422 0 0.00078525600914966932 0.032627401216706403 0 0.00086337879760493787 0.032733718281419154 0 0.00078525600914966932 0.032627401216706403 0 0.00089202116298827772 0.032645053929393715 0 0.00086337879760493787 0.032733718281419154 0 0.00079885812764050261 0.033562942942681348 0 0.00052005875237062186 0.032969452504771422 0 0.0012874078596469803 0.03335727823666839 0 0.00079885812764050261 0.033562942942681348 0 0.0012874078596469803 0.03335727823666839 0 0.0010857421886414482 0.033915099683931756 0 0.0012874078596469803 0.03335727823666839 0 0.0010857421886414482 0.033915099683931756 0 0.0020569065575947332 0.033608729311183021 0 0.0010857421886414482 0.033915099683931756 0 0.0020569065575947332 0.033608729311183021 0 0.0012821219644487533 0.034424848953482121 0 0.0010805053219157122 0.033062914951790687 0 0.0013234953354804399 0.032836536974377807 0 0.0015406141161566523 0.032870507150402573 0 0.0015326228740607511 0.032827391028192238 0 0.0013128496984202906 0.033237275453828659 0 0.0010141748966216552 0.032242450415378973 0 0.0004666869723532119 0.031965259773754556 0 0.00082501659747145711 0.03244124772755571 0 0.0015406141161566523 0.032870507150402573 0 0.0015326228740607511 0.032827391028192238 0 0.0013127480451476086 0.032837260560151758 0 0.0013234953354804399 0.032836536974377807 0 0.00099303877033361733 0.032556276143299097 0 0.0004666869723532119 0.031965259773754556 0 0.00049864201549427089 0.032347883530787429 0 0.00082501659747145711 0.03244124772755571 0 0.0013234953354804399 0.032836536974377807 0 0.0008547534953862923 0.032995603425273724 0 0.0015406141161566523 0.032870507150402573 0 0.0013127480451476086 0.032837260560151758 0 0.0013330262402783989 0.032626852031336334 0 0.00057130312942561292 0.032654120030050963 0 0.00049864201549427089 0.032347883530787429 0 0.00082501659747145711 0.03244124772755571 0 0.00057130312942561292 0.032654120030050963 0 0.00049864201549427089 0.032347883530787429 0 0.0002684748834425319 0.032397186242669282 0 0.00057130312942561292 0.032654120030050963 0 0.00083827307839076301 0.032569157267683821 0 0.00082501659747145711 0.03244124772755571 0 0.00089107034224837861 0.032656586183674056 0 0.0008970906627924737 0.03259436765555903 0 0.00083827307839076301 0.032569157267683821 0 0.0008970906627924737 0.03259436765555903 0 0.00083827307839076301 0.032569157267683821 0 0.00088585652830558653 0.032556203140383398 0 0.00088573005681006288 0.032521279527122977 0 0.00088585652830558653 0.032556203140383398 0 0.00082501659747145711 0.03244124772755571 0 0.00083827307839076301 0.032569157267683821 0 0.00088585652830558653 0.032556203140383398 0 0.00082501659747145711 0.03244124772755571 0 0.00064827382004467755 0.021675611595811235 0 -0.00011640322025712401 0.022008831367664686 0 0.00085979131818455417 0.022910465392854622 0 0.00028806219257752181 0.026883864693836731 0 0.00080311239717621979 0.026986054458266184 0 0.00057130312942561292 0.032654120030050963 0 0.0002684748834425319 0.032397186242669282 0 5.7698412525795203e-05 0.032590659163122197 0 0.0002684748834425319 0.032397186242669282 0 -3.6012200782976847e-05 0.032168722133502872 0 5.7698412525795203e-05 0.032590659163122197 0 0.00049864201549427089 0.032347883530787429 0 0.0002684748834425319 0.032397186242669282 0 0.00025691709312099616 0.032146679782209364 0 0.0002684748834425319 0.032397186242669282 0 0.00025691709312099616 0.032146679782209364 0 -3.6012200782976847e-05 0.032168722133502872 0 0.00025691709312099616 0.032146679782209364 0 9.3027554684159134e-05 0.031985312453813905 0 -3.6012200782976847e-05 0.032168722133502872 0 0.0004666869723532119 0.031965259773754556 0 0.00049864201549427089 0.032347883530787429 0 0.00025691709312099616 0.032146679782209364 0 0.0004666869723532119 0.031965259773754556 0 0.00025691709312099616 0.032146679782209364 0 0.00017475836511810967 0.031945720258483648 0 0.00025691709312099616 0.032146679782209364 0 9.3027554684159134e-05 0.031985312453813905 0 0.00017475836511810967 0.031945720258483648 0 0.00028806219257752181 0.026883864693836731 0 9.1368644204481138e-05 0.027019327586264189 0 0.00064827382004467755 0.021675611595811235 0 -8.1204024565705322e-05 0.021108408944864376 0 0.00041351921257731973 0.020475325275427378 0 9.3027554684159134e-05 0.031985312453813905 0 -3.6012200782976847e-05 0.032168722133502872 0 -0.00011873269901192906 0.031681402689261076 0 9.3027554684159134e-05 0.031985312453813905 0 0.00017475836511810967 0.031945720258483648 0 -0.00011873269901192906 0.031681402689261076 0 0.00064827382004467755 0.021675611595811235 0 -8.1204024565705322e-05 0.021108408944864376 0 -0.00011640322025712401 0.022008831367664686 0 -8.1204024565705322e-05 0.021108408944864376 0 -0.00073279026430621004 0.021381828536420754 0 -0.00051361903578287177 0.020688394949298073 0 -0.00073279026430621004 0.021381828536420754 0 -0.0011268671846026649 0.020512087394603782 0 -0.00051361903578287177 0.020688394949298073 0 -8.1204024565705322e-05 0.021108408944864376 0 -0.00073279026430621004 0.021381828536420754 0 -0.00011640322025712401 0.022008831367664686 0 -0.00073279026430621004 0.021381828536420754 0 -0.0015537364569024753 0.021279725125954475 0 -0.0011268671846026649 0.020512087394603782 0 -0.0017235523784076316 0.020621773170904759 0 -0.00094323455830031227 0.021650260814075749 0 -0.0018166201441853949 0.020047637158401133 0 -0.0018014249282802387 0.020375561135136191 0 -0.0016656357472753418 0.02038854103417604 0 -0.00073279026430621004 0.021381828536420754 0 -0.0015537364569024753 0.021279725125954475 0 -0.0010131784115576272 0.022733069166820427 0 -0.0013294973332929492 0.019923758565719599 0 -0.00094323455830031227 0.021650260814075749 0 -0.00073279026430621004 0.021381828536420754 0 -0.00011640322025712401 0.022008831367664686 0 -0.0010131784115576272 0.022733069166820427 0 -0.00011640322025712401 0.022008831367664686 0 -0.0010131784115576272 0.022733069166820427 0 0.00085979131818455417 0.022910465392854622 0 -5.6434129949793658e-05 0.021747270658296618 0 0.00038141747236391729 0.025127988129779913 0 -0.00094323455830031227 0.021650260814075749 0 0.00080311239717621979 0.026986054458266184 0 -0.00054888424509212002 0.024302632039006865 0 -0.00073124123768519855 0.023860738511233673 0 0.00027030490177143386 0.024085740101825084 0 -5.6434129949793658e-05 0.021747270658296618 0 -0.00094323455830031227 0.021650260814075749 0 -0.00029200109166283125 0.021030355809202868 0 -0.00051831351379195089 0.020487362725342604 0 -0.00057210008225303129 0.021039961571512149 0 -0.00015368913944944845 0.023246119464377029 0 3.1069609988754972e-05 0.023428910558411266 0 -5.4002576672824018e-05 0.023490648051981474 0 -5.6434129949793658e-05 0.021747270658296618 0 0.00060696104867969162 0.020225495911225109 0 0.0002970780192182136 0.01932859910786448 0 0.00060696104867969162 0.020225495911225109 0 0.00052198692399974998 0.020091996363589139 0 0.00041680027055275641 0.020095094543528348 0 0.00063059617808622933 0.020347338587824549 0 -5.6434129949793658e-05 0.021747270658296618 0 0.0002970780192182136 0.01932859910786448 0 -0.00015368913944944845 0.023246119464377029 0 3.1069609988754972e-05 0.023428910558411266 0 0.00015187137295408727 0.023362071344058034 0 0.0002970780192182136 0.01932859910786448 0 0.00032048689990046397 0.017020344030599488 0 0.0017400227831388911 0.016255534689295099 0 0.0015571617192992342 0.016551212498882212 0 0.0010126617609134531 0.016210428764759244 0 -0.00033664437726275639 0.018114497099886773 0 -0.00025539582593404246 0.018212626868103449 0 -0.00051368058484337151 0.018198197909919347 0 -0.0013294973332929492 0.019923758565719599 0 0.0002970780192182136 0.01932859910786448 0 -0.0010676794146593912 0.020448730577920397 0 -0.00051831351379195089 0.020487362725342604 0 -0.00057210008225303129 0.021039961571512149 0 0.0017344955784512647 0.016728447062159389 0 0.00200041530867114 0.016643021671277548 0 0.0015484594475596906 0.017159020216495631 0 0.0017400227831388911 0.016255534689295099 0 0.0015571617192992342 0.016551212498882212 0 0.0019702148035334712 0.016558224035467334 0 0.0015571617192992342 0.016551212498882212 0 0.0017344955784512647 0.016728447062159389 0 0.0019702148035334712 0.016558224035467334 0 0.0015571617192992342 0.016551212498882212 0 0.0017344955784512647 0.016728447062159389 0 0.0015429508045850108 0.016799877210900288 0 0.0015429508045850108 0.016799877210900288 0 0.0014209011324432688 0.016933284453729876 0 0.0012980513121364173 0.01673378312845103 0 0.0015571617192992342 0.016551212498882212 0 0.0015429508045850108 0.016799877210900288 0 0.0012980513121364173 0.01673378312845103 0 -2.4277699756150402e-05 0.023562528814631771 0 3.1069609988754972e-05 0.023428910558411266 0 0.00015398577987236713 0.023512113939444964 0 -2.4277699756150402e-05 0.023562528814631771 0 3.1069609988754972e-05 0.023428910558411266 0 -5.4002576672824018e-05 0.023490648051981474 0 0.00092301106458788805 0.020594452633273183 0 0.00060696104867969162 0.020225495911225109 0 3.1069609988754972e-05 0.023428910558411266 0 0.00015398577987236713 0.023512113939444964 0 0.00015187137295408727 0.023362071344058034 0 0.0017344955784512647 0.016728447062159389 0 0.00200041530867114 0.016643021671277548 0 0.0019702148035334712 0.016558224035467334 0 0.00038671104413235931 0.022237334000812049 0 0.00041389380937799228 0.022297971031906092 0 0.00037447497345803463 0.022366240758744615 0 0.00039257159343311822 0.022232150551778431 0 0.00041389380937799228 0.022297971031906092 0 0.00054206238391042011 0.022428278716151433 0 0.00092301106458788805 0.020594452633273183 0 0.0010079224865716153 0.021581987709565608 0 0.0003475042846065761 0.023550038567574094 0 0.00045398175672274897 0.023296322273020406 0 0.00052974102443465419 0.023763866995471731 0 0.00092301106458788805 0.020594452633273183 0 0.00019581756444649051 0.024609135974418942 0 -2.4277699756150402e-05 0.023562528814631771 0 0.00026203403300073888 0.023657446239571812 0 0.00028570825468399782 0.023914412595202258 0 -2.4277699756150402e-05 0.023562528814631771 0 0.00026203403300073888 0.023657446239571812 0 0.00015398577987236713 0.023512113939444964 0 0.00026203403300073888 0.023657446239571812 0 0.0003475042846065761 0.023550038567574094 0 0.00052974102443465419 0.023763866995471731 0 0.00026203403300073888 0.023657446239571812 0 0.0003475042846065761 0.023550038567574094 0 0.00015398577987236713 0.023512113939444964 0 0.0003475042846065761 0.023550038567574094 0 0.00015398577987236713 0.023512113939444964 0 0.00029534122137829104 0.023393797974869457 0 0.00015398577987236713 0.023512113939444964 0 0.00015187137295408727 0.023362071344058034 0 0.00029534122137829104 0.023393797974869457 0 -0.00015368913944944845 0.023246119464377029 0 0.00015187137295408727 0.023362071344058034 0 0.0003688591505798089 0.023249182053567883 0 0.00015187137295408727 0.023362071344058034 0 0.00029534122137829104 0.023393797974869457 0 0.0003688591505798089 0.023249182053567883 0 -0.00073124123768519855 0.023860738511233673 0 0.00077514043434362336 0.024009249877163023 0 0.00027030490177143386 0.024085740101825084 0 -0.00054888424509212002 0.024302632039006865 0 0.00064097711452205442 0.024288500915781719 0 0.00027030490177143386 0.024085740101825084 0 0.0003475042846065761 0.023550038567574094 0 0.00029534122137829104 0.023393797974869457 0 0.00045398175672274897 0.023296322273020406 0 0.00090660604395216798 0.02564067252419245 0 0.00038544856789800725 0.025366534874402932 0 0.00085835239167881964 0.025347477162745432 0 0.0004547252610275641 0.025461505851137906 0 0.00038141747236391729 0.025127988129779913 0 0.0004547252610275641 0.025461505851137906 0 0.00060805580165038489 0.026112160921335129 0 0.00029534122137829104 0.023393797974869457 0 0.00045398175672274897 0.023296322273020406 0 0.0003688591505798089 0.023249182053567883 0 0.00064333618594382945 0.024299401637753605 0 0.00077514043434362336 0.024009249877163023 0 0.00027030490177143386 0.024085740101825084 0 0.00064333618594382945 0.024299401637753605 0 0.00082321714947070632 0.024295604792266695 0 0.00077514043434362336 0.024009249877163023 0 0.00060805580165038489 0.026112160921335129 0 0.00080311239717621979 0.026986054458266184 0 0.00038141747236391729 0.025127988129779913 0 0.00060805580165038489 0.026112160921335129 0 0.00038141747236391729 0.025127988129779913 0 0.00019331072648672452 0.024557008411982263 0 0.00042704946128804008 0.028541052564113042 0 0.00042609319354147267 0.028562637015030076 0 0.00057129419319454182 0.028492628542711167 0 0.00015657857565413991 0.028058748820023762 0 0.00060805580165038489 0.026112160921335129 0 -0.00026010078708685531 0.026798424605533902 0 0.0004547252610275641 0.025461505851137906 0 0.00047030915715094327 0.031046388063876048 0 0.00080311239717621979 0.026986054458266184 0 7.3129394981390135e-05 0.027495198425786745 0 0.00025541491755234371 0.027447753167123921 0 0.00025858728192072332 0.02746538203198735 0 8.3318618348072917e-05 0.027373986886204356 0 7.3129394981390135e-05 0.027495198425786745 0 0.00025541491755234371 0.027447753167123921 0 0.00042609319354147267 0.028562637015030076 0 0.00057129419319454182 0.028492628542711167 0 0.00057754145903946626 0.028528845646204608 0 -0.00026010078708685531 0.026798424605533902 0 9.8295319349605604e-05 0.025011076424480638 0 -0.00012350142241547319 0.025750665275169705 0 0.00022326977731736153 0.025926139991798457 0 0.00016310586932694702 0.025566052238818526 0 0.0004547252610275641 0.025461505851137906 0 9.8295319349605604e-05 0.025011076424480638 0 -2.0604681570783148e-07 0.028174539771799779 0 -0.00022661172363861687 0.025798241714154665 0 -5.8187254746062714e-07 0.023071273824241026 0 -0.00043504814038283443 0.026772807200371899 0 -0.00016340372088267504 0.026804860527287623 0 -0.00023313784695726792 0.025985956051349738 0 -0.00043504814038283443 0.026772807200371899 0 -0.00038217455760416774 0.026898912110815357 0 -0.00016340372088267504 0.026804860527287623 0 -0.00016340372088267504 0.026804860527287623 0 0.00025431868936868086 0.026529653739069126 0 -0.00023313784695726792 0.025985956051349738 0 9.8295319349605604e-05 0.025011076424480638 0 0.00019581756444649051 0.024609135974418942 0 0.00026203403300073888 0.023657446239571812 0 0.00052974102443465419 0.023763866995471731 0 0.00028570825468399782 0.023914412595202258 0 0.00019581756444649051 0.024609135974418942 0 -1.7572907790590759e-05 0.026276451037481444 0 -0.00021712685491936834 0.025607432287899575 0 -0.00018942214702084438 0.025150600748644485 0 -0.00023313784695726792 0.025985956051349738 0 -0.00018942214702084438 0.025150600748644485 0 -0.00023313784695726792 0.025985956051349738 0 -0.00022661172363861687 0.025798241714154665 0 -0.00022661172363861687 0.025798241714154665 0 -5.8187254746062714e-07 0.023071273824241026 0 -0.00010473204688236159 0.02441670632670204 0 -0.00032004020089928745 0.026953396000483645 0 -0.00023313784695726792 0.025985956051349738 0 -0.00022661172363861687 0.025798241714154665 0 -0.00018942214702084438 0.025150600748644485 0 -0.00022661172363861687 0.025798241714154665 0 -0.00010473204688236159 0.02441670632670204 0 -5.8187254746062714e-07 0.023071273824241026 0 4.6511645048392205e-05 0.023636481308103027 0 0.00025601765650554978 0.022387101427117126 0 -5.8187254746062714e-07 0.023071273824241026 0 -0.00010473204688236159 0.02441670632670204 0 4.6511645048392205e-05 0.023636481308103027 0 -5.7750440050826e-05 0.024460269771515573 0 4.6511645048392205e-05 0.023636481308103027 0 0.00011271753655455194 0.024677986666087941 0 -0.00018942214702084438 0.025150600748644485 0 -0.00010473204688236159 0.02441670632670204 0 -5.7750440050826e-05 0.024460269771515573 0 -0.00010473204688236159 0.02441670632670204 0 -5.7750440050826e-05 0.024460269771515573 0 4.6511645048392205e-05 0.023636481308103027 0 4.6511645048392205e-05 0.023636481308103027 0 0.00011271753655455194 0.024677986666087941 0 0.00025601765650554978 0.022387101427117126 0 0.00014319192803406204 0.023471963298762312 0 0.0002303465505218341 0.022634782759505669 0 0.00027492691673735393 0.02250957933862233 0 0.00027460558455102486 0.022553370767160515 0 0.00025601765650554978 0.022387101427117126 0 0.00027492691673735393 0.02250957933862233 0 0.00027460558455102486 0.022553370767160515 0 0.00022890490113994572 0.02247711385167581 0 -0.00021712685491936834 0.025607432287899575 0 -0.00018942214702084438 0.025150600748644485 0 0.00011271753655455194 0.024677986666087941 0 -0.00018942214702084438 0.025150600748644485 0 -5.7750440050826e-05 0.024460269771515573 0 0.00011271753655455194 0.024677986666087941 0 0.00054206238391042011 0.022428278716151433 0 0.00027460558455102486 0.022553370767160515 0 0.00041201851518200795 0.022417117665251951 0 0.00032658143864121379 0.022452138323891244 0 0.00037447497345803463 0.022366240758744615 0 0.00022890490113994572 0.02247711385167581 0 0.00038671104413235931 0.022237334000812049 0 0.00037447497345803463 0.022366240758744615 0 0.00022890490113994572 0.02247711385167581 0 0.00019581756444649051 0.024609135974418942 0 0.00014319192803406204 0.023471963298762312 0 0.00027460558455102486 0.022553370767160515 0 0.00032658143864121379 0.022452138323891244 0 0.00041201851518200795 0.022417117665251951 0 0.00032658143864121379 0.022452138323891244 0 0.00037447497345803463 0.022366240758744615 0 0.00041201851518200795 0.022417117665251951 0 0.00041389380937799228 0.022297971031906092 0 0.00037447497345803463 0.022366240758744615 0 0.00041201851518200795 0.022417117665251951 0 0.00041389380937799228 0.022297971031906092 0 0.00054206238391042011 0.022428278716151433 0 0.00041201851518200795 0.022417117665251951 0 0.00092301106458788805 0.020594452633273183 0 0.0010212327467399266 0.019603312812012441 0 0.0017344955784512647 0.016728447062159389 0 0.0015429508045850108 0.016799877210900288 0 0.0015484594475596906 0.017159020216495631 0 0.0015484594475596906 0.017159020216495631 0 0.0014209011324432688 0.016933284453729876 0 0.0012853652244216461 0.017026786803458878 0 0.00027460558455102486 0.022553370767160515 0 0.00032658143864121379 0.022452138323891244 0 0.00022890490113994572 0.02247711385167581 0 0.0015429508045850108 0.016799877210900288 0 0.0015484594475596906 0.017159020216495631 0 0.0014209011324432688 0.016933284453729876 0 0.0014209011324432688 0.016933284453729876 0 0.0012853652244216461 0.017026786803458878 0 0.0012980513121364173 0.01673378312845103 0 0.0012853652244216461 0.017026786803458878 0 0.0010357498944357573 0.016892859203981318 0 0.0012980513121364173 0.01673378312845103 0 0.0012853652244216461 0.017026786803458878 0 0.0010357498944357573 0.016892859203981318 0 0.0010649766861900686 0.017144762984233897 0 0.0012853652244216461 0.017026786803458878 0 0.0010649766861900686 0.017144762984233897 0 0.0012630935448514006 0.017309764581589327 0 0.0010357498944357573 0.016892859203981318 0 0.0010649766861900686 0.017144762984233897 0 0.00084240745944003754 0.017031425140892162 0 0.0015484594475596906 0.017159020216495631 0 0.0012853652244216461 0.017026786803458878 0 0.0012630935448514006 0.017309764581589327 0 0.00056252195686110258 0.016945015956126814 0 0.00074468780557815286 0.016793652158412074 0 0.00045670870647248425 0.016742190079883427 0 0.00056252195686110258 0.016945015956126814 0 0.00021967715569896535 0.016977699759963057 0 0.00045670870647248425 0.016742190079883427 0 0.00056252195686110258 0.016945015956126814 0 0.00074468780557815286 0.016793652158412074 0 0.00084240745944003754 0.017031425140892162 0 0.0010357498944357573 0.016892859203981318 0 0.00074468780557815286 0.016793652158412074 0 0.00084240745944003754 0.017031425140892162 0 0.0010649766861900686 0.017144762984233897 0 0.00084240745944003754 0.017031425140892162 0 0.00082948996938153618 0.01729235123246128 0 0.00084240745944003754 0.017031425140892162 0 0.00047932385152654169 0.017136294459667901 0 0.00082948996938153618 0.01729235123246128 0 0.00056252195686110258 0.016945015956126814 0 0.00084240745944003754 0.017031425140892162 0 0.00047932385152654169 0.017136294459667901 0 0.00056252195686110258 0.016945015956126814 0 0.00047932385152654169 0.017136294459667901 0 0.00021967715569896535 0.016977699759963057 0 0.00047932385152654169 0.017136294459667901 0 0.00082948996938153618 0.01729235123246128 0 0.00054197910815933018 0.01749135594507709 0 0.00047932385152654169 0.017136294459667901 0 0.00054197910815933018 0.01749135594507709 0 0.00022360433530369241 0.017259058222382464 0 0.00082948996938153618 0.01729235123246128 0 0.0009357248740391764 0.017577244651642159 0 0.0010968546550802435 0.017416166710874658 0 0.00082948996938153618 0.01729235123246128 0 0.0009357248740391764 0.017577244651642159 0 0.00054197910815933018 0.01749135594507709 0 0.0009357248740391764 0.017577244651642159 0 0.00075458521297498433 0.017787955907190664 0 0.00054197910815933018 0.01749135594507709 0 0.0009357248740391764 0.017577244651642159 0 0.00075458521297498433 0.017787955907190664 0 0.001313273815820128 0.017840272066273297 0 0.00075458521297498433 0.017787955907190664 0 0.00054197910815933018 0.01749135594507709 0 0.00038606975092164638 0.017830932643368547 0 0.0010212327467399266 0.019603312812012441 0 0.0007019340237479425 0.020221584504563711 0 0.0012630935448514006 0.017309764581589327 0 0.0010968546550802435 0.017416166710874658 0 0.001313273815820128 0.017840272066273297 0 0.0015484594475596906 0.017159020216495631 0 0.0012630935448514006 0.017309764581589327 0 0.001313273815820128 0.017840272066273297 0 0.00027492691673735393 0.02250957933862233 0 0.00022890490113994572 0.02247711385167581 0 0.00037203485220069666 0.022565680266685838 0 0.0010649766861900686 0.017144762984233897 0 0.0012630935448514006 0.017309764581589327 0 0.0010968546550802435 0.017416166710874658 0 0.0010649766861900686 0.017144762984233897 0 0.00082948996938153618 0.01729235123246128 0 0.0010968546550802435 0.017416166710874658 0 0.0009357248740391764 0.017577244651642159 0 0.0010968546550802435 0.017416166710874658 0 0.001313273815820128 0.017840272066273297 0 -5.8187254746062714e-07 0.023071273824241026 0 0.00022249133608832244 0.019771532193558036 0 1.1988846999158645e-06 0.019269393380330891 0 0.00027492691673735393 0.02250957933862233 0 0.00025601765650554978 0.022387101427117126 0 0.00037203485220069666 0.022565680266685838 0 -5.8187254746062714e-07 0.023071273824241026 0 0.00025601765650554978 0.022387101427117126 0 0.00022249133608832244 0.019771532193558036 0 0.00075458521297498433 0.017787955907190664 0 0.001313273815820128 0.017840272066273297 0 0.00050810970910140105 0.018331513552531202 0 0.00025601765650554978 0.022387101427117126 0 0.00037203485220069666 0.022565680266685838 0 0.00022249133608832244 0.019771532193558036 0 0.0007019340237479425 0.020221584504563711 0 0.00026073457130336046 0.019949095467809621 0 0.001313273815820128 0.017840272066273297 0 0.00050810970910140105 0.018331513552531202 0 0.00022249133608832244 0.019771532193558036 0 0.00075458521297498433 0.017787955907190664 0 0.00038606975092164638 0.017830932643368547 0 0.00050810970910140105 0.018331513552531202 0 0.00038606975092164638 0.017830932643368547 0 0.00050810970910140105 0.018331513552531202 0 0.00017477121826161928 0.018146182480340809 0 0.00050810970910140105 0.018331513552531202 0 0.00022249133608832244 0.019771532193558036 0 0.00018102807605698486 0.018810686260041377 0 -0.00035520999734125835 0.01734341765109363 0 -1.2080406176070321e-06 0.016439331558550534 0 1.1988846999158645e-06 0.019269393380330891 0 -0.00035520999734125835 0.01734341765109363 0 1.1988846999158645e-06 0.019269393380330891 0 -0.00010906179882533463 0.018322148456578199 0 0.00022249133608832244 0.019771532193558036 0 1.1988846999158645e-06 0.019269393380330891 0 -0.00010906179882533463 0.018322148456578199 0 0.00022249133608832244 0.019771532193558036 0 -0.00010906179882533463 0.018322148456578199 0 0.00018102807605698486 0.018810686260041377 0 -0.00010906179882533463 0.018322148456578199 0 0.00017477121826161928 0.018146182480340809 0 5.7669198866999778e-05 0.017568268056239775 0 -0.00010906179882533463 0.018322148456578199 0 -0.00032839358645423902 0.017431101196899224 0 5.7669198866999778e-05 0.017568268056239775 0 -0.00010906179882533463 0.018322148456578199 0 0.00018102807605698486 0.018810686260041377 0 0.00017477121826161928 0.018146182480340809 0 0.00050810970910140105 0.018331513552531202 0 0.00018102807605698486 0.018810686260041377 0 0.00017477121826161928 0.018146182480340809 0 0.00038606975092164638 0.017830932643368547 0 0.00017477121826161928 0.018146182480340809 0 5.7669198866999778e-05 0.017568268056239775 0 -0.00035520999734125835 0.01734341765109363 0 -0.00010906179882533463 0.018322148456578199 0 -0.00032839358645423902 0.017431101196899224 0 -0.00032839358645423902 0.017431101196899224 0 -0.00011711885931489691 0.017179818898929396 0 5.7669198866999778e-05 0.017568268056239775 0 -0.00043452909323525232 0.01702318296469291 0 -0.00032839358645423902 0.017431101196899224 0 -0.00011711885931489691 0.017179818898929396 0 0.00054197910815933018 0.01749135594507709 0 0.00038606975092164638 0.017830932643368547 0 5.7669198866999778e-05 0.017568268056239775 0 -0.00011711885931489691 0.017179818898929396 0 5.7669198866999778e-05 0.017568268056239775 0 0.00022360433530369241 0.017259058222382464 0 0.00054197910815933018 0.01749135594507709 0 5.7669198866999778e-05 0.017568268056239775 0 0.00022360433530369241 0.017259058222382464 0 0.00047932385152654169 0.017136294459667901 0 0.00022360433530369241 0.017259058222382464 0 0.00021967715569896535 0.016977699759963057 0 -0.00011711885931489691 0.017179818898929396 0 0.00021967715569896535 0.016977699759963057 0 -0.00014464403836628349 0.016883458603943975 0 -0.00011711885931489691 0.017179818898929396 0 0.00022360433530369241 0.017259058222382464 0 0.00021967715569896535 0.016977699759963057 0 0.00021967715569896535 0.016977699759963057 0 -0.00014464403836628349 0.016883458603943975 0 0.00016221135740925101 0.016723479250701431 0 0.00021967715569896535 0.016977699759963057 0 0.00016221135740925101 0.016723479250701431 0 0.00045670870647248425 0.016742190079883427 0 -0.00041787849467331002 0.016810348190266944 0 -0.00014464403836628349 0.016883458603943975 0 -7.8405086536211471e-05 0.01659015197151396 0 -0.00041787849467331002 0.016810348190266944 0 -0.00043452909323525232 0.01702318296469291 0 -0.00014464403836628349 0.016883458603943975 0 -0.00043452909323525232 0.01702318296469291 0 -0.00011711885931489691 0.017179818898929396 0 -0.00014464403836628349 0.016883458603943975 0 -0.00044086685434843308 0.016402093196662408 0 -7.8405086536211471e-05 0.01659015197151396 0 0.00017913496782384779 0.016284383257272696 0 -0.00041787849467331002 0.016810348190266944 0 -0.00044086685434843308 0.016402093196662408 0 -7.8405086536211471e-05 0.01659015197151396 0 -0.0002133034800305825 0.015713577226949584 0 -0.00059538478199403031 0.015746028051311534 0 -0.00039674656240010344 0.015952752168786957 0 -0.00042832230598494942 0.014279552084343795 0 -0.00085452124792446569 0.015714732983748283 0 -0.00042832230598494942 0.014279552084343795 0 -0.00017210911150378035 0.016681754551983508 0 -0.00076976948858252438 0.018189534045607823 0 -0.00059784084923714055 0.018076216382970235 0 -0.00085666101193934967 0.018042002428265109 0 -0.00059538478199403031 0.015746028051311534 0 -0.00047962709502581019 0.015950112195656726 0 -0.00039674656240010344 0.015952752168786957 0 -0.00017210911150378035 0.016681754551983508 0 -0.0011222181512446727 0.017372466495359049 0 -0.00017210911150378035 0.016681754551983508 0 7.6247691895209587e-05 0.016512692391855554 0 0.00018141867100649229 0.016209182370905045 0 0.00032397555951606857 0.016468000594750638 0 0.00062537137052961448 0.016523241765045583 0 -7.8405086536211471e-05 0.01659015197151396 0 0.00017913496782384779 0.016284383257272696 0 0.00032397555951606857 0.016468000594750638 0 -0.00014464403836628349 0.016883458603943975 0 -7.8405086536211471e-05 0.01659015197151396 0 0.00016221135740925101 0.016723479250701431 0 -7.8405086536211471e-05 0.01659015197151396 0 0.00032397555951606857 0.016468000594750638 0 0.00016221135740925101 0.016723479250701431 0 0.00032397555951606857 0.016468000594750638 0 0.00016221135740925101 0.016723479250701431 0 0.00045670870647248425 0.016742190079883427 0 0.00032397555951606857 0.016468000594750638 0 0.00045670870647248425 0.016742190079883427 0 0.00062537137052961448 0.016523241765045583 0 0.00074468780557815286 0.016793652158412074 0 0.00045670870647248425 0.016742190079883427 0 0.00062537137052961448 0.016523241765045583 0 0.0010357498944357573 0.016892859203981318 0 0.00074468780557815286 0.016793652158412074 0 0.00095300438906285542 0.016639911670230878 0 0.00074468780557815286 0.016793652158412074 0 0.00062537137052961448 0.016523241765045583 0 0.00095300438906285542 0.016639911670230878 0 0.00062537137052961448 0.016523241765045583 0 0.00095300438906285542 0.016639911670230878 0 0.0010126617609134531 0.016210428764759244 0 0.0012980513121364173 0.01673378312845103 0 0.00095300438906285542 0.016639911670230878 0 0.0010126617609134531 0.016210428764759244 0 0.0015571617192992342 0.016551212498882212 0 0.0012980513121364173 0.01673378312845103 0 0.0010126617609134531 0.016210428764759244 0 0.0010357498944357573 0.016892859203981318 0 0.0012980513121364173 0.01673378312845103 0 0.00095300438906285542 0.016639911670230878 0 -0.00033664437726275639 0.018114497099886773 0 -0.00051368058484337151 0.018198197909919347 0 -0.00059784084923714055 0.018076216382970235 0 -0.00076976948858252438 0.018189534045607823 0 -0.00051368058484337151 0.018198197909919347 0 -0.00059784084923714055 0.018076216382970235 0 0.00018141867100649229 0.016209182370905045 0 0.00062537137052961448 0.016523241765045583 0 0.0010126617609134531 0.016210428764759244 0 -0.00017210911150378035 0.016681754551983508 0 0.00032048689990046397 0.017020344030599488 0 -0.0021031481055885115 0.020064986899072611 0 -0.0021360232689646521 0.020004482072242313 0 -0.0021640532201704565 0.020013424193815084 0 -0.0021031481055885115 0.020064986899072611 0 -0.0020649446412535398 0.020016127477047157 0 -0.0021360232689646521 0.020004482072242313 0 -0.0018166201441853949 0.020047637158401133 0 -0.0018014249282802387 0.020375561135136191 0 -0.0020649446412535398 0.020016127477047157 0 -0.0013294973332929492 0.019923758565719599 0 -0.0022332281899413654 0.020095228027321409 0 -0.0020058005715368351 0.020073757796484171 0 -0.0021031481055885115 0.020064986899072611 0 -0.0020649446412535398 0.020016127477047157 0 -0.0013294973332929492 0.019923758565719599 0 -0.0013968215217858564 0.019167660952609741 0 -0.0018166201441853949 0.020047637158401133 0 -0.0020649446412535398 0.020016127477047157 0 -0.0020037704071103331 0.01992212409728655 0 -0.0020649446412535398 0.020016127477047157 0 -0.0021256701687096527 0.019938127154642042 0 -0.0020037704071103331 0.01992212409728655 0 -0.0021360232689646521 0.020004482072242313 0 -0.0021885978652018911 0.019963519809872692 0 -0.0021640532201704565 0.020013424193815084 0 -0.0020649446412535398 0.020016127477047157 0 -0.0021360232689646521 0.020004482072242313 0 -0.0021256701687096527 0.019938127154642042 0 -0.0021360232689646521 0.020004482072242313 0 -0.0021885978652018911 0.019963519809872692 0 -0.0021256701687096527 0.019938127154642042 0 -0.00085611359445014669 0.017481027055496097 0 -0.00057235828022677844 0.017434669488658079 0 -0.0010266957851165868 0.017821097422203003 0 -0.0021885978652018911 0.019963519809872692 0 -0.0021921477061544862 0.020009822117438479 0 -0.0021640532201704565 0.020013424193815084 0 -0.0017287446077023224 0.019005546197622153 0 -0.0013311922314590151 0.017177938326656015 0 -0.00085611359445014669 0.017481027055496097 0 -0.0010733695176594821 0.017543271568342542 0 -0.00075149462199483824 0.017131592394546896 0 -0.00085611359445014669 0.017481027055496097 0 -0.00057235828022677844 0.017434669488658079 0 -0.00075149462199483824 0.017131592394546896 0 -0.00069392245187493702 0.015980862358708586 0 -0.0013311922314590151 0.017177938326656015 0 -0.0012587316529845095 0.01455402766818068 0 -0.0011009640443942329 0.014616336160379955 0 -0.0012060395696842543 0.014487399309722839 0 -0.0011186637414201447 0.014799504627309485 0 -0.0012587316529845095 0.01455402766818068 0 -0.0011009640443942329 0.014616336160379955 0 -0.0013311922314590151 0.017177938326656015 0 -0.0011222181512446727 0.017372466495359049 0 -0.0012632141873206205 0.016638803044624523 0 -0.0012472076216985394 0.016666389616138009 0 -0.0012821478594516999 0.01666150431969559 0 -0.0011222181512446727 0.017372466495359049 0 -0.00085452124792446569 0.015714732983748283 0 -0.0013311922314590151 0.017177938326656015 0 -0.00085452124792446569 0.015714732983748283 0 -0.0021031481055885115 0.020064986899072611 0 -0.0021900826129470246 0.020020103132810149 0 -0.0021640532201704565 0.020013424193815084 0 -0.0013968215217858564 0.019167660952609741 0 -0.0011222181512446727 0.017372466495359049 0 -0.0021921477061544862 0.020009822117438479 0 -0.0021900826129470246 0.020020103132810149 0 -0.0021640532201704565 0.020013424193815084 0 -0.00045364239945384281 0.018025180509975102 0 -0.00053583744265937806 0.017223533084498796 0 -0.00087282792004712449 0.018138087369595893 0 -0.00015669755456097857 0.017550660777206892 0 -0.00045364239945384281 0.018025180509975102 0 -0.00019438371974838561 0.018431019029759063 0 -0.00015669755456097857 0.017550660777206892 0 -0.00045364239945384281 0.018025180509975102 0 -0.00053583744265937806 0.017223533084498796 0 -0.00015669755456097857 0.017550660777206892 0 0.00031769828283278816 0.01771970744347191 0 0.00020287767679068072 0.017068853490665743 0 0.00027151951910252953 0.016772890838744423 0 0.00024407910570113322 0.017011358588775404 0 -0.00015669755456097857 0.017550660777206892 0 0.00031769828283278816 0.01771970744347191 0 0.00034818405430669355 0.018221715099136164 0 -0.00069392245187493702 0.015980862358708586 0 -0.00072768650667432084 0.01774311343445107 0 0.00020579587332303454 0.016817227788490468 0 0.00020287767679068072 0.017068853490665743 0 -0.00053583744265937806 0.017223533084498796 0 -8.0525002902202532e-05 0.016995142821838238 0 0.00020579587332303454 0.016817227788490468 0 0.00020287767679068072 0.017068853490665743 0 -0.00015669755456097857 0.017550660777206892 0 0.00020287767679068072 0.017068853490665743 0 -0.00053583744265937806 0.017223533084498796 0 -0.00085611359445014669 0.017481027055496097 0 -0.0010733695176594821 0.017543271568342542 0 -0.0010266957851165868 0.017821097422203003 0 -0.0017287446077023224 0.019005546197622153 0 -0.0017434467709983824 0.018780216201245516 0 -0.0010733695176594821 0.017543271568342542 0 -0.0010266957851165868 0.017821097422203003 0 -0.0014036222248949236 0.018003885618358344 0 -0.0021885978652018911 0.019963519809872692 0 -0.0021256701687096527 0.019938127154642042 0 -0.0022149245728331963 0.019686438064407567 0 -0.0018166201441853949 0.020047637158401133 0 -0.0020037704071103331 0.01992212409728655 0 -0.0018891269650338556 0.019807778627098472 0 -0.0021256701687096527 0.019938127154642042 0 -0.0020037704071103331 0.01992212409728655 0 -0.0022149245728331963 0.019686438064407567 0 -0.0020037704071103331 0.01992212409728655 0 -0.0018891269650338556 0.019807778627098472 0 -0.0022149245728331963 0.019686438064407567 0 -0.0018891269650338556 0.019807778627098472 0 -0.0022149245728331963 0.019686438064407567 0 -0.0015476171620872026 0.019371594263679667 0 -0.0017434467709983824 0.018780216201245516 0 -0.0016023498120660731 0.018735856908257128 0 -0.001454297088332557 0.018341443463294152 0 -0.0014036222248949236 0.018003885618358344 0 -0.0015700477535279885 0.018732567579183405 0 -0.0022149245728331963 0.019686438064407567 0 -0.0015700477535279885 0.018732567579183405 0 -0.0015476171620872026 0.019371594263679667 0 -0.00072768650667432084 0.01774311343445107 0 -0.0014376569652052907 0.018212100144430688 0 -0.0010266957851165868 0.017821097422203003 0 -0.001454297088332557 0.018341443463294152 0 -0.0014036222248949236 0.018003885618358344 0 -0.00053583744265937806 0.017223533084498796 0 -0.001454297088332557 0.018341443463294152 0 -0.00087282792004712449 0.018138087369595893 0 -0.001454297088332557 0.018341443463294152 0 -0.00087282792004712449 0.018138087369595893 0 -0.0011445449560563686 0.018507964727728501 0 -0.00087282792004712449 0.018138087369595893 0 -0.0011445449560563686 0.018507964727728501 0 -0.00074710301595676384 0.018603983972213078 0 -0.0011445449560563686 0.018507964727728501 0 -0.001186303175206191 0.018774694832700289 0 -0.001399044324471859 0.018676318108653139 0 -0.0011445449560563686 0.018507964727728501 0 -0.001186303175206191 0.018774694832700289 0 -0.00074710301595676384 0.018603983972213078 0 -0.0015700477535279885 0.018732567579183405 0 -0.0015252172865317026 0.019013792598030363 0 -0.0013381644542446935 0.018662004964107956 0 -0.0014899178882297275 0.019151094985169131 0 -0.0017880916698679015 0.018345516366554269 0 -0.001454297088332557 0.018341443463294152 0 -0.001399044324471859 0.018676318108653139 0 -0.0015700477535279885 0.018732567579183405 0 -0.001454297088332557 0.018341443463294152 0 -0.0011445449560563686 0.018507964727728501 0 -0.001399044324471859 0.018676318108653139 0 -0.001399044324471859 0.018676318108653139 0 -0.0015700477535279885 0.018732567579183405 0 -0.0015252172865317026 0.019013792598030363 0 -0.0015252172865317026 0.019013792598030363 0 -0.001574084058289831 0.019252084062649957 0 -0.0019879625779697274 0.019002715798469499 0 -0.0015225147543945926 0.019458507253193837 0 -0.0019705674431353252 0.018999267659761478 0 -0.001186303175206191 0.018774694832700289 0 -0.001399044324471859 0.018676318108653139 0 -0.0015252172865317026 0.019013792598030363 0 -0.0015252172865317026 0.019013792598030363 0 -0.001574084058289831 0.019252084062649957 0 -0.0010663377014639181 0.019165485696188141 0 -0.0015988242029778357 0.01950295423902108 0 -0.0019025342629748817 0.019657386911908065 0 -0.0019816945414689283 0.019448440826529842 0 -0.0015988242029778357 0.01950295423902108 0 -0.0019816945414689283 0.019448440826529842 0 -0.0019879625779697274 0.019002715798469499 0 -0.001186303175206191 0.018774694832700289 0 -0.0010663377014639181 0.019165485696188141 0 -0.00074710301595676384 0.018603983972213078 0 -0.001186303175206191 0.018774694832700289 0 -0.0015252172865317026 0.019013792598030363 0 -0.0010663377014639181 0.019165485696188141 0 -0.0010663377014639181 0.019165485696188141 0 -0.00031344048028355431 0.01926856609841705 0 -0.00074710301595676384 0.018603983972213078 0 -0.00031344048028355431 0.01926856609841705 0 -0.00074710301595676384 0.018603983972213078 0 -0.00019438371974838561 0.018431019029759063 0 -0.00045364239945384281 0.018025180509975102 0 -0.00087282792004712449 0.018138087369595893 0 -0.00074710301595676384 0.018603983972213078 0 -0.00045364239945384281 0.018025180509975102 0 -0.00074710301595676384 0.018603983972213078 0 -0.00019438371974838561 0.018431019029759063 0 3.5938870264536508e-05 0.01797333470973719 0 0.00015290397632806085 0.01753009798560835 0 -0.00015669755456097857 0.017550660777206892 0 -0.00019438371974838561 0.018431019029759063 0 0.00057516105672539915 0.018713664748626693 0 8.5669205347388673e-07 0.017078799619447926 0 0.00014745187167734784 0.016978817900091838 0 0.00011289666796018753 0.017098571156282293 0 0.00017042517708207435 0.017013920184621383 0 0.00014745187167734784 0.016978817900091838 0 0.00011289666796018753 0.017098571156282293 0 -7.7622069268740886e-05 0.01815961537767306 0 0.00015290397632806085 0.01753009798560835 0 0.00017042517708207435 0.017013920184621383 0 0.00015208780408677432 0.017135649820663068 0 0.00011289666796018753 0.017098571156282293 0 -0.00031344048028355431 0.01926856609841705 0 -0.00019438371974838561 0.018431019029759063 0 0.00057516105672539915 0.018713664748626693 0 8.5669205347388673e-07 0.017078799619447926 0 0.00011289666796018753 0.017098571156282293 0 6.1178783358438056e-05 0.01719771544234526 0 0.00015208780408677432 0.017135649820663068 0 0.00011289666796018753 0.017098571156282293 0 0.0001455262124722398 0.017184609322029757 0 0.00011289666796018753 0.017098571156282293 0 6.1178783358438056e-05 0.01719771544234526 0 0.0001455262124722398 0.017184609322029757 0 -7.7622069268740886e-05 0.01815961537767306 0 -0.00088608013129368179 0.01872253312294548 0 8.5669205347388673e-07 0.017078799619447926 0 -3.1648598093011185e-05 0.017197150938386099 0 -0.00015511422245848651 0.017188906754521352 0 8.5669205347388673e-07 0.017078799619447926 0 6.1178783358438056e-05 0.01719771544234526 0 -3.1648598093011185e-05 0.017197150938386099 0 -3.1648598093011185e-05 0.017197150938386099 0 -2.505859394858029e-05 0.017315148549654182 0 -0.00015511422245848651 0.017188906754521352 0 6.1178783358438056e-05 0.01719771544234526 0 -3.1648598093011185e-05 0.017197150938386099 0 -2.505859394858029e-05 0.017315148549654182 0 0.00016009186198969911 0.01726276890884745 0 -0.00027501442867496908 0.017658023370006139 0 0.00015978336621669671 0.017328753829030701 0 -2.505859394858029e-05 0.017315148549654182 0 0.00010269936431815147 0.0172529681385961 0 6.1178783358438056e-05 0.01719771544234526 0 -2.505859394858029e-05 0.017315148549654182 0 0.00010269936431815147 0.0172529681385961 0 6.1178783358438056e-05 0.01719771544234526 0 0.0001455262124722398 0.017184609322029757 0 0.00010269936431815147 0.0172529681385961 0 0.00017682266817025196 0.017246126171356263 0 0.0001455262124722398 0.017184609322029757 0 0.00010269936431815147 0.0172529681385961 0 0.00017682266817025196 0.017246126171356263 0 0.00015978336621669671 0.017328753829030701 0 0.00010269936431815147 0.0172529681385961 0 0.00015978336621669671 0.017328753829030701 0 -0.00037284490933594297 0.017288108938622287 0 -1.547616647166705e-05 0.01767598109638931 0 0.00022040532908170933 0.017433982346569305 0 0.00015978336621669671 0.017328753829030701 0 -1.547616647166705e-05 0.01767598109638931 0 -0.00027501442867496908 0.017658023370006139 0 -5.3012900220664472e-05 0.017632328819851228 0 -0.00015437617023746953 0.017698976198502643 0 -0.00014683392584880509 0.017863015263301866 0 -0.00028647128775229308 0.017866738374847695 0 -0.00015437617023746953 0.017698976198502643 0 -1.547616647166705e-05 0.01767598109638931 0 -0.00014683392584880509 0.017863015263301866 0 -0.00014683392584880509 0.017863015263301866 0 2.0015342138173564e-05 0.017887753407787366 0 -0.0001162565348908595 0.018147354683146585 0 -0.00014683392584880509 0.017863015263301866 0 -0.00029361607845587332 0.018048435404782532 0 -0.0001162565348908595 0.018147354683146585 0 0.00022470224077463007 0.017608631110611391 0 -1.547616647166705e-05 0.01767598109638931 0 2.0015342138173564e-05 0.017887753407787366 0 -1.547616647166705e-05 0.01767598109638931 0 -0.00014683392584880509 0.017863015263301866 0 2.0015342138173564e-05 0.017887753407787366 0 -0.00049482129542498721 0.018020071396984482 0 -0.00075099427941628595 0.01844571555038766 0 -0.00042943278186149801 0.01839049228962868 0 -0.00029361607845587332 0.018048435404782532 0 -0.00049482129542498721 0.018020071396984482 0 -0.00042943278186149801 0.01839049228962868 0 -0.00029361607845587332 0.018048435404782532 0 -0.00028647128775229308 0.017866738374847695 0 -0.00049482129542498721 0.018020071396984482 0 -0.00014683392584880509 0.017863015263301866 0 -0.00029361607845587332 0.018048435404782532 0 -0.00028647128775229308 0.017866738374847695 0 -0.00028647128775229308 0.017866738374847695 0 -0.00049482129542498721 0.018020071396984482 0 -0.00035515162219186856 0.017705106288756597 0 -0.00015437617023746953 0.017698976198502643 0 -0.00028647128775229308 0.017866738374847695 0 -0.00035515162219186856 0.017705106288756597 0 -0.00049482129542498721 0.018020071396984482 0 -0.00062818591605584941 0.017696576124852686 0 -0.00035515162219186856 0.017705106288756597 0 -0.00049482129542498721 0.018020071396984482 0 -0.00062818591605584941 0.017696576124852686 0 -0.00073922664311978361 0.018101906291874397 0 -0.0013597345277385569 0.018989772638929696 0 -0.00088608013129368179 0.01872253312294548 0 -0.0013597345277385569 0.018989772638929696 0 -0.0005154381477456432 0.018083586623186296 0 -0.0010869205474365522 0.01844418627466431 0 -0.00080967277079207339 0.018472611300789431 0 -0.0007854903625177835 0.01823483396981616 0 -0.00053501698817696802 0.018499547797894599 0 -0.00080967277079207339 0.018472611300789431 0 -0.0007854903625177835 0.01823483396981616 0 -0.00027501442867496908 0.017658023370006139 0 -0.00088608013129368179 0.01872253312294548 0 -0.00027501442867496908 0.017658023370006139 0 -0.0005154381477456432 0.018083586623186296 0 -0.001574084058289831 0.019252084062649957 0 -0.0010663377014639181 0.019165485696188141 0 -0.0011149045230001064 0.019781526871771527 0 -0.0010663377014639181 0.019165485696188141 0 -0.00031344048028355431 0.01926856609841705 0 -0.0011149045230001064 0.019781526871771527 0 -0.0015225147543945926 0.019458507253193837 0 -0.00088608013129368179 0.01872253312294548 0 -0.0019142781072559061 0.020397029677409518 0 -0.001214411315087167 0.019922429691042447 0 -0.0018432441268658086 0.019923129538837576 0 -0.0015988242029778357 0.01950295423902108 0 -0.001214411315087167 0.019922429691042447 0 -0.0018432441268658086 0.019923129538837576 0 -0.0015988242029778357 0.01950295423902108 0 -0.0018432441268658086 0.019923129538837576 0 -0.0019025342629748817 0.019657386911908065 0 -0.0018432441268658086 0.019923129538837576 0 -0.0019025342629748817 0.019657386911908065 0 -0.0021905924712653335 0.019753692918521998 0 -0.0019025342629748817 0.019657386911908065 0 -0.0021905924712653335 0.019753692918521998 0 -0.0019816945414689283 0.019448440826529842 0 -0.0021905924712653335 0.019753692918521998 0 -0.0024998186701769682 0.019970134680080208 0 -0.002573921662790381 0.019676384505322865 0 -0.0021905924712653335 0.019753692918521998 0 -0.002573921662790381 0.019676384505322865 0 -0.0022748123769904803 0.019420966133241697 0 -0.0021905924712653335 0.019753692918521998 0 -0.0024998186701769682 0.019970134680080208 0 -0.0022256740086154304 0.020057210296458794 0 -0.0018432441268658086 0.019923129538837576 0 -0.0021905924712653335 0.019753692918521998 0 -0.0022256740086154304 0.020057210296458794 0 -0.0024998186701769682 0.019970134680080208 0 -0.002573921662790381 0.019676384505322865 0 -0.002816867708763088 0.020071303361685795 0 -0.0024998186701769682 0.019970134680080208 0 -0.002816867708763088 0.020071303361685795 0 -0.0026374487619131993 0.020235197847477727 0 -0.0017295396119372329 0.019246571207795382 0 -0.0017725978626946495 0.019297974971447383 0 -0.0018419556626881896 0.019240869507481034 0 -0.0022166946442954238 0.019749527381028781 0 -0.00228678816923936 0.020030235340404674 0 -0.002816867708763088 0.020071303361685795 0 -0.0026374487619131993 0.020235197847477727 0 -0.00267021684220217 0.019972898515699149 0 -0.0017295396119372329 0.019246571207795382 0 -0.0017139369486208543 0.019326802914293173 0 -0.0017725978626946495 0.019297974971447383 0 -0.0013597345277385569 0.018989772638929696 0 -0.0012118508248073663 0.018520622492620945 0 -0.0019142781072559061 0.020397029677409518 0 -0.0022256740086154304 0.020057210296458794 0 -0.0026374487619131993 0.020235197847477727 0 -0.0016090222338651791 0.019256214550839149 0 -0.0017295396119372329 0.019246571207795382 0 -0.0017139369486208543 0.019326802914293173 0 -0.0013597345277385569 0.018989772638929696 0 -0.0022166946442954238 0.019749527381028781 0 -0.0019142781072559061 0.020397029677409518 0 -0.0018432441268658086 0.019923129538837576 0 -0.0022256740086154304 0.020057210296458794 0 -0.0024998186701769682 0.019970134680080208 0 -0.0022256740086154304 0.020057210296458794 0 -0.0026374487619131993 0.020235197847477727 0 -0.00062818591605584941 0.017696576124852686 0 -0.00093495378189671239 0.017931342815302988 0 -0.00073922664311978361 0.018101906291874397 0 -0.00093495378189671239 0.017931342815302988 0 -0.00098970546050402902 0.018295505925379991 0 -0.00073922664311978361 0.018101906291874397 0 -0.0017139369486208543 0.019326802914293173 0 -0.0017725978626946495 0.019297974971447383 0 -0.0018124127158406827 0.019391354211898058 0 -0.0012118508248073663 0.018520622492620945 0 -0.0017830688460600799 0.019058582370271335 0 -0.00093495378189671239 0.017931342815302988 0 -0.00098970546050402902 0.018295505925379991 0 -0.001349420885222493 0.018256693340230622 0 -0.00098970546050402902 0.018295505925379991 0 -0.0012959797599510431 0.018567084731929123 0 -0.001349420885222493 0.018256693340230622 0 -0.00098970546050402902 0.018295505925379991 0 -0.0012959797599510431 0.018567084731929123 0 -0.0010365981192625299 0.018565000129706161 0 -0.00098970546050402902 0.018295505925379991 0 -0.00075099427941628595 0.01844571555038766 0 -0.0010365981192625299 0.018565000129706161 0 -0.00049482129542498721 0.018020071396984482 0 -0.00073922664311978361 0.018101906291874397 0 -0.00075099427941628595 0.01844571555038766 0 -0.00098970546050402902 0.018295505925379991 0 -0.00073922664311978361 0.018101906291874397 0 -0.00075099427941628595 0.01844571555038766 0 -0.0021453783242110502 0.019836306564871429 0 -0.0026992144910056247 0.019831984251834679 0 -0.0018878966289936296 0.019247428821433422 0 -0.0021453783242110502 0.019836306564871429 0 -0.0018276942737451109 0.01982158600967333 0 -0.0018878966289936296 0.019247428821433422 0 -0.0021453783242110502 0.019836306564871429 0 -0.0020439990867205213 0.020100466062610192 0 -0.0018276942737451109 0.01982158600967333 0 -0.0013622827711906494 0.018271649097499908 0 -0.0015323826736749035 0.018902935867184244 0 -0.0018878966289936296 0.019247428821433422 0 -0.0017830688460600799 0.019058582370271335 0 -0.0019773151075127221 0.019216196724150092 0 -0.0012959797599510431 0.018567084731929123 0 -0.0013622827711906494 0.018271649097499908 0 -0.0015323826736749035 0.018902935867184244 0 -0.001545834376998526 0.018461410770036372 0 -0.0017830688460600799 0.019058582370271335 0 -0.0017725978626946495 0.019297974971447383 0 -0.0018124127158406827 0.019391354211898058 0 -0.0018258981440677463 0.019316111422192177 0 -0.0021453783242110502 0.019836306564871429 0 -0.0026992144910056247 0.019831984251834679 0 -0.0023768598936896573 0.020079783890063159 0 -0.0017830688460600799 0.019058582370271335 0 -0.0021803153032954794 0.019836420808193291 0 -0.0026992144910056247 0.019831984251834679 0 -0.0023768598936896573 0.020079783890063159 0 -0.0025856101272883738 0.020258307117380733 0 -0.0023768598936896573 0.020079783890063159 0 -0.0021782075629583103 0.020324057013690486 0 -0.0024019596943373402 0.02042385057574847 0 -0.0023768598936896573 0.020079783890063159 0 -0.0025856101272883738 0.020258307117380733 0 -0.0024019596943373402 0.02042385057574847 0 -0.0023768598936896573 0.020079783890063159 0 -0.0021782075629583103 0.020324057013690486 0 -0.0020439990867205213 0.020100466062610192 0 -0.0021453783242110502 0.019836306564871429 0 -0.0023768598936896573 0.020079783890063159 0 -0.0020439990867205213 0.020100466062610192 0 -0.0020439990867205213 0.020100466062610192 0 -0.0017975786837501457 0.020154064552446335 0 -0.0018276942737451109 0.01982158600967333 0 -0.0021782075629583103 0.020324057013690486 0 -0.0020439990867205213 0.020100466062610192 0 -0.0019346509273154523 0.020398801574983267 0 -0.0020439990867205213 0.020100466062610192 0 -0.0019346509273154523 0.020398801574983267 0 -0.0017975786837501457 0.020154064552446335 0 -0.0021782075629583103 0.020324057013690486 0 -0.0019346509273154523 0.020398801574983267 0 -0.0020993693639021795 0.020557516052378509 0 -0.0021782075629583103 0.020324057013690486 0 -0.0022670062401101893 0.020532085307054262 0 -0.0020993693639021795 0.020557516052378509 0 -0.0021782075629583103 0.020324057013690486 0 -0.0022670062401101893 0.020532085307054262 0 -0.0024019596943373402 0.02042385057574847 0 -0.0022670062401101893 0.020532085307054262 0 -0.0020993693639021795 0.020557516052378509 0 -0.0021769144533936805 0.020773564253863407 0 -0.0022670062401101893 0.020532085307054262 0 -0.0023790454100386365 0.020655114266055711 0 -0.0021769144533936805 0.020773564253863407 0 -0.0019346509273154523 0.020398801574983267 0 -0.0020993693639021795 0.020557516052378509 0 -0.0018899418372380272 0.02069519382067565 0 -0.0020993693639021795 0.020557516052378509 0 -0.0021769144533936805 0.020773564253863407 0 -0.0018899418372380272 0.02069519382067565 0 -0.0021803153032954794 0.019836420808193291 0 -0.00228678816923936 0.020030235340404674 0 -0.0017725978626946495 0.019297974971447383 0 -0.0018258981440677463 0.019316111422192177 0 -0.0018419556626881896 0.019240869507481034 0 -0.0022670062401101893 0.020532085307054262 0 -0.0024019596943373402 0.02042385057574847 0 -0.0023790454100386365 0.020655114266055711 0 -0.0025856101272883738 0.020258307117380733 0 -0.0024019596943373402 0.02042385057574847 0 -0.0025022388624516673 0.020641710913556471 0 -0.0024019596943373402 0.02042385057574847 0 -0.0023790454100386365 0.020655114266055711 0 -0.0025022388624516673 0.020641710913556471 0 -0.0023335830264597868 0.020149008265795638 0 -0.00228678816923936 0.020030235340404674 0 -0.0023790454100386365 0.020655114266055711 0 -0.0021769144533936805 0.020773564253863407 0 -0.0023963138782125849 0.021206978594603989 0 -0.0023790454100386365 0.020655114266055711 0 -0.00249819600863506 0.020639378555223485 0 -0.0023963138782125849 0.021206978594603989 0 -0.002816867708763088 0.020071303361685795 0 -0.00267021684220217 0.019972898515699149 0 -0.0024041159353923717 0.020626036888573628 0 -0.00228678816923936 0.020030235340404674 0 -0.0024289787480129654 0.020996848081466242 0 -0.0021769144533936805 0.020773564253863407 0 -0.0020387712885611437 0.020995471179969048 0 -0.0023963138782125849 0.021206978594603989 0 -0.0021769144533936805 0.020773564253863407 0 -0.0020387712885611437 0.020995471179969048 0 -0.0018899418372380272 0.02069519382067565 0 -0.0020187555111418503 0.021315592013823513 0 -0.0022920201846084818 0.021788823258790484 0 -0.0023963138782125849 0.021206978594603989 0 -0.0020387712885611437 0.020995471179969048 0 -0.0020187555111418503 0.021315592013823513 0 -0.0023963138782125849 0.021206978594603989 0 -0.0018423229097873511 0.021686296941298443 0 -0.0022920201846084818 0.021788823258790484 0 -0.0022629421630202145 0.022510305021933158 0 -0.0020187555111418503 0.021315592013823513 0 -0.0018423229097873511 0.021686296941298443 0 -0.0022920201846084818 0.021788823258790484 0 -0.0030065924534419283 0.019793963191293507 0 -0.0022677364253107287 0.022109592968941674 0 -0.0022920201846084818 0.021788823258790484 0 -0.00290659875546546 0.021133983353220847 0 -0.0027249376315758877 0.022281006701331488 0 -0.002816867708763088 0.020071303361685795 0 -0.00290659875546546 0.021133983353220847 0 -0.0024041159353923717 0.020626036888573628 0 -0.0022920201846084818 0.021788823258790484 0 -0.00290659875546546 0.021133983353220847 0 -0.0024041159353923717 0.020626036888573628 0 -0.0022936655047206683 0.021691412519921131 0 -0.0024289787480129654 0.020996848081466242 0 -0.002573921662790381 0.019676384505322865 0 -0.002816867708763088 0.020071303361685795 0 -0.0029534328859368835 0.019197752792548393 0 -0.0028103382859388042 0.020252126492101861 0 -0.0030065924534419283 0.019793963191293507 0 -0.002573921662790381 0.019676384505322865 0 -0.0029534328859368835 0.019197752792548393 0 -0.0025594544589268389 0.01929663740359058 0 -0.0025594544589268389 0.01929663740359058 0 -0.00229714171372073 0.019118792995974684 0 -0.0026642416075034515 0.01903070677896733 0 -0.0029534328859368835 0.019197752792548393 0 -0.0025594544589268389 0.01929663740359058 0 -0.0026642416075034515 0.01903070677896733 0 -0.0015252172865317026 0.019013792598030363 0 -0.0019879625779697274 0.019002715798469499 0 -0.0023723818909559624 0.018909118650582521 0 -0.0021905924712653335 0.019753692918521998 0 -0.0019816945414689283 0.019448440826529842 0 -0.0022748123769904803 0.019420966133241697 0 -0.002573921662790381 0.019676384505322865 0 -0.0025594544589268389 0.01929663740359058 0 -0.0022748123769904803 0.019420966133241697 0 -0.0025594544589268389 0.01929663740359058 0 -0.0022748123769904803 0.019420966133241697 0 -0.00229714171372073 0.019118792995974684 0 -0.0022748123769904803 0.019420966133241697 0 -0.00229714171372073 0.019118792995974684 0 -0.0019879625779697274 0.019002715798469499 0 -0.0019816945414689283 0.019448440826529842 0 -0.0022748123769904803 0.019420966133241697 0 -0.0019879625779697274 0.019002715798469499 0 -0.00229714171372073 0.019118792995974684 0 -0.0019879625779697274 0.019002715798469499 0 -0.0023723818909559624 0.018909118650582521 0 -0.00229714171372073 0.019118792995974684 0 -0.0023723818909559624 0.018909118650582521 0 -0.0026642416075034515 0.01903070677896733 0 -0.0015700477535279885 0.018732567579183405 0 -0.0013381644542446935 0.018662004964107956 0 -0.0012064422855756207 0.019110176902146801 0 -0.0023723818909559624 0.018909118650582521 0 -0.0026642416075034515 0.01903070677896733 0 -0.0030222594916527162 0.01858138066966266 0 -0.0013381644542446935 0.018662004964107956 0 -0.0012064422855756207 0.019110176902146801 0 0.000110151500359833 0.019329386164566888 0 -0.0029534328859368835 0.019197752792548393 0 -0.0026642416075034515 0.01903070677896733 0 -0.0030222594916527162 0.01858138066966266 0 -0.0017880916698679015 0.018345516366554269 0 -0.0022677364253107287 0.022109592968941674 0 -0.00086381872964439083 0.019575400870254289 0 -0.0012064422855756207 0.019110176902146801 0 0.000110151500359833 0.019329386164566888 0 -0.00086381872964439083 0.019575400870254289 0 -0.00035638436117342446 0.019801965884907766 0 0.000110151500359833 0.019329386164566888 0 -0.00035638436117342446 0.019801965884907766 0 -9.0173662610084469e-05 0.020306070128962767 0 0.000110151500359833 0.019329386164566888 0 -0.00086381872964439083 0.019575400870254289 0 -0.00035638436117342446 0.019801965884907766 0 -0.0007169739004010149 0.020114123818969508 0 -0.0015700477535279885 0.018732567579183405 0 -0.0015476171620872026 0.019371594263679667 0 -0.0012064422855756207 0.019110176902146801 0 -0.00086381872964439083 0.019575400870254289 0 -0.0015476171620872026 0.019371594263679667 0 -0.0012064422855756207 0.019110176902146801 0 -0.00086381872964439083 0.019575400870254289 0 -0.0015476171620872026 0.019371594263679667 0 -0.0013230914565479867 0.01984388375928724 0 -0.00086381872964439083 0.019575400870254289 0 -0.0013230914565479867 0.01984388375928724 0 -0.0007169739004010149 0.020114123818969508 0 -0.0018891269650338556 0.019807778627098472 0 -0.0015476171620872026 0.019371594263679667 0 -0.0013230914565479867 0.01984388375928724 0 -0.0015537364569024753 0.021279725125954475 0 -0.0018891269650338556 0.019807778627098472 0 -0.0011268671846026649 0.020512087394603782 0 -0.0018891269650338556 0.019807778627098472 0 -0.0013230914565479867 0.01984388375928724 0 -0.0011268671846026649 0.020512087394603782 0 -0.0017235523784076316 0.020621773170904759 0 -0.0018769120996707845 0.019899364782870865 0 -0.0013230914565479867 0.01984388375928724 0 -0.0011268671846026649 0.020512087394603782 0 -0.0007169739004010149 0.020114123818969508 0 -0.00035638436117342446 0.019801965884907766 0 -9.0173662610084469e-05 0.020306070128962767 0 -0.0007169739004010149 0.020114123818969508 0 -0.0011268671846026649 0.020512087394603782 0 -0.0007169739004010149 0.020114123818969508 0 -0.00051361903578287177 0.020688394949298073 0 -8.1204024565705322e-05 0.021108408944864376 0 -9.0173662610084469e-05 0.020306070128962767 0 -0.00051361903578287177 0.020688394949298073 0 -9.0173662610084469e-05 0.020306070128962767 0 -0.0007169739004010149 0.020114123818969508 0 -0.00051361903578287177 0.020688394949298073 0 -8.1204024565705322e-05 0.021108408944864376 0 -9.0173662610084469e-05 0.020306070128962767 0 0.00041351921257731973 0.020475325275427378 0 -0.00089490902329748931 0.023608362195005211 0 9.1368644204481138e-05 0.027019327586264189 0 -0.00077307133035549736 0.032414719340681915 0 -0.00073610458484180542 0.031940361979806743 0 -0.0014081231267926977 0.029041877872495979 0 -9.0173662610084469e-05 0.020306070128962767 0 0.00035005433870526287 0.020470520625948722 0 0.000110151500359833 0.019329386164566888 0 -0.00073610458484180542 0.031940361979806743 0 -8.2495043972051737e-05 0.031897385376438346 0 -0.0001214291817011212 0.03121843512878713 0 -0.00071302655282016298 0.031751848493478188 0 8.1881069384006377e-05 0.029994025491477463 0 -0.00073610458484180542 0.031940361979806743 0 -0.00047287928241756302 0.032130109987751489 0 -8.2495043972051737e-05 0.031897385376438346 0 -0.00047287928241756302 0.032130109987751489 0 -0.00026712253557701027 0.032230242513361616 0 -8.2495043972051737e-05 0.031897385376438346 0 -0.00026712253557701027 0.032230242513361616 0 -8.2495043972051737e-05 0.031897385376438346 0 3.5012771255299354e-05 0.03213484851504831 0 -0.00077307133035549736 0.032414719340681915 0 -0.00026712253557701027 0.032230242513361616 0 0.00016903462618305301 0.03241070998645737 0 -0.00077307133035549736 0.032414719340681915 0 -0.00047287928241756302 0.032130109987751489 0 -0.00026712253557701027 0.032230242513361616 0 -0.00077307133035549736 0.032414719340681915 0 -0.00073610458484180542 0.031940361979806743 0 -0.00047287928241756302 0.032130109987751489 0 8.1881069384006377e-05 0.029994025491477463 0 0.0014420907601513514 0.03308446035184856 0 0.00052168930734918569 0.032026947635398977 0 -0.0001214291817011212 0.03121843512878713 0 0.0013181140575452941 0.032189690799489412 0 0.0013127480451476086 0.032837260560151758 0 -0.00077307133035549736 0.032414719340681915 0 0.00016903462618305301 0.03241070998645737 0 0.0004666869723532119 0.031965259773754556 0 0.00017475836511810967 0.031945720258483648 0 -0.00011873269901192906 0.031681402689261076 0 0.0008547534953862923 0.032995603425273724 0 9.1368644204481138e-05 0.027019327586264189 0 0.00052469526658541102 0.032384060900010017 0 3.5012771255299354e-05 0.03213484851504831 0 0.00030123250777936312 0.032131548235202201 0 0.00052469526658541102 0.032384060900010017 0 0.00016903462618305301 0.03241070998645737 0 3.5012771255299354e-05 0.03213484851504831 0 0.00052469526658541102 0.032384060900010017 0 0.00050203215916893933 0.032195582094351111 0 0.00030123250777936312 0.032131548235202201 0 -0.00026712253557701027 0.032230242513361616 0 0.00016903462618305301 0.03241070998645737 0 3.5012771255299354e-05 0.03213484851504831 0 0.0013127480451476086 0.032837260560151758 0 0.00052469526658541102 0.032384060900010017 0 0.00016903462618305301 0.03241070998645737 0 0.0013127480451476086 0.032837260560151758 0 0.00052469526658541102 0.032384060900010017 0 0.0010496662854721931 0.03256964492817789 0 0.00052469526658541102 0.032384060900010017 0 0.0010496662854721931 0.03256964492817789 0 0.00072532684187892713 0.032297338163589061 0 0.00052469526658541102 0.032384060900010017 0 0.00050203215916893933 0.032195582094351111 0 0.00072532684187892713 0.032297338163589061 0 0.0010496662854721931 0.03256964492817789 0 0.00112600820285367 0.032315962851477337 0 0.0012075228406313681 0.032466891510530387 0 0.0010496662854721931 0.03256964492817789 0 0.00072532684187892713 0.032297338163589061 0 0.00112600820285367 0.032315962851477337 0 0.00112600820285367 0.032315962851477337 0 0.00052168930734918569 0.032026947635398977 0 0.0013181140575452941 0.032189690799489412 0 0.00072532684187892713 0.032297338163589061 0 0.00112600820285367 0.032315962851477337 0 0.00052168930734918569 0.032026947635398977 0 0.00050203215916893933 0.032195582094351111 0 0.00072532684187892713 0.032297338163589061 0 0.00052168930734918569 0.032026947635398977 0 -8.2495043972051737e-05 0.031897385376438346 0 0.00052168930734918569 0.032026947635398977 0 -0.0001214291817011212 0.03121843512878713 0 -8.2495043972051737e-05 0.031897385376438346 0 3.5012771255299354e-05 0.03213484851504831 0 0.00030123250777936312 0.032131548235202201 0 -8.2495043972051737e-05 0.031897385376438346 0 0.00030123250777936312 0.032131548235202201 0 0.00052168930734918569 0.032026947635398977 0 0.00050203215916893933 0.032195582094351111 0 0.00030123250777936312 0.032131548235202201 0 0.00052168930734918569 0.032026947635398977 0 0.00097938153159782683 0.034083617523455352 0 0.0012489424073774018 0.033679503675277313 0 0.00096566366043953982 0.03380593980554638 0 0.0012489424073774018 0.033679503675277313 0 0.00096566366043953982 0.03380593980554638 0 0.00094448960117477442 0.033521423780468664 0 -0.00043530249901968911 0.027532860475085102 0 8.1881069384006377e-05 0.029994025491477463 0 -0.0022920201846084818 0.021788823258790484 0 -0.0027249376315758877 0.022281006701331488 0 -0.0022629421630202145 0.022510305021933158 0 9.1368644204481138e-05 0.027019327586264189 0 -0.0022677364253107287 0.022109592968941674 0 -0.00073610458484180542 0.031940361979806743 0 -0.0014081231267926977 0.029041877872495979 0 0.00048301170476981503 0.030139598600202312 0 -0.0022677364253107287 0.022109592968941674 0 8.1881069384006377e-05 0.029994025491477463 0 0.00059535850380625479 0.033784219338585511 0 0.00096566366043953982 0.03380593980554638 0 0.00079002166429444185 0.033970049645036887 0 0.00059535850380625479 0.033784219338585511 0 0.00096566366043953982 0.03380593980554638 0 0.00094448960117477442 0.033521423780468664 0 0.0015722534798771881 0.032794187143497293 0 0.0014420907601513514 0.03308446035184856 0 0.0015406141161566523 0.032870507150402573 0 0.0015351509681254065 0.033516173068944909 0 0.0020410950191024008 0.033158890800130521 0 0.0010639824241773215 0.033687823718369897 0 0.0014420907601513514 0.03308446035184856 0 0.0015406141161566523 0.032870507150402573 0 0.0012809634994200507 0.032365773525551547 0 0.0013330262402783989 0.032626852031336334 0 0.0014387365679166529 0.033018991117770777 0 0.0014420907601513514 0.03308446035184856 0 0.0012809634994200507 0.032365773525551547 0 0.0012075228406313681 0.032466891510530387 0 0.0013330262402783989 0.032626852031336334 0 0.00112600820285367 0.032315962851477337 0 0.0012809634994200507 0.032365773525551547 0 0.0012075228406313681 0.032466891510530387 0 0.0013127480451476086 0.032837260560151758 0 0.0010496662854721931 0.03256964492817789 0 0.0013330262402783989 0.032626852031336334 0 0.0010496662854721931 0.03256964492817789 0 0.0012075228406313681 0.032466891510530387 0 0.0013330262402783989 0.032626852031336334 0 0.0015406141161566523 0.032870507150402573 0 0.0015351509681254065 0.033516173068944909 0 0.0013128496984202906 0.033237275453828659 0 0.0013234953354804399 0.032836536974377807 0 0.0011697933073314486 0.033900791280190641 0 0.0015326228740607511 0.032827391028192238 0 0.0013128496984202906 0.033237275453828659 0 0.00091910155802183411 0.033267724201811497 0 0.0010857421886414482 0.033915099683931756 0 0.0012821219644487533 0.034424848953482121 0 0.00067427430161981126 0.034496550157784585 0 0.0011697933073314486 0.033900791280190641 0 0.0003755081127491274 0.034485129246404317 0 0.0012821219644487533 0.034424848953482121 0 0.00040239345987721858 0.035012962831544106 0 0.00067427430161981126 0.034496550157784585 0 0.00091910155802183411 0.033267724201811497 0 0.0010294027794760915 0.033965919239787042 0 0.00033220985822353822 0.034021596224392381 0 0.0013128496984202906 0.033237275453828659 0 0.00091910155802183411 0.033267724201811497 0 0.0010294027794760915 0.033965919239787042 0 0.0010639824241773215 0.033687823718369897 0 0.00065953397471662568 0.0340226240791986 0 0.0015351509681254065 0.033516173068944909 0 0.0013128496984202906 0.033237275453828659 0 0.0010294027794760915 0.033965919239787042 0 0.00028491431806088117 0.034087501974070678 0 0.0003638638535629848 0.034430151607570764 0 0.00061256856646146928 0.034164391268294479 0 0.00065953397471662568 0.0340226240791986 0 0.00025576720406322585 0.03443756289027957 0 0.00028491431806088117 0.034087501974070678 0 0.00019002900115726193 0.034464957376906392 0 5.8217211960998532e-05 0.034418083861709241 0 0.0010294027794760915 0.033965919239787042 0 0.00043191650118090349 0.034442315737795499 0 0.00033220985822353822 0.034021596224392381 0 0.00019002900115726193 0.034464957376906392 0 8.9509414294724557e-05 0.03465995413490703 0 5.8217211960998532e-05 0.034418083861709241 0 0.00019002900115726193 0.034464957376906392 0 0.0003638638535629848 0.034430151607570764 0 0.00020251933934598408 0.034627397132286061 0 0.00028491431806088117 0.034087501974070678 0 0.00019002900115726193 0.034464957376906392 0 0.0003638638535629848 0.034430151607570764 0 0.0003638638535629848 0.034430151607570764 0 0.00061256856646146928 0.034164391268294479 0 0.00067760357331413134 0.034464356478372572 0 0.00059535850380625479 0.033784219338585511 0 0.00061256856646146928 0.034164391268294479 0 0.00079002166429444185 0.033970049645036887 0 0.00059535850380625479 0.033784219338585511 0 0.00028491431806088117 0.034087501974070678 0 0.00061256856646146928 0.034164391268294479 0 0.00097938153159782683 0.034083617523455352 0 0.00096566366043953982 0.03380593980554638 0 0.00079002166429444185 0.033970049645036887 0 0.00097938153159782683 0.034083617523455352 0 0.00061256856646146928 0.034164391268294479 0 0.00079002166429444185 0.033970049645036887 0 -0.0020187555111418503 0.021315592013823513 0 -0.0018423229097873511 0.021686296941298443 0 -0.0015333724601841036 0.021101705859300841 0 -0.00043530249901968911 0.027532860475085102 0 -0.00047172985096271527 0.027942906666196293 0 0.00097938153159782683 0.034083617523455352 0 0.00061256856646146928 0.034164391268294479 0 0.00067760357331413134 0.034464356478372572 0 -0.0020387712885611437 0.020995471179969048 0 -0.0015333724601841036 0.021101705859300841 0 -0.0018899418372380272 0.02069519382067565 0 -0.0020387712885611437 0.020995471179969048 0 -0.0020187555111418503 0.021315592013823513 0 -0.0015333724601841036 0.021101705859300841 0 0.0003638638535629848 0.034430151607570764 0 0.00067760357331413134 0.034464356478372572 0 0.00035353368952286557 0.034601719532419958 0 0.00067760357331413134 0.034464356478372572 0 0.00037786055516143661 0.034700128782697494 0 0.00035353368952286557 0.034601719532419958 0 -0.00047172985096271527 0.027942906666196293 0 -0.00042913177262264844 0.027078219640047804 0 -0.0015333724601841036 0.021101705859300841 0 -0.0012749536494231863 0.020492259337284668 0 -0.0016040719242674875 0.020410389558106888 0 -0.0015333724601841036 0.021101705859300841 0 -0.0018899418372380272 0.02069519382067565 0 -0.0016040719242674875 0.020410389558106888 0 -0.0019346509273154523 0.020398801574983267 0 -0.0018899418372380272 0.02069519382067565 0 -0.0016040719242674875 0.020410389558106888 0 -0.0016040719242674875 0.020410389558106888 0 -0.0017975786837501457 0.020154064552446335 0 -0.0015925571641913264 0.019924873312872991 0 -0.0019346509273154523 0.020398801574983267 0 -0.0016040719242674875 0.020410389558106888 0 -0.0017975786837501457 0.020154064552446335 0 -0.0017975786837501457 0.020154064552446335 0 -0.0018276942737451109 0.01982158600967333 0 -0.0015925571641913264 0.019924873312872991 0 -0.0016040719242674875 0.020410389558106888 0 -0.0014221232961319982 0.020051880440310605 0 -0.0015925571641913264 0.019924873312872991 0 -0.0012749536494231863 0.020492259337284668 0 -0.0016040719242674875 0.020410389558106888 0 -0.0014221232961319982 0.020051880440310605 0 -0.0012749536494231863 0.020492259337284668 0 -0.0014221232961319982 0.020051880440310605 0 -0.0013333793586246931 0.020101796124110151 0 -0.0014221232961319982 0.020051880440310605 0 -0.0015925571641913264 0.019924873312872991 0 -0.0013928085286418887 0.01973635626995868 0 -0.0014221232961319982 0.020051880440310605 0 -0.0013881164540419137 0.019914145632921869 0 -0.0013928085286418887 0.01973635626995868 0 -0.0015925571641913264 0.019924873312872991 0 -0.0016776651796285012 0.019542116443264351 0 -0.0013928085286418887 0.01973635626995868 0 -0.0018276942737451109 0.01982158600967333 0 -0.0016776651796285012 0.019542116443264351 0 -0.0018878966289936296 0.019247428821433422 0 -0.0018276942737451109 0.01982158600967333 0 -0.0015925571641913264 0.019924873312872991 0 -0.0016776651796285012 0.019542116443264351 0 6.0078388483741286e-05 0.034840846507993489 0 7.066506309208573e-05 0.034831495334886504 0 -8.6342107231520834e-06 0.034821629159389689 0 6.0078388483741286e-05 0.034840846507993489 0 2.3677422506638857e-05 0.034860394855977056 0 -8.6342107231520834e-06 0.034821629159389689 0 6.0078388483741286e-05 0.034840846507993489 0 9.7999950517410164e-05 0.034852571235793738 0 7.6460003158963362e-05 0.03485296265552499 0 -0.00082879256611638876 0.032899770825137307 0 0.00019413036296795169 0.030141636190595317 0 6.0078388483741286e-05 0.034840846507993489 0 4.8748179449300222e-05 0.034863545556685922 0 7.6460003158963362e-05 0.03485296265552499 0 6.0078388483741286e-05 0.034840846507993489 0 4.8748179449300222e-05 0.034863545556685922 0 2.3677422506638857e-05 0.034860394855977056 0 -0.0013881164540419137 0.019914145632921869 0 -0.0012435276252150845 0.020038854480309329 0 -0.0015910668012098267 0.019960405591798045 0 0.00019413036296795169 0.030141636190595317 0 -0.00090084330202395242 0.02682045658451444 0 -0.0013881164540419137 0.019914145632921869 0 -0.0012435276252150845 0.020038854480309329 0 -0.0013333793586246931 0.020101796124110151 0 -0.0014221232961319982 0.020051880440310605 0 -0.0013881164540419137 0.019914145632921869 0 -0.0013333793586246931 0.020101796124110151 0 -0.0012749536494231863 0.020492259337284668 0 -0.0012435276252150845 0.020038854480309329 0 -0.0013333793586246931 0.020101796124110151 0 -0.00042913177262264844 0.027078219640047804 0 0.00019413036296795169 0.030141636190595317 0 0.00019413036296795169 0.030141636190595317 0 0.00028627849720215212 0.036664258514767588 0 9.7999950517410164e-05 0.034852571235793738 0 0.00010653116890439249 0.034821888021993062 0 0.00023967414182166733 0.034719334067346751 0 9.7999950517410164e-05 0.034852571235793738 0 7.6460003158963362e-05 0.03485296265552499 0 0.00010653116890439249 0.034821888021993062 0 4.8748179449300222e-05 0.034863545556685922 0 6.5160084764972012e-05 0.0348547519231047 0 7.6460003158963362e-05 0.03485296265552499 0 6.5160084764972012e-05 0.0348547519231047 0 7.6460003158963362e-05 0.03485296265552499 0 0.00010653116890439249 0.034821888021993062 0 0.00010653116890439249 0.034821888021993062 0 0.00023967414182166733 0.034719334067346751 0 7.3216755513976194e-05 0.034765813671927742 0 0.00037786055516143661 0.034700128782697494 0 0.00028305897721963159 0.034680501903979019 0 0.00023967414182166733 0.034719334067346751 0 0.00037786055516143661 0.034700128782697494 0 0.00023967414182166733 0.034719334067346751 0 0.00035353368952286557 0.034601719532419958 0 0.00023967414182166733 0.034719334067346751 0 0.00035353368952286557 0.034601719532419958 0 0.00020251933934598408 0.034627397132286061 0 0.0003638638535629848 0.034430151607570764 0 0.00035353368952286557 0.034601719532419958 0 0.00020251933934598408 0.034627397132286061 0 0.00023967414182166733 0.034719334067346751 0 0.00020251933934598408 0.034627397132286061 0 7.3216755513976194e-05 0.034765813671927742 0 0.00020251933934598408 0.034627397132286061 0 8.9509414294724557e-05 0.03465995413490703 0 7.3216755513976194e-05 0.034765813671927742 0 0.00019002900115726193 0.034464957376906392 0 0.00020251933934598408 0.034627397132286061 0 8.9509414294724557e-05 0.03465995413490703 0 1.7454210385216792e-05 0.034750832600553776 0 7.0228325856772688e-06 0.03483244608226551 0 7.3216755513976194e-05 0.034765813671927742 0 8.9509414294724557e-05 0.03465995413490703 0 1.7454210385216792e-05 0.034750832600553776 0 7.3216755513976194e-05 0.034765813671927742 0 -5.4572395713012393e-06 0.034839861820895636 0 7.0228325856772688e-06 0.03483244608226551 0 -2.7988560293275862e-06 0.034904452139325658 0 -5.4572395713012393e-06 0.034839861820895636 0 -2.8067909944175052e-06 0.03487998454911146 0 -1.5040055758203217e-05 0.034846118144038159 0 1.7454210385216792e-05 0.034750832600553776 0 -5.4572395713012393e-06 0.034839861820895636 0 -1.3323573798596996e-05 0.034825954476691741 0 1.7454210385216792e-05 0.034750832600553776 0 -5.4572395713012393e-06 0.034839861820895636 0 7.0228325856772688e-06 0.03483244608226551 0 7.0228325856772688e-06 0.03483244608226551 0 3.3360910435988582e-05 0.034828023381647324 0 1.3171739563696453e-05 0.034868042718158035 0 7.0228325856772688e-06 0.03483244608226551 0 1.3171739563696453e-05 0.034868042718158035 0 -1.0084065253824117e-05 0.034902569135665036 0 7.0228325856772688e-06 0.03483244608226551 0 7.3216755513976194e-05 0.034765813671927742 0 3.3360910435988582e-05 0.034828023381647324 0 7.3216755513976194e-05 0.034765813671927742 0 3.3360910435988582e-05 0.034828023381647324 0 5.1903767198185482e-05 0.034842475407972744 0 0.00010653116890439249 0.034821888021993062 0 7.3216755513976194e-05 0.034765813671927742 0 5.1903767198185482e-05 0.034842475407972744 0 3.3360910435988582e-05 0.034828023381647324 0 5.1903767198185482e-05 0.034842475407972744 0 1.3171739563696453e-05 0.034868042718158035 0 6.5160084764972012e-05 0.0348547519231047 0 0.00010653116890439249 0.034821888021993062 0 5.1903767198185482e-05 0.034842475407972744 0 6.5160084764972012e-05 0.0348547519231047 0 5.1903767198185482e-05 0.034842475407972744 0 3.2459800870716392e-05 0.034877326525526574 0 4.8748179449300222e-05 0.034863545556685922 0 6.5160084764972012e-05 0.0348547519231047 0 3.2459800870716392e-05 0.034877326525526574 0 5.1903767198185482e-05 0.034842475407972744 0 3.2459800870716392e-05 0.034877326525526574 0 1.3171739563696453e-05 0.034868042718158035 0 1.3171739563696453e-05 0.034868042718158035 0 4.7928416057173422e-06 0.034915352677109796 0 -1.0084065253824117e-05 0.034902569135665036 0 3.2459800870716392e-05 0.034877326525526574 0 1.3171739563696453e-05 0.034868042718158035 0 4.7928416057173422e-06 0.034915352677109796 0 4.7928416057173422e-06 0.034915352677109796 0 -5.7192209943331693e-06 0.034949227442681675 0 -5.2591158272573694e-06 0.0349170042441347 0 4.7928416057173422e-06 0.034915352677109796 0 1.741562553045614e-05 0.034887733527559403 0 -5.2591158272573694e-06 0.0349170042441347 0 3.2459800870716392e-05 0.034877326525526574 0 4.7928416057173422e-06 0.034915352677109796 0 1.741562553045614e-05 0.034887733527559403 0 4.8748179449300222e-05 0.034863545556685922 0 2.3677422506638857e-05 0.034860394855977056 0 1.741562553045614e-05 0.034887733527559403 0 4.8748179449300222e-05 0.034863545556685922 0 3.2459800870716392e-05 0.034877326525526574 0 1.741562553045614e-05 0.034887733527559403 0 -7.3782577174323544e-06 0.034956203643019337 0 -4.3111632352596487e-08 0.034999842796806735 0 4.4872799768330977e-10 0.034999963781567181 0 -7.3782577174323544e-06 0.034956203643019337 0 -5.7192209943331693e-06 0.034949227442681675 0 4.4872799768330977e-10 0.034999963781567181 0 4.7928416057173422e-06 0.034915352677109796 0 -7.3782577174323544e-06 0.034956203643019337 0 -5.7192209943331693e-06 0.034949227442681675 0 4.7928416057173422e-06 0.034915352677109796 0 -7.3782577174323544e-06 0.034956203643019337 0 -1.0084065253824117e-05 0.034902569135665036 0 -7.3782577174323544e-06 0.034956203643019337 0 -4.3111632352596487e-08 0.034999842796806735 0 -1.0084065253824117e-05 0.034902569135665036 0 -6.3507011578796042e-10 0.034999969228421926 0 -6.1221466514503794e-06 0.034924594602337697 0 6.4645825261306103e-09 0.035000006125770651 0 -4.191640614413131e-06 0.034953821580086378 0 -1.7799866393364848e-08 0.034999877496271342 0 -4.191640614413131e-06 0.034953821580086378 0 -2.7988560293275862e-06 0.034904452139325658 0 -1.7799866393364848e-08 0.034999877496271342 0 7.9225532012215763e-06 0.034851154137212563 0 -6.1221466514503794e-06 0.034924594602337697 0 7.0228325856772688e-06 0.03483244608226551 0 -4.191640614413131e-06 0.034953821580086378 0 -2.7988560293275862e-06 0.034904452139325658 0 -2.7988560293275862e-06 0.034904452139325658 0 -2.8142456318656644e-06 0.034925756609377016 0 -2.8067909944175052e-06 0.03487998454911146 0 -5.4572395713012393e-06 0.034839861820895636 0 -2.7988560293275862e-06 0.034904452139325658 0 -2.8067909944175052e-06 0.03487998454911146 0 -2.8142456318656644e-06 0.034925756609377016 0 -1.7799866393364848e-08 0.034999877496271342 0 -7.8002833018891535e-07 0.034928656015023173 0 -2.7988560293275862e-06 0.034904452139325658 0 -2.8142456318656644e-06 0.034925756609377016 0 -1.7799866393364848e-08 0.034999877496271342 0 -1.3523107023996175e-09 0.034999910744571448 0 -4.4067983525359193e-06 0.034931445742837325 0 -7.8002833018891535e-07 0.034928656015023173 0 -1.7799866393364848e-08 0.034999877496271342 0 -1.3523107023996175e-09 0.034999910744571448 0 -7.8002833018891535e-07 0.034928656015023173 0 -1.3523107023996175e-09 0.034999910744571448 0 -4.4067983525359193e-06 0.034931445742837325 0 -3.8912754521229617e-05 0.034900988448774477 0 -1.3523107023996175e-09 0.034999910744571448 0 -5.2606025333037446e-08 0.034999795780232865 0 -3.8912754521229617e-05 0.034900988448774477 0 -5.7395461485043784e-06 0.034903556813061357 0 -4.4067983525359193e-06 0.034931445742837325 0 -3.8912754521229617e-05 0.034900988448774477 0 -5.7395461485043784e-06 0.034903556813061357 0 1.9933677501971243e-05 0.034908311952880695 0 5.4946014569172182e-05 0.034900770356739073 0 -5.7395461485043784e-06 0.034903556813061357 0 -4.4067983525359193e-06 0.034931445742837325 0 1.9933677501971243e-05 0.034908311952880695 0 -4.4067983525359193e-06 0.034931445742837325 0 8.1615669386932982e-06 0.034886743380121252 0 1.9933677501971243e-05 0.034908311952880695 0 -4.4067983525359193e-06 0.034931445742837325 0 8.1615669386932982e-06 0.034886743380121252 0 -7.8002833018891535e-07 0.034928656015023173 0 -2.8142456318656644e-06 0.034925756609377016 0 -2.8067909944175052e-06 0.03487998454911146 0 -7.8002833018891535e-07 0.034928656015023173 0 -2.8067909944175052e-06 0.03487998454911146 0 8.1615669386932982e-06 0.034886743380121252 0 -1.5040055758203217e-05 0.034846118144038159 0 -2.8067909944175052e-06 0.03487998454911146 0 8.1615669386932982e-06 0.034886743380121252 0 -7.8002833018891535e-07 0.034928656015023173 0 -5.4572395713012393e-06 0.034839861820895636 0 -1.5040055758203217e-05 0.034846118144038159 0 -1.3323573798596996e-05 0.034825954476691741 0 -3.669851244699389e-05 0.034815282094930677 0 -1.3323573798596996e-05 0.034825954476691741 0 0.00043191650118090349 0.034442315737795499 0 8.1615669386932982e-06 0.034886743380121252 0 -1.5040055758203217e-05 0.034846118144038159 0 -3.669851244699389e-05 0.034815282094930677 0 -1.5040055758203217e-05 0.034846118144038159 0 -3.669851244699389e-05 0.034815282094930677 0 -1.3323573798596996e-05 0.034825954476691741 0 8.1615669386932982e-06 0.034886743380121252 0 2.303206429802712e-05 0.034886779337991961 0 1.9933677501971243e-05 0.034908311952880695 0 -3.669851244699389e-05 0.034815282094930677 0 2.303206429802712e-05 0.034886779337991961 0 0.00011934575804343628 0.034915136102902346 0 8.1615669386932982e-06 0.034886743380121252 0 -3.669851244699389e-05 0.034815282094930677 0 2.303206429802712e-05 0.034886779337991961 0 -3.0720996458490219e-06 0.034769227871843493 0 0.00025576720406322585 0.03443756289027957 0 1.7454210385216792e-05 0.034750832600553776 0 -1.3323573798596996e-05 0.034825954476691741 0 5.8217211960998532e-05 0.034418083861709241 0 8.9509414294724557e-05 0.03465995413490703 0 1.7454210385216792e-05 0.034750832600553776 0 5.8217211960998532e-05 0.034418083861709241 0 -3.669851244699389e-05 0.034815282094930677 0 0.00043191650118090349 0.034442315737795499 0 0.00033220985822353822 0.034021596224392381 0 0.00040239345987721858 0.035012962831544106 0 0.00011934575804343628 0.034915136102902346 0 0.00016404260375932122 0.034895331148306043 0 -3.669851244699389e-05 0.034815282094930677 0 0.00040239345987721858 0.035012962831544106 0 0.00011934575804343628 0.034915136102902346 0 1.1254114017983105e-05 0.034790111256090696 0 0.0003755081127491274 0.034485129246404317 0 2.303206429802712e-05 0.034886779337991961 0 1.9933677501971243e-05 0.034908311952880695 0 0.00011934575804343628 0.034915136102902346 0 1.9933677501971243e-05 0.034908311952880695 0 0.00011934575804343628 0.034915136102902346 0 5.4946014569172182e-05 0.034900770356739073 0 0.00011934575804343628 0.034915136102902346 0 5.4946014569172182e-05 0.034900770356739073 0 0.00016404260375932122 0.034895331148306043 0 -5.7395461485043784e-06 0.034903556813061357 0 5.4946014569172182e-05 0.034900770356739073 0 -9.2474783727475198e-07 0.034848369683058336 0 5.4946014569172182e-05 0.034900770356739073 0 -9.2474783727475198e-07 0.034848369683058336 0 0.00016404260375932122 0.034895331148306043 0 -9.2474783727475198e-07 0.034848369683058336 0 0.00016404260375932122 0.034895331148306043 0 0.00020743704950860928 0.034708207709921314 0 -9.2474783727475198e-07 0.034848369683058336 0 0.00020743704950860928 0.034708207709921314 0 -0.00012995459529334841 0.034686742019564995 0 0.00040239345987721858 0.035012962831544106 0 0.00020743704950860928 0.034708207709921314 0 0.00067427430161981126 0.034496550157784585 0 0.00040239345987721858 0.035012962831544106 0 0.00016404260375932122 0.034895331148306043 0 0.00020743704950860928 0.034708207709921314 0 0.00044503842137342761 0.034043039098468959 0 0.0010857421886414482 0.033915099683931756 0 0.00067427430161981126 0.034496550157784585 0 0.00044503842137342761 0.034043039098468959 0 0.00020743704950860928 0.034708207709921314 0 0.00067427430161981126 0.034496550157784585 0 -0.00043789377140603645 0.033887319456752031 0 -0.00012995459529334841 0.034686742019564995 0 5.8807620529039456e-05 0.034239275799700722 0 0.00044503842137342761 0.034043039098468959 0 0.00020743704950860928 0.034708207709921314 0 5.8807620529039456e-05 0.034239275799700722 0 0.00020743704950860928 0.034708207709921314 0 -0.00012995459529334841 0.034686742019564995 0 5.8807620529039456e-05 0.034239275799700722 0 -0.00026767960445721686 0.034402346900113685 0 -0.00017290874394143213 0.034654076409852352 0 -6.1166616070723479e-05 0.034920075020746552 0 -0.00012995459529334841 0.034686742019564995 0 -2.8707127591093498e-05 0.034909166516867582 0 -6.1166616070723479e-05 0.034920075020746552 0 -0.00013315480267438163 0.034955984825538459 0 -0.00012995459529334841 0.034686742019564995 0 -0.00012995459529334841 0.034686742019564995 0 -2.8707127591093498e-05 0.034909166516867582 0 -3.8912754521229617e-05 0.034900988448774477 0 -6.1303045134578971e-08 0.034994460801029095 0 -2.8707127591093498e-05 0.034909166516867582 0 -5.2606025333037446e-08 0.034999795780232865 0 -3.0017692883276901e-05 0.034958650485724732 0 -6.1166616070723479e-05 0.034920075020746552 0 -2.8707127591093498e-05 0.034909166516867582 0 -6.1303045134578971e-08 0.034994460801029095 0 2.3967551343021641e-08 0.034999949204497519 0 -5.2606025333037446e-08 0.034999795780232865 0 -2.8707127591093498e-05 0.034909166516867582 0 -5.2606025333037446e-08 0.034999795780232865 0 -3.8912754521229617e-05 0.034900988448774477 0 -9.2474783727475198e-07 0.034848369683058336 0 -0.00012995459529334841 0.034686742019564995 0 -3.8912754521229617e-05 0.034900988448774477 0 -5.7395461485043784e-06 0.034903556813061357 0 -9.2474783727475198e-07 0.034848369683058336 0 -3.8912754521229617e-05 0.034900988448774477 0 -2.2339869841443659e-05 0.034876932389785155 0 -4.7112711210393915e-05 0.03484520769831953 0 -1.638221468152666e-06 0.034972518686124908 0 -3.6944668509013958e-05 0.034857347139308936 0 -2.1100617542891608e-06 0.034950873914257184 0 -1.1301584818268381e-08 0.034999801280418734 0 3.4505085241254379e-09 0.03499989142949704 0 -1.638221468152666e-06 0.034972518686124908 0 -1.1301584818268381e-08 0.034999801280418734 0 -2.2339869841443659e-05 0.034876932389785155 0 -1.638221468152666e-06 0.034972518686124908 0 -1.1301584818268381e-08 0.034999801280418734 0 -2.2339869841443659e-05 0.034876932389785155 0 -2.685595256847857e-05 0.034888884568148565 0 -2.2339869841443659e-05 0.034876932389785155 0 -5.8267019578080384e-05 0.03475875816233031 0 -2.685595256847857e-05 0.034888884568148565 0 -2.2339869841443659e-05 0.034876932389785155 0 -9.5584296789747589e-05 0.034682475872006256 0 -5.8267019578080384e-05 0.03475875816233031 0 -9.5584296789747589e-05 0.034682475872006256 0 -0.00012763140364824993 0.034559881857699329 0 -5.8267019578080384e-05 0.03475875816233031 0 -9.5584296789747589e-05 0.034682475872006256 0 -0.00019487616316520424 0.034430170555147355 0 -0.00012763140364824993 0.034559881857699329 0 -9.5584296789747589e-05 0.034682475872006256 0 -0.00019487616316520424 0.034430170555147355 0 -0.00025101658335337403 0.034588434226434393 0 -9.5584296789747589e-05 0.034682475872006256 0 -0.00016865219669936625 0.034732459346102751 0 -0.00025101658335337403 0.034588434226434393 0 -9.5584296789747589e-05 0.034682475872006256 0 -0.00016865219669936625 0.034732459346102751 0 -4.7112711210393915e-05 0.03484520769831953 0 -2.2339869841443659e-05 0.034876932389785155 0 -9.5584296789747589e-05 0.034682475872006256 0 -4.7112711210393915e-05 0.03484520769831953 0 -0.0001423711626016961 0.034745532135911444 0 -3.6944668509013958e-05 0.034857347139308936 0 -0.00010106102445990783 0.034754850371690064 0 -2.8431272285250065e-05 0.034863042980679833 0 -4.769215671830232e-05 0.034885435471904716 0 -0.00010106102445990783 0.034754850371690064 0 -4.769215671830232e-05 0.034885435471904716 0 -0.00012836774264008308 0.034829597442713495 0 -4.769215671830232e-05 0.034885435471904716 0 -8.8736177168938861e-05 0.034868513680978895 0 -0.00012836774264008308 0.034829597442713495 0 -4.769215671830232e-05 0.034885435471904716 0 -8.6439458860462956e-06 0.034947091594506742 0 -1.3025040050396503e-05 0.034955834847615573 0 -2.8431272285250065e-05 0.034863042980679833 0 -4.769215671830232e-05 0.034885435471904716 0 -8.6439458860462956e-06 0.034947091594506742 0 -2.8431272285250065e-05 0.034863042980679833 0 -8.6439458860462956e-06 0.034947091594506742 0 -1.638221468152666e-06 0.034972518686124908 0 -8.6439458860462956e-06 0.034947091594506742 0 3.4505085241254379e-09 0.03499989142949704 0 -1.638221468152666e-06 0.034972518686124908 0 -8.6439458860462956e-06 0.034947091594506742 0 -4.3968434665719111e-09 0.034999934439932989 0 -1.3025040050396503e-05 0.034955834847615573 0 -8.6439458860462956e-06 0.034947091594506742 0 3.4505085241254379e-09 0.03499989142949704 0 -4.3968434665719111e-09 0.034999934439932989 0 -4.3968434665719111e-09 0.034999934439932989 0 -1.3025040050396503e-05 0.034955834847615573 0 -7.8177931149056337e-09 0.034999944661617412 0 -1.3025040050396503e-05 0.034955834847615573 0 -1.1679032004266942e-05 0.034950502021368159 0 -4.5358541668340466e-05 0.034908192181656382 0 -1.3025040050396503e-05 0.034955834847615573 0 -7.8177931149056337e-09 0.034999944661617412 0 -1.1679032004266942e-05 0.034950502021368159 0 -7.8177931149056337e-09 0.034999944661617412 0 -1.1679032004266942e-05 0.034950502021368159 0 4.4872799768330977e-10 0.034999963781567181 0 -1.1679032004266942e-05 0.034950502021368159 0 -5.7192209943331693e-06 0.034949227442681675 0 4.4872799768330977e-10 0.034999963781567181 0 -1.1679032004266942e-05 0.034950502021368159 0 -5.7192209943331693e-06 0.034949227442681675 0 -5.2591158272573694e-06 0.0349170042441347 0 1.741562553045614e-05 0.034887733527559403 0 -7.8480868727613413e-06 0.034876150893669175 0 -5.2591158272573694e-06 0.0349170042441347 0 2.3677422506638857e-05 0.034860394855977056 0 1.741562553045614e-05 0.034887733527559403 0 -7.8480868727613413e-06 0.034876150893669175 0 -1.1679032004266942e-05 0.034950502021368159 0 -5.2591158272573694e-06 0.0349170042441347 0 -3.6428077637837603e-05 0.034885836830600946 0 -7.8480868727613413e-06 0.034876150893669175 0 -5.2591158272573694e-06 0.0349170042441347 0 -3.6428077637837603e-05 0.034885836830600946 0 -3.6428077637837603e-05 0.034885836830600946 0 -4.5358541668340466e-05 0.034908192181656382 0 -8.6601652636008637e-05 0.034863701506107271 0 -1.1679032004266942e-05 0.034950502021368159 0 -3.6428077637837603e-05 0.034885836830600946 0 -4.5358541668340466e-05 0.034908192181656382 0 -4.769215671830232e-05 0.034885435471904716 0 -1.3025040050396503e-05 0.034955834847615573 0 -4.5358541668340466e-05 0.034908192181656382 0 -4.5358541668340466e-05 0.034908192181656382 0 -8.8736177168938861e-05 0.034868513680978895 0 -8.6601652636008637e-05 0.034863701506107271 0 -4.769215671830232e-05 0.034885435471904716 0 -4.5358541668340466e-05 0.034908192181656382 0 -8.8736177168938861e-05 0.034868513680978895 0 -8.8736177168938861e-05 0.034868513680978895 0 -0.00013331027721925551 0.034839951681306214 0 -8.6601652636008637e-05 0.034863701506107271 0 -0.00013331027721925551 0.034839951681306214 0 -0.00011577099920789189 0.034835089062539397 0 -0.00016186139181386896 0.034811641238313186 0 -0.00013331027721925551 0.034839951681306214 0 -0.00011577099920789189 0.034835089062539397 0 -8.6601652636008637e-05 0.034863701506107271 0 -0.0023203097588218461 0.021267325345822447 0 -0.001623966578720015 0.021053906855410566 0 -0.0018777797238285542 0.020476288254929097 0 -0.0012553384349709969 0.028087394987977847 0 -0.00096961522732936752 0.027784691862944844 0 -0.00011577099920789189 0.034835089062539397 0 -0.00016186139181386896 0.034811641238313186 0 -7.9259071492056342e-05 0.034819609341664559 0 -0.0023203097588218461 0.021267325345822447 0 -0.001623966578720015 0.021053906855410566 0 -0.0013235444442049409 0.022058877382973675 0 -0.001623966578720015 0.021053906855410566 0 -0.0018777797238285542 0.020476288254929097 0 -0.0014362181762850703 0.020617769426078535 0 -0.0018777797238285542 0.020476288254929097 0 -0.0014856450683716016 0.020151877364314501 0 -0.0014362181762850703 0.020617769426078535 0 -3.6428077637837603e-05 0.034885836830600946 0 -8.6601652636008637e-05 0.034863701506107271 0 -7.9259071492056342e-05 0.034819609341664559 0 -0.00011577099920789189 0.034835089062539397 0 -8.6601652636008637e-05 0.034863701506107271 0 -7.9259071492056342e-05 0.034819609341664559 0 -7.9259071492056342e-05 0.034819609341664559 0 -3.7282574441830183e-05 0.034848381180502173 0 -8.6342107231520834e-06 0.034821629159389689 0 -7.8480868727613413e-06 0.034876150893669175 0 -3.6428077637837603e-05 0.034885836830600946 0 -3.7282574441830183e-05 0.034848381180502173 0 -3.6428077637837603e-05 0.034885836830600946 0 -7.9259071492056342e-05 0.034819609341664559 0 -3.7282574441830183e-05 0.034848381180502173 0 -0.00096961522732936752 0.027784691862944844 0 -0.00090084330202395242 0.02682045658451444 0 -0.0018777797238285542 0.020476288254929097 0 -0.0015910668012098267 0.019960405591798045 0 -0.0014856450683716016 0.020151877364314501 0 -0.0013881164540419137 0.019914145632921869 0 -0.0015910668012098267 0.019960405591798045 0 -0.0013928085286418887 0.01973635626995868 0 -0.0015910668012098267 0.019960405591798045 0 -0.0013928085286418887 0.01973635626995868 0 -0.0014856450683716016 0.020151877364314501 0 -7.8480868727613413e-06 0.034876150893669175 0 -3.7282574441830183e-05 0.034848381180502173 0 -8.6342107231520834e-06 0.034821629159389689 0 2.3677422506638857e-05 0.034860394855977056 0 -7.8480868727613413e-06 0.034876150893669175 0 -8.6342107231520834e-06 0.034821629159389689 0 -0.0016776651796285012 0.019542116443264351 0 -0.0018197383919615689 0.019166015573793858 0 -0.0018878966289936296 0.019247428821433422 0 -0.0013971325988811026 0.019708165837848873 0 -0.0013532227351402159 0.019685139037090852 0 -0.0016776651796285012 0.019542116443264351 0 -0.0013928085286418887 0.01973635626995868 0 -0.0018197383919615689 0.019166015573793858 0 -0.0013928085286418887 0.01973635626995868 0 -0.0014856450683716016 0.020151877364314501 0 -0.00086072663302272584 0.020166345326139111 0 -0.0014856450683716016 0.020151877364314501 0 -0.0011487289497875265 0.020419205170737281 0 -0.0014362181762850703 0.020617769426078535 0 -0.0014856450683716016 0.020151877364314501 0 -0.00086072663302272584 0.020166345326139111 0 -0.0011487289497875265 0.020419205170737281 0 -0.00086072663302272584 0.020166345326139111 0 -0.0011487289497875265 0.020419205170737281 0 -0.00083403874837316362 0.020546984707861329 0 -0.0011487289497875265 0.020419205170737281 0 -0.0011125812326836563 0.020774720105274033 0 -0.00083403874837316362 0.020546984707861329 0 -0.0011125812326836563 0.020774720105274033 0 -0.00089738093474520933 0.020911797365976353 0 -0.00083403874837316362 0.020546984707861329 0 -0.0011487289497875265 0.020419205170737281 0 -0.0011125812326836563 0.020774720105274033 0 -0.0014362181762850703 0.020617769426078535 0 -0.0011125812326836563 0.020774720105274033 0 -0.0014362181762850703 0.020617769426078535 0 -0.001347273695228274 0.020970215834138942 0 -0.001623966578720015 0.021053906855410566 0 -0.0014362181762850703 0.020617769426078535 0 -0.001347273695228274 0.020970215834138942 0 -0.0011125812326836563 0.020774720105274033 0 -0.001347273695228274 0.020970215834138942 0 -0.001107584082409713 0.021384410995993187 0 -0.001623966578720015 0.021053906855410566 0 -0.001107584082409713 0.021384410995993187 0 -0.0013235444442049409 0.022058877382973675 0 -0.001623966578720015 0.021053906855410566 0 -0.001347273695228274 0.020970215834138942 0 -0.001107584082409713 0.021384410995993187 0 -0.0011125812326836563 0.020774720105274033 0 -0.001107584082409713 0.021384410995993187 0 -0.00089738093474520933 0.020911797365976353 0 -0.001107584082409713 0.021384410995993187 0 -0.00089738093474520933 0.020911797365976353 0 -0.00093337026325211985 0.021256163583527551 0 -0.001107584082409713 0.021384410995993187 0 -0.00093337026325211985 0.021256163583527551 0 -0.0011039801390097382 0.02163217139398306 0 -0.00093337026325211985 0.021256163583527551 0 -0.00092279363977120854 0.021459069477889614 0 -0.0011039801390097382 0.02163217139398306 0 -0.00092279363977120854 0.021459069477889614 0 -0.0011039801390097382 0.02163217139398306 0 -0.00092597753607705777 0.021726681935604963 0 0.00011960313005970957 0.023506182067772274 0 0.00098100036624131884 0.024623351638126342 0 0.0014293753374415327 0.025324142871653587 0 -0.00063172787016188125 0.025338524217939588 0 -0.0013235444442049409 0.022058877382973675 0 0.0014293753374415327 0.025324142871653587 0 -0.00063172787016188125 0.025338524217939588 0 -0.00043211409907961158 0.027378224308431828 0 -0.001107584082409713 0.021384410995993187 0 -0.0011039801390097382 0.02163217139398306 0 -0.0013235444442049409 0.022058877382973675 0 0.00011960313005970957 0.023506182067772274 0 -0.0012410397368834273 0.022108170822005804 0 -0.00063172787016188125 0.025338524217939588 0 -0.0013235444442049409 0.022058877382973675 0 -0.0018973500951786418 0.023347301111220381 0 -0.0012553384349709969 0.028087394987977847 0 -0.0014791123693676817 0.02998251923961253 0 -0.0023203097588218461 0.021267325345822447 0 -0.0013235444442049409 0.022058877382973675 0 -0.0018973500951786418 0.023347301111220381 0 -0.0023203097588218461 0.021267325345822447 0 -0.0018973500951786418 0.023347301111220381 0 -0.0027603576925184039 0.025198036216071109 0 -0.00016186139181386896 0.034811641238313186 0 -0.00018981784397675413 0.034808273497749842 0 -0.00029746544595752087 0.034759173808953152 0 -8.8736177168938861e-05 0.034868513680978895 0 -0.00013331027721925551 0.034839951681306214 0 -0.00012836774264008308 0.034829597442713495 0 -0.00013331027721925551 0.034839951681306214 0 -0.00016186139181386896 0.034811641238313186 0 -0.00018981784397675413 0.034808273497749842 0 -0.00013331027721925551 0.034839951681306214 0 -0.00018981784397675413 0.034808273497749842 0 -0.00012836774264008308 0.034829597442713495 0 -0.00010106102445990783 0.034754850371690064 0 -0.00022221120164224502 0.034776265064955951 0 -0.00037423670099610606 0.034670054572989391 0 -0.00010106102445990783 0.034754850371690064 0 -0.00012836774264008308 0.034829597442713495 0 -0.00022221120164224502 0.034776265064955951 0 -0.00018981784397675413 0.034808273497749842 0 -0.00012836774264008308 0.034829597442713495 0 -0.00022221120164224502 0.034776265064955951 0 -0.00018981784397675413 0.034808273497749842 0 -0.00022221120164224502 0.034776265064955951 0 -0.00029746544595752087 0.034759173808953152 0 -0.00063172787016188125 0.025338524217939588 0 -0.0018973500951786418 0.023347301111220381 0 -0.0027603576925184039 0.025198036216071109 0 -0.00022221120164224502 0.034776265064955951 0 -0.00029746544595752087 0.034759173808953152 0 -0.00037423670099610606 0.034670054572989391 0 -0.00063172787016188125 0.025338524217939588 0 -0.0027603576925184039 0.025198036216071109 0 -0.00043211409907961158 0.027378224308431828 0 -0.00029746544595752087 0.034759173808953152 0 -0.00037423670099610606 0.034670054572989391 0 -0.0005085490135558515 0.034546894858795529 0 -0.0027603576925184039 0.025198036216071109 0 -0.0019731018192090401 0.029831058907398844 0 -0.00043211409907961158 0.027378224308431828 0 -0.00037423670099610606 0.034670054572989391 0 -0.00025101658335337403 0.034588434226434393 0 -0.0005085490135558515 0.034546894858795529 0 -0.0014791123693676817 0.02998251923961253 0 -0.0011955225844548036 0.032126890894234296 0 -0.00016865219669936625 0.034732459346102751 0 -0.00037423670099610606 0.034670054572989391 0 -0.00025101658335337403 0.034588434226434393 0 -0.0001423711626016961 0.034745532135911444 0 -0.00036039040314346776 0.034681501191208504 0 -0.00025101658335337403 0.034588434226434393 0 -0.00030062046787569932 0.03423836748060937 0 -0.0005085490135558515 0.034546894858795529 0 -0.00019487616316520424 0.034430170555147355 0 -0.00025101658335337403 0.034588434226434393 0 -0.00030062046787569932 0.03423836748060937 0 -0.0019731018192090401 0.029831058907398844 0 0.00019460222429413607 0.031723939524487973 0 -0.00056714114566292829 0.033586131562995565 0 -0.0011955225844548036 0.032126890894234296 0 -0.00069659296227194258 0.033458767118709931 0 -0.00030062046787569932 0.03423836748060937 0 -0.0005085490135558515 0.034546894858795529 0 -0.00056714114566292829 0.033586131562995565 0 0.00019460222429413607 0.031723939524487973 0 0.0013335568967771006 0.029197732272316666 0 0.0018834263213809933 0.031608591113965509 0 -0.0019731018192090401 0.029831058907398844 0 0.00019460222429413607 0.031723939524487973 0 0.0013335568967771006 0.029197732272316666 0 0.0013335568967771006 0.029197732272316666 0 0.0032488542141550516 0.029946407651998415 0 0.0018834263213809933 0.031608591113965509 0 0.0032488542141550516 0.029946407651998415 0 0.0032541592175123995 0.031531402835678492 0 0.0018834263213809933 0.031608591113965509 0 0.0014293753374415327 0.025324142871653587 0 0.0033255570760354985 0.028184989997441786 0 0.0013335568967771006 0.029197732272316666 0 0.0033255570760354985 0.028184989997441786 0 0.0013335568967771006 0.029197732272316666 0 0.0032488542141550516 0.029946407651998415 0 -0.0019731018192090401 0.029831058907398844 0 0.0013335568967771006 0.029197732272316666 0 -0.00043211409907961158 0.027378224308431828 0 0.0014293753374415327 0.025324142871653587 0 0.0013335568967771006 0.029197732272316666 0 -0.00043211409907961158 0.027378224308431828 0 -0.0003922429558744524 0.021867615603181432 0 -0.00062656875614282845 0.021690156611698621 0 -0.00065577848151724045 0.022053299788786777 0 -0.0003922429558744524 0.021867615603181432 0 -0.0004341043446181148 0.021590187960625135 0 -0.00062656875614282845 0.021690156611698621 0 -0.0004341043446181148 0.021590187960625135 0 -0.00062656875614282845 0.021690156611698621 0 -0.00058663268489561593 0.021441279146050238 0 0.00098100036624131884 0.024623351638126342 0 0.0023946337947459463 0.028217294905274481 0 -0.00092597753607705777 0.021726681935604963 0 -0.00062656875614282845 0.021690156611698621 0 -0.00076222220288481974 0.021463381473476057 0 -0.00092597753607705777 0.021726681935604963 0 -0.00062656875614282845 0.021690156611698621 0 -0.00065577848151724045 0.022053299788786777 0 0.0044214980744356263 0.030567300171966811 0 0.0046462211443398013 0.030437515642529982 0 0.0032488542141550516 0.029946407651998415 0 0.0033255570760354985 0.028184989997441786 0 0.0046462211443398013 0.030437515642529982 0 0.0032488542141550516 0.029946407651998415 0 0.002565438572341816 0.028296874926551734 0 0.0023946337947459463 0.028217294905274481 0 0.0044214980744356263 0.030567300171966811 0 0.0032488542141550516 0.029946407651998415 0 0.0037395876706565251 0.030795963498428645 0 0.0037395876706565251 0.030795963498428645 0 0.004092033741368184 0.031345850886127548 0 0.0032541592175123995 0.031531402835678492 0 0.0032488542141550516 0.029946407651998415 0 0.0037395876706565251 0.030795963498428645 0 0.0032541592175123995 0.031531402835678492 0 0.0044214980744356263 0.030567300171966811 0 0.004092033741368184 0.031345850886127548 0 0.0046543456095862511 0.031198985880016714 0 0.0044214980744356263 0.030567300171966811 0 0.0037395876706565251 0.030795963498428645 0 0.004092033741368184 0.031345850886127548 0 0.0044214980744356263 0.030567300171966811 0 0.004549213646183701 0.03050853582914723 0 0.0046543456095862511 0.031198985880016714 0 0.0023946337947459463 0.028217294905274481 0 0.0060786338067898875 0.032373228410720899 0 0.004549213646183701 0.03050853582914723 0 0.0046543456095862511 0.031198985880016714 0 0.0055429444737937917 0.031804300194430736 0 0.0021551860556431072 0.0254506690775111 0 0.0023946337947459463 0.028217294905274481 0 0.0052854018755057342 0.028843647695369398 0 0.0053200203135476531 0.030254397093637204 0 0.0061301170352158962 0.02965881520217142 0 0.0052854018755057342 0.028843647695369398 0 0.0035407926345677548 0.029912936871046413 0 0.0053200203135476531 0.030254397093637204 0 0.0035407926345677548 0.029912936871046413 0 0.0053200203135476531 0.030254397093637204 0 0.0055429444737937917 0.031804300194430736 0 0.0053200203135476531 0.030254397093637204 0 0.0060853743339061564 0.03091271022115603 0 0.0055429444737937917 0.031804300194430736 0 0.0053200203135476531 0.030254397093637204 0 0.0060853743339061564 0.03091271022115603 0 0.0061301170352158962 0.02965881520217142 0 0.0070158770304866161 0.030502818391057607 0 0.0061301170352158962 0.02965881520217142 0 0.0069682702504738313 0.027734129450903387 0 0.0060853743339061564 0.03091271022115603 0 0.0070158770304866161 0.030502818391057607 0 0.0061301170352158962 0.02965881520217142 0 0.0034370927371612028 0.02345385482308647 0 0.0024988544146899742 0.018800898228212008 0 0.0070158770304866161 0.030502818391057607 0 0.0075832655134330058 0.030825121926609904 0 0.0069682702504738313 0.027734129450903387 0 0.0070158770304866161 0.030502818391057607 0 0.0074711549380619621 0.030838616967031846 0 0.0066883575105001593 0.031613220470134401 0 0.0060853743339061564 0.03091271022115603 0 0.0070158770304866161 0.030502818391057607 0 0.0066883575105001593 0.031613220470134401 0 0.0067364885711211709 0.026546760786612132 0 0.0034370927371612028 0.02345385482308647 0 0.00052584802227630633 0.012885753101415581 0 0.00041513206604619181 0.012946312221856722 0 0.00038082812205969226 0.012858801697541333 0 0.00052584802227630633 0.012885753101415581 0 0.00041513206604619181 0.012946312221856722 0 0.00059559786109910566 0.013077228638163711 0 0.00041513206604619181 0.012946312221856722 0 0.00059559786109910566 0.013077228638163711 0 0.00042032623447700991 0.013163636455306401 0 0.0021551860556431072 0.0254506690775111 0 0.0024988544146899742 0.018800898228212008 0 0.0052854018755057342 0.028843647695369398 0 0.0061301170352158962 0.02965881520217142 0 0.0069682702504738313 0.027734129450903387 0 -0.0003922429558744524 0.021867615603181432 0 -0.0004341043446181148 0.021590187960625135 0 -6.8567370298147271e-05 0.021654860097012278 0 -0.0004341043446181148 0.021590187960625135 0 -6.8567370298147271e-05 0.021654860097012278 0 -0.00044708180072066512 0.02129355635506093 0 0.00028591594648606842 0.013894442512641986 0 0.00026648600826764549 0.013829199757451895 0 0.00028965537908969669 0.013804489561173748 0 0.0024988544146899742 0.018800898228212008 0 0.00033723551417867492 0.017919887295617509 0 -6.8567370298147271e-05 0.021654860097012278 0 -0.00019902842535916935 0.021202022743707392 0 -0.00044708180072066512 0.02129355635506093 0 -0.00019902842535916935 0.021202022743707392 0 -0.00037704642554498013 0.020840504224032348 0 -0.00044708180072066512 0.02129355635506093 0 0.00028591594648606842 0.013894442512641986 0 0.00028965537908969669 0.013804489561173748 0 0.00029628982387213342 0.013759005472705119 0 0.0024988544146899742 0.018800898228212008 0 0.00020977145424662321 0.012826352090037827 0 0.00028965537908969669 0.013804489561173748 0 0.0002957064654747491 0.013786482288751234 0 0.00029628982387213342 0.013759005472705119 0 0.00026648600826764549 0.013829199757451895 0 0.00028965537908969669 0.013804489561173748 0 0.0002957064654747491 0.013786482288751234 0 -0.00037642244537014198 0.020976743964457159 0 2.3024083978310059e-05 0.020696411267574565 0 -0.00027989464634686989 0.020581041772600964 0 2.3024083978310059e-05 0.020696411267574565 0 -0.00027989464634686989 0.020581041772600964 0 0.00015290467128931112 0.020326644579029298 0 0.00033723551417867492 0.017919887295617509 0 0.00011614781499336918 0.017114562284202096 0 -0.00037642244537014198 0.020976743964457159 0 -0.00037704642554498013 0.020840504224032348 0 -0.00027989464634686989 0.020581041772600964 0 0.00033723551417867492 0.017919887295617509 0 0.00018166706511102716 0.021199525191981355 0 -0.00037704642554498013 0.020840504224032348 0 -0.00027989464634686989 0.020581041772600964 0 -0.00048849042494875441 0.020621114538973542 0 -0.00037704642554498013 0.020840504224032348 0 -0.0005956285409503229 0.020959384218795833 0 -0.00048849042494875441 0.020621114538973542 0 -0.0005956285409503229 0.020959384218795833 0 -0.00044708180072066512 0.02129355635506093 0 -0.00064350362671781124 0.021257144229350825 0 -0.0005956285409503229 0.020959384218795833 0 -0.00064350362671781124 0.021257144229350825 0 -0.00077993717876757786 0.02121421207592333 0 -0.00037704642554498013 0.020840504224032348 0 -0.0005956285409503229 0.020959384218795833 0 -0.00044708180072066512 0.02129355635506093 0 -0.00064350362671781124 0.021257144229350825 0 -0.00058663268489561593 0.021441279146050238 0 -0.00076222220288481974 0.021463381473476057 0 -0.00044708180072066512 0.02129355635506093 0 -0.00064350362671781124 0.021257144229350825 0 -0.00058663268489561593 0.021441279146050238 0 -0.00062656875614282845 0.021690156611698621 0 -0.00058663268489561593 0.021441279146050238 0 -0.00076222220288481974 0.021463381473476057 0 -0.0004341043446181148 0.021590187960625135 0 -0.00044708180072066512 0.02129355635506093 0 -0.00058663268489561593 0.021441279146050238 0 -0.00092279363977120854 0.021459069477889614 0 -0.00092597753607705777 0.021726681935604963 0 -0.00076222220288481974 0.021463381473476057 0 -0.00064350362671781124 0.021257144229350825 0 -0.00076222220288481974 0.021463381473476057 0 -0.00077993717876757786 0.02121421207592333 0 -0.00092279363977120854 0.021459069477889614 0 -0.00076222220288481974 0.021463381473476057 0 -0.00077993717876757786 0.02121421207592333 0 -0.00093337026325211985 0.021256163583527551 0 -0.00092279363977120854 0.021459069477889614 0 -0.00077993717876757786 0.02121421207592333 0 -0.0005956285409503229 0.020959384218795833 0 -0.00077993717876757786 0.02121421207592333 0 -0.0007444707260967113 0.02094465296390479 0 -0.00093337026325211985 0.021256163583527551 0 -0.00077993717876757786 0.02121421207592333 0 -0.0007444707260967113 0.02094465296390479 0 -0.00089738093474520933 0.020911797365976353 0 -0.00093337026325211985 0.021256163583527551 0 -0.0007444707260967113 0.02094465296390479 0 -0.0007444707260967113 0.02094465296390479 0 -0.00061232905091327804 0.020702580226442349 0 -0.00068396053240012307 0.020660174377839607 0 -0.00089738093474520933 0.020911797365976353 0 -0.0007444707260967113 0.02094465296390479 0 -0.00068396053240012307 0.020660174377839607 0 -0.0005956285409503229 0.020959384218795833 0 -0.00061232905091327804 0.020702580226442349 0 -0.00048849042494875441 0.020621114538973542 0 -0.00061232905091327804 0.020702580226442349 0 -0.00054443521114335021 0.02048213228048644 0 -0.00048849042494875441 0.020621114538973542 0 -0.0005956285409503229 0.020959384218795833 0 -0.0007444707260967113 0.02094465296390479 0 -0.00061232905091327804 0.020702580226442349 0 -0.00061232905091327804 0.020702580226442349 0 -0.0005943016690571983 0.020572912505031616 0 -0.00068396053240012307 0.020660174377839607 0 -0.00061232905091327804 0.020702580226442349 0 -0.00054443521114335021 0.02048213228048644 0 -0.0005943016690571983 0.020572912505031616 0 -0.00054443521114335021 0.02048213228048644 0 -0.0005943016690571983 0.020572912505031616 0 -0.00056363210852606671 0.020505166871299482 0 -0.00054443521114335021 0.02048213228048644 0 -0.00056363210852606671 0.020505166871299482 0 -0.00050279117905284692 0.020226563653318156 0 -0.0005943016690571983 0.020572912505031616 0 -0.00056363210852606671 0.020505166871299482 0 -0.00068396053240012307 0.020660174377839607 0 -0.00056363210852606671 0.020505166871299482 0 -0.00068396053240012307 0.020660174377839607 0 -0.00083403874837316362 0.020546984707861329 0 -0.00089738093474520933 0.020911797365976353 0 -0.00068396053240012307 0.020660174377839607 0 -0.00083403874837316362 0.020546984707861329 0 -0.00086072663302272584 0.020166345326139111 0 -0.00056363210852606671 0.020505166871299482 0 -0.00083403874837316362 0.020546984707861329 0 -0.0018197383919615689 0.019166015573793858 0 -0.0015853631799261296 0.019451962666924824 0 -0.0016848381751065158 0.019139075243894275 0 -0.0013532227351402159 0.019685139037090852 0 -0.0010439022142653342 0.01996819313273553 0 -0.0013885679359238075 0.019204697784117587 0 -0.0014923413733973017 0.019045883362705445 0 -0.0010386409216306162 0.018845418966145028 0 -0.0015853631799261296 0.019451962666924824 0 -0.0016848381751065158 0.019139075243894275 0 -0.0013885679359238075 0.019204697784117587 0 -0.0015853631799261296 0.019451962666924824 0 -0.0013885679359238075 0.019204697784117587 0 -0.0010167646699298497 0.019240237697536883 0 -0.0016848381751065158 0.019139075243894275 0 -0.0013885679359238075 0.019204697784117587 0 -0.0014923413733973017 0.019045883362705445 0 -0.0014923413733973017 0.019045883362705445 0 -0.0012797315520520413 0.018789795959204644 0 -0.0010386409216306162 0.018845418966145028 0 -0.0016848381751065158 0.019139075243894275 0 -0.0014923413733973017 0.019045883362705445 0 -0.0015323826736749035 0.018902935867184244 0 -0.0014923413733973017 0.019045883362705445 0 -0.0012797315520520413 0.018789795959204644 0 -0.0015323826736749035 0.018902935867184244 0 -0.0012959797599510431 0.018567084731929123 0 -0.0012797315520520413 0.018789795959204644 0 -0.0015323826736749035 0.018902935867184244 0 -0.0016848381751065158 0.019139075243894275 0 -0.0015323826736749035 0.018902935867184244 0 -0.0018878966289936296 0.019247428821433422 0 -0.0018197383919615689 0.019166015573793858 0 -0.0016848381751065158 0.019139075243894275 0 -0.0018878966289936296 0.019247428821433422 0 -0.00075099427941628595 0.01844571555038766 0 -0.0010386409216306162 0.018845418966145028 0 -0.00063989689322542119 0.018869499630390824 0 -0.00075099427941628595 0.01844571555038766 0 -0.0010365981192625299 0.018565000129706161 0 -0.0010386409216306162 0.018845418966145028 0 -0.0012797315520520413 0.018789795959204644 0 -0.0010365981192625299 0.018565000129706161 0 -0.0010386409216306162 0.018845418966145028 0 -0.0012959797599510431 0.018567084731929123 0 -0.0012797315520520413 0.018789795959204644 0 -0.0010365981192625299 0.018565000129706161 0 -0.0010386409216306162 0.018845418966145028 0 -0.0010167646699298497 0.019240237697536883 0 -0.00063989689322542119 0.018869499630390824 0 -0.0013885679359238075 0.019204697784117587 0 -0.0010386409216306162 0.018845418966145028 0 -0.0010167646699298497 0.019240237697536883 0 -0.00098981246678967491 0.019208046178400124 0 -0.00026932833976843772 0.019058681145589489 0 0.00016317233927111067 0.019244232929575163 0 -0.00050279117905284692 0.020226563653318156 0 5.3518743950223303e-05 0.020015944281723229 0 -0.0015853631799261296 0.019451962666924824 0 -0.0010167646699298497 0.019240237697536883 0 -0.00050279117905284692 0.020226563653318156 0 -0.0010167646699298497 0.019240237697536883 0 0.00016317233927111067 0.019244232929575163 0 -0.00050279117905284692 0.020226563653318156 0 -0.0010439022142653342 0.01996819313273553 0 -0.00053367752343901932 0.020237580183932458 0 -0.00054443521114335021 0.02048213228048644 0 -0.00050279117905284692 0.020226563653318156 0 -0.00048849042494875441 0.020621114538973542 0 -0.00027989464634686989 0.020581041772600964 0 -0.00050279117905284692 0.020226563653318156 0 -0.00048849042494875441 0.020621114538973542 0 -0.00027989464634686989 0.020581041772600964 0 5.3518743950223303e-05 0.020015944281723229 0 0.00015290467128931112 0.020326644579029298 0 -0.00027989464634686989 0.020581041772600964 0 -0.00050279117905284692 0.020226563653318156 0 5.3518743950223303e-05 0.020015944281723229 0 0.00020602212417741373 0.020205983867153571 0 0.00065568412435817308 0.018141301330874129 0 0.00015290467128931112 0.020326644579029298 0 0.00038174020426398782 0.01992398647257829 0 0.00056275980627458293 0.020039733253917228 0 5.3518743950223303e-05 0.020015944281723229 0 0.00015290467128931112 0.020326644579029298 0 0.00038174020426398782 0.01992398647257829 0 0.00038174020426398782 0.01992398647257829 0 0.00066410519183330631 0.019524255957513174 0 0.00040619711821441841 0.019611014876283615 0 5.3518743950223303e-05 0.020015944281723229 0 0.00038174020426398782 0.01992398647257829 0 0.00040619711821441841 0.019611014876283615 0 0.00065568412435817308 0.018141301330874129 0 0.00096628837902012024 0.018938645151600021 0 0.00056275980627458293 0.020039733253917228 0 0.00066410519183330631 0.019524255957513174 0 0.00093701270488905563 0.019349765215046433 0 0.00038174020426398782 0.01992398647257829 0 0.00056275980627458293 0.020039733253917228 0 0.00066410519183330631 0.019524255957513174 0 0.00066410519183330631 0.019524255957513174 0 0.00040619711821441841 0.019611014876283615 0 0.00074270375480186689 0.019117843015675484 0 0.00066410519183330631 0.019524255957513174 0 0.00074270375480186689 0.019117843015675484 0 0.00084356202274820649 0.019146535025291109 0 0.00016317233927111067 0.019244232929575163 0 5.3518743950223303e-05 0.020015944281723229 0 0.00040619711821441841 0.019611014876283615 0 0.00016317233927111067 0.019244232929575163 0 0.00040619711821441841 0.019611014876283615 0 0.00074270375480186689 0.019117843015675484 0 -0.00026932833976843772 0.019058681145589489 0 0.00021925933161078494 0.018846135432590568 0 -0.00063989689322542119 0.018869499630390824 0 -0.0002980449334370113 0.018577484399764251 0 -0.00042943278186149801 0.01839049228962868 0 -0.0002980449334370113 0.018577484399764251 0 -0.00042943278186149801 0.01839049228962868 0 -0.0001162565348908595 0.018147354683146585 0 -0.00029361607845587332 0.018048435404782532 0 -0.00042943278186149801 0.01839049228962868 0 -0.0001162565348908595 0.018147354683146585 0 -0.00075099427941628595 0.01844571555038766 0 -0.00063989689322542119 0.018869499630390824 0 -0.00042943278186149801 0.01839049228962868 0 2.0015342138173564e-05 0.017887753407787366 0 7.4079975123820469e-05 0.018081134493636304 0 0.00022309880140354698 0.017877333434542935 0 2.0015342138173564e-05 0.017887753407787366 0 7.4079975123820469e-05 0.018081134493636304 0 -0.0001162565348908595 0.018147354683146585 0 0.00021925933161078494 0.018846135432590568 0 0.0004727590270199484 0.01859109965564136 0 -0.0002980449334370113 0.018577484399764251 0 -0.0001162565348908595 0.018147354683146585 0 1.112816546548687e-05 0.018382948709775172 0 7.4079975123820469e-05 0.018081134493636304 0 -0.0001162565348908595 0.018147354683146585 0 1.112816546548687e-05 0.018382948709775172 0 7.4079975123820469e-05 0.018081134493636304 0 1.112816546548687e-05 0.018382948709775172 0 0.00026340841119818804 0.018119357071398105 0 0.00091633294654568152 0.018826237608136086 0 0.00089646088827060808 0.0189429408805637 0 0.0007903640552732261 0.018497120838170757 0 0.00089646088827060808 0.0189429408805637 0 0.00093701270488905563 0.019349765215046433 0 0.0007903640552732261 0.018497120838170757 0 0.00096628837902012024 0.018938645151600021 0 0.00079076991663005927 0.018556781858686523 0 0.00074270375480186689 0.019117843015675484 0 0.00091633294654568152 0.018826237608136086 0 0.00084356202274820649 0.019146535025291109 0 0.00091633294654568152 0.018826237608136086 0 0.00089646088827060808 0.0189429408805637 0 0.00084356202274820649 0.019146535025291109 0 0.00066410519183330631 0.019524255957513174 0 0.00084356202274820649 0.019146535025291109 0 0.00093701270488905563 0.019349765215046433 0 0.00089646088827060808 0.0189429408805637 0 0.00084356202274820649 0.019146535025291109 0 0.00093701270488905563 0.019349765215046433 0 0.00065568412435817308 0.018141301330874129 0 0.00017514062774734112 0.01577174390064558 0 0.0012932477034724166 0.018181977785918808 0 0.0010735903137954704 0.018300248270943783 0 0.0010156439778631081 0.0181701852391353 0 0.0010735903137954704 0.018300248270943783 0 0.0010156439778631081 0.0181701852391353 0 0.00089865433072525418 0.018305632513720305 0 0.0010156439778631081 0.0181701852391353 0 0.00089865433072525418 0.018305632513720305 0 0.00064429305706689168 0.018125010709053639 0 0.0010735903137954704 0.018300248270943783 0 0.00089865433072525418 0.018305632513720305 0 0.0007903640552732261 0.018497120838170757 0 0.00017514062774734112 0.01577174390064558 0 -0.00073712716182227527 0.016030744815016644 0 -0.00073828687735167113 0.013928989551268275 0 -0.0012415445117359338 0.013427157809216947 0 -0.0017935178355500498 0.013920409870023964 0 -0.00073828687735167113 0.013928989551268275 0 -0.0012415445117359338 0.013427157809216947 0 -0.00079611769757536959 0.013488397592334387 0 -0.0012415445117359338 0.013427157809216947 0 -0.0011318806946181634 0.012914145042467014 0 -0.0017278693034131494 0.012871470205150472 0 -0.0012415445117359338 0.013427157809216947 0 -0.0011318806946181634 0.012914145042467014 0 -0.00079611769757536959 0.013488397592334387 0 -0.0011318806946181634 0.012914145042467014 0 -0.00057170250137755611 0.013115199920448675 0 -0.00079611769757536959 0.013488397592334387 0 -0.0011318806946181634 0.012914145042467014 0 -0.00057170250137755611 0.013115199920448675 0 -0.00081118228106295267 0.012498755163918884 0 -0.00057170250137755611 0.013115199920448675 0 -0.00038424582775843408 0.013613710862845699 0 -0.00017447299534246557 0.013259127490489372 0 0.00012580814145416635 0.013902667365458686 0 -0.00073828687735167113 0.013928989551268275 0 -0.00038424582775843408 0.013613710862845699 0 -0.00057170250137755611 0.013115199920448675 0 -0.00038424582775843408 0.013613710862845699 0 -0.00079611769757536959 0.013488397592334387 0 -0.00073828687735167113 0.013928989551268275 0 -0.00038424582775843408 0.013613710862845699 0 -0.00079611769757536959 0.013488397592334387 0 0.00012580814145416635 0.013902667365458686 0 -0.00038424582775843408 0.013613710862845699 0 -1.3635422940237268e-05 0.013626112848507057 0 0.00012580814145416635 0.013902667365458686 0 -1.3635422940237268e-05 0.013626112848507057 0 0.00018946978119602182 0.013754346139355299 0 -0.00038424582775843408 0.013613710862845699 0 -1.3635422940237268e-05 0.013626112848507057 0 -0.00017447299534246557 0.013259127490489372 0 0.0002957064654747491 0.013786482288751234 0 0.00012580814145416635 0.013902667365458686 0 0.00018946978119602182 0.013754346139355299 0 -1.3635422940237268e-05 0.013626112848507057 0 0.00018946978119602182 0.013754346139355299 0 0.00029628982387213342 0.013759005472705119 0 2.3024083978310059e-05 0.020696411267574565 0 0.00015290467128931112 0.020326644579029298 0 0.00076034866678166124 0.020307691080874629 0 0.00011614781499336918 0.017114562284202096 0 0.00065568412435817308 0.018141301330874129 0 0.0002957064654747491 0.013786482288751234 0 0.00018946978119602182 0.013754346139355299 0 0.00029628982387213342 0.013759005472705119 0 0.00042032623447700991 0.013163636455306401 0 0.00011401090422416291 0.013147572061196168 0 0.00026091451554013316 0.012961668742926622 0 -1.8951416414672789e-05 0.013797972521783922 0 0.00020977145424662321 0.012826352090037827 0 -1.3635422940237268e-05 0.013626112848507057 0 0.00042032623447700991 0.013163636455306401 0 0.00011401090422416291 0.013147572061196168 0 -1.3635422940237268e-05 0.013626112848507057 0 -0.00017447299534246557 0.013259127490489372 0 0.00011401090422416291 0.013147572061196168 0 -0.00057170250137755611 0.013115199920448675 0 -0.00017447299534246557 0.013259127490489372 0 -5.9189919992247143e-05 0.012824825529630973 0 -0.00017447299534246557 0.013259127490489372 0 0.00011401090422416291 0.013147572061196168 0 -5.9189919992247143e-05 0.012824825529630973 0 -5.9189919992247143e-05 0.012824825529630973 0 0.00026091451554013316 0.012961668742926622 0 0.00023483764023866764 0.012832795542169631 0 -0.00019629751298576377 0.013127939594593878 0 0.00062722069124847963 0.011595000697821248 0 -5.9189919992247143e-05 0.012824825529630973 0 0.00026541018687899133 0.011948456959132162 0 -0.00032586866227905749 0.012151151597012287 0 0.00011401090422416291 0.013147572061196168 0 -5.9189919992247143e-05 0.012824825529630973 0 0.00026091451554013316 0.012961668742926622 0 0.00041513206604619181 0.012946312221856722 0 0.00042032623447700991 0.013163636455306401 0 0.00026091451554013316 0.012961668742926622 0 0.00041513206604619181 0.012946312221856722 0 0.00026091451554013316 0.012961668742926622 0 0.00023483764023866764 0.012832795542169631 0 0.00041513206604619181 0.012946312221856722 0 0.00023483764023866764 0.012832795542169631 0 0.00038082812205969226 0.012858801697541333 0 0.00023483764023866764 0.012832795542169631 0 0.00038082812205969226 0.012858801697541333 0 0.0003448699861648981 0.012780027196919138 0 0.00026541018687899133 0.011948456959132162 0 -0.00039448149912783755 0.011615015168467448 0 -3.0775850558200914e-05 0.011322892901787869 0 0.00026541018687899133 0.011948456959132162 0 -0.00032586866227905749 0.012151151597012287 0 -0.00039448149912783755 0.011615015168467448 0 -0.00076189700449287492 0.011843095746735428 0 -0.0011327953921089178 0.01194007725654365 0 -0.00081118228106295267 0.012498755163918884 0 -0.00039448149912783755 0.011615015168467448 0 -0.00076189700449287492 0.011843095746735428 0 -0.00084911428099761362 0.011405599458616585 0 -0.00032586866227905749 0.012151151597012287 0 -0.00039448149912783755 0.011615015168467448 0 -0.00076189700449287492 0.011843095746735428 0 -0.00076189700449287492 0.011843095746735428 0 -0.00117555397756042 0.011460777507983433 0 -0.00084911428099761362 0.011405599458616585 0 -0.0011327953921089178 0.01194007725654365 0 -0.0015996213542876204 0.01142136873441749 0 -0.0015242621506491654 0.012217282397613227 0 -0.00076189700449287492 0.011843095746735428 0 -0.0011327953921089178 0.01194007725654365 0 -0.00117555397756042 0.011460777507983433 0 -0.0011327953921089178 0.01194007725654365 0 -0.00117555397756042 0.011460777507983433 0 -0.0015996213542876204 0.01142136873441749 0 -0.0011318806946181634 0.012914145042467014 0 -0.00081118228106295267 0.012498755163918884 0 -0.0015242621506491654 0.012217282397613227 0 -0.0011327953921089178 0.01194007725654365 0 -0.00081118228106295267 0.012498755163918884 0 -0.0015242621506491654 0.012217282397613227 0 -0.00032586866227905749 0.012151151597012287 0 -0.00076189700449287492 0.011843095746735428 0 -0.00081118228106295267 0.012498755163918884 0 -0.00057170250137755611 0.013115199920448675 0 -5.9189919992247143e-05 0.012824825529630973 0 -0.00081118228106295267 0.012498755163918884 0 -5.9189919992247143e-05 0.012824825529630973 0 -0.00032586866227905749 0.012151151597012287 0 -0.00081118228106295267 0.012498755163918884 0 -0.0024759128539993186 0.014435414101284013 0 -0.0028462177645096308 0.012534381453000482 0 -0.0010659801688783811 0.010735170432469994 0 -0.00025235193070413534 0.010743930990330806 0 -0.0012413411515218972 0.010245917439498368 0 -0.0044295775602377794 0.0181371195669781 0 -0.0044711240697994561 0.018049236069624774 0 -0.0045410555815624453 0.018032538066736225 0 -0.0010659801688783811 0.010735170432469994 0 -0.00064763725553594739 0.011121115492725587 0 -0.00025235193070413534 0.010743930990330806 0 -0.0010659801688783811 0.010735170432469994 0 -0.0012484807557554963 0.010992956268669581 0 -0.00064763725553594739 0.011121115492725587 0 -0.0017754196751937545 0.010595212329891962 0 -0.0028462177645096308 0.012534381453000482 0 -0.001331419598483164 0.010728817881977335 0 -0.0013453850614569449 0.010563554696586899 0 -0.0016501841312978876 0.010692330823058432 0 -0.0010659801688783811 0.010735170432469994 0 -0.001331419598483164 0.010728817881977335 0 -0.0013453850614569449 0.010563554696586899 0 -0.001331419598483164 0.010728817881977335 0 -0.0012484807557554963 0.010992956268669581 0 -0.0016501841312978876 0.010692330823058432 0 -0.0010659801688783811 0.010735170432469994 0 -0.001331419598483164 0.010728817881977335 0 -0.0012484807557554963 0.010992956268669581 0 -0.0012484807557554963 0.010992956268669581 0 -0.0014499489798150053 0.011190016248798196 0 -0.0017184855243452828 0.010986553371210059 0 -0.0014499489798150053 0.011190016248798196 0 -0.00117555397756042 0.011460777507983433 0 -0.0015996213542876204 0.01142136873441749 0 -0.0012484807557554963 0.010992956268669581 0 -0.00117555397756042 0.011460777507983433 0 -0.00084911428099761362 0.011405599458616585 0 -0.0012484807557554963 0.010992956268669581 0 -0.0014499489798150053 0.011190016248798196 0 -0.00117555397756042 0.011460777507983433 0 -0.0012484807557554963 0.010992956268669581 0 -0.00084911428099761362 0.011405599458616585 0 -0.00064763725553594739 0.011121115492725587 0 -0.00039448149912783755 0.011615015168467448 0 -0.00084911428099761362 0.011405599458616585 0 -0.00064763725553594739 0.011121115492725587 0 -3.0775850558200914e-05 0.011322892901787869 0 0.00060592922746547956 0.011248306428470209 0 -0.00025235193070413534 0.010743930990330806 0 -0.00039448149912783755 0.011615015168467448 0 -0.00064763725553594739 0.011121115492725587 0 -3.0775850558200914e-05 0.011322892901787869 0 -0.00064763725553594739 0.011121115492725587 0 -3.0775850558200914e-05 0.011322892901787869 0 -0.00025235193070413534 0.010743930990330806 0 0.00026541018687899133 0.011948456959132162 0 -3.0775850558200914e-05 0.011322892901787869 0 0.00060592922746547956 0.011248306428470209 0 0.00062722069124847963 0.011595000697821248 0 -0.0010853452180554796 0.016095871176522343 0 -0.0043111974235298381 0.018205104105805298 0 -0.0043700389344639738 0.018134480393385867 0 -0.0044295775602377794 0.0181371195669781 0 -0.0043111974235298381 0.018205104105805298 0 -0.0043345944794139753 0.018139893374043634 0 -0.004282422669398385 0.018152166469109041 0 -0.0043111974235298381 0.018205104105805298 0 -0.0043700389344639738 0.018134480393385867 0 -0.0043345944794139753 0.018139893374043634 0 -0.0010853452180554796 0.016095871176522343 0 -0.0024759128539993186 0.014435414101284013 0 -0.0043700389344639738 0.018134480393385867 0 -0.0044295775602377794 0.0181371195669781 0 -0.0044139540666793724 0.018085227397553642 0 -0.0044295775602377794 0.0181371195669781 0 -0.0044139540666793724 0.018085227397553642 0 -0.0044711240697994561 0.018049236069624774 0 -0.0044139540666793724 0.018085227397553642 0 -0.0043718831528278684 0.018097125348406313 0 -0.0044016187828134924 0.018067389812514684 0 -0.0044139540666793724 0.018085227397553642 0 -0.0044455694728428282 0.018039506225701107 0 -0.0044016187828134924 0.018067389812514684 0 -0.0044139540666793724 0.018085227397553642 0 -0.0044455694728428282 0.018039506225701107 0 -0.0044711240697994561 0.018049236069624774 0 -0.0044455694728428282 0.018039506225701107 0 -0.0044866973890771121 0.018003242026097165 0 -0.0044711240697994561 0.018049236069624774 0 -0.0043345944794139753 0.018139893374043634 0 -0.0043718831528278684 0.018097125348406313 0 -0.0043377709796576375 0.018103025580114136 0 -0.0043700389344639738 0.018134480393385867 0 -0.0044139540666793724 0.018085227397553642 0 -0.0043718831528278684 0.018097125348406313 0 -0.0043700389344639738 0.018134480393385867 0 -0.0043345944794139753 0.018139893374043634 0 -0.0043718831528278684 0.018097125348406313 0 -0.0043718831528278684 0.018097125348406313 0 -0.0044016187828134924 0.018067389812514684 0 -0.0043606499119671601 0.018082473215312159 0 -0.0044016187828134924 0.018067389812514684 0 -0.0043606499119671601 0.018082473215312159 0 -0.004388833188559745 0.018063744386446059 0 -0.0043718831528278684 0.018097125348406313 0 -0.0043606499119671601 0.018082473215312159 0 -0.0043377709796576375 0.018103025580114136 0 -0.0043606499119671601 0.018082473215312159 0 -0.0043377709796576375 0.018103025580114136 0 -0.0043436455781924689 0.018079646389602563 0 -0.0043349445684794661 0.018082173459047973 0 -0.0043534459269932565 0.018076294620038472 0 -0.0043453017178963866 0.018080423573157204 0 -0.0043349445684794661 0.018082173459047973 0 -0.0043436455781924689 0.018079646389602563 0 -0.0043534459269932565 0.018076294620038472 0 -0.0043606499119671601 0.018082473215312159 0 -0.0043436455781924689 0.018079646389602563 0 -0.0043534459269932565 0.018076294620038472 0 -0.0043534459269932565 0.018076294620038472 0 -0.0043738694317591847 0.018066404106308706 0 -0.0043453017178963866 0.018080423573157204 0 -0.0044016187828134924 0.018067389812514684 0 -0.004388833188559745 0.018063744386446059 0 -0.0044295684582897924 0.018036752911892259 0 -0.0043738694317591847 0.018066404106308706 0 -0.004388833188559745 0.018063744386446059 0 -0.0044067470793841181 0.018049274945913709 0 -0.0043534459269932565 0.018076294620038472 0 -0.0043738694317591847 0.018066404106308706 0 -0.004388833188559745 0.018063744386446059 0 -0.0043606499119671601 0.018082473215312159 0 -0.0043534459269932565 0.018076294620038472 0 -0.004388833188559745 0.018063744386446059 0 -0.004388833188559745 0.018063744386446059 0 -0.0044067470793841181 0.018049274945913709 0 -0.0044295684582897924 0.018036752911892259 0 -0.0044067470793841181 0.018049274945913709 0 -0.0043990437715923873 0.018050414885230463 0 -0.0044402785717985336 0.01802157414858457 0 -0.0044267491185368693 0.018020409789136223 0 -0.0043990437715923873 0.018050414885230463 0 -0.0044402785717985336 0.01802157414858457 0 -0.0044267491185368693 0.018020409789136223 0 -0.0043990437715923873 0.018050414885230463 0 -0.0043631390113934455 0.018071678100302753 0 -0.0043738694317591847 0.018066404106308706 0 -0.0043990437715923873 0.018050414885230463 0 -0.0043631390113934455 0.018071678100302753 0 -0.0043738694317591847 0.018066404106308706 0 -0.0044067470793841181 0.018049274945913709 0 -0.0043990437715923873 0.018050414885230463 0 -0.0043738694317591847 0.018066404106308706 0 -0.0043453017178963866 0.018080423573157204 0 -0.0043631390113934455 0.018071678100302753 0 -0.0043453017178963866 0.018080423573157204 0 -0.0043631390113934455 0.018071678100302753 0 -0.0043210579339984581 0.018094177285742589 0 -0.0043631390113934455 0.018071678100302753 0 -0.0043210579339984581 0.018094177285742589 0 -0.0043345510997768533 0.018079787372572181 0 -0.0043349445684794661 0.018082173459047973 0 -0.0043453017178963866 0.018080423573157204 0 -0.0043210579339984581 0.018094177285742589 0 -0.0044455694728428282 0.018039506225701107 0 -0.0044671645217352566 0.018006019184759244 0 -0.0044866973890771121 0.018003242026097165 0 -0.0044671645217352566 0.018006019184759244 0 -0.0044990887022958552 0.017971511572664651 0 -0.0044866973890771121 0.018003242026097165 0 -0.0044455694728428282 0.018039506225701107 0 -0.0044016187828134924 0.018067389812514684 0 -0.0044295684582897924 0.018036752911892259 0 -0.0044455694728428282 0.018039506225701107 0 -0.0044295684582897924 0.018036752911892259 0 -0.0044671645217352566 0.018006019184759244 0 -0.0044295684582897924 0.018036752911892259 0 -0.0044402785717985336 0.01802157414858457 0 -0.0044671645217352566 0.018006019184759244 0 -0.0044402785717985336 0.01802157414858457 0 -0.0044671645217352566 0.018006019184759244 0 -0.0044851204585662583 0.017978529389928367 0 -0.0044067470793841181 0.018049274945913709 0 -0.0044295684582897924 0.018036752911892259 0 -0.0044402785717985336 0.01802157414858457 0 -0.0044267491185368693 0.018020409789136223 0 -0.0044402785717985336 0.01802157414858457 0 -0.0044851204585662583 0.017978529389928367 0 -0.0044671645217352566 0.018006019184759244 0 -0.0044990887022958552 0.017971511572664651 0 -0.0044851204585662583 0.017978529389928367 0 -0.0045152024513265389 0.017969350491266817 0 -0.0045375972553085564 0.017894388591043368 0 -0.0045255072627247116 0.017929749816820863 0 -0.0044990887022958552 0.017971511572664651 0 -0.0045152024513265389 0.017969350491266817 0 -0.0045255072627247116 0.017929749816820863 0 -0.0044990887022958552 0.017971511572664651 0 -0.0045152024513265389 0.017969350491266817 0 -0.0044866973890771121 0.018003242026097165 0 -0.0045152024513265389 0.017969350491266817 0 -0.0044866973890771121 0.018003242026097165 0 -0.0045023193143926546 0.018012209357261097 0 -0.0045152024513265389 0.017969350491266817 0 -0.0045023193143926546 0.018012209357261097 0 -0.0045410555815624453 0.018032538066736225 0 -0.0044866973890771121 0.018003242026097165 0 -0.0045023193143926546 0.018012209357261097 0 -0.0044711240697994561 0.018049236069624774 0 -0.0045023193143926546 0.018012209357261097 0 -0.0044711240697994561 0.018049236069624774 0 -0.0045410555815624453 0.018032538066736225 0 -0.0013453850614569449 0.010563554696586899 0 -0.0016501841312978876 0.010692330823058432 0 -0.001839552047494587 0.01064062178323553 0 -0.0054265311930919201 0.0095351939653177537 0 -0.0047282483735596554 0.012065669603453471 0 -0.0039922426229710645 0.010343209412425974 0 -0.0028462177645096308 0.012534381453000482 0 -0.0031197312616057394 0.010369368647445856 0 -0.0045152024513265389 0.017969350491266817 0 -0.0045410555815624453 0.018032538066736225 0 -0.0045375972553085564 0.017894388591043368 0 -0.0028462177645096308 0.012534381453000482 0 -0.0049108983759190393 0.01521006241098918 0 -0.0045375972553085564 0.017894388591043368 0 -0.0045117943087172952 0.017897873766888936 0 -0.0043265855124507233 0.017870561017495842 0 -0.0049108983759190393 0.01521006241098918 0 -0.0042412239759386603 0.016329430845168576 0 -0.0045375972553085564 0.017894388591043368 0 -0.0045255072627247116 0.017929749816820863 0 -0.0045117943087172952 0.017897873766888936 0 -0.0045255072627247116 0.017929749816820863 0 -0.0045802984506705443 0.017933597367312506 0 -0.0045117943087172952 0.017897873766888936 0 -0.0045255072627247116 0.017929749816820863 0 -0.0045802984506705443 0.017933597367312506 0 -0.0044851204585662583 0.017978529389928367 0 -0.0045802984506705443 0.017933597367312506 0 -0.0045117943087172952 0.017897873766888936 0 -0.0045510944678166269 0.018007459902219438 0 -0.0045117943087172952 0.017897873766888936 0 -0.0045510944678166269 0.018007459902219438 0 -0.0043265855124507233 0.017870561017495842 0 -0.0043168352978798438 0.018195511888461191 0 -0.0045510944678166269 0.018007459902219438 0 -0.0043265855124507233 0.017870561017495842 0 -0.0043168352978798438 0.018195511888461191 0 -0.0045510944678166269 0.018007459902219438 0 -0.004784098701228705 0.018334222479473774 0 -0.0045802984506705443 0.017933597367312506 0 -0.0045510944678166269 0.018007459902219438 0 -0.0047333017085313418 0.018159867883427286 0 -0.0053701451184183045 0.018058122144080858 0 -0.0057685963572978761 0.01835061370513846 0 -0.0065424491148892211 0.017428910025505485 0 -0.0053701451184183045 0.018058122144080858 0 -0.0052464167132026847 0.018157080154327238 0 -0.0057685963572978761 0.01835061370513846 0 -0.0058409185515348886 0.018550512234022827 0 -0.0058123054925000887 0.018541921235494429 0 -0.0045510944678166269 0.018007459902219438 0 -0.0047333017085313418 0.018159867883427286 0 -0.004784098701228705 0.018334222479473774 0 -0.0053625718577293346 0.018068173985538321 0 -0.0052464167132026847 0.018157080154327238 0 -0.004784098701228705 0.018334222479473774 0 -0.0058409185515348886 0.018550512234022827 0 -0.0050599145085936138 0.018607298058452258 0 -0.0052464167132026847 0.018157080154327238 0 -0.004784098701228705 0.018334222479473774 0 -0.0053394320342204015 0.019034716253074443 0 -0.004784098701228705 0.018334222479473774 0 -0.0053394320342204015 0.019034716253074443 0 -0.0046534119156703135 0.018575402449994127 0 -0.0057685963572978761 0.01835061370513846 0 -0.0053394320342204015 0.019034716253074443 0 -0.0064408125751328664 0.018681491362471297 0 -0.0052464167132026847 0.018157080154327238 0 -0.0057685963572978761 0.01835061370513846 0 -0.0053394320342204015 0.019034716253074443 0 -0.0053394320342204015 0.019034716253074443 0 -0.0065622175542972101 0.020212550445419416 0 -0.005551774023006547 0.020223224720715801 0 -0.0053394320342204015 0.019034716253074443 0 -0.0047704616711075482 0.020352124361952308 0 -0.005551774023006547 0.020223224720715801 0 -0.0053394320342204015 0.019034716253074443 0 -0.003617192489722071 0.020065183252447282 0 -0.0047704616711075482 0.020352124361952308 0 -0.0053394320342204015 0.019034716253074443 0 -0.0043401185508684425 0.018841556202394583 0 -0.0046534119156703135 0.018575402449994127 0 -0.0052931545463339022 0.019030547954984749 0 -0.0040268764905946686 0.019473783069308449 0 -0.0043168352978798438 0.018195511888461191 0 -0.0043401185508684425 0.018841556202394583 0 -0.0046534119156703135 0.018575402449994127 0 -0.0043168352978798438 0.018195511888461191 0 -0.004784098701228705 0.018334222479473774 0 -0.0046534119156703135 0.018575402449994127 0 -0.0045645299807016773 0.025609711253435061 0 -0.0038807299880473023 0.025246811298039067 0 -0.0038981824412288872 0.024609928967600472 0 -0.0062857131315904912 0.022146877139079018 0 -0.0063110494735555836 0.022300399544639662 0 -0.0045645299807016773 0.025609711253435061 0 -0.0037465894192772356 0.025953472441081329 0 -0.0038807299880473023 0.025246811298039067 0 -0.0053394320342204015 0.019034716253074443 0 -0.0064408125751328664 0.018681491362471297 0 -0.0065622175542972101 0.020212550445419416 0 -0.0078381675597640373 0.018721060161282325 0 -0.0064408125751328664 0.018681491362471297 0 -0.0065622175542972101 0.020212550445419416 0 -0.0078381675597640373 0.018721060161282325 0 -0.0064408125751328664 0.018681491362471297 0 -0.0065424491148892211 0.017428910025505485 0 -0.0058409185515348886 0.018550512234022827 0 -0.0050166584325368494 0.019584640308877257 0 -0.0075396675840040169 0.019047334717624972 0 -0.0060815112797429349 0.019980134033460228 0 -0.0055140474878934724 0.021076210797174796 0 -0.0057685963572978761 0.01835061370513846 0 -0.0064408125751328664 0.018681491362471297 0 -0.0065424491148892211 0.017428910025505485 0 -0.0058409185515348886 0.018550512234022827 0 -0.0067750623930239139 0.018513639074847047 0 -0.0078381675597640373 0.018721060161282325 0 -0.0065424491148892211 0.017428910025505485 0 -0.0076702108642508395 0.016786219872382189 0 -0.0045645299807016773 0.025609711253435061 0 -0.0046878649742652292 0.027193804260746704 0 -0.0037159229011960882 0.026809166775223589 0 -0.0062857131315904912 0.022146877139079018 0 -0.0050089695568594503 0.022441464324191474 0 -0.0045645299807016773 0.025609711253435061 0 -0.0037159229011960882 0.026809166775223589 0 -0.0037465894192772356 0.025953472441081329 0 -0.0045981829470497938 0.020910876275446012 0 -0.0055140474878934724 0.021076210797174796 0 -0.0034164735538103016 0.02313144384997538 0 -0.0050166584325368494 0.019584640308877257 0 -0.0040805448728938017 0.02012851604406141 0 -0.0045802984506705443 0.017933597367312506 0 -0.0045669522433066318 0.017929680489618276 0 -0.0044851204585662583 0.017978529389928367 0 -0.0045802984506705443 0.017933597367312506 0 -0.0047333017085313418 0.018159867883427286 0 -0.0045669522433066318 0.017929680489618276 0 -0.0060815112797429349 0.019980134033460228 0 -0.0045981829470497938 0.020910876275446012 0 -0.0055140474878934724 0.021076210797174796 0 -0.0067750623930239139 0.018513639074847047 0 -0.0050089695568594503 0.022441464324191474 0 -0.0044990887022958552 0.017971511572664651 0 -0.0045255072627247116 0.017929749816820863 0 -0.0044851204585662583 0.017978529389928367 0 -0.0045669522433066318 0.017929680489618276 0 -0.0044851204585662583 0.017978529389928367 0 -0.0044162262100778229 0.017989655443022477 0 -0.0045669522433066318 0.017929680489618276 0 -0.0044162262100778229 0.017989655443022477 0 -0.0043179002815190125 0.017882498235932135 0 -0.0044267491185368693 0.018020409789136223 0 -0.0044851204585662583 0.017978529389928367 0 -0.0044162262100778229 0.017989655443022477 0 -0.0044267491185368693 0.018020409789136223 0 -0.0043631390113934455 0.018071678100302753 0 -0.0044162262100778229 0.017989655443022477 0 -0.0044162262100778229 0.017989655443022477 0 -0.0042752510399070333 0.01814173046392618 0 -0.0043179002815190125 0.017882498235932135 0 -0.0043210579339984581 0.018094177285742589 0 -0.0043345510997768533 0.018079787372572181 0 -0.0042752510399070333 0.01814173046392618 0 -0.0044162262100778229 0.017989655443022477 0 -0.0043345510997768533 0.018079787372572181 0 -0.0042752510399070333 0.01814173046392618 0 -0.0043631390113934455 0.018071678100302753 0 -0.0044162262100778229 0.017989655443022477 0 -0.0043345510997768533 0.018079787372572181 0 -0.0042752510399070333 0.01814173046392618 0 -0.0043179002815190125 0.017882498235932135 0 -0.0012271263309072099 0.020745773105495594 0 -0.0034164735538103016 0.02313144384997538 0 -0.001816067805633122 0.022636199041841325 0 -0.0012919002612469148 0.025184624872461044 0 -0.0029581778884274156 0.028292318348424099 0 -0.0020712632352672725 0.028831453506552408 0 -0.001217064897823995 0.028390016602552012 0 -0.001816067805633122 0.022636199041841325 0 -0.00038954940739228304 0.023515960455067809 0 -0.0012919002612469148 0.025184624872461044 0 -0.0022501133453622793 0.025752628597770156 0 -0.00077581236913199794 0.026376857461689603 0 -0.0029581778884274156 0.028292318348424099 0 -0.0026928878494563674 0.027325039090912745 0 -0.001217064897823995 0.028390016602552012 0 -0.0026928878494563674 0.027325039090912745 0 -0.0018406420534922226 0.026764891236072359 0 -0.001217064897823995 0.028390016602552012 0 -0.0046878649742652292 0.027193804260746704 0 -0.0029581778884274156 0.028292318348424099 0 -0.0037159229011960882 0.026809166775223589 0 -0.0029581778884274156 0.028292318348424099 0 -0.0026928878494563674 0.027325039090912745 0 -0.0037159229011960882 0.026809166775223589 0 -0.0050089695568594503 0.022441464324191474 0 -0.0022501133453622793 0.025752628597770156 0 -0.0045981829470497938 0.020910876275446012 0 -0.0034164735538103016 0.02313144384997538 0 -0.001816067805633122 0.022636199041841325 0 -0.0037159229011960882 0.026809166775223589 0 -0.0037465894192772356 0.025953472441081329 0 -0.0031303011878083555 0.026420905796932258 0 -0.0037465894192772356 0.025953472441081329 0 -0.0031303011878083555 0.026420905796932258 0 -0.0031623676018117655 0.025774522552785895 0 -0.0031303011878083555 0.026420905796932258 0 -0.002630120497264311 0.02617572057322588 0 -0.0031623676018117655 0.025774522552785895 0 -0.0026928878494563674 0.027325039090912745 0 -0.0037159229011960882 0.026809166775223589 0 -0.0031303011878083555 0.026420905796932258 0 -0.0025069261754068302 0.026681443736269121 0 -0.0018406420534922226 0.026764891236072359 0 -0.002630120497264311 0.02617572057322588 0 -0.0026928878494563674 0.027325039090912745 0 -0.0031303011878083555 0.026420905796932258 0 -0.0025069261754068302 0.026681443736269121 0 -0.0018406420534922226 0.026764891236072359 0 -0.002630120497264311 0.02617572057322588 0 -0.0025050755295552584 0.025234493788046649 0 -0.0026928878494563674 0.027325039090912745 0 -0.0025069261754068302 0.026681443736269121 0 -0.0018406420534922226 0.026764891236072359 0 -0.0031303011878083555 0.026420905796932258 0 -0.0025069261754068302 0.026681443736269121 0 -0.002630120497264311 0.02617572057322588 0 -0.0017111271936382931 0.026988610714026005 0 -0.0024473959019939541 0.026440793775416971 0 -0.002630120497264311 0.02617572057322588 0 -0.0025050755295552584 0.025234493788046649 0 -0.0031623676018117655 0.025774522552785895 0 -0.0022898216344843444 0.028212269207391453 0 -0.0026744368302044044 0.028204094612970382 0 -0.0027347021913046092 0.027409770840577267 0 -0.0015859087701822294 0.027358505478567573 0 -0.001612125851891919 0.026544909428181593 0 -0.0019260794479638692 0.02654153675450905 0 -0.001908200517608065 0.029216141042165484 0 -0.0024473959019939541 0.026440793775416971 0 -0.0025050755295552584 0.025234493788046649 0 -0.0038807299880473023 0.025246811298039067 0 -0.0031623676018117655 0.025774522552785895 0 -0.0024473959019939541 0.026440793775416971 0 -0.0038392446671806704 0.025161676789858416 0 -0.0027808377081130569 0.02526126108465555 0 -0.0033605952042999859 0.02487085720827709 0 -0.0038807299880473023 0.025246811298039067 0 -0.0033605952042999859 0.02487085720827709 0 -0.0038807299880473023 0.025246811298039067 0 -0.0038981824412288872 0.024609928967600472 0 -0.0037465894192772356 0.025953472441081329 0 -0.0038807299880473023 0.025246811298039067 0 -0.0031623676018117655 0.025774522552785895 0 -0.00069549286695867448 0.032329889013299917 0 0.00066720231091597242 0.03338946339107824 0 -0.0015834413941689127 0.030317422304489652 0 -0.00077081201247765742 0.030341570213244459 0 -0.0012968503385080109 0.030839275265032967 0 -0.001908200517608065 0.029216141042165484 0 -0.00069549286695867448 0.032329889013299917 0 -0.0021547926287664408 0.032047888854163598 0 -0.00096789074166219542 0.032011469122694758 0 -0.0015026941119783332 0.031385939764369146 0 -0.001908200517608065 0.029216141042165484 0 -0.0015256488123761677 0.028564476182635166 0 -0.0015859087701822294 0.027358505478567573 0 -0.001612125851891919 0.026544909428181593 0 -0.0012957698313080638 0.027094649341962995 0 -0.00077081201247765742 0.030341570213244459 0 -0.0012968503385080109 0.030839275265032967 0 -0.0010084126731046727 0.031360174185978321 0 -0.0015859087701822294 0.027358505478567573 0 -0.0012957698313080638 0.027094649341962995 0 -0.00090453504421816574 0.027698074266543589 0 -0.0015256488123761677 0.028564476182635166 0 -0.00015480257041254565 0.031790171791211325 0 -0.00069549286695867448 0.032329889013299917 0 -0.00015480257041254565 0.031790171791211325 0 0.00038282607505536243 0.033609687663137398 0 0.00028304934788833273 0.034084984119798052 0 0.00059607292457425343 0.033939247084485862 0 0.00028304934788833273 0.034084984119798052 0 0.00059939113044529823 0.034231610309461341 0 0.00059607292457425343 0.033939247084485862 0 -0.0017111271936382931 0.026988610714026005 0 -0.0012344372514688365 0.02832853466894824 0 -0.0015859087701822294 0.027358505478567573 0 -0.00090453504421816574 0.027698074266543589 0 -0.001217064897823995 0.028390016602552012 0 -0.00090453504421816574 0.027698074266543589 0 -0.001217064897823995 0.028390016602552012 0 -0.0012857075559904731 0.029187767532820954 0 0.00074208912897703123 0.033662569760848783 0 0.00095006267505606877 0.034094996232262989 0 0.00066718081104573683 0.034126706749363689 0 -0.00015480257041254565 0.031790171791211325 0 0.00046016902924740752 0.031313147539202238 0 -0.0020712632352672725 0.028831453506552408 0 -0.001217064897823995 0.028390016602552012 0 -0.0012857075559904731 0.029187767532820954 0 -0.00077581236913199794 0.026376857461689603 0 0.00046016902924740752 0.031313147539202238 0 0.00028304934788833273 0.034084984119798052 0 0.0005803204578686544 0.034492410213181293 0 0.00059939113044529823 0.034231610309461341 0 -0.00015480257041254565 0.031790171791211325 0 0.00095004389535856628 0.034740558627185336 0 0.00095006267505606877 0.034094996232262989 0 0.00089997564188722286 0.034225670919916469 0 0.00080245717313611245 0.034298960538723 0 0.00095006267505606877 0.034094996232262989 0 0.00089997564188722286 0.034225670919916469 0 0.00066718081104573683 0.034126706749363689 0 0.00094068106063536887 0.034198856215441421 0 0.00094498172362630125 0.034129835758756069 0 0.00080245717313611245 0.034298960538723 0 0.00089997564188722286 0.034225670919916469 0 0.00094068106063536887 0.034198856215441421 0 0.00080245717313611245 0.034298960538723 0 0.00089997564188722286 0.034225670919916469 0 0.00094068106063536887 0.034198856215441421 0 0.00097217727054872151 0.034208246231559734 0 0.00094068106063536887 0.034198856215441421 0 0.0010335549704039763 0.034171450648367921 0 0.00097217727054872151 0.034208246231559734 0 0.0057443040178916755 0.034852535404563456 0 0.0035460143113297871 0.034282076731683986 0 0.0051062950965222696 0.033802890368246429 0 0.00094068106063536887 0.034198856215441421 0 0.0010335549704039763 0.034171450648367921 0 0.00094498172362630125 0.034129835758756069 0 0.0040232274106355602 0.033558468998652044 0 0.002088994100990602 0.034297182416489089 0 0.0040232274106355602 0.033558468998652044 0 0.0049509026549284978 0.034086895216317997 0 0.0057443040178916755 0.034852535404563456 0 0.005934748097723797 0.03406540199578937 0 0.0051062950965222696 0.033802890368246429 0 0.0017467473340903219 0.030287809378855567 0 0.0021892063676296229 0.028324307719575649 0 0.001273168275775125 0.028784757293714332 0 0.0040232274106355602 0.033558468998652044 0 0.00046016902924740752 0.031313147539202238 0 0.0010335549704039763 0.034171450648367921 0 0.00097217727054872151 0.034208246231559734 0 0.00099965591728211236 0.034260090632324422 0 0.00089997564188722286 0.034225670919916469 0 0.00097217727054872151 0.034208246231559734 0 0.00099965591728211236 0.034260090632324422 0 0.0013953942408526743 0.034578417186614911 0 0.00046016902924740752 0.031313147539202238 0 0.0010940219959644601 0.027648080828578291 0 0.001273168275775125 0.028784757293714332 0 0.00038063991994663742 0.028981377237416395 0 0.0010940219959644601 0.027648080828578291 0 0.0021892063676296229 0.028324307719575649 0 0.001273168275775125 0.028784757293714332 0 0.0017467473340903219 0.030287809378855567 0 0.001273168275775125 0.028784757293714332 0 0.00081269096712810853 0.029398143303999424 0 -0.00077581236913199794 0.026376857461689603 0 -0.00044341406211428631 0.025341160818729072 0 0.001273168275775125 0.028784757293714332 0 0.00038063991994663742 0.028981377237416395 0 0.00081269096712810853 0.029398143303999424 0 0.00038117612367322373 0.028970056063673782 0 0.00081269096712810853 0.029398143303999424 0 5.3595888856532625e-05 0.029595873256361878 0 -0.00044341406211428631 0.025341160818729072 0 0.0016992452792815766 0.02750462093031315 0 -0.00044341406211428631 0.025341160818729072 0 0.0010904110094567699 0.027737740386253037 0 -0.0043241999461220331 0.018042760502417838 0 -0.0033956046950110296 0.020207853740708229 0 -0.0042752510399070333 0.01814173046392618 0 -0.0012271263309072099 0.020745773105495594 0 -0.0035964920783427114 0.021162388942615705 0 -0.0043210579339984581 0.018094177285742589 0 -0.0042752510399070333 0.01814173046392618 0 -0.004343359397939766 0.018074321093929337 0 -0.0040805448728938017 0.02012851604406141 0 -0.00044341406211428631 0.025341160818729072 0 -0.0012271263309072099 0.020745773105495594 0 -0.0035964920783427114 0.021162388942615705 0 -0.0018145685620351054 0.021872178105865031 0 -0.0033956046950110296 0.020207853740708229 0 0.0016992452792815766 0.02750462093031315 0 -0.0043349445684794661 0.018082173459047973 0 -0.0043210579339984581 0.018094177285742589 0 -0.004343359397939766 0.018074321093929337 0 -0.0043349445684794661 0.018082173459047973 0 -0.0043436455781924689 0.018079646389602563 0 -0.004343359397939766 0.018074321093929337 0 -0.0033956046950110296 0.020207853740708229 0 0.00073035446422244305 0.025698719527865899 0 -0.001048368932246375 0.023313096232196098 0 0.0007309551692224023 0.024021312055566301 0 -0.00040844928147767561 0.026156725913174934 0 -0.0043377709796576375 0.018103025580114136 0 -0.004343359397939766 0.018074321093929337 0 -0.004282422669398385 0.018152166469109041 0 -0.0043377709796576375 0.018103025580114136 0 -0.0043436455781924689 0.018079646389602563 0 -0.004343359397939766 0.018074321093929337 0 0.0016992452792815766 0.02750462093031315 0 0.00073035446422244305 0.025698719527865899 0 0.0072351925533802354 0.035229319492219364 0 0.0078500127460388452 0.034199202560675157 0 0.0067058479781946937 0.03442652122060811 0 -0.0043345944794139753 0.018139893374043634 0 -0.0043377709796576375 0.018103025580114136 0 -0.004282422669398385 0.018152166469109041 0 0.005782860597331547 0.034704370930808172 0 0.0072351925533802354 0.035229319492219364 0 0.0067058479781946937 0.03442652122060811 0 0.0040232274106355602 0.033558468998652044 0 0.0016992452792815766 0.02750462093031315 0 0.0017467473340903219 0.030287809378855567 0 0.00081269096712810853 0.029398143303999424 0 5.3595888856532625e-05 0.029595873256361878 0 0.005782860597331547 0.034704370930808172 0 0.0067058479781946937 0.03442652122060811 0 0.005934748097723797 0.03406540199578937 0 0.0067058479781946937 0.03442652122060811 0 0.005934748097723797 0.03406540199578937 0 0.0067082469591843424 0.033601357714734569 0 0.005934748097723797 0.03406540199578937 0 0.0067082469591843424 0.033601357714734569 0 0.0058206247752798515 0.033423357112836172 0 0.0078500127460388452 0.034199202560675157 0 0.0067058479781946937 0.03442652122060811 0 0.0067082469591843424 0.033601357714734569 0 0.0067082469591843424 0.033601357714734569 0 0.0076702845264301793 0.032700127400403928 0 0.0062851708809680646 0.032729346359189879 0 0.0067082469591843424 0.033601357714734569 0 0.0062851708809680646 0.032729346359189879 0 0.0058206247752798515 0.033423357112836172 0 0.00073035446422244305 0.025698719527865899 0 0.0049369024641509069 0.029348485653359659 0 0.0078500127460388452 0.034199202560675157 0 0.0067082469591843424 0.033601357714734569 0 0.0076702845264301793 0.032700127400403928 0 -0.0010853452180554796 0.016095871176522343 0 0.00073035446422244305 0.025698719527865899 0 0.0020914498635996336 0.023216498438448526 0 0.0016644753170080128 0.024073569232477596 0 0.0015449501488818279 0.02345458004069104 0 0.0034370927371612028 0.02345385482308647 0 -0.0010853452180554796 0.016095871176522343 0 0.0034370927371612028 0.02345385482308647 0 0.0049369024641509069 0.029348485653359659 0 0.0014334494984259869 0.022856792503450272 0 0.0020914498635996336 0.023216498438448526 0 0.0015449501488818279 0.02345458004069104 0 0.00052584802227630633 0.012885753101415581 0 0.00038082812205969226 0.012858801697541333 0 0.0003448699861648981 0.012780027196919138 0 0.0074711549380619621 0.030838616967031846 0 0.0076702845264301793 0.032700127400403928 0 0.0066883575105001593 0.031613220470134401 0 0.0062851708809680646 0.032729346359189879 0 0.0066883575105001593 0.031613220470134401 0 0.0055429444737937917 0.031804300194430736 0 0.0076702845264301793 0.032700127400403928 0 0.0062851708809680646 0.032729346359189879 0 0.0066883575105001593 0.031613220470134401 0 0.0060853743339061564 0.03091271022115603 0 0.0066883575105001593 0.031613220470134401 0 0.0055429444737937917 0.031804300194430736 0 0.0062851708809680646 0.032729346359189879 0 0.0055429444737937917 0.031804300194430736 0 0.0052967157086580476 0.032965564379063464 0 0.0055429444737937917 0.031804300194430736 0 0.0047493137528380859 0.032439154126520153 0 0.0052967157086580476 0.032965564379063464 0 0.0046543456095862511 0.031198985880016714 0 0.0055429444737937917 0.031804300194430736 0 0.0046236416892008435 0.031765004652088799 0 0.0055429444737937917 0.031804300194430736 0 0.0047493137528380859 0.032439154126520153 0 0.0046236416892008435 0.031765004652088799 0 0.004092033741368184 0.031345850886127548 0 0.0046543456095862511 0.031198985880016714 0 0.0046236416892008435 0.031765004652088799 0 0.004092033741368184 0.031345850886127548 0 0.0046236416892008435 0.031765004652088799 0 0.0039821403631146333 0.03226892858856429 0 0.004092033741368184 0.031345850886127548 0 0.0032541592175123995 0.031531402835678492 0 0.0039821403631146333 0.03226892858856429 0 0.0032541592175123995 0.031531402835678492 0 0.0029756359037615187 0.032839882054586475 0 0.0039821403631146333 0.03226892858856429 0 0.0047493137528380859 0.032439154126520153 0 0.0046236416892008435 0.031765004652088799 0 0.0039821403631146333 0.03226892858856429 0 0.0029756359037615187 0.032839882054586475 0 0.0039821403631146333 0.03226892858856429 0 0.0042670225045730566 0.033222470554003833 0 0.0047493137528380859 0.032439154126520153 0 0.0039821403631146333 0.03226892858856429 0 0.0042670225045730566 0.033222470554003833 0 0.0042670225045730566 0.033222470554003833 0 0.0035460143113297871 0.034282076731683986 0 0.0051062950965222696 0.033802890368246429 0 0.0029756359037615187 0.032839882054586475 0 0.0042670225045730566 0.033222470554003833 0 0.0035460143113297871 0.034282076731683986 0 0.005934748097723797 0.03406540199578937 0 0.0051062950965222696 0.033802890368246429 0 0.0058206247752798515 0.033423357112836172 0 0.0062851708809680646 0.032729346359189879 0 0.0052967157086580476 0.032965564379063464 0 0.0058206247752798515 0.033423357112836172 0 0.0051062950965222696 0.033802890368246429 0 0.0052967157086580476 0.032965564379063464 0 0.0058206247752798515 0.033423357112836172 0 0.0047493137528380859 0.032439154126520153 0 0.0042670225045730566 0.033222470554003833 0 0.0052967157086580476 0.032965564379063464 0 0.0042670225045730566 0.033222470554003833 0 0.0051062950965222696 0.033802890368246429 0 0.0052967157086580476 0.032965564379063464 0 0.0007523899065947472 0.033832291089870417 0 -0.00021515201226554752 0.034156832883315877 0 0.00030089034514310664 0.034379757005897495 0 0.00094498172362630125 0.034129835758756069 0 0.0007523899065947472 0.033832291089870417 0 0.00080245717313611245 0.034298960538723 0 0.0029756359037615187 0.032839882054586475 0 0.0035460143113297871 0.034282076731683986 0 0.0007523899065947472 0.033832291089870417 0 0.002088994100990602 0.034297182416489089 0 0.00084428203901166403 0.033794984157736539 0 0.0029756359037615187 0.032839882054586475 0 0.0007523899065947472 0.033832291089870417 0 0.0018834263213809933 0.031608591113965509 0 0.0032541592175123995 0.031531402835678492 0 0.0029756359037615187 0.032839882054586475 0 0.0018834263213809933 0.031608591113965509 0 0.00019460222429413607 0.031723939524487973 0 0.0007523899065947472 0.033832291089870417 0 0.0018834263213809933 0.031608591113965509 0 0.00019460222429413607 0.031723939524487973 0 0.0007523899065947472 0.033832291089870417 0 -0.00056714114566292829 0.033586131562995565 0 -0.00019487616316520424 0.034430170555147355 0 -0.00030062046787569932 0.03423836748060937 0 -0.00026480677391604813 0.03417088892258572 0 -0.00030062046787569932 0.03423836748060937 0 -0.00056714114566292829 0.033586131562995565 0 -0.00026480677391604813 0.03417088892258572 0 -0.00026480677391604813 0.03417088892258572 0 -0.00019744808814571823 0.034393878820021505 0 -0.00017574286258497746 0.03454505887600718 0 -0.00026480677391604813 0.03417088892258572 0 -0.00021515201226554752 0.034156832883315877 0 -0.00019744808814571823 0.034393878820021505 0 -0.00056714114566292829 0.033586131562995565 0 -0.00026480677391604813 0.03417088892258572 0 -0.00021515201226554752 0.034156832883315877 0 0.0007523899065947472 0.033832291089870417 0 -0.00056714114566292829 0.033586131562995565 0 -0.00021515201226554752 0.034156832883315877 0 -0.00021515201226554752 0.034156832883315877 0 -8.9535029104045999e-05 0.034536288130862514 0 0.00030089034514310664 0.034379757005897495 0 -0.00021515201226554752 0.034156832883315877 0 -0.00019744808814571823 0.034393878820021505 0 -8.9535029104045999e-05 0.034536288130862514 0 -0.00019744808814571823 0.034393878820021505 0 -8.9535029104045999e-05 0.034536288130862514 0 -0.0001701128211043919 0.034642127703390591 0 -8.9535029104045999e-05 0.034536288130862514 0 -0.00014801159072289638 0.034734444083433756 0 -0.0001701128211043919 0.034642127703390591 0 -8.9535029104045999e-05 0.034536288130862514 0 0.00016793332648102165 0.034770847328063709 0 -0.00014801159072289638 0.034734444083433756 0 -8.9535029104045999e-05 0.034536288130862514 0 0.00030089034514310664 0.034379757005897495 0 0.00016793332648102165 0.034770847328063709 0 0.00032561275956793689 0.034392881858313358 0 0.00019254867066181714 0.034658556228846053 0 0.00049414178239937242 0.034476357122212246 0 0.00030089034514310664 0.034379757005897495 0 0.00042680807986181333 0.034614563140332531 0 0.00057341604652455947 0.034507614471190565 0 0.00061266871613270654 0.034565318371825492 0 0.00042680807986181333 0.034614563140332531 0 0.00057341604652455947 0.034507614471190565 0 0.00049414178239937242 0.034476357122212246 0 0.00042680807986181333 0.034614563140332531 0 0.00057341604652455947 0.034507614471190565 0 0.00049414178239937242 0.034476357122212246 0 0.00068414754502678561 0.03444564939506297 0 0.0007523899065947472 0.033832291089870417 0 0.00030089034514310664 0.034379757005897495 0 0.00080245717313611245 0.034298960538723 0 0.00049414178239937242 0.034476357122212246 0 0.00030089034514310664 0.034379757005897495 0 0.00080245717313611245 0.034298960538723 0 0.0005803204578686544 0.034492410213181293 0 0.00080245717313611245 0.034298960538723 0 0.00068414754502678561 0.03444564939506297 0 0.00095004389535856628 0.034740558627185336 0 0.00069418784712948773 0.034083903378633824 0 0.0005803204578686544 0.034492410213181293 0 0.00068414754502678561 0.03444564939506297 0 0.00067601516127510967 0.03450056943244826 0 0.0005803204578686544 0.034492410213181293 0 0.00068180296501906923 0.034490553341004274 0 0.00067601516127510967 0.03450056943244826 0 0.00049414178239937242 0.034476357122212246 0 0.00080245717313611245 0.034298960538723 0 0.00068414754502678561 0.03444564939506297 0 0.00057341604652455947 0.034507614471190565 0 0.00068414754502678561 0.03444564939506297 0 0.00067601516127510967 0.03450056943244826 0 0.00057341604652455947 0.034507614471190565 0 0.00067601516127510967 0.03450056943244826 0 0.00061266871613270654 0.034565318371825492 0 0.00068180296501906923 0.034490553341004274 0 0.00067601516127510967 0.03450056943244826 0 0.00069295809044903317 0.034489564982621373 0 0.00068381848525549821 0.034474717366871764 0 0.00067518152805705659 0.034473562950300705 0 0.0006674203843475559 0.034483488470282195 0 0.00067518152805705659 0.034473562950300705 0 0.0005803204578686544 0.034492410213181293 0 0.00066303056116641824 0.034402954374101992 0 0.00059939113044529823 0.034231610309461341 0 0.0005803204578686544 0.034492410213181293 0 0.00068180296501906923 0.034490553341004274 0 0.00066303056116641824 0.034402954374101992 0 0.00068180296501906923 0.034490553341004274 0 0.00075544014137662559 0.034494371761730966 0 0.000767154749182909 0.034383078304289764 0 0.00068180296501906923 0.034490553341004274 0 0.00066303056116641824 0.034402954374101992 0 0.000767154749182909 0.034383078304289764 0 0.00066303056116641824 0.034402954374101992 0 0.000767154749182909 0.034383078304289764 0 0.00071444675561778935 0.034297997622792897 0 0.000767154749182909 0.034383078304289764 0 0.00071444675561778935 0.034297997622792897 0 0.00086766113252821403 0.034213158671877533 0 0.00066303056116641824 0.034402954374101992 0 0.00071444675561778935 0.034297997622792897 0 0.00059939113044529823 0.034231610309461341 0 0.00067518152805705659 0.034473562950300705 0 0.00043740537274185358 0.034330048601920515 0 0.00075544014137662559 0.034494371761730966 0 0.000767154749182909 0.034383078304289764 0 0.0010338207197944111 0.034307985581506079 0 0.000767154749182909 0.034383078304289764 0 0.0010338207197944111 0.034307985581506079 0 0.00086766113252821403 0.034213158671877533 0 0.00052747658582856765 0.034449278590737688 0 0.00040965123995408251 0.034463785668060826 0 0.00040427840216271382 0.034544622659219495 0 0.00019254867066181714 0.034658556228846053 0 0.00043740537274185358 0.034330048601920515 0 0.00067518152805705659 0.034473562950300705 0 0.00019254867066181714 0.034658556228846053 0 0.0010338207197944111 0.034307985581506079 0 0.00086766113252821403 0.034213158671877533 0 0.0010658117558126714 0.033971520221289478 0 0.00086766113252821403 0.034213158671877533 0 0.00083436479596130629 0.033918299093218682 0 0.0010658117558126714 0.033971520221289478 0 0.00043740537274185358 0.034330048601920515 0 0.00085529782808194262 0.033911489486619782 0 0.00059939113044529823 0.034231610309461341 0 0.00072384194134907651 0.034129389130651076 0 0.00059607292457425343 0.033939247084485862 0 0.00086766113252821403 0.034213158671877533 0 0.00072384194134907651 0.034129389130651076 0 0.00083436479596130629 0.033918299093218682 0 0.00071444675561778935 0.034297997622792897 0 0.00059939113044529823 0.034231610309461341 0 0.00072384194134907651 0.034129389130651076 0 0.00071444675561778935 0.034297997622792897 0 0.00086766113252821403 0.034213158671877533 0 0.00072384194134907651 0.034129389130651076 0 0.00059607292457425343 0.033939247084485862 0 0.00083436479596130629 0.033918299093218682 0 0.00074127420186021137 0.033627735905099002 0 0.00072384194134907651 0.034129389130651076 0 0.00059607292457425343 0.033939247084485862 0 0.00083436479596130629 0.033918299093218682 0 0.00083436479596130629 0.033918299093218682 0 0.0010888967550169901 0.033636043535785282 0 0.0010658117558126714 0.033971520221289478 0 0.0004162015919105406 0.033042849244870331 0 0.00080499303260298091 0.032951216880089979 0 0.00084600942399616901 0.032673574388660712 0 0.00066720231091597242 0.03338946339107824 0 0.00072612978816472386 0.033608493605755151 0 0.00083436479596130629 0.033918299093218682 0 0.00074127420186021137 0.033627735905099002 0 0.0010888967550169901 0.033636043535785282 0 0.00038282607505536243 0.033609687663137398 0 0.00059607292457425343 0.033939247084485862 0 0.00074127420186021137 0.033627735905099002 0 -0.0010410166260671481 0.033133020444763725 0 0.0004162015919105406 0.033042849244870331 0 0.00017227808233131822 0.032208585508856323 0 0.00043561036766483598 0.034071644784949562 0 0.00027204717072120283 0.033930371114724675 0 0.00025340925749533182 0.034095148871055227 0 0.00050048714697922738 0.033731734899209047 0 0.00025340925749533182 0.034095148871055227 0 0.00036369943859297014 0.033929397559840764 0 0.00042557617356280231 0.033928755510854794 0 0.00032398395491185555 0.034031326062929412 0 0.00050048714697922738 0.033731734899209047 0 0.00040575914034173737 0.033674298343829956 0 0.00054559271673024212 0.033548246240624718 0 0.00042557617356280231 0.033928755510854794 0 0.00072612978816472386 0.033608493605755151 0 0.00043561036766483598 0.034071644784949562 0 0.00058258900105628256 0.034059723001742925 0 0.0005146177402561013 0.033964547789383202 0 0.00058589842856285736 0.033885781934030614 0 0.0005146177402561013 0.033964547789383202 0 0.00044941112070890911 0.033831773020648388 0 0.00072612978816472386 0.033608493605755151 0 0.00085529782808194262 0.033911489486619782 0 0.00058258900105628256 0.034059723001742925 0 0.00058589842856285736 0.033885781934030614 0 0.0005146177402561013 0.033964547789383202 0 0.0005146177402561013 0.033964547789383202 0 0.00042128242575152917 0.033947662959834056 0 0.00044941112070890911 0.033831773020648388 0 0.00042128242575152917 0.033947662959834056 0 0.00044941112070890911 0.033831773020648388 0 0.00027204717072120283 0.033930371114724675 0 8.9417629569135961e-05 0.034312005836875561 0 6.6793275478281756e-05 0.034327543775315481 0 0.00043561036766483598 0.034071644784949562 0 0.00042128242575152917 0.033947662959834056 0 0.00027204717072120283 0.033930371114724675 0 0.00043561036766483598 0.034071644784949562 0 0.0005146177402561013 0.033964547789383202 0 0.00042128242575152917 0.033947662959834056 0 -0.00019005085049089203 0.034784514127490139 0 -0.00015508458532819097 0.034803486191844452 0 -0.00018161389412459764 0.034717235957932815 0 -0.00019005085049089203 0.034784514127490139 0 -0.00018773687184388309 0.034812684376900507 0 -0.00015508458532819097 0.034803486191844452 0 0.00043740537274185358 0.034330048601920515 0 8.9417629569135961e-05 0.034312005836875561 0 -0.00020715090649445477 0.034811509016692957 0 -0.00019005085049089203 0.034784514127490139 0 -0.00018773687184388309 0.034812684376900507 0 0.0005912217942945009 0.033732006420497132 0 0.00058589842856285736 0.033885781934030614 0 0.00044941112070890911 0.033831773020648388 0 -0.00020862477838494173 0.034825381991507247 0 -0.00020715090649445477 0.034811509016692957 0 -0.00018773687184388309 0.034812684376900507 0 -0.00020862477838494173 0.034825381991507247 0 -0.00018773687184388309 0.034812684376900507 0 -0.00016547958318824683 0.034833108444710895 0 0.00019254867066181714 0.034658556228846053 0 -0.000202770463753266 0.034814668933874603 0 -0.00018773687184388309 0.034812684376900507 0 -0.00016547958318824683 0.034833108444710895 0 -0.00015508458532819097 0.034803486191844452 0 -0.00014801159072289638 0.034734444083433756 0 -8.9320774035989904e-05 0.0348371889509538 0 -0.0001701128211043919 0.034642127703390591 0 -0.000202770463753266 0.034814668933874603 0 -7.7845466090011771e-05 0.034819684624694071 0 -0.00016547958318824683 0.034833108444710895 0 -8.9320774035989904e-05 0.0348371889509538 0 -0.00015508458532819097 0.034803486191844452 0 -8.9320774035989904e-05 0.0348371889509538 0 -0.00010310277665915464 0.034783403571904847 0 -3.4231855419127254e-05 0.034803046424466487 0 -8.9320774035989904e-05 0.0348371889509538 0 -0.00015508458532819097 0.034803486191844452 0 -0.00010310277665915464 0.034783403571904847 0 -0.00015508458532819097 0.034803486191844452 0 -0.00010310277665915464 0.034783403571904847 0 -0.00018161389412459764 0.034717235957932815 0 -0.00010310277665915464 0.034783403571904847 0 -0.00018161389412459764 0.034717235957932815 0 -3.3828924161894278e-05 0.034690508132096905 0 -0.00010310277665915464 0.034783403571904847 0 -3.4231855419127254e-05 0.034803046424466487 0 -3.3828924161894278e-05 0.034690508132096905 0 -3.4231855419127254e-05 0.034803046424466487 0 -3.3828924161894278e-05 0.034690508132096905 0 3.2510270824880268e-05 0.034788913660835294 0 -3.3828924161894278e-05 0.034690508132096905 0 2.5041336729086718e-05 0.034438264098882954 0 3.2510270824880268e-05 0.034788913660835294 0 -0.00018161389412459764 0.034717235957932815 0 -3.3828924161894278e-05 0.034690508132096905 0 2.5041336729086718e-05 0.034438264098882954 0 0.00027204717072120283 0.033930371114724675 0 2.5041336729086718e-05 0.034438264098882954 0 0.00025340925749533182 0.034095148871055227 0 6.6793275478281756e-05 0.034327543775315481 0 3.2365100683964007e-05 0.034407461174313647 0 2.5041336729086718e-05 0.034438264098882954 0 0.00025340925749533182 0.034095148871055227 0 9.4722680185098314e-05 0.034371655063579698 0 3.2510270824880268e-05 0.034788913660835294 0 4.5992799745217416e-08 0.034999748853736162 0 3.3251870778299933e-08 0.034999601445002873 0 3.2510270824880268e-05 0.034788913660835294 0 2.2578748678562562e-05 0.034653724182291484 0 3.3251870778299933e-08 0.034999601445002873 0 2.5041336729086718e-05 0.034438264098882954 0 3.2510270824880268e-05 0.034788913660835294 0 2.2578748678562562e-05 0.034653724182291484 0 -3.4231855419127254e-05 0.034803046424466487 0 3.2510270824880268e-05 0.034788913660835294 0 -1.0166445005495808e-05 0.034894828224785145 0 3.2510270824880268e-05 0.034788913660835294 0 4.5992799745217416e-08 0.034999748853736162 0 -1.0166445005495808e-05 0.034894828224785145 0 4.5992799745217416e-08 0.034999748853736162 0 -1.0166445005495808e-05 0.034894828224785145 0 -2.8808958653579029e-08 0.034999853646970322 0 -8.9320774035989904e-05 0.0348371889509538 0 -3.4231855419127254e-05 0.034803046424466487 0 -1.0166445005495808e-05 0.034894828224785145 0 -8.9320774035989904e-05 0.0348371889509538 0 -1.0166445005495808e-05 0.034894828224785145 0 -4.90070831667898e-05 0.03490354233650822 0 -4.90070831667898e-05 0.03490354233650822 0 -2.8808958653579029e-08 0.034999853646970322 0 -7.0954093680821837e-08 0.034999814274669097 0 -1.0166445005495808e-05 0.034894828224785145 0 -4.90070831667898e-05 0.03490354233650822 0 -2.8808958653579029e-08 0.034999853646970322 0 -7.0954093680821837e-08 0.034999814274669097 0 -0.00010483183466020091 0.034782453845358656 0 -7.3271205914885915e-05 0.034794048958923615 0 -4.90070831667898e-05 0.03490354233650822 0 -7.0954093680821837e-08 0.034999814274669097 0 -0.00010483183466020091 0.034782453845358656 0 -8.9320774035989904e-05 0.0348371889509538 0 -4.90070831667898e-05 0.03490354233650822 0 -0.00010483183466020091 0.034782453845358656 0 -8.9320774035989904e-05 0.0348371889509538 0 -0.00010483183466020091 0.034782453845358656 0 -0.0001701128211043919 0.034642127703390591 0 -0.00019744808814571823 0.034393878820021505 0 -0.0001701128211043919 0.034642127703390591 0 -0.00017574286258497746 0.03454505887600718 0 -0.00010483183466020091 0.034782453845358656 0 -0.0001701128211043919 0.034642127703390591 0 -0.00017574286258497746 0.03454505887600718 0 -0.00010483183466020091 0.034782453845358656 0 -0.00017574286258497746 0.03454505887600718 0 -7.3271205914885915e-05 0.034794048958923615 0 -0.00017574286258497746 0.03454505887600718 0 -0.00012763140364824993 0.034559881857699329 0 -7.3271205914885915e-05 0.034794048958923615 0 -0.00026480677391604813 0.03417088892258572 0 -0.00017574286258497746 0.03454505887600718 0 -0.00012763140364824993 0.034559881857699329 0 -0.00019487616316520424 0.034430170555147355 0 -0.00026480677391604813 0.03417088892258572 0 -0.00012763140364824993 0.034559881857699329 0 -0.00012763140364824993 0.034559881857699329 0 -5.8267019578080384e-05 0.03475875816233031 0 -7.3271205914885915e-05 0.034794048958923615 0 -5.8267019578080384e-05 0.03475875816233031 0 -2.685595256847857e-05 0.034888884568148565 0 -7.3271205914885915e-05 0.034794048958923615 0 -1.1301584818268381e-08 0.034999801280418734 0 -2.685595256847857e-05 0.034888884568148565 0 -2.8670405420434281e-08 0.034999744780970544 0 -2.685595256847857e-05 0.034888884568148565 0 -2.8670405420434281e-08 0.034999744780970544 0 -7.3271205914885915e-05 0.034794048958923615 0 -7.0954093680821837e-08 0.034999814274669097 0 -2.8670405420434281e-08 0.034999744780970544 0 -7.3271205914885915e-05 0.034794048958923615 0 0.0010897866499114362 0.0041659345500763487 0 0.0017009973743655636 0.0043786050351411485 0 0.0014705367943524978 0.0038617247627743103 0 0.0010897866499114362 0.0041659345500763487 0 0.0012747565823472624 0.0046245185633640405 0 0.0017009973743655636 0.0043786050351411485 0 0.0026737697814651915 0.0030421446473223087 0 0.002945289701509458 0.0034297411948964089 0 0.0010897866499114362 0.0041659345500763487 0 0.00068387407326671648 0.004447063085126198 0 0.0012747565823472624 0.0046245185633640405 0 0.0021014864650820311 0.0033421534116911695 0 0.0026737697814651915 0.0030421446473223087 0 0.0010897866499114362 0.0041659345500763487 0 0.00068387407326671648 0.004447063085126198 0 0.00061788984759624259 0.0039884395306692801 0 0.0034007205295743326 0.0020639939832698649 0 0.0037109216383626833 0.0023864845683734181 0 0.0039412767821305301 0.0022512397999381413 0 0.0034007205295743326 0.0020639939832698649 0 0.0035073298095951999 0.0024998613422771362 0 0.0032020907207865211 0.0025110618299208636 0 0.0034007205295743326 0.0020639939832698649 0 0.0037109216383626833 0.0023864845683734181 0 0.0035073298095951999 0.0024998613422771362 0 0.0037109216383626833 0.0023864845683734181 0 0.0035073298095951999 0.0024998613422771362 0 0.0037698626422042417 0.0025743721296864019 0 0.0037109216383626833 0.0023864845683734181 0 0.0038014655544546445 0.0024712639654988384 0 0.0037698626422042417 0.0025743721296864019 0 0.0038014655544546445 0.0024712639654988384 0 0.0038224738615462443 0.0025310343263671028 0 0.0037698626422042417 0.0025743721296864019 0 0.0038014655544546445 0.0024712639654988384 0 0.0038199424010457376 0.0024845365921052384 0 0.0038224738615462443 0.0025310343263671028 0 0.0037109216383626833 0.0023864845683734181 0 0.0038014655544546445 0.0024712639654988384 0 0.0038357741741705037 0.0024936975342199057 0 0.0038290250406404331 0.0023490636321706676 0 0.0026737697814651915 0.0030421446473223087 0 0.0038014655544546445 0.0024712639654988384 0 0.0038357741741705037 0.0024936975342199057 0 0.0038199424010457376 0.0024845365921052384 0 0.0038357741741705037 0.0024936975342199057 0 0.0038149823344332543 0.0024927627697600265 0 0.0037620245507626617 0.0026950341056861471 0 0.0038357741741705037 0.0024936975342199057 0 0.0038199424010457376 0.0024845365921052384 0 0.0038149823344332543 0.0024927627697600265 0 0.0038149823344332543 0.0024927627697600265 0 0.0038224738615462443 0.0025310343263671028 0 0.0037774541237717055 0.0024599338184075926 0 0.0038199424010457376 0.0024845365921052384 0 0.0038149823344332543 0.0024927627697600265 0 0.0038224738615462443 0.0025310343263671028 0 0.0028559052067863772 0.006769894121776956 0 0.0025779667714107674 0.0066957513245120299 0 0.0027853410242494052 0.0061929346736379438 0 0.0038149823344332543 0.0024927627697600265 0 0.0037774541237717055 0.0024599338184075926 0 0.0037620245507626617 0.0026950341056861471 0 0.0028559052067863772 0.006769894121776956 0 0.0025779667714107674 0.0066957513245120299 0 0.0024506807130319171 0.007215430571398126 0 0.0023654682967687969 0.0066332254565582829 0 0.0025779667714107674 0.0066957513245120299 0 0.0024030970742212098 0.0068724920877751934 0 0.0023654682967687969 0.0066332254565582829 0 0.0024030970742212098 0.0068724920877751934 0 0.002121573312046559 0.0068070574451363237 0 0.0025779667714107674 0.0066957513245120299 0 0.0024030970742212098 0.0068724920877751934 0 0.0024506807130319171 0.007215430571398126 0 0.0024030970742212098 0.0068724920877751934 0 0.0024506807130319171 0.007215430571398126 0 0.0021904960441001355 0.0071721264187829129 0 0.0028559052067863772 0.006769894121776956 0 0.0024506807130319171 0.007215430571398126 0 0.0024498299082005349 0.0075733241922840569 0 0.0034203634744248037 0.0045026935874948092 0 0.0024529087457457496 0.005822321771348251 0 0.0034840589105699822 0.0028906298567720847 0 0.0033466914068531746 0.0028358865546372776 0 0.0037620245507626617 0.0026950341056861471 0 0.0024506807130319171 0.007215430571398126 0 0.0022801864007867896 0.0073547825592216662 0 0.0023931351650940537 0.0075662764733311384 0 0.0024506807130319171 0.007215430571398126 0 0.0022801864007867896 0.0073547825592216662 0 0.0021904960441001355 0.0071721264187829129 0 0.0021221425934082614 0.0061716392724325986 0 0.0024529087457457496 0.005822321771348251 0 0.0024506807130319171 0.007215430571398126 0 0.0024498299082005349 0.0075733241922840569 0 0.0023931351650940537 0.0075662764733311384 0 0.0024529087457457496 0.005822321771348251 0 0.0025169774179976323 0.0059239918081597231 0 0.0037774541237717055 0.0024599338184075926 0 0.0033466914068531746 0.0028358865546372776 0 0.0037620245507626617 0.0026950341056861471 0 0.0021242439594161507 0.0041424391621829272 0 0.0017009973743655636 0.0043786050351411485 0 0.0014705367943524978 0.0038617247627743103 0 0.0021221425934082614 0.0061716392724325986 0 0.002945289701509458 0.0034297411948964089 0 0.0013153539386548268 0.010025935711766467 0 0.00078438351732063071 0.0090913169984525553 0 -0.00065446418050507963 0.0099662373588934178 0 0.0021221425934082614 0.0061716392724325986 0 0.00035434711625911949 0.0069358487029366244 0 0.0013153539386548268 0.010025935711766467 0 0.0015487876426338125 0.009025502841962128 0 0.00078438351732063071 0.0090913169984525553 0 0.0021221425934082614 0.0061716392724325986 0 0.0013807745473111495 0.0087135261610532377 0 0.0013153539386548268 0.010025935711766467 0 0.0015487876426338125 0.009025502841962128 0 0.0016955361508865867 0.0089645901099985516 0 0.0028152573654310147 0.0067568117696580913 0 0.0022639862738744678 0.006533621869013231 0 0.0010065023377119195 0.0078616284203316678 0 0.0015487876426338125 0.009025502841962128 0 0.0015914201883287279 0.0088356371211054871 0 0.0017006902265368706 0.0082244502250260979 0 0.0015487876426338125 0.009025502841962128 0 0.00078438351732063071 0.0090913169984525553 0 0.0017006902265368706 0.0082244502250260979 0 0.00078438351732063071 0.0090913169984525553 0 -0.00088189522895587103 0.00771126943424243 0 -0.00065446418050507963 0.0099662373588934178 0 0.00078438351732063071 0.0090913169984525553 0 -0.00088189522895587103 0.00771126943424243 0 0.0017006902265368706 0.0082244502250260979 0 -0.00088189522895587103 0.00771126943424243 0 -0.00065446418050507963 0.0099662373588934178 0 -0.0033535421368839553 0.0090641163838489688 0 0.00035434711625911949 0.0069358487029366244 0 -0.0014263367786513297 0.0064912837232614738 0 0.0010897866499114362 0.0041659345500763487 0 0.0014705367943524978 0.0038617247627743103 0 0.0007976696596620743 0.0035730051756479599 0 0.0010897866499114362 0.0041659345500763487 0 0.00061788984759624259 0.0039884395306692801 0 0.0007976696596620743 0.0035730051756479599 0 -0.0033535421368839553 0.0090641163838489688 0 -0.0058700594920983468 0.0079665937409438142 0 -0.0036429858795487976 0.0062397375197053287 0 -0.00088189522895587103 0.00771126943424243 0 -0.0033535421368839553 0.0090641163838489688 0 -0.0036429858795487976 0.0062397375197053287 0 -0.0014263367786513297 0.0064912837232614738 0 -0.0015089748515979399 0.0032889075646951749 0 0.0007976696596620743 0.0035730051756479599 0 0.00012373064155652978 0.0032842736766238389 0 0.0002216447878576132 0.0037620844667705816 0 -0.0015089748515979399 0.0032889075646951749 0 -0.0015951159107386291 8.1492237214482376e-05 0 -0.00049169312154489131 0.00024907465937689955 0 -0.0017678106924779592 0.00025391579016484296 0 -0.0016118072316907181 -0.00023315519227491731 0 -0.00049169312154489131 0.00024907465937689955 0 -0.0017678106924779592 0.00025391579016484296 0 -0.001628470585596124 0.00075174769946970274 0 -0.0017678106924779592 0.00025391579016484296 0 -0.0021504101867891303 -8.3092748738879406e-05 0 -0.0016118072316907181 -0.00023315519227491731 0 -0.0017678106924779592 0.00025391579016484296 0 -0.001628470585596124 0.00075174769946970274 0 -0.0020745001965726227 0.00083680439616502485 0 -0.0015108549919288093 0.00098833064986898322 0 -0.001628470585596124 0.00075174769946970274 0 -0.0020745001965726227 0.00083680439616502485 0 -0.00068754897479467853 0.0021078884531878467 0 -0.00093152942261733268 0.0016655571936257259 0 -0.0015089748515979399 0.0032889075646951749 0 -0.00068754897479467853 0.0021078884531878467 0 -0.00049169312154489131 0.00024907465937689955 0 -0.0015139071885323079 0.00098702929116564102 0 -0.001628470585596124 0.00075174769946970274 0 0.00012373064155652978 0.0032842736766238389 0 -0.0002667241152142692 0.0035650179604750643 0 0.0002216447878576132 0.0037620844667705816 0 -0.0002667241152142692 0.0035650179604750643 0 0.0002216447878576132 0.0037620844667705816 0 8.5380977142729929e-05 0.0042570548549316052 0 0.00012561512956197422 0.00098304017826331331 0 0.00054732212883322712 0.0018165856286538912 0 -7.669357561815123e-06 0.0016471831950173586 0 -0.00068754897479467853 0.0021078884531878467 0 0.0014208284019413451 0.0019452109432329394 0 0.00061788984759624259 0.0039884395306692801 0 0.0002216447878576132 0.0037620844667705816 0 8.5380977142729929e-05 0.0042570548549316052 0 0.00061788984759624259 0.0039884395306692801 0 0.0007976696596620743 0.0035730051756479599 0 0.0002216447878576132 0.0037620844667705816 0 -0.0039326613524450632 -0.00027555261363072895 0 -0.00044694528418725248 -0.00053618549957237869 0 -0.003710632352883578 -0.00016298991599326577 0 -0.0030277735792575045 0.00077473767240223671 0 -0.0034037174206767115 0.0019098217568981014 0 -0.0036471103233140659 -0.00075591700500270771 0 -0.0035868834352936886 -0.0010000277870431346 0 -0.0032462539286259584 0.00023401172312630201 0 0.00080300520727657923 -0.0037235296459982429 0 0.0013123391393127153 -0.0040262525292348817 0 0.00095764419756091544 -0.0031272988180404589 0 0.00032076515788125308 -0.0036107894223992342 0 0.00080300520727657923 -0.0037235296459982429 0 0.00095764419756091544 -0.0031272988180404589 0 0.00057803201106807281 -0.0048073451463952104 0 0.00062094039097242756 -0.0041317762030042404 0 0.0013123391393127153 -0.0040262525292348817 0 0.00062094039097242756 -0.0041317762030042404 0 0.00080300520727657923 -0.0037235296459982429 0 0.0013123391393127153 -0.0040262525292348817 0 -0.003710632352883578 -0.00016298991599326577 0 -0.0030277735792575045 0.00077473767240223671 0 -0.0030676060631533667 5.110616163351758e-05 0 -0.003710632352883578 -0.00016298991599326577 0 -0.0030676060631533667 5.110616163351758e-05 0 -0.0032339631043326717 -0.00026814771055715185 0 -0.0027376900862827913 0.00082786264761032405 0 -0.0025135356424203265 0.00069577387375383112 0 -0.0025477336880661036 0.0011874223755414734 0 -0.0027376900862827913 0.00082786264761032405 0 -0.0025477336880661036 0.0011874223755414734 0 -0.0028201351919352521 0.0010578385481818167 0 -0.0030277735792575045 0.00077473767240223671 0 -0.0027376900862827913 0.00082786264761032405 0 -0.0027504855434064388 0.00066962951952458647 0 -0.0030277735792575045 0.00077473767240223671 0 -0.0027376900862827913 0.00082786264761032405 0 -0.0028201351919352521 0.0010578385481818167 0 -0.0030277735792575045 0.00077473767240223671 0 -0.0027504855434064388 0.00066962951952458647 0 -0.0027232732288232338 0.00038009419587754415 0 -0.0027504855434064388 0.00066962951952458647 0 -0.0027232732288232338 0.00038009419587754415 0 -0.0025135356424203265 0.00069577387375383112 0 -0.0027376900862827913 0.00082786264761032405 0 -0.0027504855434064388 0.00066962951952458647 0 -0.0025135356424203265 0.00069577387375383112 0 -0.0030277735792575045 0.00077473767240223671 0 -0.0030676060631533667 5.110616163351758e-05 0 -0.0027232732288232338 0.00038009419587754415 0 -0.0030676060631533667 5.110616163351758e-05 0 -0.0026571215938158608 -0.00020362424125712855 0 -0.0032339631043326717 -0.00026814771055715185 0 -0.0030676060631533667 5.110616163351758e-05 0 -0.0026571215938158608 -0.00020362424125712855 0 -0.0027232732288232338 0.00038009419587754415 0 -0.0026571215938158608 -0.00020362424125712855 0 -0.0027232732288232338 0.00038009419587754415 0 -0.002315793000560265 0.00031955045921848706 0 -0.0026571215938158608 -0.00020362424125712855 0 -0.002315793000560265 0.00031955045921848706 0 -0.0021504101867891303 -8.3092748738879406e-05 0 -0.0017678106924779592 0.00025391579016484296 0 -0.002315793000560265 0.00031955045921848706 0 -0.0021504101867891303 -8.3092748738879406e-05 0 -0.0017678106924779592 0.00025391579016484296 0 -0.002315793000560265 0.00031955045921848706 0 -0.0020745001965726227 0.00083680439616502485 0 -0.0015108549919288093 0.00098833064986898322 0 -0.0020745001965726227 0.00083680439616502485 0 -0.0025477336880661036 0.0011874223755414734 0 -0.002315793000560265 0.00031955045921848706 0 -0.0025135356424203265 0.00069577387375383112 0 -0.0020745001965726227 0.00083680439616502485 0 -0.0027232732288232338 0.00038009419587754415 0 -0.002315793000560265 0.00031955045921848706 0 -0.0025135356424203265 0.00069577387375383112 0 -0.0025135356424203265 0.00069577387375383112 0 -0.0020745001965726227 0.00083680439616502485 0 -0.0025477336880661036 0.0011874223755414734 0 -0.0015108549919288093 0.00098833064986898322 0 -0.0030127245019479377 0.0020791945653728691 0 -0.0025477336880661036 0.0011874223755414734 0 -0.00068754897479467853 0.0021078884531878467 0 -0.00091200289429589057 0.00040686652081123808 0 0.00012561512956197422 0.00098304017826331331 0 -0.00055934177456353439 0.0014757104150917449 0 -7.669357561815123e-06 0.0016471831950173586 0 -0.00091200289429589057 0.00040686652081123808 0 0.00053253109807460707 0.00063559880500539375 0 -0.0030127245019479377 0.0020791945653728691 0 -0.0029683848454446693 0.0014407522839335149 0 -0.0034037174206767115 0.0019098217568981014 0 -0.0030277735792575045 0.00077473767240223671 0 -0.0029683848454446693 0.0014407522839335149 0 -0.0028201351919352521 0.0010578385481818167 0 -0.0030127245019479377 0.0020791945653728691 0 -0.0029683848454446693 0.0014407522839335149 0 -0.0025477336880661036 0.0011874223755414734 0 -0.0030277735792575045 0.00077473767240223671 0 -0.0029683848454446693 0.0014407522839335149 0 -0.0034037174206767115 0.0019098217568981014 0 -0.0029683848454446693 0.0014407522839335149 0 -0.0025477336880661036 0.0011874223755414734 0 -0.0028201351919352521 0.0010578385481818167 0 -0.00055390230848547186 -0.0029782744721892707 0 0.0016956048189826827 -0.0023381735715059318 0 0.00095764419756091544 -0.0031272988180404589 0 -0.0012057151162627271 -0.0025100285177518614 0 -0.00044694528418725248 -0.00053618549957237869 0 0.0013123391393127153 -0.0040262525292348817 0 0.0016956048189826827 -0.0023381735715059318 0 0.00095764419756091544 -0.0031272988180404589 0 -0.00091200289429589057 0.00040686652081123808 0 -0.00044694528418725248 -0.00053618549957237869 0 0.0014122137699959247 -0.0020990305735088988 0 0.0014679205293352173 -0.0016765087721077614 0 0.00040357653218546247 -0.0017419040794945495 0 -0.00026711062256740787 -9.4102477622550384e-05 0 -0.00033175367704669275 -0.0001243648103666874 0 -0.00032235647007635999 -5.3896063599456621e-05 0 -0.00091200289429589057 0.00040686652081123808 0 7.5467237907612746e-05 -0.00064297052592415544 0 -0.00044694528418725248 -0.00053618549957237869 0 7.5467237907612746e-05 -0.00064297052592415544 0 -4.2223520834108439e-05 -0.00054909685192654342 0 0.00010781240613135777 -7.2918350074655756e-05 0 0.00015370396504387466 0.0010376610139067636 0 0.00014147645553525445 -0.00066355964558751713 0 0.0014679205293352173 -0.0016765087721077614 0 0.00040357653218546247 -0.0017419040794945495 0 -0.00023026293996982348 -0.00038841900640785063 0 7.5467237907612746e-05 -0.00064297052592415544 0 7.5467237907612746e-05 -0.00064297052592415544 0 0.00012997386447110315 0.0010035519033722723 0 -0.00081171289712652413 7.3263123545322254e-05 0 3.2932375636651588e-05 -0.00054181904256551819 0 0.00015370396504387466 0.0010376610139067636 0 7.5467237907612746e-05 -0.00064297052592415544 0 0.00012218628693187842 -0.00024884285640107667 0 0.00010781240613135777 -7.2918350074655756e-05 0 0.00042246201875541949 -0.00035321837911207662 0 0.00080158202946507687 0.00014096919159915482 0 0.00018481553731905181 -0.00074538431484715765 0 -5.365905129163518e-05 -0.00056907123702423334 0 0.00042246201875541949 -0.00035321837911207662 0 -5.365905129163518e-05 -0.00056907123702423334 0 0.00010781240613135777 -7.2918350074655756e-05 0 0.00042246201875541949 -0.00035321837911207662 0 0.00042246201875541949 -0.00035321837911207662 0 0.00080158202946507687 0.00014096919159915482 0 0.0010481201322583081 -0.00050061919320807822 0 0.00018481553731905181 -0.00074538431484715765 0 0.00042246201875541949 -0.00035321837911207662 0 0.0010481201322583081 -0.00050061919320807822 0 0.00010781240613135777 -7.2918350074655756e-05 0 0.00080158202946507687 0.00014096919159915482 0 0.00015370396504387466 0.0010376610139067636 0 0.00080158202946507687 0.00014096919159915482 0 0.00015370396504387466 0.0010376610139067636 0 0.0013780403429299005 0.00097242136591777059 0 -0.00081171289712652413 7.3263123545322254e-05 0 -0.00088911643619207922 0.0013242748202651985 0 0.00015370396504387466 0.0010376610139067636 0 0.00068387407326671648 0.004447063085126198 0 0.00061788984759624259 0.0039884395306692801 0 8.5380977142729929e-05 0.0042570548549316052 0 0.0021014864650820311 0.0033421534116911695 0 0.0014208284019413451 0.0019452109432329394 0 0.0034007205295743326 0.0020639939832698649 0 0.0028830730625441976 0.0019067672961396612 0 0.0032020907207865211 0.0025110618299208636 0 0.00080158202946507687 0.00014096919159915482 0 0.0019498688151778224 -0.00025124373809639976 0 0.0010481201322583081 -0.00050061919320807822 0 0.00080158202946507687 0.00014096919159915482 0 0.0019498688151778224 -0.00025124373809639976 0 0.0013780403429299005 0.00097242136591777059 0 0.0014208284019413451 0.0019452109432329394 0 0.00053253109807460707 0.00063559880500539375 0 0.0013780403429299005 0.00097242136591777059 0 0.0027473681331702821 0.0012524046080566362 0 0.0018101445235311315 0.0018120910036453237 0 0.0019498688151778224 -0.00025124373809639976 0 0.0013780403429299005 0.00097242136591777059 0 0.0027473681331702821 0.0012524046080566362 0 0.0014208284019413451 0.0019452109432329394 0 0.0030556512831120728 0.0017208638781328063 0 0.0027473681331702821 0.0012524046080566362 0 0.002431411202848315 0.0024050023476049334 0 0.0034632391972129069 0.0032410788455085851 0 0.002431411202848315 0.0024050023476049334 0 0.0018101445235311315 0.0018120910036453237 0 0.0016597124767335617 0.0025238071340707765 0 0.0027473681331702821 0.0012524046080566362 0 0.002431411202848315 0.0024050023476049334 0 0.0018101445235311315 0.0018120910036453237 0 0.0013780403429299005 0.00097242136591777059 0 0.0018101445235311315 0.0018120910036453237 0 0.00094247741160423967 0.0018892147548926026 0 0.0018101445235311315 0.0018120910036453237 0 0.0016597124767335617 0.0025238071340707765 0 0.00094247741160423967 0.0018892147548926026 0 0.0016597124767335617 0.0025238071340707765 0 0.00094134252989833914 0.002978737081617932 0 0.0018269492012184443 0.003679938610182701 0 0.0016597124767335617 0.0025238071340707765 0 0.00094134252989833914 0.002978737081617932 0 0.00094247741160423967 0.0018892147548926026 0 0.0016597124767335617 0.0025238071340707765 0 0.0023295305276474425 0.003223648476136372 0 0.0018269492012184443 0.003679938610182701 0 0.002431411202848315 0.0024050023476049334 0 0.0023295305276474425 0.003223648476136372 0 0.0034632391972129069 0.0032410788455085851 0 0.0023295305276474425 0.003223648476136372 0 0.0030352568400662801 0.0040836377164960537 0 0.0018269492012184443 0.003679938610182701 0 0.0023295305276474425 0.003223648476136372 0 0.0030352568400662801 0.0040836377164960537 0 0.0034632391972129069 0.0032410788455085851 0 0.002431411202848315 0.0024050023476049334 0 0.0016597124767335617 0.0025238071340707765 0 0.0023295305276474425 0.003223648476136372 0 -0.00088911643619207922 0.0013242748202651985 0 0.00015370396504387466 0.0010376610139067636 0 -5.8207383272948854e-05 0.0023864455469454868 0 0.00015370396504387466 0.0010376610139067636 0 0.0013780403429299005 0.00097242136591777059 0 0.00094247741160423967 0.0018892147548926026 0 0.00015370396504387466 0.0010376610139067636 0 0.00094247741160423967 0.0018892147548926026 0 -5.8207383272948854e-05 0.0023864455469454868 0 0.00094134252989833914 0.002978737081617932 0 -5.8207383272948854e-05 0.0023864455469454868 0 0.00030699268611745405 0.0033435150501691987 0 0.00094134252989833914 0.002978737081617932 0 0.00094247741160423967 0.0018892147548926026 0 -5.8207383272948854e-05 0.0023864455469454868 0 -0.00088911643619207922 0.0013242748202651985 0 -0.0011701584583779423 0.0027344786455026546 0 -5.8207383272948854e-05 0.0023864455469454868 0 -0.0011701584583779423 0.0027344786455026546 0 -5.8207383272948854e-05 0.0023864455469454868 0 -0.00031800339016479216 0.0033554268278750978 0 -5.8207383272948854e-05 0.0023864455469454868 0 -0.00031800339016479216 0.0033554268278750978 0 0.00030699268611745405 0.0033435150501691987 0 -0.00031800339016479216 0.0033554268278750978 0 0.00020047332010293361 0.0039472701706963677 0 -0.00057879417616116843 0.0043592546157929001 0 -0.0011701584583779423 0.0027344786455026546 0 -0.00031800339016479216 0.0033554268278750978 0 -0.00057879417616116843 0.0043592546157929001 0 -0.00031800339016479216 0.0033554268278750978 0 0.00020047332010293361 0.0039472701706963677 0 0.00030699268611745405 0.0033435150501691987 0 0.00094134252989833914 0.002978737081617932 0 0.00030699268611745405 0.0033435150501691987 0 0.00080594957869193609 0.0038976024815924742 0 -0.00026455712615034615 0.0043103188693983446 0 0.00067470243131624499 0.0039075717185386378 0 -0.00067546150504247174 0.0046405859586091582 0 0.00052209761325195606 0.0050537222480767693 0 0.00080594957869193609 0.0038976024815924742 0 0.00020047332010293361 0.0039472701706963677 0 0.00030699268611745405 0.0033435150501691987 0 0.00080594957869193609 0.0038976024815924742 0 0.00062086630119037155 0.0063911506627978105 0 -0.00043620102231757199 0.0056712968204659176 0 -0.0015370395893684709 0.0060195844112626217 0 0.00062086630119037155 0.0063911506627978105 0 -0.00043620102231757199 0.0056712968204659176 0 0.00065713803068949352 0.0058678389120425658 0 0.00052209761325195606 0.0050537222480767693 0 -0.00043620102231757199 0.0056712968204659176 0 0.00065713803068949352 0.0058678389120425658 0 -0.00067546150504247174 0.0046405859586091582 0 0.00052209761325195606 0.0050537222480767693 0 -0.00043620102231757199 0.0056712968204659176 0 -0.00067546150504247174 0.0046405859586091582 0 -0.00043620102231757199 0.0056712968204659176 0 -0.0019083157690559965 0.0053037830889508782 0 -0.00043620102231757199 0.0056712968204659176 0 -0.0015370395893684709 0.0060195844112626217 0 -0.0019083157690559965 0.0053037830889508782 0 -0.00026455712615034615 0.0043103188693983446 0 -0.0011579972777413208 0.0041401778092588848 0 -0.0017247020816456608 0.0032222027935441713 0 -0.0011579972777413208 0.0041401778092588848 0 -0.0017621648402692837 0.0023577212763993887 0 -0.0017247020816456608 0.0032222027935441713 0 -0.0015518307329478111 0.0031336843265027847 0 -0.0014775127135355978 0.0031485226892212126 0 -0.0014972520534119738 0.0031094465225567883 0 0.0026093309445543778 0.0045143644371228499 0 0.0018269492012184443 0.003679938610182701 0 0.0015506890376245192 0.0046695112980041599 0 0.0026093309445543778 0.0045143644371228499 0 0.0030352568400662801 0.0040836377164960537 0 0.0018269492012184443 0.003679938610182701 0 0.00094134252989833914 0.002978737081617932 0 0.0018269492012184443 0.003679938610182701 0 0.00080594957869193609 0.0038976024815924742 0 0.00052209761325195606 0.0050537222480767693 0 0.00080594957869193609 0.0038976024815924742 0 0.0015506890376245192 0.0046695112980041599 0 0.0018269492012184443 0.003679938610182701 0 0.00080594957869193609 0.0038976024815924742 0 0.0015506890376245192 0.0046695112980041599 0 0.0015506890376245192 0.0046695112980041599 0 0.0011391465299717611 0.0054691277575975054 0 0.0023794954891649192 0.0052956053376216842 0 0.00052209761325195606 0.0050537222480767693 0 0.0015506890376245192 0.0046695112980041599 0 0.0011391465299717611 0.0054691277575975054 0 0.00052209761325195606 0.0050537222480767693 0 0.0011391465299717611 0.0054691277575975054 0 0.00065713803068949352 0.0058678389120425658 0 0.0011391465299717611 0.0054691277575975054 0 0.0010289276455923329 0.0060957361666719436 0 0.00065713803068949352 0.0058678389120425658 0 0.00065579642842080192 0.0066086175991554117 0 0.0010289276455923329 0.0060957361666719436 0 0.00065713803068949352 0.0058678389120425658 0 0.0011391465299717611 0.0054691277575975054 0 0.0015365937261238383 0.0059788800544750709 0 0.0023794954891649192 0.0052956053376216842 0 0.0011766599163349281 0.0064238422022797484 0 0.0010289276455923329 0.0060957361666719436 0 0.0015365937261238383 0.0059788800544750709 0 0.0011391465299717611 0.0054691277575975054 0 0.0010289276455923329 0.0060957361666719436 0 0.0015365937261238383 0.0059788800544750709 0 0.0015365937261238383 0.0059788800544750709 0 0.0035324193286414211 0.006000516412400742 0 0.0023794954891649192 0.0052956053376216842 0 0.0026093309445543778 0.0045143644371228499 0 0.0023794954891649192 0.0052956053376216842 0 0.0033901049171487225 0.0045387043577688677 0 0.0026093309445543778 0.0045143644371228499 0 0.0015506890376245192 0.0046695112980041599 0 0.0023794954891649192 0.0052956053376216842 0 0.0035324193286414211 0.006000516412400742 0 0.0023794954891649192 0.0052956053376216842 0 0.0050685456664124866 0.0042343147402681275 0 0.0025416841849675454 0.00735065626417863 0 0.0031523075262218608 0.0073792579080419821 0 0.0029716076235114688 0.0069237468737449164 0 0.0030740591820888649 0.006681968716348294 0 0.0034315878923025763 0.0054768296404491702 0 0.0028293356746955834 0.0048945955209867076 0 0.0034315878923025763 0.0054768296404491702 0 0.0031523075262218608 0.0073792579080419821 0 0.0031513303724097241 0.0070217867974502772 0 0.0029716076235114688 0.0069237468737449164 0 0.0031523075262218608 0.0073792579080419821 0 0.0031513303724097241 0.0070217867974502772 0 0.0033275181829219998 0.0071097093274092088 0 0.0031513303724097241 0.0070217867974502772 0 0.0029716076235114688 0.0069237468737449164 0 0.0030704312393116701 0.0067465446816433417 0 0.0034315878923025763 0.0054768296404491702 0 0.0026982924073172534 0.0065055897246130154 0 0.0027160062984615875 0.0059380450999220163 0 0.002675662529292396 0.0059863976067869862 0 0.0026490421626589673 0.0059883175216127425 0 0.0033901049171487225 0.0045387043577688677 0 0.0032303837413611564 0.0047050839864854642 0 0.0029986592019249593 0.0048632286456739776 0 0.0034315878923025763 0.0054768296404491702 0 0.0028464568178007748 0.0054644516369480789 0 0.0030352568400662801 0.0040836377164960537 0 0.0033901049171487225 0.0045387043577688677 0 0.0032303837413611564 0.0047050839864854642 0 0.0026093309445543778 0.0045143644371228499 0 0.0030352568400662801 0.0040836377164960537 0 0.0033901049171487225 0.0045387043577688677 0 0.003078392043430704 0.004173930785747691 0 0.0035269641165308905 0.0042597577603130628 0 0.0030352568400662801 0.0040836377164960537 0 0.0034632391972129069 0.0032410788455085851 0 0.0039035067141591734 0.0027827960908852869 0 0.0030352568400662801 0.0040836377164960537 0 0.0032303837413611564 0.0047050839864854642 0 0.0033826478692729122 0.0056368543039783453 0 0.0032303837413611564 0.0047050839864854642 0 0.0029986592019249593 0.0048632286456739776 0 0.0031689956684349094 0.0051970949126061462 0 0.0032303837413611564 0.0047050839864854642 0 0.0031689956684349094 0.0051970949126061462 0 0.0033826478692729122 0.0056368543039783453 0 0.0029986592019249593 0.0048632286456739776 0 0.0029916504646960531 0.0056083820274282492 0 0.0031689956684349094 0.0051970949126061462 0 0.0029986592019249593 0.0048632286456739776 0 0.0029916504646960531 0.0056083820274282492 0 0.0026703208777750756 0.0059748504340729081 0 0.0029916504646960531 0.0056083820274282492 0 0.0031689956684349094 0.0051970949126061462 0 0.0033826478692729122 0.0056368543039783453 0 0.0034203634744248037 0.0045026935874948092 0 0.0035269641165308905 0.0042597577603130628 0 0.0038224738615462443 0.0025310343263671028 0 0.0037774541237717055 0.0024599338184075926 0 0.0039035067141591734 0.0027827960908852869 0 0.0028559052067863772 0.006769894121776956 0 0.0033826478692729122 0.0056368543039783453 0 0.0027853410242494052 0.0061929346736379438 0 0.0029916504646960531 0.0056083820274282492 0 0.0033826478692729122 0.0056368543039783453 0 0.0027853410242494052 0.0061929346736379438 0 0.0038224738615462443 0.0025310343263671028 0 0.0039035067141591734 0.0027827960908852869 0 0.0037698626422042417 0.0025743721296864019 0 0.0035073298095951999 0.0024998613422771362 0 0.0032020907207865211 0.0025110618299208636 0 0.0034632391972129069 0.0032410788455085851 0 0.0034632391972129069 0.0032410788455085851 0 0.0039035067141591734 0.0027827960908852869 0 0.0037698626422042417 0.0025743721296864019 0 0.0035073298095951999 0.0024998613422771362 0 0.0034632391972129069 0.0032410788455085851 0 0.0037698626422042417 0.0025743721296864019 0 0.0030556512831120728 0.0017208638781328063 0 0.0034423482452519902 0.0032089140528104372 0 0.0025342584227417923 0.0063610115771011054 0 0.0025479779939965182 0.0061929600122401602 0 0.0022743382227222724 0.0064629712719895252 0 0.0023654682967687969 0.0066332254565582829 0 0.0025342584227417923 0.0063610115771011054 0 0.0022743382227222724 0.0064629712719895252 0 0.0023654682967687969 0.0066332254565582829 0 0.0025779667714107674 0.0066957513245120299 0 0.0025342584227417923 0.0063610115771011054 0 0.0025779667714107674 0.0066957513245120299 0 0.0025342584227417923 0.0063610115771011054 0 0.0027853410242494052 0.0061929346736379438 0 0.0029916504646960531 0.0056083820274282492 0 0.0027853410242494052 0.0061929346736379438 0 0.0026703208777750756 0.0059748504340729081 0 0.0025342584227417923 0.0063610115771011054 0 0.0027853410242494052 0.0061929346736379438 0 0.0026703208777750756 0.0059748504340729081 0 0.0025342584227417923 0.0063610115771011054 0 0.0026703208777750756 0.0059748504340729081 0 0.0025479779939965182 0.0061929600122401602 0 0.002675662529292396 0.0059863976067869862 0 0.0026703208777750756 0.0059748504340729081 0 0.0026490421626589673 0.0059883175216127425 0 0.0026703208777750756 0.0059748504340729081 0 0.0025479779939965182 0.0061929600122401602 0 0.0026490421626589673 0.0059883175216127425 0 0.0028464568178007748 0.0054644516369480789 0 0.0026841687331782731 0.0058482725296288736 0 0.0026982924073172534 0.0065055897246130154 0 0.0026429558668550558 0.006295064081712036 0 0.0025479779939965182 0.0061929600122401602 0 0.0022743382227222724 0.0064629712719895252 0 0.0024894789499069407 0.0063442893558631848 0 0.0025479779939965182 0.0061929600122401602 0 0.0026490421626589673 0.0059883175216127425 0 0.0024894789499069407 0.0063442893558631848 0 0.002745666534395042 0.0065129299903975216 0 0.0030704312393116701 0.0067465446816433417 0 0.0024894789499069407 0.0063442893558631848 0 0.002745666534395042 0.0065129299903975216 0 0.0030704312393116701 0.0067465446816433417 0 0.0033275181829219998 0.0071097093274092088 0 0.0031513303724097241 0.0070217867974502772 0 0.0030704312393116701 0.0067465446816433417 0 0.0033275181829219998 0.0071097093274092088 0 0.0016759089897449729 0.011586147964548894 0 0.002150665798899555 0.011692839398928071 0 0.00065387359060273286 0.016613266020053585 0 0.0010329049451508381 0.016216120565618376 0 0.00047609293137117729 0.016442722464227802 0 0.00054845172746417368 0.01612153142159254 0 0.0010329049451508381 0.016216120565618376 0 0.00047609293137117729 0.016442722464227802 0 0.00065387359060273286 0.016613266020053585 0 0.00047609293137117729 0.016442722464227802 0 0.0004064079790847091 0.016645261103333722 0 0.00065387359060273286 0.016613266020053585 0 0.0004064079790847091 0.016645261103333722 0 0.00039806566277063771 0.016802414680594131 0 0.00047609293137117729 0.016442722464227802 0 0.0004064079790847091 0.016645261103333722 0 0.00026677064089898004 0.016592813146670233 0 0.0004064079790847091 0.016645261103333722 0 0.00026677064089898004 0.016592813146670233 0 0.00030594874134398615 0.016712919804755387 0 0.00026019421235517478 0.016389587208987158 0 0.00047609293137117729 0.016442722464227802 0 0.00026677064089898004 0.016592813146670233 0 0.00026019421235517478 0.016389587208987158 0 0.00026677064089898004 0.016592813146670233 0 0.0001844246045141444 0.016636906419303488 0 0.00026677064089898004 0.016592813146670233 0 0.0001844246045141444 0.016636906419303488 0 0.00020773345112944355 0.016683366441830348 0 0.0001844246045141444 0.016636906419303488 0 0.00020773345112944355 0.016683366441830348 0 0.00030073229350497239 0.016707236463139395 0 0.00026677064089898004 0.016592813146670233 0 0.00020773345112944355 0.016683366441830348 0 0.00030594874134398615 0.016712919804755387 0 0.00023884267985590612 0.016804608920047068 0 0.0002195784633075331 0.01689036557512227 0 0.00039806566277063771 0.016802414680594131 0 0.00020773345112944355 0.016683366441830348 0 0.00030594874134398615 0.016712919804755387 0 0.00023884267985590612 0.016804608920047068 0 0.00030594874134398615 0.016712919804755387 0 0.00023884267985590612 0.016804608920047068 0 0.00039806566277063771 0.016802414680594131 0 0.00020773345112944355 0.016683366441830348 0 0.00023884267985590612 0.016804608920047068 0 0.00016877841183421434 0.016761212914643848 0 0.00023884267985590612 0.016804608920047068 0 0.00025040288675196601 0.01691232990764599 0 0.00016877841183421434 0.016761212914643848 0 0.00033964912039107322 0.017362435593405789 0 0.00026399455478288758 0.017129433830320711 0 0.00025040288675196601 0.01691232990764599 0 0.00016877841183421434 0.016761212914643848 0 0.00026871831011213241 0.017091377371761921 0 0.00025040288675196601 0.01691232990764599 0 0.00026871831011213241 0.017091377371761921 0 0.00023701413734603436 0.016933681160681394 0 0.00025040288675196601 0.01691232990764599 0 0.0002195784633075331 0.01689036557512227 0 0.00023701413734603436 0.016933681160681394 0 0.0002195784633075331 0.01689036557512227 0 0.00039806566277063771 0.016802414680594131 0 0.00013698662284364525 0.016917802852242536 0 0.00023884267985590612 0.016804608920047068 0 0.00025040288675196601 0.01691232990764599 0 0.0002195784633075331 0.01689036557512227 0 0.0002195784633075331 0.01689036557512227 0 0.00013698662284364525 0.016917802852242536 0 0.00023701413734603436 0.016933681160681394 0 0.0011391512740875037 0.011552285335271056 0 0.00044082193408363757 0.011807072154100758 0 0.001473831498109279 0.0066244062912906012 0 0.0018923328558827287 0.0065946528564029393 0 0.0019123763126740914 0.0062348727713029042 0 0.001473831498109279 0.0066244062912906012 0 0.0019123763126740914 0.0062348727713029042 0 0.00076727371497311051 0.0067146964446439935 0 0.0018923328558827287 0.0065946528564029393 0 0.0022743382227222724 0.0064629712719895252 0 0.0019123763126740914 0.0062348727713029042 0 0.0018923328558827287 0.0065946528564029393 0 0.0022743382227222724 0.0064629712719895252 0 0.002121573312046559 0.0068070574451363237 0 0.0023654682967687969 0.0066332254565582829 0 0.0022743382227222724 0.0064629712719895252 0 0.002121573312046559 0.0068070574451363237 0 0.0016759089897449729 0.011586147964548894 0 0.0011391512740875037 0.011552285335271056 0 0.0022743382227222724 0.0064629712719895252 0 0.0024894789499069407 0.0063442893558631848 0 0.0019123763126740914 0.0062348727713029042 0 0.002745666534395042 0.0065129299903975216 0 0.0024894789499069407 0.0063442893558631848 0 0.0019123763126740914 0.0062348727713029042 0 0.0004064079790847091 0.016645261103333722 0 0.00030594874134398615 0.016712919804755387 0 0.00039806566277063771 0.016802414680594131 0 0.0004727590270199484 0.01859109965564136 0 0.00053909261487979695 0.018343457336463243 0 1.112816546548687e-05 0.018382948709775172 0 0.00026340841119818804 0.018119357071398105 0 0.00051602947632284877 0.018284851991652341 0 0.00026340841119818804 0.018119357071398105 0 0.00022309880140354698 0.017877333434542935 0 0.0004767838074374795 0.017922989752500354 0 7.4079975123820469e-05 0.018081134493636304 0 0.00026340841119818804 0.018119357071398105 0 0.00022309880140354698 0.017877333434542935 0 0.00040474153215345511 0.017504223803980468 0 0.00022309880140354698 0.017877333434542935 0 0.0004767838074374795 0.017922989752500354 0 0.0004767838074374795 0.017922989752500354 0 0.00051602947632284877 0.018284851991652341 0 0.00065101323461054658 0.018133311447426803 0 0.00026340841119818804 0.018119357071398105 0 0.0004767838074374795 0.017922989752500354 0 0.00051602947632284877 0.018284851991652341 0 0.0004767838074374795 0.017922989752500354 0 0.00065101323461054658 0.018133311447426803 0 0.00074942752264602964 0.018003340563663078 0 0.00055610562917815856 0.017238019473584658 0 0.00050955811473184665 0.017350263127885984 0 0.00056727243897303626 0.017229357344509536 0 0.0004767838074374795 0.017922989752500354 0 0.00074942752264602964 0.018003340563663078 0 0.00031573500401149267 0.016907972915172962 0 0.0001844246045141444 0.016636906419303488 0 0.00030073229350497239 0.016707236463139395 0 0.00050955811473184665 0.017350263127885984 0 0.00033964912039107322 0.017362435593405789 0 0.00065101323461054658 0.018133311447426803 0 0.00074942752264602964 0.018003340563663078 0 0.00046358567713650098 0.018000326088771126 0 0.00020773345112944355 0.016683366441830348 0 0.00030073229350497239 0.016707236463139395 0 0.00016877841183421434 0.016761212914643848 0 0.00046358567713650098 0.018000326088771126 0 0.00057207004158265696 0.017708189325913649 0 0.00068922471722101489 0.018029637458703857 0 0.00046358567713650098 0.018000326088771126 0 0.00057207004158265696 0.017708189325913649 0 0.00037309734999105097 0.017280758412279527 0 0.00046358567713650098 0.018000326088771126 0 0.00037309734999105097 0.017280758412279527 0 0.00026871831011213241 0.017091377371761921 0 0.00057207004158265696 0.017708189325913649 0 0.00078352218226495122 0.017436286319735154 0 0.00037309734999105097 0.017280758412279527 0 0.00080161553098377939 0.018541540999352426 0 -0.00042356019109290513 0.016229269096868847 0 0.00057207004158265696 0.017708189325913649 0 0.00068922471722101489 0.018029637458703857 0 0.00078352218226495122 0.017436286319735154 0 0.00068922471722101489 0.018029637458703857 0 0.00060179804701554344 0.018216349966767346 0 0.00062803914833225625 0.018104921263342861 0 0.00065101323461054658 0.018133311447426803 0 0.00046358567713650098 0.018000326088771126 0 0.00068922471722101489 0.018029637458703857 0 0.00051602947632284877 0.018284851991652341 0 0.00065101323461054658 0.018133311447426803 0 0.00060179804701554344 0.018216349966767346 0 0.00065101323461054658 0.018133311447426803 0 0.00068922471722101489 0.018029637458703857 0 0.00060179804701554344 0.018216349966767346 0 0.00060179804701554344 0.018216349966767346 0 0.00064429305706689168 0.018125010709053639 0 0.00062803914833225625 0.018104921263342861 0 0.00060179804701554344 0.018216349966767346 0 0.0007903640552732261 0.018497120838170757 0 0.00064429305706689168 0.018125010709053639 0 0.00089865433072525418 0.018305632513720305 0 0.0007903640552732261 0.018497120838170757 0 0.00064429305706689168 0.018125010709053639 0 0.00091633294654568152 0.018826237608136086 0 0.00051602947632284877 0.018284851991652341 0 0.0007903640552732261 0.018497120838170757 0 0.00051602947632284877 0.018284851991652341 0 0.00060179804701554344 0.018216349966767346 0 0.0007903640552732261 0.018497120838170757 0 -0.0012415445117359338 0.013427157809216947 0 -0.0017278693034131494 0.012871470205150472 0 -0.0017935178355500498 0.013920409870023964 0 -0.0017278693034131494 0.012871470205150472 0 -0.0017935178355500498 0.013920409870023964 0 -0.0023377787162371737 0.0133108174343391 0 -0.0017935178355500498 0.013920409870023964 0 -0.0023377787162371737 0.0133108174343391 0 -0.0029089782686973339 0.013923462288685106 0 -0.00073712716182227527 0.016030744815016644 0 -0.00042356019109290513 0.016229269096868847 0 -0.0017278693034131494 0.012871470205150472 0 -0.0023377787162371737 0.0133108174343391 0 -0.0022096828085300096 0.01252693545833437 0 -0.0023377787162371737 0.0133108174343391 0 -0.0030890702169151761 0.01299936990328146 0 -0.0022096828085300096 0.01252693545833437 0 0.0011567793017490042 0.016202548957297294 0 0.0012422065737144924 0.016917586652083118 0 0.00080180585439478739 0.016552493482545803 0 -0.00099270978667859188 0.014855082993347101 0 -0.00042356019109290513 0.016229269096868847 0 -0.0023377787162371737 0.0133108174343391 0 -0.0030890702169151761 0.01299936990328146 0 -0.0029089782686973339 0.013923462288685106 0 -0.00042356019109290513 0.016229269096868847 0 0.00078416908290624495 0.017094931647245449 0 0.0012422065737144924 0.016917586652083118 0 0.00080180585439478739 0.016552493482545803 0 0.00069436234389860926 0.016902437633231987 0 0.00080180585439478739 0.016552493482545803 0 0.00069436234389860926 0.016902437633231987 0 0.00041552957480377775 0.016679065967887662 0 0.00080180585439478739 0.016552493482545803 0 0.00041552957480377775 0.016679065967887662 0 0.00039043195844224717 0.016217540115987868 0 0.0011567793017490042 0.016202548957297294 0 0.00080180585439478739 0.016552493482545803 0 0.00039043195844224717 0.016217540115987868 0 0.0011567793017490042 0.016202548957297294 0 0.0010240310118863191 0.015367482473514753 0 0.00039043195844224717 0.016217540115987868 0 -0.001460920926251247 0.0086005733727006935 0 -0.00033776823269920806 0.0075904820788460893 0 -0.0005218416196054789 0.008361185241207816 0 -0.00091995557226214584 0.011470859163086111 0 0.00013866698936451671 0.01197367637034715 0 -0.00067534760266730665 0.0091161528523026857 0 -0.001460920926251247 0.0086005733727006935 0 -0.0012705058024516387 0.010173768341631024 0 -0.00067534760266730665 0.0091161528523026857 0 -0.001460920926251247 0.0086005733727006935 0 -0.0005218416196054789 0.008361185241207816 0 -0.00091995557226214584 0.011470859163086111 0 -0.0014893422779317194 0.0091916477260771349 0 -0.0016832649857126678 0.010065741799304466 0 -0.0015046472560969813 0.0098834969188803887 0 -0.0012705058024516387 0.010173768341631024 0 -0.0022543483347668997 0.010861503992530606 0 -0.00091995557226214584 0.011470859163086111 0 -0.0028045933793612119 0.011416357147313788 0 -0.0027016782070466891 0.01214945510446136 0 -0.0032843009333718334 0.011989682563420954 0 -0.00099270978667859188 0.014855082993347101 0 -0.00091995557226214584 0.011470859163086111 0 -0.0030890702169151761 0.01299936990328146 0 -0.0027016782070466891 0.01214945510446136 0 -0.0022096828085300096 0.01252693545833437 0 -0.0030890702169151761 0.01299936990328146 0 -0.0027016782070466891 0.01214945510446136 0 -0.0032843009333718334 0.011989682563420954 0 -0.0027016782070466891 0.01214945510446136 0 -0.0022096828085300096 0.01252693545833437 0 -0.0021037431503653893 0.011738378814718066 0 -0.0028045933793612119 0.011416357147313788 0 -0.0021037431503653893 0.011738378814718066 0 -0.002091062641321458 0.010715363483068348 0 -0.0021037431503653893 0.011738378814718066 0 -0.0015996213542876204 0.01142136873441749 0 -0.002091062641321458 0.010715363483068348 0 -0.0028045933793612119 0.011416357147313788 0 -0.0027016782070466891 0.01214945510446136 0 -0.0021037431503653893 0.011738378814718066 0 -0.0021037431503653893 0.011738378814718066 0 -0.0015996213542876204 0.01142136873441749 0 -0.0015242621506491654 0.012217282397613227 0 -0.0011318806946181634 0.012914145042467014 0 -0.0017278693034131494 0.012871470205150472 0 -0.0015242621506491654 0.012217282397613227 0 -0.0017278693034131494 0.012871470205150472 0 -0.0022096828085300096 0.01252693545833437 0 -0.0015242621506491654 0.012217282397613227 0 -0.0022096828085300096 0.01252693545833437 0 -0.0021037431503653893 0.011738378814718066 0 -0.0015242621506491654 0.012217282397613227 0 0.0012265166626973787 0.0076783794928726645 0 0.001768510856522535 0.0074923709986921385 0 0.0015908830200804754 0.007185747917286594 0 0.0012265166626973787 0.0076783794928726645 0 0.0015908830200804754 0.007185747917286594 0 0.0011779677960325116 0.0071336807940743747 0 0.0012265166626973787 0.0076783794928726645 0 0.001768510856522535 0.0074923709986921385 0 0.0018584614767122377 0.0079454738496179018 0 0.0024774396973111781 0.0075988667393689195 0 0.0023931351650940537 0.0075662764733311384 0 0.0018584614767122377 0.0079454738496179018 0 0.0020723482884372224 0.0074562333720159767 0 0.001768510856522535 0.0074923709986921385 0 0.0018584614767122377 0.0079454738496179018 0 0.0022801864007867896 0.0073547825592216662 0 0.0023931351650940537 0.0075662764733311384 0 0.0020723482884372224 0.0074562333720159767 0 0.0023931351650940537 0.0075662764733311384 0 0.0020723482884372224 0.0074562333720159767 0 0.0018584614767122377 0.0079454738496179018 0 0.0020723482884372224 0.0074562333720159767 0 0.0021904960441001355 0.0071721264187829129 0 0.0019173406309666145 0.0071353042589491515 0 0.0022801864007867896 0.0073547825592216662 0 0.0020723482884372224 0.0074562333720159767 0 0.0021904960441001355 0.0071721264187829129 0 0.001768510856522535 0.0074923709986921385 0 0.0019173406309666145 0.0071353042589491515 0 0.0015908830200804754 0.007185747917286594 0 0.0020723482884372224 0.0074562333720159767 0 0.001768510856522535 0.0074923709986921385 0 0.0019173406309666145 0.0071353042589491515 0 0.0019173406309666145 0.0071353042589491515 0 0.0018301546989467718 0.0069042589269841664 0 0.0015908830200804754 0.007185747917286594 0 0.0019173406309666145 0.0071353042589491515 0 0.002121573312046559 0.0068070574451363237 0 0.0018301546989467718 0.0069042589269841664 0 0.0024030970742212098 0.0068724920877751934 0 0.0021904960441001355 0.0071721264187829129 0 0.002121573312046559 0.0068070574451363237 0 0.0021904960441001355 0.0071721264187829129 0 0.0019173406309666145 0.0071353042589491515 0 0.002121573312046559 0.0068070574451363237 0 0.0018923328558827287 0.0065946528564029393 0 0.002121573312046559 0.0068070574451363237 0 0.0018301546989467718 0.0069042589269841664 0 0.0018923328558827287 0.0065946528564029393 0 0.0018301546989467718 0.0069042589269841664 0 0.0015300175041013668 0.0068636378258334473 0 0.001473831498109279 0.0066244062912906012 0 0.0018923328558827287 0.0065946528564029393 0 0.0015300175041013668 0.0068636378258334473 0 0.0018301546989467718 0.0069042589269841664 0 0.0015300175041013668 0.0068636378258334473 0 0.0015908830200804754 0.007185747917286594 0 0.0015300175041013668 0.0068636378258334473 0 0.0015908830200804754 0.007185747917286594 0 0.0011779677960325116 0.0071336807940743747 0 0.0015300175041013668 0.0068636378258334473 0 0.0011779677960325116 0.0071336807940743747 0 0.0011753001693416731 0.0068726665945020591 0 0.001473831498109279 0.0066244062912906012 0 0.0015300175041013668 0.0068636378258334473 0 0.0011753001693416731 0.0068726665945020591 0 0.001473831498109279 0.0066244062912906012 0 0.0011753001693416731 0.0068726665945020591 0 0.00076727371497311051 0.0067146964446439935 0 0.00076727371497311051 0.0067146964446439935 0 -0.00033776823269920806 0.0075904820788460893 0 0.00061831333160441656 0.0073335206966003976 0 0.0011753001693416731 0.0068726665945020591 0 0.00076727371497311051 0.0067146964446439935 0 0.00093838341569947516 0.0070141796291544514 0 0.0011779677960325116 0.0071336807940743747 0 0.00093838341569947516 0.0070141796291544514 0 0.00061831333160441656 0.0073335206966003976 0 0.00076727371497311051 0.0067146964446439935 0 0.00093838341569947516 0.0070141796291544514 0 0.00061831333160441656 0.0073335206966003976 0 0.0011779677960325116 0.0071336807940743747 0 0.0011753001693416731 0.0068726665945020591 0 0.00093838341569947516 0.0070141796291544514 0 0.00013698662284364525 0.016917802852242536 0 0.00023701413734603436 0.016933681160681394 0 0.00041552957480377775 0.016679065967887662 0 0.00078416908290624495 0.017094931647245449 0 0.00014521877254571898 0.016979907370980499 0 0.00069436234389860926 0.016902437633231987 0 0.00023701413734603436 0.016933681160681394 0 0.00041552957480377775 0.016679065967887662 0 0.00037309734999105097 0.017280758412279527 0 0.00026871831011213241 0.017091377371761921 0 0.00023701413734603436 0.016933681160681394 0 0.00044082193408363757 0.011807072154100758 0 0.00013866698936451671 0.01197367637034715 0 0.00013698662284364525 0.016917802852242536 0 0.00041552957480377775 0.016679065967887662 0 0.00039043195844224717 0.016217540115987868 0 -0.00033776823269920806 0.0075904820788460893 0 0.00061831333160441656 0.0073335206966003976 0 0.00035092009804620105 0.0081986435171281565 0 0.0012265166626973787 0.0076783794928726645 0 0.00061831333160441656 0.0073335206966003976 0 0.00035092009804620105 0.0081986435171281565 0 0.0012265166626973787 0.0076783794928726645 0 0.0011779677960325116 0.0071336807940743747 0 0.00061831333160441656 0.0073335206966003976 0 0.0012265166626973787 0.0076783794928726645 0 0.00035092009804620105 0.0081986435171281565 0 0.0010731788311334376 0.0084536467863079133 0 0.00035092009804620105 0.0081986435171281565 0 0.00061875150448068331 0.0086893579611241629 0 0.0010731788311334376 0.0084536467863079133 0 0.00035092009804620105 0.0081986435171281565 0 0.00061875150448068331 0.0086893579611241629 0 0.00020946623869429247 0.0089172414665022719 0 0.00035092009804620105 0.0081986435171281565 0 -0.0005218416196054789 0.008361185241207816 0 -0.00019685315824449328 0.0087145816756636039 0 -0.00033776823269920806 0.0075904820788460893 0 0.00035092009804620105 0.0081986435171281565 0 -0.0005218416196054789 0.008361185241207816 0 0.00035092009804620105 0.0081986435171281565 0 -0.00019685315824449328 0.0087145816756636039 0 0.00020946623869429247 0.0089172414665022719 0 -0.00067534760266730665 0.0091161528523026857 0 -0.0005218416196054789 0.008361185241207816 0 -0.00019685315824449328 0.0087145816756636039 0 -0.00067534760266730665 0.0091161528523026857 0 -0.00019685315824449328 0.0087145816756636039 0 -0.00017514595125276889 0.0092154618952515911 0 -0.00019685315824449328 0.0087145816756636039 0 -0.00017514595125276889 0.0092154618952515911 0 0.00020946623869429247 0.0089172414665022719 0 -0.00017514595125276889 0.0092154618952515911 0 0.00020946623869429247 0.0089172414665022719 0 0.00029048690202544247 0.0093186689135389741 0 -0.00067534760266730665 0.0091161528523026857 0 -0.00017514595125276889 0.0092154618952515911 0 -0.00057354280870234328 0.009739645107784722 0 0.00061875150448068331 0.0086893579611241629 0 0.00068729571419638182 0.0091252207820086677 0 0.0010731788311334376 0.0084536467863079133 0 0.00061875150448068331 0.0086893579611241629 0 0.00020946623869429247 0.0089172414665022719 0 0.00068729571419638182 0.0091252207820086677 0 0.00020946623869429247 0.0089172414665022719 0 0.00029048690202544247 0.0093186689135389741 0 0.00068729571419638182 0.0091252207820086677 0 0.00068729571419638182 0.0091252207820086677 0 0.0010731788311334376 0.0084536467863079133 0 0.001842023761911923 0.0084636595758314625 0 0.00068729571419638182 0.0091252207820086677 0 0.001012956066621972 0.0091422584822162724 0 0.0015991185121349517 0.0084864652174274652 0 0.001012956066621972 0.0091422584822162724 0 0.0016955361508865867 0.0089645901099985516 0 0.00151485853263666 0.0090178220148249902 0 0.0011253279641528292 0.0091247668987175963 0 0.0013807745473111495 0.0087135261610532377 0 0.00088874477919120593 0.0089904791968164945 0 0.0013807745473111495 0.0087135261610532377 0 0.0012265166626973787 0.0076783794928726645 0 0.0010731788311334376 0.0084536467863079133 0 0.0018584614767122377 0.0079454738496179018 0 0.0010731788311334376 0.0084536467863079133 0 0.001842023761911923 0.0084636595758314625 0 0.0018584614767122377 0.0079454738496179018 0 0.0024774396973111781 0.0075988667393689195 0 0.001842023761911923 0.0084636595758314625 0 0.0018584614767122377 0.0079454738496179018 0 0.0024529087457457496 0.005822321771348251 0 0.0013807745473111495 0.0087135261610532377 0 0.0015487876426338125 0.009025502841962128 0 0.00151485853263666 0.0090178220148249902 0 0.0015914201883287279 0.0088356371211054871 0 0.0015487876426338125 0.009025502841962128 0 0.0016955361508865867 0.0089645901099985516 0 0.00151485853263666 0.0090178220148249902 0 0.0015914201883287279 0.0088356371211054871 0 0.0014344893259823693 0.0094082524524469122 0 0.001697819614364828 0.0097662182696639666 0 0.00151485853263666 0.0090178220148249902 0 0.0015914201883287279 0.0088356371211054871 0 0.0014344893259823693 0.0094082524524469122 0 0.00151485853263666 0.0090178220148249902 0 0.0014344893259823693 0.0094082524524469122 0 0.0011984904212147458 0.0093245845077046634 0 0.0014344893259823693 0.0094082524524469122 0 0.001697819614364828 0.0097662182696639666 0 0.0014774995019227843 0.010340477534201094 0 0.0014344893259823693 0.0094082524524469122 0 0.00094904092024884149 0.010266712635049783 0 0.0014774995019227843 0.010340477534201094 0 0.001697819614364828 0.0097662182696639666 0 0.0014774995019227843 0.010340477534201094 0 0.0018025693268865885 0.010496818725314761 0 0.0014344893259823693 0.0094082524524469122 0 0.00094904092024884149 0.010266712635049783 0 0.00098806691264275359 0.0097231435688005293 0 0.00094904092024884149 0.010266712635049783 0 0.00098806691264275359 0.0097231435688005293 0 0.00036501424268051814 0.010100863639120446 0 0.00098806691264275359 0.0097231435688005293 0 0.0011984904212147458 0.0093245845077046634 0 0.00069201295928842668 0.0095515896517096351 0 0.0014344893259823693 0.0094082524524469122 0 0.00098806691264275359 0.0097231435688005293 0 0.0011984904212147458 0.0093245845077046634 0 0.001012956066621972 0.0091422584822162724 0 0.00151485853263666 0.0090178220148249902 0 0.0011984904212147458 0.0093245845077046634 0 0.001012956066621972 0.0091422584822162724 0 0.0011984904212147458 0.0093245845077046634 0 0.00069201295928842668 0.0095515896517096351 0 0.00029048690202544247 0.0093186689135389741 0 0.00068729571419638182 0.0091252207820086677 0 0.00069201295928842668 0.0095515896517096351 0 0.00068729571419638182 0.0091252207820086677 0 0.001012956066621972 0.0091422584822162724 0 0.00069201295928842668 0.0095515896517096351 0 0.00029048690202544247 0.0093186689135389741 0 0.00069201295928842668 0.0095515896517096351 0 1.6655976578014753e-06 0.0097472319279431289 0 0.00069201295928842668 0.0095515896517096351 0 1.6655976578014753e-06 0.0097472319279431289 0 0.00036501424268051814 0.010100863639120446 0 0.00098806691264275359 0.0097231435688005293 0 0.00069201295928842668 0.0095515896517096351 0 0.00036501424268051814 0.010100863639120446 0 1.6655976578014753e-06 0.0097472319279431289 0 -0.00052763370710736497 0.010278819756456661 0 0.00036501424268051814 0.010100863639120446 0 -0.00017514595125276889 0.0092154618952515911 0 -0.00057354280870234328 0.009739645107784722 0 1.6655976578014753e-06 0.0097472319279431289 0 -0.00017514595125276889 0.0092154618952515911 0 0.00029048690202544247 0.0093186689135389741 0 1.6655976578014753e-06 0.0097472319279431289 0 -0.00057354280870234328 0.009739645107784722 0 1.6655976578014753e-06 0.0097472319279431289 0 -0.00052763370710736497 0.010278819756456661 0 -0.00052763370710736497 0.010278819756456661 0 0.00036501424268051814 0.010100863639120446 0 -0.00014962573433781906 0.010927050497964472 0 0.00094904092024884149 0.010266712635049783 0 0.00036501424268051814 0.010100863639120446 0 -0.00014962573433781906 0.010927050497964472 0 0.00094904092024884149 0.010266712635049783 0 -0.00014962573433781906 0.010927050497964472 0 0.0011051133178041777 0.011001752896610541 0 0.00052868562796055843 0.010899286937759226 0 0.00051851866922195079 0.011600407863490323 0 0.0011051133178041777 0.011001752896610541 0 0.00017540438449613685 0.01089938539561738 0 0.0010591221377894936 0.011014280928884741 0 0.00052868562796055843 0.010899286937759226 0 0.00051851866922195079 0.011600407863490323 0 -0.00037382393937972788 0.011344445480898845 0 0.00051851866922195079 0.011600407863490323 0 0.0011051133178041777 0.011001752896610541 0 0.00098601130923345998 0.011836308622360693 0 0.0011051133178041777 0.011001752896610541 0 0.0013244719363696535 0.01157433653263055 0 0.00098601130923345998 0.011836308622360693 0 0.0015463361659979512 0.011075526615540041 0 0.0013244719363696535 0.01157433653263055 0 0.0015966192750029255 0.01149520839786445 0 0.0015463361659979512 0.011075526615540041 0 0.0011051133178041777 0.011001752896610541 0 0.0013244719363696535 0.01157433653263055 0 0.0015463361659979512 0.011075526615540041 0 0.0014774995019227843 0.010340477534201094 0 0.0011051133178041777 0.011001752896610541 0 0.0015463361659979512 0.011075526615540041 0 0.0014774995019227843 0.010340477534201094 0 0.0018025693268865885 0.010496818725314761 0 0.00094904092024884149 0.010266712635049783 0 0.0014774995019227843 0.010340477534201094 0 0.0011051133178041777 0.011001752896610541 0 -0.0012484807557554963 0.010992956268669581 0 -0.0016501841312978876 0.010692330823058432 0 -0.0019252879011974803 0.010557161966168507 0 -0.0016501841312978876 0.010692330823058432 0 -0.0019252879011974803 0.010557161966168507 0 -0.0019517155646545878 0.010719554582289403 0 -0.0012891421918714467 0.01095651894344039 0 -0.0018942760714629123 0.010648877885420929 0 -0.0015996213542876204 0.01142136873441749 0 -0.0017184855243452828 0.010986553371210059 0 -0.002091062641321458 0.010715363483068348 0 -0.0012484807557554963 0.010992956268669581 0 -0.0017184855243452828 0.010986553371210059 0 -0.001981121987172099 0.010708709381439393 0 -0.0014499489798150053 0.011190016248798196 0 -0.0015996213542876204 0.01142136873441749 0 -0.0017184855243452828 0.010986553371210059 0 -0.0017184855243452828 0.010986553371210059 0 -0.002091062641321458 0.010715363483068348 0 -0.001981121987172099 0.010708709381439393 0 -0.002091062641321458 0.010715363483068348 0 -0.001981121987172099 0.010708709381439393 0 -0.0017719057892946596 0.010591321671248622 0 -0.0022543483347668997 0.010861503992530606 0 -0.0020995651413700531 0.010678689340453591 0 -0.0019252879011974803 0.010557161966168507 0 -0.00069756763616806274 0.010454610153547386 0 -0.0015297827796088158 0.010800093129908624 0 -0.0018942760714629123 0.010648877885420929 0 -0.0010960269950101682 0.010666706741245426 0 -0.001981121987172099 0.010708709381439393 0 -0.0014915323491696191 0.010859211814733498 0 -0.0017719057892946596 0.010591321671248622 0 -0.0014915323491696191 0.010859211814733498 0 -0.0017719057892946596 0.010591321671248622 0 -0.0012705058024516387 0.010173768341631024 0 -0.0016832649857126678 0.010065741799304466 0 -0.0017719057892946596 0.010591321671248622 0 -0.0012705058024516387 0.010173768341631024 0 -0.0016832649857126678 0.010065741799304466 0 -0.002091062641321458 0.010715363483068348 0 -0.0017719057892946596 0.010591321671248622 0 -0.00067534760266730665 0.0091161528523026857 0 -0.00057354280870234328 0.009739645107784722 0 -0.0012705058024516387 0.010173768341631024 0 -0.00057354280870234328 0.009739645107784722 0 -0.00052763370710736497 0.010278819756456661 0 -0.0012705058024516387 0.010173768341631024 0 -0.00052763370710736497 0.010278819756456661 0 -0.00014962573433781906 0.010927050497964472 0 -0.0014915323491696191 0.010859211814733498 0 -0.00052763370710736497 0.010278819756456661 0 -0.0014915323491696191 0.010859211814733498 0 -0.0012705058024516387 0.010173768341631024 0 0.00052868562796055843 0.010899286937759226 0 -0.00069756763616806274 0.010454610153547386 0 -0.00037382393937972788 0.011344445480898845 0 0.00017540438449613685 0.01089938539561738 0 -0.0010960269950101682 0.010666706741245426 0 0.00051851866922195079 0.011600407863490323 0 -0.00037382393937972788 0.011344445480898845 0 -0.00028821443727452254 0.012550207505481938 0 -0.00037382393937972788 0.011344445480898845 0 -0.0013268151965402915 0.011872999135999245 0 -0.0015297827796088158 0.010800093129908624 0 -0.00037382393937972788 0.011344445480898845 0 -0.0013268151965402915 0.011872999135999245 0 -0.00028821443727452254 0.012550207505481938 0 -0.00069756763616806274 0.010454610153547386 0 -0.00037382393937972788 0.011344445480898845 0 -0.0015297827796088158 0.010800093129908624 0 -0.0019252879011974803 0.010557161966168507 0 -0.0015297827796088158 0.010800093129908624 0 -0.0019517155646545878 0.010719554582289403 0 -0.0015297827796088158 0.010800093129908624 0 -0.002253163465404771 0.011208581361016441 0 -0.0019517155646545878 0.010719554582289403 0 -0.0013268151965402915 0.011872999135999245 0 -0.002253163465404771 0.011208581361016441 0 -0.0022701832932543829 0.013242987470657941 0 -0.0013268151965402915 0.011872999135999245 0 -0.0015297827796088158 0.010800093129908624 0 -0.002253163465404771 0.011208581361016441 0 -0.002253163465404771 0.011208581361016441 0 -0.0039922426229710645 0.010343209412425974 0 -0.0033385490892183715 0.012407223995695818 0 -0.0021535086832748943 0.011160777805374425 0 -0.0031197312616057394 0.010369368647445856 0 -0.0047282483735596554 0.012065669603453471 0 -0.0039922426229710645 0.010343209412425974 0 -0.0033385490892183715 0.012407223995695818 0 -0.002253163465404771 0.011208581361016441 0 -0.001839552047494587 0.01064062178323553 0 -0.0019517155646545878 0.010719554582289403 0 -0.0016501841312978876 0.010692330823058432 0 -0.001839552047494587 0.01064062178323553 0 -0.0019517155646545878 0.010719554582289403 0 -0.0047282483735596554 0.012065669603453471 0 -0.0043019411155307231 0.01474486117797077 0 -0.0033385490892183715 0.012407223995695818 0 -0.0043019411155307231 0.01474486117797077 0 -0.0033385490892183715 0.012407223995695818 0 -0.0022701832932543829 0.013242987470657941 0 -0.002253163465404771 0.011208581361016441 0 -0.0033385490892183715 0.012407223995695818 0 -0.0022701832932543829 0.013242987470657941 0 -0.0022701832932543829 0.013242987470657941 0 -0.00044861102676704129 0.015151368545466028 0 -0.0022234720302372656 0.016059776528193591 0 -0.0043019411155307231 0.01474486117797077 0 -0.0022701832932543829 0.013242987470657941 0 -0.0022234720302372656 0.016059776528193591 0 -0.0022701832932543829 0.013242987470657941 0 -0.00044861102676704129 0.015151368545466028 0 -0.00028821443727452254 0.012550207505481938 0 -0.0013268151965402915 0.011872999135999245 0 -0.0022701832932543829 0.013242987470657941 0 -0.00028821443727452254 0.012550207505481938 0 -0.00044861102676704129 0.015151368545466028 0 -0.00028821443727452254 0.012550207505481938 0 0.0019827907810459201 0.015455428172306846 0 -0.00029170008298059396 0.0124920449755125 0 0.0012564251298409883 0.014204876034308389 0 -0.00028821443727452254 0.012550207505481938 0 0.00053604150796393818 0.012201016039588715 0 0.00028778846284987966 0.012572793269896243 0 -0.00044861102676704129 0.015151368545466028 0 0.00088144973785218112 0.017119225261809114 0 0.0019827907810459201 0.015455428172306846 0 0.00088144973785218112 0.017119225261809114 0 0.0019827907810459201 0.015455428172306846 0 0.0022396171010443089 0.017748835403410917 0 0.00088144973785218112 0.017119225261809114 0 0.0014173588394679124 0.018777107824885463 0 0.0022396171010443089 0.017748835403410917 0 0.00088144973785218112 0.017119225261809114 0 0.0014173588394679124 0.018777107824885463 0 -0.00025023011377723578 0.018979830978657606 0 0.00088144973785218112 0.017119225261809114 0 -0.00080542835137931514 0.017014958956552344 0 -0.00025023011377723578 0.018979830978657606 0 -0.00080542835137931514 0.017014958956552344 0 -0.0018427366019618363 0.018402483034489516 0 -0.00025023011377723578 0.018979830978657606 0 -0.00044861102676704129 0.015151368545466028 0 -0.00080542835137931514 0.017014958956552344 0 -0.0022234720302372656 0.016059776528193591 0 -0.00044861102676704129 0.015151368545466028 0 0.00088144973785218112 0.017119225261809114 0 -0.00080542835137931514 0.017014958956552344 0 -0.00080542835137931514 0.017014958956552344 0 -0.0022234720302372656 0.016059776528193591 0 -0.0018427366019618363 0.018402483034489516 0 -0.0022234720302372656 0.016059776528193591 0 -0.0018427366019618363 0.018402483034489516 0 -0.0036412184773520987 0.018136151097399817 0 -0.0018427366019618363 0.018402483034489516 0 -0.0036412184773520987 0.018136151097399817 0 -0.0030398917429216425 0.019565113058625409 0 -0.0043401185508684425 0.018841556202394583 0 -0.0036412184773520987 0.018136151097399817 0 -0.0030398917429216425 0.019565113058625409 0 -0.0043168352978798438 0.018195511888461191 0 -0.0043401185508684425 0.018841556202394583 0 -0.0036412184773520987 0.018136151097399817 0 -0.0043168352978798438 0.018195511888461191 0 -0.0043265855124507233 0.017870561017495842 0 -0.0036412184773520987 0.018136151097399817 0 -0.0042412239759386603 0.016329430845168576 0 -0.0036838150593270693 0.018103662606741896 0 -0.0043019411155307231 0.01474486117797077 0 -0.0022234720302372656 0.016059776528193591 0 -0.0036412184773520987 0.018136151097399817 0 0.0012778803067052765 0.011954043919960215 0 0.00098601130923345998 0.011836308622360693 0 0.0011591105782206919 0.012199244068889135 0 0.0012778803067052765 0.011954043919960215 0 0.0012767917501239237 0.012049510202938483 0 0.0011591105782206919 0.012199244068889135 0 0.0012767917501239237 0.012049510202938483 0 0.0011591105782206919 0.012199244068889135 0 0.0013607644034776701 0.011980926301969248 0 0.0012778803067052765 0.011954043919960215 0 0.0012767917501239237 0.012049510202938483 0 0.0013192195454345629 0.011935635555680963 0 0.0013192195454345629 0.011935635555680963 0 0.0014401787699276354 0.011848386043874675 0 0.0012839256915373009 0.01180860233968585 0 0.0012778803067052765 0.011954043919960215 0 0.0013192195454345629 0.011935635555680963 0 0.0014401787699276354 0.011848386043874675 0 0.0014401787699276354 0.011848386043874675 0 0.0015966192750029255 0.01149520839786445 0 0.0016334534471239661 0.011767255702721907 0 0.0012778803067052765 0.011954043919960215 0 0.0014401787699276354 0.011848386043874675 0 0.0013244719363696535 0.01157433653263055 0 0.0014401787699276354 0.011848386043874675 0 0.0013244719363696535 0.01157433653263055 0 0.0015966192750029255 0.01149520839786445 0 0.0012778803067052765 0.011954043919960215 0 0.0013244719363696535 0.01157433653263055 0 0.00098601130923345998 0.011836308622360693 0 0.00051851866922195079 0.011600407863490323 0 0.00098601130923345998 0.011836308622360693 0 0.00053604150796393818 0.012201016039588715 0 0.00051851866922195079 0.011600407863490323 0 -0.00028821443727452254 0.012550207505481938 0 0.00053604150796393818 0.012201016039588715 0 0.00053604150796393818 0.012201016039588715 0 0.00080082747619486994 0.012254155478252109 0 0.00061923927759120973 0.012525423314870478 0 0.00053604150796393818 0.012201016039588715 0 0.00028778846284987966 0.012572793269896243 0 0.00061923927759120973 0.012525423314870478 0 0.00098601130923345998 0.011836308622360693 0 0.00053604150796393818 0.012201016039588715 0 0.00080082747619486994 0.012254155478252109 0 0.00098601130923345998 0.011836308622360693 0 0.00080082747619486994 0.012254155478252109 0 0.0011591105782206919 0.012199244068889135 0 0.00080082747619486994 0.012254155478252109 0 0.00092848296157531027 0.012518457413554266 0 0.00061923927759120973 0.012525423314870478 0 0.00080082747619486994 0.012254155478252109 0 0.0011591105782206919 0.012199244068889135 0 0.00092848296157531027 0.012518457413554266 0 0.00092848296157531027 0.012518457413554266 0 0.0009104485724961604 0.013378565019966844 0 0.0013771657731374164 0.013178044778070481 0 0.00092848296157531027 0.012518457413554266 0 0.00061923927759120973 0.012525423314870478 0 0.00082522861847329375 0.013239630101813681 0 0.00082231016319285466 0.011983866050879593 0 0.0017923805045527883 0.014847976384063903 0 0.0011591105782206919 0.012199244068889135 0 0.00092848296157531027 0.012518457413554266 0 0.0013771657731374164 0.013178044778070481 0 0.0019827907810459201 0.015455428172306846 0 0.0022396171010443089 0.017748835403410917 0 0.0040254494323098558 0.018121133857030354 0 0.00028778846284987966 0.012572793269896243 0 0.00061923927759120973 0.012525423314870478 0 0.00082522861847329375 0.013239630101813681 0 0.0012564251298409883 0.014204876034308389 0 0.0017923805045527883 0.014847976384063903 0 0.0022396171010443089 0.017748835403410917 0 0.0040254494323098558 0.018121133857030354 0 0.0029002275814202835 0.019287752745171499 0 0.0014173588394679124 0.018777107824885463 0 0.0022396171010443089 0.017748835403410917 0 0.0029002275814202835 0.019287752745171499 0 0.0009104485724961604 0.013378565019966844 0 0.0013771657731374164 0.013178044778070481 0 0.0015317671648363415 0.013859565982537635 0 0.0015114923217742528 0.012244832887995665 0 0.0015978961696055465 0.012445724571313323 0 0.0012163313977042079 0.011670678632922296 0 0.001757995329958884 0.011718834613003926 0 0.00080893580452969145 0.010495568875596483 0 0.0012163313977042079 0.011670678632922296 0 0.001757995329958884 0.011718834613003926 0 0.0013605419272320078 0.011827505790268412 0 0.0012418573535876018 0.012241879416364128 0 0.0015114923217742528 0.012244832887995665 0 0.001757995329958884 0.011718834613003926 0 0.0013605419272320078 0.011827505790268412 0 0.0013607644034776701 0.011980926301969248 0 0.0011591105782206919 0.012199244068889135 0 0.001757995329958884 0.011718834613003926 0 0.0013607644034776701 0.011980926301969248 0 0.0013605419272320078 0.011827505790268412 0 0.0013607644034776701 0.011980926301969248 0 0.0012705256466402628 0.011824826129997336 0 0.0012163313977042079 0.011670678632922296 0 0.0013605419272320078 0.011827505790268412 0 0.0012705256466402628 0.011824826129997336 0 0.0013192195454345629 0.011935635555680963 0 0.0013607644034776701 0.011980926301969248 0 0.0012705256466402628 0.011824826129997336 0 0.0012767917501239237 0.012049510202938483 0 0.0013192195454345629 0.011935635555680963 0 0.0013607644034776701 0.011980926301969248 0 0.0012705256466402628 0.011824826129997336 0 0.0012321085642080561 0.011708477165835484 0 0.0012839256915373009 0.01180860233968585 0 0.0013192195454345629 0.011935635555680963 0 0.0012705256466402628 0.011824826129997336 0 0.0012839256915373009 0.01180860233968585 0 0.0012163313977042079 0.011670678632922296 0 -0.00069851799170327794 0.010396172185901682 0 0.00080893580452969145 0.010495568875596483 0 0.0017758391311716469 0.013304174354954295 0 -3.9022043418923452e-05 0.0053889273036444307 0 0.0012163313977042079 0.011670678632922296 0 0.0012321085642080561 0.011708477165835484 0 0.0012051353362202159 0.011629753133271531 0 0.0012163313977042079 0.011670678632922296 0 0.0012705256466402628 0.011824826129997336 0 0.0012321085642080561 0.011708477165835484 0 0.0012321085642080561 0.011708477165835484 0 0.0012839256915373009 0.01180860233968585 0 0.0012051353362202159 0.011629753133271531 0 0.0013812080575957477 -0.0010441946982746825 0 0.0013416138170055545 -0.0010810959255275027 0 0.0014225150818448972 -0.001082894674652655 0 0.0013812080575957477 -0.0010441946982746825 0 0.0014831237669819062 -0.00094275045893926486 0 0.0014225150818448972 -0.001082894674652655 0 0.0015485084576213827 0.0053931126213689427 0 -3.9022043418923452e-05 0.0053889273036444307 0 0.001416317777190938 -0.0012386023217464818 0 0.0013256267449563057 -0.0011786588345236158 0 0.0013812080575957477 -0.0010441946982746825 0 0.0013416138170055545 -0.0010810959255275027 0 0.0012867159092535233 -0.0010606357206334413 0 0.0014949740052186836 -0.0018412139428740371 0 0.0012867159092535233 -0.0010606357206334413 0 0.0010500900269381531 -0.0014409179363713367 0 0.0012867159092535233 -0.0010606357206334413 0 0.0011225831312117215 -0.00073976680607401948 0 0.0013733120855319049 -0.00084425830308775625 0 0.0013812080575957477 -0.0010441946982746825 0 0.0012867159092535233 -0.0010606357206334413 0 0.0013733120855319049 -0.00084425830308775625 0 0.0013812080575957477 -0.0010441946982746825 0 0.0014831237669819062 -0.00094275045893926486 0 0.0013733120855319049 -0.00084425830308775625 0 -0.00062800699713421598 -0.0069742141646856569 0 -0.00044416876006732223 -0.0072693999522066627 0 -0.0007068566103952354 -0.007279467535797164 0 -0.00062800699713421598 -0.0069742141646856569 0 -0.00081545017094581545 -0.0071369030449351311 0 -0.0007068566103952354 -0.007279467535797164 0 0.0014949740052186836 -0.0018412139428740371 0 0.0010500900269381531 -0.0014409179363713367 0 0.00076570882362666571 -0.0019426276892722328 0 0.00025839693180203862 -0.0043703237671875016 0 0.00022541556194204161 -0.0038343723331635861 0 -0.00062800699713421598 -0.0069742141646856569 0 -0.00044416876006732223 -0.0072693999522066627 0 -0.00026845838056426642 -0.006573906437583525 0 0.0010500900269381531 -0.0014409179363713367 0 0.00076570882362666571 -0.0019426276892722328 0 0.00076644699690159366 -0.0010171911320696143 0 0.0012867159092535233 -0.0010606357206334413 0 0.00076644699690159366 -0.0010171911320696143 0 0.0011225831312117215 -0.00073976680607401948 0 0.0012867159092535233 -0.0010606357206334413 0 0.0010500900269381531 -0.0014409179363713367 0 0.00076644699690159366 -0.0010171911320696143 0 -0.00062800699713421598 -0.0069742141646856569 0 -0.00026845838056426642 -0.006573906437583525 0 -0.00082164195013635633 -0.0057340945930710032 0 -0.00062800699713421598 -0.0069742141646856569 0 -0.00019840122195250256 -0.0064896999888835911 0 -0.00055416649778816413 -0.0067050668952241014 0 -0.00060735322183474343 -0.0069177366333850855 0 -0.00049715051090106952 -0.0060654554699751369 0 -0.00026845838056426642 -0.006573906437583525 0 -0.00082164195013635633 -0.0057340945930710032 0 -0.00041559865110572336 -0.0053276306918032213 0 0.00022541556194204161 -0.0038343723331635861 0 0.00017765098259584397 -0.0029339654257708493 0 0.00076644699690159366 -0.0010171911320696143 0 0.00090329057826316886 -0.00063394938964169865 0 0.00074531709017821202 -0.00052461015239767099 0 0.00076644699690159366 -0.0010171911320696143 0 0.00090329057826316886 -0.00063394938964169865 0 0.0011225831312117215 -0.00073976680607401948 0 0.00090329057826316886 -0.00063394938964169865 0 0.0011225831312117215 -0.00073976680607401948 0 0.001016050895384732 -0.00046987374930666765 0 0.001016050895384732 -0.00046987374930666765 0 0.0010538071911647268 -0.00029275962488747956 0 0.00090080224258225943 -0.00023640392633757579 0 0.001016050895384732 -0.00046987374930666765 0 0.00087929590973711571 -0.00042581534757240978 0 0.00090080224258225943 -0.00023640392633757579 0 0.00087929590973711571 -0.00042581534757240978 0 0.00090080224258225943 -0.00023640392633757579 0 0.00085832636903781774 -0.00029474240425744226 0 0.00090329057826316886 -0.00063394938964169865 0 0.001016050895384732 -0.00046987374930666765 0 0.00087929590973711571 -0.00042581534757240978 0 0.00090329057826316886 -0.00063394938964169865 0 0.00087929590973711571 -0.00042581534757240978 0 0.00074531709017821202 -0.00052461015239767099 0 -0.00019840122195250256 -0.0064896999888835911 0 0.00053790621780940647 -0.0055504896832068657 0 1.1284889671642013e-05 -0.0059611000865661175 0 0.00017765098259584397 -0.0029339654257708493 0 6.8818396004773479e-05 -0.0019089979633749067 0 0.00074531709017821202 -0.00052461015239767099 0 0.00085832636903781774 -0.00029474240425744226 0 0.00091012781109412356 -0.00012380103533847571 0 -0.00082164195013635633 -0.0057340945930710032 0 -0.00041559865110572336 -0.0053276306918032213 0 -0.0009249671406203493 -0.0040470710812552839 0 -0.00049715051090106952 -0.0060654554699751369 0 -0.00020053679223912198 -0.0048205843681210668 0 0.00087929590973711571 -0.00042581534757240978 0 0.00074531709017821202 -0.00052461015239767099 0 0.00085832636903781774 -0.00029474240425744226 0 0.0015485084576213827 0.0053931126213689427 0 0.0015921989476742724 0.0055623620064467073 0 0.0014831237669819062 -0.00094275045893926486 0 0.0013733120855319049 -0.00084425830308775625 0 0.001566277751917174 -0.00061150977529030514 0 0.0014401787699276354 0.011848386043874675 0 0.0012839256915373009 0.01180860233968585 0 0.0016334534471239661 0.011767255702721907 0 0.0013733120855319049 -0.00084425830308775625 0 0.0013046385374134667 -0.00051552730377630489 0 0.001566277751917174 -0.00061150977529030514 0 0.0011225831312117215 -0.00073976680607401948 0 0.0013733120855319049 -0.00084425830308775625 0 0.0013046385374134667 -0.00051552730377630489 0 0.0011225831312117215 -0.00073976680607401948 0 0.001016050895384732 -0.00046987374930666765 0 0.0013046385374134667 -0.00051552730377630489 0 0.001016050895384732 -0.00046987374930666765 0 0.0013046385374134667 -0.00051552730377630489 0 0.0010538071911647268 -0.00029275962488747956 0 0.0015966192750029255 0.01149520839786445 0 0.0016334534471239661 0.011767255702721907 0 0.0020267540566402814 0.011144201975240759 0 0.0013046385374134667 -0.00051552730377630489 0 0.001566277751917174 -0.00061150977529030514 0 0.001878199873898712 -0.00027218317046133413 0 0.0015921989476742724 0.0055623620064467073 0 0.0019653718417943574 0.0054814788895120392 0 0.0015463361659979512 0.011075526615540041 0 0.0015966192750029255 0.01149520839786445 0 0.0020267540566402814 0.011144201975240759 0 0.0015463361659979512 0.011075526615540041 0 0.0020267540566402814 0.011144201975240759 0 0.0018025693268865885 0.010496818725314761 0 0.0019653718417943574 0.0054814788895120392 0 0.0021675230735169436 0.0066490073913128139 0 0.0020267540566402814 0.011144201975240759 0 0.0018025693268865885 0.010496818725314761 0 0.002254875431908557 0.010001232102970031 0 0.001878199873898712 -0.00027218317046133413 0 0.0014441341546833129 0.0010639912333746165 0 0.0022703458837731423 0.0031965512517876898 0 0.0013567154441469754 0.0010141246640001337 0 -0.00013015604478321471 0.0017615407798857157 0 0.0014441341546833129 0.0010639912333746165 0 0.0009822094442691325 0.00025024892541049797 0 0.00075618296371402697 -0.00035767583107745198 0 0.0014441341546833129 0.0010639912333746165 0 0.0009822094442691325 0.00025024892541049797 0 0.0011780079835865597 -0.00011908742560509931 0 0.0011780079835865597 -0.00011908742560509931 0 0.0010538071911647268 -0.00029275962488747956 0 0.00092410276304572729 -9.4906040546934411e-05 0 0.0013046385374134667 -0.00051552730377630489 0 0.0011780079835865597 -0.00011908742560509931 0 0.0010538071911647268 -0.00029275962488747956 0 0.0013046385374134667 -0.00051552730377630489 0 0.001878199873898712 -0.00027218317046133413 0 0.0011780079835865597 -0.00011908742560509931 0 0.0009822094442691325 0.00025024892541049797 0 0.0011780079835865597 -0.00011908742560509931 0 0.00092410276304572729 -9.4906040546934411e-05 0 0.001878199873898712 -0.00027218317046133413 0 0.0014441341546833129 0.0010639912333746165 0 0.0011780079835865597 -0.00011908742560509931 0 0.0010538071911647268 -0.00029275962488747956 0 0.00090080224258225943 -0.00023640392633757579 0 0.00092410276304572729 -9.4906040546934411e-05 0 0.00090080224258225943 -0.00023640392633757579 0 0.00085832636903781774 -0.00029474240425744226 0 0.00086495327713978542 -0.00016978578447927967 0 0.00085799667621309125 -0.00015679213124107196 0 0.00086495327713978542 -0.00016978578447927967 0 0.00083847492568308994 -0.0002870413477541474 0 0.00090080224258225943 -0.00023640392633757579 0 0.00085799667621309125 -0.00015679213124107196 0 0.00086495327713978542 -0.00016978578447927967 0 0.00090080224258225943 -0.00023640392633757579 0 0.00085799667621309125 -0.00015679213124107196 0 0.00092410276304572729 -9.4906040546934411e-05 0 -0.00041559865110572336 -0.0053276306918032213 0 -0.0009249671406203493 -0.0040470710812552839 0 -0.0006899916395228748 -0.0038209259867896363 0 0.00085832636903781774 -0.00029474240425744226 0 0.00086495327713978542 -0.00016978578447927967 0 0.00091012781109412356 -0.00012380103533847571 0 0.00086495327713978542 -0.00016978578447927967 0 0.00091012781109412356 -0.00012380103533847571 0 0.00083847492568308994 -0.0002870413477541474 0 0.00053790621780940647 -0.0055504896832068657 0 0.0011917705945464008 -0.0025982329978870809 0 0.00059875754651841212 -0.0041509531560439518 0 -0.00020053679223912198 -0.0048205843681210668 0 0.00016052373279565877 -0.0020193563477074799 0 0.00091012781109412356 -0.00012380103533847571 0 0.00083847492568308994 -0.0002870413477541474 0 0.00098833025056614524 -0.0010279548682451951 0 6.8818396004773479e-05 -0.0019089979633749067 0 0.00016052373279565877 -0.0020193563477074799 0 -0.0009249671406203493 -0.0040470710812552839 0 -0.0006899916395228748 -0.0038209259867896363 0 -0.00098462580988066301 -0.0022442036591769237 0 0.00083847492568308994 -0.0002870413477541474 0 0.00084718888927418285 -0.00041709683093864259 0 0.00098833025056614524 -0.0010279548682451951 0 0.0009822094442691325 0.00025024892541049797 0 0.00085342268503861866 -9.9913812817863082e-05 0 0.00075618296371402697 -0.00035767583107745198 0 0.00085342268503861866 -9.9913812817863082e-05 0 0.00084718888927418285 -0.00041709683093864259 0 0.00075618296371402697 -0.00035767583107745198 0 0.0009822094442691325 0.00025024892541049797 0 0.00092410276304572729 -9.4906040546934411e-05 0 0.00085342268503861866 -9.9913812817863082e-05 0 0.00085799667621309125 -0.00015679213124107196 0 0.00092410276304572729 -9.4906040546934411e-05 0 0.00085342268503861866 -9.9913812817863082e-05 0 0.00085799667621309125 -0.00015679213124107196 0 0.00083847492568308994 -0.0002870413477541474 0 0.00085342268503861866 -9.9913812817863082e-05 0 0.00083847492568308994 -0.0002870413477541474 0 0.00085342268503861866 -9.9913812817863082e-05 0 0.00084718888927418285 -0.00041709683093864259 0 -0.00013015604478321471 0.0017615407798857157 0 -0.0016824400140908128 0.0028229756272481268 0 0.00098833025056614524 -0.0010279548682451951 0 0.00097779125768141526 -0.0010555639359035398 0 0.00095188835469924677 -0.0013066229536123949 0 0.00075618296371402697 -0.00035767583107745198 0 0.00098833025056614524 -0.0010279548682451951 0 0.00097779125768141526 -0.0010555639359035398 0 0.00084718888927418285 -0.00041709683093864259 0 0.00075618296371402697 -0.00035767583107745198 0 0.00098833025056614524 -0.0010279548682451951 0 -0.00088189522895587103 0.00771126943424243 0 -0.0014426858758219338 0.0040606805562182612 0 -0.0036429858795487976 0.0062397375197053287 0 -0.00088189522895587103 0.00771126943424243 0 -0.0014426858758219338 0.0040606805562182612 0 0.00039858939491409928 0.0055817605510038362 0 -0.00088189522895587103 0.00771126943424243 0 0.00039858939491409928 0.0055817605510038362 0 0.0017006902265368706 0.0082244502250260979 0 0.00039858939491409928 0.0055817605510038362 0 0.0017006902265368706 0.0082244502250260979 0 0.0022703458837731423 0.0031965512517876898 0 0.001807938623429038 0.00815314149151696 0 0.0021675230735169436 0.0066490073913128139 0 0.0015914201883287279 0.0088356371211054871 0 0.001697819614364828 0.0097662182696639666 0 0.0017006902265368706 0.0082244502250260979 0 0.001697819614364828 0.0097662182696639666 0 0.0017006902265368706 0.0082244502250260979 0 0.002254875431908557 0.010001232102970031 0 0.001697819614364828 0.0097662182696639666 0 0.0018025693268865885 0.010496818725314761 0 0.002254875431908557 0.010001232102970031 0 0.0014441341546833129 0.0010639912333746165 0 -0.0014426858758219338 0.0040606805562182612 0 0.0022703458837731423 0.0031965512517876898 0 -0.0014426858758219338 0.0040606805562182612 0 0.00039858939491409928 0.0055817605510038362 0 0.0022703458837731423 0.0031965512517876898 0 -0.0029846267161825202 -0.0020877454189772073 0 -0.0038809700921054895 -0.0023308683489482855 0 -0.0026370653075392437 -0.0030834650129490733 0 -0.0029846267161825202 -0.0020877454189772073 0 -0.0023069598224458136 -0.0020476623777000431 0 -0.0027177247845524312 -0.0013957923776914088 0 -0.0029846267161825202 -0.0020877454189772073 0 -0.0032947741992390271 -0.0013670597629437933 0 -0.0027177247845524312 -0.0013957923776914088 0 -0.0023069598224458136 -0.0020476623777000431 0 -0.001596284039451414 -0.002462915435205968 0 -0.0026370653075392437 -0.0030834650129490733 0 -0.0029846267161825202 -0.0020877454189772073 0 -0.0023069598224458136 -0.0020476623777000431 0 -0.0026370653075392437 -0.0030834650129490733 0 -0.0044410904181722329 -0.0030042920241509729 0 -0.0038809700921054895 -0.0023308683489482855 0 -0.0026370653075392437 -0.0030834650129490733 0 -0.0019795830852156245 -0.00516553651780788 0 -0.0015576073476519228 -0.0037689000009750949 0 -0.0044410904181722329 -0.0030042920241509729 0 -0.0038809700921054895 -0.0023308683489482855 0 -0.0040349972724045106 -0.0017944270138421426 0 -0.0029846267161825202 -0.0020877454189772073 0 -0.0038809700921054895 -0.0023308683489482855 0 -0.0032947741992390271 -0.0013670597629437933 0 -0.0035868834352936886 -0.0010000277870431346 0 -0.0038809700921054895 -0.0023308683489482855 0 -0.0040349972724045106 -0.0017944270138421426 0 -0.003710632352883578 -0.00016298991599326577 0 -0.0038809700921054895 -0.0023308683489482855 0 -0.0032947741992390271 -0.0013670597629437933 0 -0.0036471103233140659 -0.00075591700500270771 0 -0.0035868834352936886 -0.0010000277870431346 0 -0.0040349972724045106 -0.0017944270138421426 0 0.00057803201106807281 -0.0048073451463952104 0 0.0013123391393127153 -0.0040262525292348817 0 0.00091619595959928975 -0.0057431064160019963 0 -0.0012057151162627271 -0.0025100285177518614 0 -0.0015576073476519228 -0.0037689000009750949 0 -0.0039326613524450632 -0.00027555261363072895 0 -0.0038097974194077665 -0.0023361878718757834 0 -0.003710632352883578 -0.00016298991599326577 0 -0.0032947741992390271 -0.0013670597629437933 0 -0.0031596823997671374 -0.00075501389574902998 0 -0.003710632352883578 -0.00016298991599326577 0 -0.0032339631043326717 -0.00026814771055715185 0 -0.0031596823997671374 -0.00075501389574902998 0 -0.0026571215938158608 -0.00020362424125712855 0 -0.0031596823997671374 -0.00075501389574902998 0 -0.002298523442751436 -0.00071621619340209305 0 -0.0026571215938158608 -0.00020362424125712855 0 -0.0032339631043326717 -0.00026814771055715185 0 -0.0031596823997671374 -0.00075501389574902998 0 -0.0031596823997671374 -0.00075501389574902998 0 -0.0027177247845524312 -0.0013957923776914088 0 -0.002298523442751436 -0.00071621619340209305 0 -0.0032947741992390271 -0.0013670597629437933 0 -0.0031596823997671374 -0.00075501389574902998 0 -0.0027177247845524312 -0.0013957923776914088 0 -0.0023069598224458136 -0.0020476623777000431 0 -0.0027177247845524312 -0.0013957923776914088 0 -0.001715240439453233 -0.0012641606136901196 0 -0.0027177247845524312 -0.0013957923776914088 0 -0.002298523442751436 -0.00071621619340209305 0 -0.001715240439453233 -0.0012641606136901196 0 -0.0021504101867891303 -8.3092748738879406e-05 0 -0.002298523442751436 -0.00071621619340209305 0 -0.0016118072316907181 -0.00023315519227491731 0 -0.0026571215938158608 -0.00020362424125712855 0 -0.0021504101867891303 -8.3092748738879406e-05 0 -0.002298523442751436 -0.00071621619340209305 0 -0.0016118072316907181 -0.00023315519227491731 0 -0.00077401023606846328 -0.0006501396974828216 0 -0.001715240439453233 -0.0012641606136901196 0 -0.002298523442751436 -0.00071621619340209305 0 -0.0016118072316907181 -0.00023315519227491731 0 -0.001715240439453233 -0.0012641606136901196 0 -0.00031956107847669167 0.00023241523120346715 0 -0.0016118072316907181 -0.00023315519227491731 0 -0.00077401023606846328 -0.0006501396974828216 0 -0.00077401023606846328 -0.0006501396974828216 0 -0.00073953478100603732 -0.0014567841473695684 0 -0.001715240439453233 -0.0012641606136901196 0 -0.0015089748515979399 0.0032889075646951749 0 -0.0016824400140908128 0.0028229756272481268 0 -0.00031956107847669167 0.00023241523120346715 0 0.00097779125768141526 -0.0010555639359035398 0 0.00019157704985449685 -0.00095619466446050414 0 -0.00031956107847669167 0.00023241523120346715 0 -0.00077401023606846328 -0.0006501396974828216 0 0.00019157704985449685 -0.00095619466446050414 0 -0.00073953478100603732 -0.0014567841473695684 0 0.00019157704985449685 -0.00095619466446050414 0 1.9732165044238798e-05 -0.001593583473573966 0 -0.00077401023606846328 -0.0006501396974828216 0 -0.00073953478100603732 -0.0014567841473695684 0 0.00019157704985449685 -0.00095619466446050414 0 0.00097779125768141526 -0.0010555639359035398 0 0.00019157704985449685 -0.00095619466446050414 0 0.00095188835469924677 -0.0013066229536123949 0 0.00095188835469924677 -0.0013066229536123949 0 1.9732165044238798e-05 -0.001593583473573966 0 0.00018657277991857745 -0.0024636599003733202 0 0.00019157704985449685 -0.00095619466446050414 0 0.00095188835469924677 -0.0013066229536123949 0 1.9732165044238798e-05 -0.001593583473573966 0 -0.00073953478100603732 -0.0014567841473695684 0 1.9732165044238798e-05 -0.001593583473573966 0 -0.0005312804290626105 -0.0022712448662755985 0 1.9732165044238798e-05 -0.001593583473573966 0 -0.0005312804290626105 -0.0022712448662755985 0 0.00018657277991857745 -0.0024636599003733202 0 -0.0005312804290626105 -0.0022712448662755985 0 0.00018657277991857745 -0.0024636599003733202 0 -0.00042416274661399443 -0.0035273634472619713 0 0.00018657277991857745 -0.0024636599003733202 0 0.00026461315626268635 -0.0034817019405923417 0 -0.00042416274661399443 -0.0035273634472619713 0 0.0011917705945464008 -0.0025982329978870809 0 0.00018657277991857745 -0.0024636599003733202 0 0.00026461315626268635 -0.0034817019405923417 0 0.0011917705945464008 -0.0025982329978870809 0 0.00095188835469924677 -0.0013066229536123949 0 0.00018657277991857745 -0.0024636599003733202 0 0.00016052373279565877 -0.0020193563477074799 0 0.00033445169348200033 -0.0017189891401622375 0 -0.001596284039451414 -0.002462915435205968 0 -0.00042416274661399443 -0.0035273634472619713 0 -0.0026370653075392437 -0.0030834650129490733 0 -0.0023069598224458136 -0.0020476623777000431 0 -0.001715240439453233 -0.0012641606136901196 0 -0.001596284039451414 -0.002462915435205968 0 -0.00073953478100603732 -0.0014567841473695684 0 -0.001715240439453233 -0.0012641606136901196 0 -0.001596284039451414 -0.002462915435205968 0 -0.00073953478100603732 -0.0014567841473695684 0 -0.0005312804290626105 -0.0022712448662755985 0 -0.001596284039451414 -0.002462915435205968 0 -0.0005312804290626105 -0.0022712448662755985 0 -0.001596284039451414 -0.002462915435205968 0 -0.00042416274661399443 -0.0035273634472619713 0 -0.00092063147249801412 -0.0048217037927558758 0 -0.00042416274661399443 -0.0035273634472619713 0 -0.001507785363120521 -0.0050301459197431555 0 -0.00032440215658151224 -0.003640548372784077 0 -0.0021972965788677125 -0.0039612430595767816 0 -0.00092063147249801412 -0.0048217037927558758 0 -0.00023846925014011437 -0.0044708495073251843 0 -0.00060648292481484155 -0.0053693201816394365 0 -0.00092063147249801412 -0.0048217037927558758 0 -0.00042416274661399443 -0.0035273634472619713 0 -0.00023846925014011437 -0.0044708495073251843 0 0.00026461315626268635 -0.0034817019405923417 0 -0.00023846925014011437 -0.0044708495073251843 0 0.00059875754651841212 -0.0041509531560439518 0 0.0011917705945464008 -0.0025982329978870809 0 0.00026461315626268635 -0.0034817019405923417 0 0.00059875754651841212 -0.0041509531560439518 0 0.00026461315626268635 -0.0034817019405923417 0 -0.00042416274661399443 -0.0035273634472619713 0 -0.00023846925014011437 -0.0044708495073251843 0 -0.00023846925014011437 -0.0044708495073251843 0 0.00059875754651841212 -0.0041509531560439518 0 1.9350520200997309e-05 -0.0050519593713067084 0 0.00059875754651841212 -0.0041509531560439518 0 0.00033037546355420066 -0.0050552453644382087 0 1.9350520200997309e-05 -0.0050519593713067084 0 0.00053790621780940647 -0.0055504896832068657 0 0.00059875754651841212 -0.0041509531560439518 0 0.00033037546355420066 -0.0050552453644382087 0 0.00019335393134196731 -0.0054047295292187526 0 1.9350520200997309e-05 -0.0050519593713067084 0 -0.00013425887276838372 -0.0055814596428947491 0 0.00053790621780940647 -0.0055504896832068657 0 0.00019335393134196731 -0.0054047295292187526 0 0.00033037546355420066 -0.0050552453644382087 0 0.00019335393134196731 -0.0054047295292187526 0 0.00033037546355420066 -0.0050552453644382087 0 1.9350520200997309e-05 -0.0050519593713067084 0 1.9350520200997309e-05 -0.0050519593713067084 0 -0.00013425887276838372 -0.0055814596428947491 0 -0.00060648292481484155 -0.0053693201816394365 0 -0.00023846925014011437 -0.0044708495073251843 0 1.9350520200997309e-05 -0.0050519593713067084 0 -0.00060648292481484155 -0.0053693201816394365 0 -0.00013425887276838372 -0.0055814596428947491 0 -0.00060648292481484155 -0.0053693201816394365 0 -0.00044348768532650318 -0.0058238887432496642 0 -0.00013425887276838372 -0.0055814596428947491 0 -0.00017341322386808014 -0.0058418453900564134 0 -0.00044348768532650318 -0.0058238887432496642 0 0.00053790621780940647 -0.0055504896832068657 0 8.435359475156043e-05 -0.0056985157127940732 0 1.1284889671642013e-05 -0.0059611000865661175 0 0.00019335393134196731 -0.0054047295292187526 0 -0.00013425887276838372 -0.0055814596428947491 0 8.435359475156043e-05 -0.0056985157127940732 0 -0.00013425887276838372 -0.0055814596428947491 0 8.435359475156043e-05 -0.0056985157127940732 0 -0.00017341322386808014 -0.0058418453900564134 0 0.00053790621780940647 -0.0055504896832068657 0 0.00019335393134196731 -0.0054047295292187526 0 8.435359475156043e-05 -0.0056985157127940732 0 -0.00098441035551496471 -0.0053148816878791855 0 -0.0010712851400485226 -0.0057260713518222095 0 -0.001275059857036521 -0.0053705840634787295 0 -0.00092063147249801412 -0.0048217037927558758 0 -0.00098441035551496471 -0.0053148816878791855 0 -0.001275059857036521 -0.0053705840634787295 0 -0.00098441035551496471 -0.0053148816878791855 0 -0.00060648292481484155 -0.0053693201816394365 0 -0.0010712851400485226 -0.0057260713518222095 0 -0.00092063147249801412 -0.0048217037927558758 0 -0.00098441035551496471 -0.0053148816878791855 0 -0.00060648292481484155 -0.0053693201816394365 0 -0.00060648292481484155 -0.0053693201816394365 0 -0.00044348768532650318 -0.0058238887432496642 0 -0.00073041463175544568 -0.0058106781371959262 0 -0.00060648292481484155 -0.0053693201816394365 0 -0.0010712851400485226 -0.0057260713518222095 0 -0.00073041463175544568 -0.0058106781371959262 0 -0.0010712851400485226 -0.0057260713518222095 0 -0.0013898429658189986 -0.0057694525637646517 0 -0.0013140445196614993 -0.0059886019837723289 0 -0.0010712851400485226 -0.0057260713518222095 0 -0.0013898429658189986 -0.0057694525637646517 0 -0.001275059857036521 -0.0053705840634787295 0 -0.0013898429658189986 -0.0057694525637646517 0 -0.0014870264105013814 -0.0059974060433218967 0 -0.0013140445196614993 -0.0059886019837723289 0 -0.0013898429658189986 -0.0057694525637646517 0 -0.0015543008472329067 -0.0058499498195609947 0 -0.0014870264105013814 -0.0059974060433218967 0 -0.0013898429658189986 -0.0057694525637646517 0 -0.0014655289309651771 -0.005647866234686329 0 -0.0015543008472329067 -0.0058499498195609947 0 -0.0013898429658189986 -0.0057694525637646517 0 -0.0014655289309651771 -0.005647866234686329 0 -0.001275059857036521 -0.0053705840634787295 0 -0.0014655289309651771 -0.005647866234686329 0 -0.001507785363120521 -0.0050301459197431555 0 -0.0015846166817957443 -0.0056635175450161961 0 -0.0014655289309651771 -0.005647866234686329 0 -0.001275059857036521 -0.0053705840634787295 0 -0.001507785363120521 -0.0050301459197431555 0 -0.00092063147249801412 -0.0048217037927558758 0 -0.001275059857036521 -0.0053705840634787295 0 -0.001507785363120521 -0.0050301459197431555 0 -0.001507785363120521 -0.0050301459197431555 0 -0.0016207328730312939 -0.0056260440516936678 0 -0.0015846166817957443 -0.0056635175450161961 0 -0.0019795830852156245 -0.00516553651780788 0 -0.0021972965788677125 -0.0039612430595767816 0 -0.0017046514391867026 -0.0059543152718315581 0 -0.001507785363120521 -0.0050301459197431555 0 -0.0016207328730312939 -0.0056260440516936678 0 -0.0017046514391867026 -0.0059543152718315581 0 -0.0016782962502079302 -0.0059238632982093727 0 -0.0016207328730312939 -0.0056260440516936678 0 -0.0016207328730312939 -0.0056260440516936678 0 -0.0015846166817957443 -0.0056635175450161961 0 -0.0016500870546147419 -0.0058483792299257121 0 -0.0016782962502079302 -0.0059238632982093727 0 -0.0016207328730312939 -0.0056260440516936678 0 -0.0016687363373839379 -0.005883890043109144 0 -0.0016207328730312939 -0.0056260440516936678 0 -0.0016500870546147419 -0.0058483792299257121 0 -0.0016687363373839379 -0.005883890043109144 0 -0.0016769636012654706 -0.0060268620336169374 0 -0.0016782962502079302 -0.0059238632982093727 0 -0.0016687363373839379 -0.005883890043109144 0 -0.0016736653279500278 -0.0060099604504284653 0 -0.0016769636012654706 -0.0060268620336169374 0 -0.0016687363373839379 -0.005883890043109144 0 -0.0016736653279500278 -0.0060099604504284653 0 -0.0016500870546147419 -0.0058483792299257121 0 -0.0016687363373839379 -0.005883890043109144 0 -0.0016736653279500278 -0.0060099604504284653 0 -0.0016500870546147419 -0.0058483792299257121 0 -0.0016594132902248595 -0.0059750527934074879 0 -0.0016500870546147419 -0.0058483792299257121 0 -0.0016594132902248595 -0.0059750527934074879 0 -0.001624671418348912 -0.0058638956706750069 0 -0.0016594132902248595 -0.0059750527934074879 0 -0.001624671418348912 -0.0058638956706750069 0 -0.0016318410564789467 -0.0059715867464363174 0 -0.0016596253853884792 -0.0060694183871770431 0 -0.0016594132902248595 -0.0059750527934074879 0 -0.0016318410564789467 -0.0059715867464363174 0 -0.0014655289309651771 -0.005647866234686329 0 -0.0015846166817957443 -0.0056635175450161961 0 -0.0015543008472329067 -0.0058499498195609947 0 -0.001624671418348912 -0.0058638956706750069 0 -0.0015543008472329067 -0.0058499498195609947 0 -0.0016318410564789467 -0.0059715867464363174 0 -0.0015846166817957443 -0.0056635175450161961 0 -0.001624671418348912 -0.0058638956706750069 0 -0.0015543008472329067 -0.0058499498195609947 0 -0.0015846166817957443 -0.0056635175450161961 0 -0.0016500870546147419 -0.0058483792299257121 0 -0.001624671418348912 -0.0058638956706750069 0 -0.0015543008472329067 -0.0058499498195609947 0 -0.0015885671837657911 -0.0060143533246944398 0 -0.0016318410564789467 -0.0059715867464363174 0 -0.0015543008472329067 -0.0058499498195609947 0 -0.0015885671837657911 -0.0060143533246944398 0 -0.0014870264105013814 -0.0059974060433218967 0 -0.0016596253853884792 -0.0060694183871770431 0 -0.0016318410564789467 -0.0059715867464363174 0 -0.0016397583289837988 -0.0060714024997204413 0 -0.0015885671837657911 -0.0060143533246944398 0 -0.0016318410564789467 -0.0059715867464363174 0 -0.0016397583289837988 -0.0060714024997204413 0 -0.0016430184159220448 -0.0061417328751465234 0 -0.0016397583289837988 -0.0060714024997204413 0 -0.0016109767207778461 -0.0061133561409019051 0 -0.0015885671837657911 -0.0060143533246944398 0 -0.0016397583289837988 -0.0060714024997204413 0 -0.0016109767207778461 -0.0061133561409019051 0 -0.0015885671837657911 -0.0060143533246944398 0 -0.0016109767207778461 -0.0061133561409019051 0 -0.0015483431745795663 -0.0060894243013498066 0 -0.0016109767207778461 -0.0061133561409019051 0 -0.0015760225578306595 -0.0061738892643327953 0 -0.0015483431745795663 -0.0060894243013498066 0 -0.0016269412320598191 -0.006193132751409031 0 -0.0016430184159220448 -0.0061417328751465234 0 -0.0016109767207778461 -0.0061133561409019051 0 -0.0016269412320598191 -0.006193132751409031 0 -0.0016109767207778461 -0.0061133561409019051 0 -0.0015760225578306595 -0.0061738892643327953 0 -0.0016269412320598191 -0.006193132751409031 0 -0.0015760225578306595 -0.0061738892643327953 0 -0.001591445891035533 -0.0062471879340246965 0 -0.0015760225578306595 -0.0061738892643327953 0 -0.001591445891035533 -0.0062471879340246965 0 -0.0015358473574303571 -0.0062448605375734359 0 -0.0015760225578306595 -0.0061738892643327953 0 -0.0014709655057854401 -0.0061747553831079981 0 -0.0015358473574303571 -0.0062448605375734359 0 -0.0014709655057854401 -0.0061747553831079981 0 -0.0015358473574303571 -0.0062448605375734359 0 -0.0014775786143762888 -0.0063197604233827497 0 -0.0015760225578306595 -0.0061738892643327953 0 -0.0014709655057854401 -0.0061747553831079981 0 -0.0015483431745795663 -0.0060894243013498066 0 -0.0014709655057854401 -0.0061747553831079981 0 -0.0015483431745795663 -0.0060894243013498066 0 -0.0014870264105013814 -0.0059974060433218967 0 -0.0015885671837657911 -0.0060143533246944398 0 -0.0015483431745795663 -0.0060894243013498066 0 -0.0014870264105013814 -0.0059974060433218967 0 -0.0014870264105013814 -0.0059974060433218967 0 -0.0014045714876483823 -0.0060784082077304444 0 -0.0013140445196614993 -0.0059886019837723289 0 -0.0014709655057854401 -0.0061747553831079981 0 -0.0014870264105013814 -0.0059974060433218967 0 -0.0014045714876483823 -0.0060784082077304444 0 -0.0013140445196614993 -0.0059886019837723289 0 -0.0012191457304126833 -0.006116219024886238 0 -0.001074284669761513 -0.0060505119416258682 0 -0.0010712851400485226 -0.0057260713518222095 0 -0.0013140445196614993 -0.0059886019837723289 0 -0.001074284669761513 -0.0060505119416258682 0 -0.0014045714876483823 -0.0060784082077304444 0 -0.0013140445196614993 -0.0059886019837723289 0 -0.0012191457304126833 -0.006116219024886238 0 -0.0012191457304126833 -0.006116219024886238 0 -0.001074284669761513 -0.0060505119416258682 0 -0.0010967802429148158 -0.0063268408748310958 0 -0.0012191457304126833 -0.006116219024886238 0 -0.0013134283043821583 -0.0062036999921856843 0 -0.0010967802429148158 -0.0063268408748310958 0 -0.0014045714876483823 -0.0060784082077304444 0 -0.0012191457304126833 -0.006116219024886238 0 -0.0013134283043821583 -0.0062036999921856843 0 -0.0014709655057854401 -0.0061747553831079981 0 -0.0013134283043821583 -0.0062036999921856843 0 -0.0013423007342050963 -0.0063470936608961614 0 -0.0014709655057854401 -0.0061747553831079981 0 -0.0014045714876483823 -0.0060784082077304444 0 -0.0013134283043821583 -0.0062036999921856843 0 -0.0013423007342050963 -0.0063470936608961614 0 -0.0014132500467313291 -0.0064167309491881021 0 -0.0014775786143762888 -0.0063197604233827497 0 -0.0013134283043821583 -0.0062036999921856843 0 -0.0013423007342050963 -0.0063470936608961614 0 -0.0010967802429148158 -0.0063268408748310958 0 -0.0013423007342050963 -0.0063470936608961614 0 -0.0012670704613215236 -0.0065254239668773306 0 -0.0010967802429148158 -0.0063268408748310958 0 -0.0012670704613215236 -0.0065254239668773306 0 -0.0010967802429148158 -0.0063268408748310958 0 -0.00095159545845025547 -0.0066135242587862146 0 -0.0013423007342050963 -0.0063470936608961614 0 -0.0012670704613215236 -0.0065254239668773306 0 -0.0014132500467313291 -0.0064167309491881021 0 -0.0012670704613215236 -0.0065254239668773306 0 -0.0014434046355355993 -0.0065041154199480256 0 -0.0014132500467313291 -0.0064167309491881021 0 -0.0014434046355355993 -0.0065041154199480256 0 -0.0014132500467313291 -0.0064167309491881021 0 -0.0015040082687841363 -0.0064007825168626749 0 -0.0014434046355355993 -0.0065041154199480256 0 -0.0015040082687841363 -0.0064007825168626749 0 -0.0015181488161578125 -0.0064772647017526906 0 -0.0015181488161578125 -0.0064772647017526906 0 -0.001584191394419396 -0.0064332864047699067 0 -0.0015782617790338685 -0.0063701016305149748 0 -0.0015040082687841363 -0.0064007825168626749 0 -0.0015181488161578125 -0.0064772647017526906 0 -0.0015782617790338685 -0.0063701016305149748 0 -0.0015040082687841363 -0.0064007825168626749 0 -0.0015782617790338685 -0.0063701016305149748 0 -0.00155480938614611 -0.0063124330016357802 0 -0.0016042633627920634 -0.0063076960239072995 0 -0.0015782617790338685 -0.0063701016305149748 0 -0.00155480938614611 -0.0063124330016357802 0 -0.0016042633627920634 -0.0063076960239072995 0 -0.001591445891035533 -0.0062471879340246965 0 -0.00155480938614611 -0.0063124330016357802 0 -0.001591445891035533 -0.0062471879340246965 0 -0.0015358473574303571 -0.0062448605375734359 0 -0.00155480938614611 -0.0063124330016357802 0 -0.0015358473574303571 -0.0062448605375734359 0 -0.00155480938614611 -0.0063124330016357802 0 -0.0014775786143762888 -0.0063197604233827497 0 -0.0014709655057854401 -0.0061747553831079981 0 -0.0013423007342050963 -0.0063470936608961614 0 -0.0014775786143762888 -0.0063197604233827497 0 -0.0014132500467313291 -0.0064167309491881021 0 -0.0015040082687841363 -0.0064007825168626749 0 -0.0014775786143762888 -0.0063197604233827497 0 -0.0015040082687841363 -0.0064007825168626749 0 -0.00155480938614611 -0.0063124330016357802 0 -0.0014775786143762888 -0.0063197604233827497 0 -0.00019840122195250256 -0.0064896999888835911 0 -0.00031774086911421165 -0.0062732354401022752 0 1.1284889671642013e-05 -0.0059611000865661175 0 -0.00031774086911421165 -0.0062732354401022752 0 1.1284889671642013e-05 -0.0059611000865661175 0 -0.00039147397273900386 -0.0060812590780367267 0 1.1284889671642013e-05 -0.0059611000865661175 0 -0.00017341322386808014 -0.0058418453900564134 0 -0.00039147397273900386 -0.0060812590780367267 0 8.435359475156043e-05 -0.0056985157127940732 0 1.1284889671642013e-05 -0.0059611000865661175 0 -0.00017341322386808014 -0.0058418453900564134 0 -0.00017341322386808014 -0.0058418453900564134 0 -0.00039147397273900386 -0.0060812590780367267 0 -0.00044348768532650318 -0.0058238887432496642 0 -0.00039147397273900386 -0.0060812590780367267 0 -0.00044348768532650318 -0.0058238887432496642 0 -0.00064776205491037071 -0.0060472670998992827 0 -0.00031774086911421165 -0.0062732354401022752 0 -0.00039147397273900386 -0.0060812590780367267 0 -0.00057503719692508283 -0.0062665383811599217 0 -0.00039147397273900386 -0.0060812590780367267 0 -0.00057503719692508283 -0.0062665383811599217 0 -0.00064776205491037071 -0.0060472670998992827 0 -0.00057503719692508283 -0.0062665383811599217 0 -0.00084447888386378063 -0.0062041013710239989 0 -0.00078694334256915112 -0.0064379286329068718 0 -0.00057503719692508283 -0.0062665383811599217 0 -0.00084447888386378063 -0.0062041013710239989 0 -0.00064776205491037071 -0.0060472670998992827 0 -0.00044348768532650318 -0.0058238887432496642 0 -0.00064776205491037071 -0.0060472670998992827 0 -0.00073041463175544568 -0.0058106781371959262 0 -0.00064776205491037071 -0.0060472670998992827 0 -0.00073041463175544568 -0.0058106781371959262 0 -0.00087587585532943448 -0.0059972660634949838 0 -0.00084447888386378063 -0.0062041013710239989 0 -0.00064776205491037071 -0.0060472670998992827 0 -0.00087587585532943448 -0.0059972660634949838 0 -0.0010712851400485226 -0.0057260713518222095 0 -0.00087587585532943448 -0.0059972660634949838 0 -0.001074284669761513 -0.0060505119416258682 0 -0.00084447888386378063 -0.0062041013710239989 0 -0.00087587585532943448 -0.0059972660634949838 0 -0.001074284669761513 -0.0060505119416258682 0 -0.0010712851400485226 -0.0057260713518222095 0 -0.00073041463175544568 -0.0058106781371959262 0 -0.00087587585532943448 -0.0059972660634949838 0 -0.00084447888386378063 -0.0062041013710239989 0 -0.001074284669761513 -0.0060505119416258682 0 -0.0010967802429148158 -0.0063268408748310958 0 -0.0010967802429148158 -0.0063268408748310958 0 -0.00095159545845025547 -0.0066135242587862146 0 -0.00078694334256915112 -0.0064379286329068718 0 -0.00084447888386378063 -0.0062041013710239989 0 -0.0010967802429148158 -0.0063268408748310958 0 -0.00078694334256915112 -0.0064379286329068718 0 -0.00095159545845025547 -0.0066135242587862146 0 -0.00078694334256915112 -0.0064379286329068718 0 -0.00070955695972910876 -0.0066384417323783751 0 -0.00031774086911421165 -0.0062732354401022752 0 -0.00057503719692508283 -0.0062665383811599217 0 -0.00048863402145805771 -0.0064772196846144886 0 -0.00057503719692508283 -0.0062665383811599217 0 -0.00078694334256915112 -0.0064379286329068718 0 -0.00048863402145805771 -0.0064772196846144886 0 -0.00078694334256915112 -0.0064379286329068718 0 -0.00070955695972910876 -0.0066384417323783751 0 -0.00048863402145805771 -0.0064772196846144886 0 -0.00070955695972910876 -0.0066384417323783751 0 -0.00048863402145805771 -0.0064772196846144886 0 -0.00055416649778816413 -0.0067050668952241014 0 -0.00019840122195250256 -0.0064896999888835911 0 -0.00048863402145805771 -0.0064772196846144886 0 -0.00055416649778816413 -0.0067050668952241014 0 -0.00019840122195250256 -0.0064896999888835911 0 -0.00031774086911421165 -0.0062732354401022752 0 -0.00048863402145805771 -0.0064772196846144886 0 -0.00062800699713421598 -0.0069742141646856569 0 -0.00055416649778816413 -0.0067050668952241014 0 -0.00078855412954592587 -0.0068622789305034749 0 -0.00070955695972910876 -0.0066384417323783751 0 -0.00055416649778816413 -0.0067050668952241014 0 -0.00078855412954592587 -0.0068622789305034749 0 -0.00082128473139038048 -0.0068496651177452255 0 -0.0011258272615947698 -0.0068141245087157227 0 -0.00078855412954592587 -0.0068622789305034749 0 -0.001071667507557958 -0.0071338767933749464 0 -0.0011740777652065502 -0.0068471416094165538 0 -0.00095159545845025547 -0.0066135242587862146 0 -0.00078855412954592587 -0.0068622789305034749 0 -0.0011062261185492814 -0.0067891528925711573 0 -0.00095159545845025547 -0.0066135242587862146 0 -0.00070955695972910876 -0.0066384417323783751 0 -0.00078855412954592587 -0.0068622789305034749 0 -0.001071667507557958 -0.0071338767933749464 0 -0.00081545017094581545 -0.0071369030449351311 0 -0.0008878966898636895 -0.007484118791632046 0 -0.00062800699713421598 -0.0069742141646856569 0 -0.00078855412954592587 -0.0068622789305034749 0 -0.00081545017094581545 -0.0071369030449351311 0 -0.00078855412954592587 -0.0068622789305034749 0 -0.001071667507557958 -0.0071338767933749464 0 -0.00081545017094581545 -0.0071369030449351311 0 -0.0016052977991651235 -0.0071711348149307826 0 -0.0017048891105420987 -0.0071731711860864543 0 -0.0015483864952837759 -0.0073507646516820513 0 -0.0016517114265917378 -0.0063830291833354615 0 -0.001584191394419396 -0.0064332864047699067 0 -0.0014780529286585035 -0.0066922887507479224 0 -0.0016517114265917378 -0.0063830291833354615 0 -0.0013922609182047305 -0.0066163408179291238 0 -0.0015392064733205778 -0.0066040448844978689 0 -0.0016408213222062565 -0.0063740364913435392 0 -0.0015062276861482888 -0.006888949929606418 0 -0.0015062276861482888 -0.006888949929606418 0 -0.00099057037005203033 -0.0077477355178215135 0 -0.0015181488161578125 -0.0064772647017526906 0 -0.001584191394419396 -0.0064332864047699067 0 -0.0014780529286585035 -0.0066922887507479224 0 -0.0014434046355355993 -0.0065041154199480256 0 -0.0015181488161578125 -0.0064772647017526906 0 -0.0014780529286585035 -0.0066922887507479224 0 -0.0015062276861482888 -0.006888949929606418 0 -0.0011258272615947698 -0.0068141245087157227 0 -0.001071667507557958 -0.0071338767933749464 0 -0.0015148996111597954 -0.006847066045643454 0 -0.0011740777652065502 -0.0068471416094165538 0 -0.0012670704613215236 -0.0065254239668773306 0 -0.0014434046355355993 -0.0065041154199480256 0 -0.0014780529286585035 -0.0066922887507479224 0 -0.0012670704613215236 -0.0065254239668773306 0 -0.0014780529286585035 -0.0066922887507479224 0 -0.0011062261185492814 -0.0067891528925711573 0 -0.0012670704613215236 -0.0065254239668773306 0 -0.00095159545845025547 -0.0066135242587862146 0 -0.0011062261185492814 -0.0067891528925711573 0 -0.001197362151543026 -0.0072582516515550428 0 -0.0015062276861482888 -0.006888949929606418 0 -0.0013208877693661168 -0.0073258106458121211 0 -0.0016052977991651235 -0.0071711348149307826 0 -0.0015483864952837759 -0.0073507646516820513 0 -0.0011072928539063108 -0.0093726759267751519 0 -0.0010492497081455155 -0.0094510622856427313 0 -0.001078672761747968 -0.0094626002695967562 0 -0.00083564303388857105 -0.0086376054451189933 0 -0.00082205452313438684 -0.0086642822872430737 0 -0.00082309092276846945 -0.0086688878770340618 0 -0.00084689744929561828 -0.0086379712705901262 0 -0.00083564303388857105 -0.0086376054451189933 0 -0.00082309092276846945 -0.0086688878770340618 0 -0.00099057037005203033 -0.0077477355178215135 0 -0.0012193147852040261 -0.0080168775630338508 0 -0.00057834610898031 -0.0087254669350022018 0 -0.00096508185854532306 -0.0090512251817509957 0 -0.0010356324475804045 -0.0093528406725195967 0 -0.0010492497081455155 -0.0094510622856427313 0 -0.00095635983154319069 -0.0090890113585117057 0 -0.0010356324475804045 -0.0093528406725195967 0 -0.0010492497081455155 -0.0094510622856427313 0 -0.001078672761747968 -0.0094626002695967562 0 -0.0010492497081455155 -0.0094510622856427313 0 -0.00087169254591816113 -0.0088706042820964875 0 -0.00095635983154319069 -0.0090890113585117057 0 -0.00082309092276846945 -0.0086688878770340618 0 -0.00083576537029086246 -0.0086525442220649409 0 -0.00081542592913177298 -0.008584760855039085 0 -0.0013208877693661168 -0.0073258106458121211 0 -0.0015483864952837759 -0.0073507646516820513 0 -0.0013823547819886515 -0.0075821660065218651 0 -0.00082205452313438684 -0.0086642822872430737 0 -0.00083576537029086246 -0.0086525442220649409 0 -0.00087793462217439222 -0.0086512293714746946 0 -0.00096508185854532306 -0.0090512251817509957 0 -0.00081945362657344107 -0.0086643234576516889 0 -0.00082205452313438684 -0.0086642822872430737 0 -0.00082309092276846945 -0.0086688878770340618 0 -0.00083576537029086246 -0.0086525442220649409 0 -0.0012193147852040261 -0.0080168775630338508 0 -0.001111400182939336 -0.0081052862711074227 0 -0.00083576537029086246 -0.0086525442220649409 0 -0.00081542592913177298 -0.008584760855039085 0 -0.00087793462217439222 -0.0086512293714746946 0 -0.0010492497081455155 -0.0094510622856427313 0 -0.00081542592913177298 -0.008584760855039085 0 -0.00087169254591816113 -0.0088706042820964875 0 -0.00081542592913177298 -0.008584760855039085 0 -0.00087169254591816113 -0.0088706042820964875 0 -0.00069796104144344761 -0.0086097974064060171 0 -0.00087169254591816113 -0.0088706042820964875 0 -0.00095635983154319069 -0.0090890113585117057 0 -0.0010026076460227581 -0.0090891057758829951 0 -0.00087169254591816113 -0.0088706042820964875 0 -0.0010026076460227581 -0.0090891057758829951 0 -0.00069796104144344761 -0.0086097974064060171 0 -0.00095635983154319069 -0.0090890113585117057 0 -0.0010026076460227581 -0.0090891057758829951 0 -0.0010876826345228665 -0.0093111420134818299 0 -0.0010356324475804045 -0.0093528406725195967 0 -0.00095635983154319069 -0.0090890113585117057 0 -0.0010876826345228665 -0.0093111420134818299 0 -0.001197362151543026 -0.0072582516515550428 0 -0.00088414714395853428 -0.0074696879709239715 0 -0.0013208877693661168 -0.0073258106458121211 0 -0.0011292676700479292 -0.0076241303853727136 0 -0.0008878966898636895 -0.007484118791632046 0 -0.0013208877693661168 -0.0073258106458121211 0 -0.0011292676700479292 -0.0076241303853727136 0 -0.0013823547819886515 -0.0075821660065218651 0 -0.001111400182939336 -0.0081052862711074227 0 -0.0011006938423563243 -0.0080222439313198217 0 -0.00081542592913177298 -0.008584760855039085 0 -0.0011004959095495951 -0.0079800365336606099 0 -0.00087905274176361989 -0.0081448841794527181 0 -0.00081542592913177298 -0.008584760855039085 0 -0.00087793462217439222 -0.0086512293714746946 0 -0.0011004959095495951 -0.0079800365336606099 0 -0.0011292676700479292 -0.0076241303853727136 0 -0.0013823547819886515 -0.0075821660065218651 0 -0.0011004959095495951 -0.0079800365336606099 0 -0.0011292676700479292 -0.0076241303853727136 0 -0.0011004959095495951 -0.0079800365336606099 0 -0.00095796830846308094 -0.0077459346075346054 0 -0.0011292676700479292 -0.0076241303853727136 0 -0.0008878966898636895 -0.007484118791632046 0 -0.00095796830846308094 -0.0077459346075346054 0 -0.0011004959095495951 -0.0079800365336606099 0 -0.0011002529579708016 -0.0076395532704318933 0 -0.00095796830846308094 -0.0077459346075346054 0 -0.0011004959095495951 -0.0079800365336606099 0 -0.0011002529579708016 -0.0076395532704318933 0 -0.00094009325650780352 -0.007613736616897235 0 -0.0011004959095495951 -0.0079800365336606099 0 -0.00087905274176361989 -0.0081448841794527181 0 -0.00094009325650780352 -0.007613736616897235 0 -0.00087905274176361989 -0.0081448841794527181 0 -0.00094009325650780352 -0.007613736616897235 0 -0.00065000499502172488 -0.007824236555594331 0 -0.00094009325650780352 -0.007613736616897235 0 -0.00056664445220276952 -0.0072556763230098541 0 -0.00085441859796697706 -0.0070289839560976706 0 -0.00094009325650780352 -0.007613736616897235 0 -0.0010916026885244645 -0.0071356382557510858 0 -0.00085441859796697706 -0.0070289839560976706 0 -0.0011002529579708016 -0.0076395532704318933 0 -0.0010916026885244645 -0.0071356382557510858 0 -0.0012365184780120009 -0.0071911093434573322 0 -0.0011002529579708016 -0.0076395532704318933 0 -0.00094009325650780352 -0.007613736616897235 0 -0.0010916026885244645 -0.0071356382557510858 0 -0.0010026076460227581 -0.0090891057758829951 0 -0.00069796104144344761 -0.0086097974064060171 0 -0.0011372120130550649 -0.0095618822074375661 0 -0.00070562336940252208 -0.0086412566774241237 0 -0.0005444173435825185 -0.0085456306854890581 0 -0.00069796104144344761 -0.0086097974064060171 0 -0.00065000499502172488 -0.007824236555594331 0 9.5324509846676702e-05 -0.0075424700592915889 0 -0.00081542592913177298 -0.008584760855039085 0 -0.00087905274176361989 -0.0081448841794527181 0 -0.00069796104144344761 -0.0086097974064060171 0 -0.00087905274176361989 -0.0081448841794527181 0 -0.00069796104144344761 -0.0086097974064060171 0 -0.00065000499502172488 -0.007824236555594331 0 -0.00065000499502172488 -0.007824236555594331 0 -0.00056664445220276952 -0.0072556763230098541 0 9.5324509846676702e-05 -0.0075424700592915889 0 -0.00094009325650780352 -0.007613736616897235 0 -0.00065000499502172488 -0.007824236555594331 0 -0.00056664445220276952 -0.0072556763230098541 0 -0.00056664445220276952 -0.0072556763230098541 0 9.5324509846676702e-05 -0.0075424700592915889 0 -0.00030171626977594913 -0.0068382904786405295 0 -0.00030171626977594913 -0.0068382904786405295 0 -0.00020590510585534656 -0.0062816572201964908 0 0.00015010469302575438 -0.0065427881044356415 0 -0.00030171626977594913 -0.0068382904786405295 0 -0.00085968989934279161 -0.0065940457976484687 0 -0.00055846495237591603 -0.0063951989110264656 0 -0.00030171626977594913 -0.0068382904786405295 0 -0.00020590510585534656 -0.0062816572201964908 0 -0.00055846495237591603 -0.0063951989110264656 0 -0.00056664445220276952 -0.0072556763230098541 0 -0.00030171626977594913 -0.0068382904786405295 0 -0.00085441859796697706 -0.0070289839560976706 0 -0.00030171626977594913 -0.0068382904786405295 0 -0.00085441859796697706 -0.0070289839560976706 0 -0.00085968989934279161 -0.0065940457976484687 0 -0.00085441859796697706 -0.0070289839560976706 0 -0.0011269788135832512 -0.0066046292995268555 0 -0.00085968989934279161 -0.0065940457976484687 0 -0.0010916026885244645 -0.0071356382557510858 0 -0.0012643662854620837 -0.0067395815114294402 0 -0.0012365184780120009 -0.0071911093434573322 0 -0.0010916026885244645 -0.0071356382557510858 0 -0.00085441859796697706 -0.0070289839560976706 0 -0.0011269788135832512 -0.0066046292995268555 0 -0.0010916026885244645 -0.0071356382557510858 0 -0.0011269788135832512 -0.0066046292995268555 0 -0.0012643662854620837 -0.0067395815114294402 0 -0.0011269788135832512 -0.0066046292995268555 0 -0.0012918704475836586 -0.0064862311892672306 0 -0.0012643662854620837 -0.0067395815114294402 0 -0.0011269788135832512 -0.0066046292995268555 0 -0.0010491436154936122 -0.0063487725592059454 0 -0.0013173547636720516 -0.0062622720145409354 0 -0.0011269788135832512 -0.0066046292995268555 0 -0.0013173547636720516 -0.0062622720145409354 0 -0.0012918704475836586 -0.0064862311892672306 0 -0.0011269788135832512 -0.0066046292995268555 0 -0.00085968989934279161 -0.0065940457976484687 0 -0.0010491436154936122 -0.0063487725592059454 0 -0.00085968989934279161 -0.0065940457976484687 0 -0.00083571094335744406 -0.0062192371221349617 0 -0.00055846495237591603 -0.0063951989110264656 0 -0.00085968989934279161 -0.0065940457976484687 0 -0.00083571094335744406 -0.0062192371221349617 0 -0.0010491436154936122 -0.0063487725592059454 0 -0.00083571094335744406 -0.0062192371221349617 0 -0.0010491436154936122 -0.0063487725592059454 0 -0.0010601017637210206 -0.0060223551476476095 0 -0.0010491436154936122 -0.0063487725592059454 0 -0.0010601017637210206 -0.0060223551476476095 0 -0.0013173547636720516 -0.0062622720145409354 0 -0.0011726457968453429 -0.005856263645053459 0 -0.00094094677590235984 -0.0052585248089257897 0 -0.0010062512739161091 -0.0054423770825497162 0 -0.00076518365416289563 -0.0048075661083625707 0 -0.00078835378123749006 -0.004797900686385778 0 -0.0011584733574989165 -0.0049470883657916154 0 -0.0010062512739161091 -0.0054423770825497162 0 -0.00078835378123749006 -0.004797900686385778 0 -0.0010601017637210206 -0.0060223551476476095 0 -0.0013173547636720516 -0.0062622720145409354 0 -0.0011349392962370101 -0.0056959916074147774 0 -0.0010601017637210206 -0.0060223551476476095 0 -0.00098786657661411865 -0.0058251523461647602 0 -0.0011349392962370101 -0.0056959916074147774 0 -0.0011584733574989165 -0.0049470883657916154 0 -0.00078835378123749006 -0.004797900686385778 0 -0.00096650954124449697 -0.0047402292135552727 0 -0.00083571094335744406 -0.0062192371221349617 0 -0.0010601017637210206 -0.0060223551476476095 0 -0.00081557981965088859 -0.0058563491857681494 0 -0.00083571094335744406 -0.0062192371221349617 0 -0.00081557981965088859 -0.0058563491857681494 0 -0.00055135666518476103 -0.0060528786739202133 0 -0.0010601017637210206 -0.0060223551476476095 0 -0.00098786657661411865 -0.0058251523461647602 0 -0.00081557981965088859 -0.0058563491857681494 0 -0.00094498561011582567 -0.0057219944598336696 0 -0.00098786657661411865 -0.0058251523461647602 0 -0.0011349392962370101 -0.0056959916074147774 0 -0.00094498561011582567 -0.0057219944598336696 0 -0.00098786657661411865 -0.0058251523461647602 0 -0.00081557981965088859 -0.0058563491857681494 0 -0.00094498561011582567 -0.0057219944598336696 0 -0.00081557981965088859 -0.0058563491857681494 0 -0.0008161955710775426 -0.0054864786997988226 0 -0.00055135666518476103 -0.0060528786739202133 0 -0.00012780134893919829 -0.0057928492273022934 0 -0.00050402966233779206 -0.0056142548228295553 0 -0.00081557981965088859 -0.0058563491857681494 0 -0.00055135666518476103 -0.0060528786739202133 0 -0.00050402966233779206 -0.0056142548228295553 0 -0.00055135666518476103 -0.0060528786739202133 0 -0.00012780134893919829 -0.0057928492273022934 0 -0.00020590510585534656 -0.0062816572201964908 0 -0.00012780134893919829 -0.0057928492273022934 0 -0.00020590510585534656 -0.0062816572201964908 0 0.00026798437049948843 -0.006112726821020772 0 -0.00055135666518476103 -0.0060528786739202133 0 -0.00020590510585534656 -0.0062816572201964908 0 -0.00055846495237591603 -0.0063951989110264656 0 -0.00083571094335744406 -0.0062192371221349617 0 -0.00055135666518476103 -0.0060528786739202133 0 -0.00055846495237591603 -0.0063951989110264656 0 -0.0019894876901074133 -0.0054889157754450905 0 -0.0025255447648589988 -0.0048744370997430954 0 -0.0022397016752996367 -0.0050039283041342277 0 -0.0023000221813780086 -0.0055589384464866127 0 -0.0024911031731280281 -0.0052985318170453493 0 -0.0019845976974557579 -0.0054497409673028496 0 -0.0022397016752996367 -0.0050039283041342277 0 -0.0023000221813780086 -0.0055589384464866127 0 -0.0026644030679960013 -0.0050407368365535648 0 -0.0019644916452764803 -0.0048901322504877861 0 -0.0022298621774319988 -0.0044200251301810978 0 -0.0020511019354613317 -0.005472098902351322 0 -0.0026644030679960013 -0.0050407368365535648 0 -0.0019644916452764803 -0.0048901322504877861 0 -0.0019644916452764803 -0.0048901322504877861 0 -0.0015824443854194168 -0.0049105227722773355 0 -0.001541721730386461 -0.004566834290632653 0 -0.0019644916452764803 -0.0048901322504877861 0 -0.0015824443854194168 -0.0049105227722773355 0 -0.001535572262847973 -0.005292424896884214 0 -0.0015824443854194168 -0.0049105227722773355 0 -0.0011584733574989165 -0.0049470883657916154 0 -0.0012969133377408236 -0.0046617222354197263 0 -0.0015824443854194168 -0.0049105227722773355 0 -0.0011584733574989165 -0.0049470883657916154 0 -0.001535572262847973 -0.005292424896884214 0 -0.0010062512739161091 -0.0054423770825497162 0 -0.001535572262847973 -0.005292424896884214 0 -0.0014030345657047708 -0.0059685202837588556 0 -0.0011584733574989165 -0.0049470883657916154 0 -0.0010062512739161091 -0.0054423770825497162 0 -0.001535572262847973 -0.005292424896884214 0 -0.0020511019354613317 -0.005472098902351322 0 -0.001535572262847973 -0.005292424896884214 0 -0.0014030345657047708 -0.0059685202837588556 0 -0.0019894876901074133 -0.0054889157754450905 0 -0.0014440765813701739 -0.0059154546687079932 0 -0.0020511019354613317 -0.005472098902351322 0 -0.0019644916452764803 -0.0048901322504877861 0 -0.001535572262847973 -0.005292424896884214 0 -0.0019845976974557579 -0.0054497409673028496 0 -0.0017884871166631562 -0.0059745362001212693 0 -0.0014030345657047708 -0.0059685202837588556 0 -0.0017884871166631562 -0.0059745362001212693 0 -0.0014030345657047708 -0.0059685202837588556 0 -0.0014468557082698307 -0.0064209284395089659 0 -0.0010062512739161091 -0.0054423770825497162 0 -0.0014030345657047708 -0.0059685202837588556 0 -0.0014468557082698307 -0.0064209284395089659 0 -0.0013173547636720516 -0.0062622720145409354 0 -0.0012918704475836586 -0.0064862311892672306 0 -0.0014468557082698307 -0.0064209284395089659 0 -0.0011726457968453429 -0.005856263645053459 0 -0.0014369774012104454 -0.0063980139460348287 0 -0.0012643662854620837 -0.0067395815114294402 0 -0.0014976771161277619 -0.0067847478738800255 0 -0.0012365184780120009 -0.0071911093434573322 0 -0.0012918704475836586 -0.0064862311892672306 0 -0.0012643662854620837 -0.0067395815114294402 0 -0.0014468557082698307 -0.0064209284395089659 0 -0.0012643662854620837 -0.0067395815114294402 0 -0.0014468557082698307 -0.0064209284395089659 0 -0.0014976771161277619 -0.0067847478738800255 0 -0.0017884871166631562 -0.0059745362001212693 0 -0.0014468557082698307 -0.0064209284395089659 0 -0.0018766657381547303 -0.0062763065301284487 0 -0.0014468557082698307 -0.0064209284395089659 0 -0.0018766657381547303 -0.0062763065301284487 0 -0.0014976771161277619 -0.0067847478738800255 0 -0.0018766657381547303 -0.0062763065301284487 0 -0.0014976771161277619 -0.0067847478738800255 0 -0.0019227279040788213 -0.0066189870526733785 0 -0.0018766657381547303 -0.0062763065301284487 0 -0.0019227279040788213 -0.0066189870526733785 0 -0.0025539171846579362 -0.0059890612193309167 0 -0.0018766657381547303 -0.0062763065301284487 0 -0.0022025874749480286 -0.0058361388062251095 0 -0.0025539171846579362 -0.0059890612193309167 0 -0.0019845976974557579 -0.0054497409673028496 0 -0.0022025874749480286 -0.0058361388062251095 0 -0.0023000221813780086 -0.0055589384464866127 0 -0.0017884871166631562 -0.0059745362001212693 0 -0.0018766657381547303 -0.0062763065301284487 0 -0.0022025874749480286 -0.0058361388062251095 0 -0.0019845976974557579 -0.0054497409673028496 0 -0.0017884871166631562 -0.0059745362001212693 0 -0.0022025874749480286 -0.0058361388062251095 0 -0.0022025874749480286 -0.0058361388062251095 0 -0.0023000221813780086 -0.0055589384464866127 0 -0.0023777987988663528 -0.0058242184536999612 0 -0.0023000221813780086 -0.0055589384464866127 0 -0.0023777987988663528 -0.0058242184536999612 0 -0.002358491918734129 -0.0057716955327656869 0 -0.0023777987988663528 -0.0058242184536999612 0 -0.0025539171846579362 -0.0059890612193309167 0 -0.0021823288913897709 -0.0055816478635637365 0 -0.0022025874749480286 -0.0058361388062251095 0 -0.0023777987988663528 -0.0058242184536999612 0 -0.0025539171846579362 -0.0059890612193309167 0 -0.0025539171846579362 -0.0059890612193309167 0 -0.0023883783926277229 -0.0049654085514254749 0 -0.0021823288913897709 -0.0055816478635637365 0 -0.0025509974199355067 -0.0058799198914683028 0 -0.0031730583234529119 -0.0059917696437041517 0 -0.0025539171846579362 -0.0059890612193309167 0 -0.0023883783926277229 -0.0049654085514254749 0 -0.0033651111315078646 -0.0041485769064296286 0 -0.0023883783926277229 -0.0049654085514254749 0 -0.0025435118287736921 -0.0042205887173123241 0 -0.0021058574812973544 -0.004270578765953251 0 -0.0023883783926277229 -0.0049654085514254749 0 -0.0033651111315078646 -0.0041485769064296286 0 -0.0025435118287736921 -0.0042205887173123241 0 -0.0025539171846579362 -0.0059890612193309167 0 -0.0021024244461706524 -0.0070130095106311543 0 -0.0024676890970461223 -0.0074299882581907086 0 -0.0019227279040788213 -0.0066189870526733785 0 -0.0025539171846579362 -0.0059890612193309167 0 -0.0021024244461706524 -0.0070130095106311543 0 -0.0019227279040788213 -0.0066189870526733785 0 -0.0021024244461706524 -0.0070130095106311543 0 -0.0017150414604212736 -0.0070089917382630366 0 -0.0021024244461706524 -0.0070130095106311543 0 -0.0017150414604212736 -0.0070089917382630366 0 -0.0018628718438672379 -0.0074074229747095833 0 -0.0021024244461706524 -0.0070130095106311543 0 -0.0024676890970461223 -0.0074299882581907086 0 -0.0021500964072222015 -0.0074832813681806575 0 -0.0021500964072222015 -0.0074832813681806575 0 -0.0019408171433895757 -0.0076947361049680132 0 -0.0018628718438672379 -0.0074074229747095833 0 -0.0021024244461706524 -0.0070130095106311543 0 -0.0021500964072222015 -0.0074832813681806575 0 -0.0018628718438672379 -0.0074074229747095833 0 -0.0021500964072222015 -0.0074832813681806575 0 -0.0021833868175212918 -0.007763291988705406 0 -0.0019408171433895757 -0.0076947361049680132 0 -0.0021833868175212918 -0.007763291988705406 0 -0.0019408171433895757 -0.0076947361049680132 0 -0.0020050900646027517 -0.0078615282094554179 0 -0.0024676890970461223 -0.0074299882581907086 0 -0.0021500964072222015 -0.0074832813681806575 0 -0.0021833868175212918 -0.007763291988705406 0 -0.0033651111315078646 -0.0041485769064296286 0 -0.0031331268197112724 -0.00313894521558452 0 -0.0026486206910688748 -0.0035370356232073963 0 -0.0027006675306884133 -0.0026272900953832386 0 -0.0025084823421189788 -0.000238540202680511 0 -0.0031331268197112724 -0.00313894521558452 0 -0.002158708835854417 -0.0034394250201640851 0 -0.0026486206910688748 -0.0035370356232073963 0 -0.0031331268197112724 -0.00313894521558452 0 -0.0015847500190280459 -0.0032315206946733513 0 -0.0022944523626773493 -0.0023727564676993751 0 -0.002158708835854417 -0.0034394250201640851 0 -0.002347169859723836 -0.0036526891993951941 0 -0.0021846309224999483 -0.0037013130630004537 0 -0.0025084823421189788 -0.000238540202680511 0 -0.0024007787802261802 -0.0015419701229388773 0 -0.002347169859723836 -0.0036526891993951941 0 -0.0021846309224999483 -0.0037013130630004537 0 -0.0023824792221497386 -0.0039093627952115524 0 -0.002158708835854417 -0.0034394250201640851 0 -0.002347169859723836 -0.0036526891993951941 0 -0.0026486206910688748 -0.0035370356232073963 0 -0.002347169859723836 -0.0036526891993951941 0 -0.0026486206910688748 -0.0035370356232073963 0 -0.0023824792221497386 -0.0039093627952115524 0 -0.0026486206910688748 -0.0035370356232073963 0 -0.0023824792221497386 -0.0039093627952115524 0 -0.0025435118287736921 -0.0042205887173123241 0 -0.0021846309224999483 -0.0037013130630004537 0 -0.0023824792221497386 -0.0039093627952115524 0 -0.0021058574812973544 -0.004270578765953251 0 -0.0023824792221497386 -0.0039093627952115524 0 -0.0025435118287736921 -0.0042205887173123241 0 -0.0021058574812973544 -0.004270578765953251 0 -0.0033651111315078646 -0.0041485769064296286 0 -0.0026486206910688748 -0.0035370356232073963 0 -0.0025435118287736921 -0.0042205887173123241 0 -0.0012365184780120009 -0.0071911093434573322 0 -0.0014002014405638972 -0.0071900546614191057 0 -0.001114119880623437 -0.007676442740511027 0 -0.0014976771161277619 -0.0067847478738800255 0 -0.0012365184780120009 -0.0071911093434573322 0 -0.0014002014405638972 -0.0071900546614191057 0 -0.0014002014405638972 -0.0071900546614191057 0 -0.0017150414604212736 -0.0070089917382630366 0 -0.0015480179476159467 -0.0073820976044439227 0 -0.0014976771161277619 -0.0067847478738800255 0 -0.0014002014405638972 -0.0071900546614191057 0 -0.0017150414604212736 -0.0070089917382630366 0 -0.0014976771161277619 -0.0067847478738800255 0 -0.0019227279040788213 -0.0066189870526733785 0 -0.0017150414604212736 -0.0070089917382630366 0 -0.0017150414604212736 -0.0070089917382630366 0 -0.0018628718438672379 -0.0074074229747095833 0 -0.0015480179476159467 -0.0073820976044439227 0 -0.00162553499252199 -0.007661511410019901 0 -0.001114119880623437 -0.007676442740511027 0 -0.0018294079125649883 -0.0080591535227966023 0 -0.0018628718438672379 -0.0074074229747095833 0 -0.00162553499252199 -0.007661511410019901 0 -0.0015480179476159467 -0.0073820976044439227 0 -0.0019408171433895757 -0.0076947361049680132 0 -0.00162553499252199 -0.007661511410019901 0 -0.0018476977638420052 -0.0079699685272402558 0 -0.0019408171433895757 -0.0076947361049680132 0 -0.0018628718438672379 -0.0074074229747095833 0 -0.00162553499252199 -0.007661511410019901 0 -0.00162553499252199 -0.007661511410019901 0 -0.0015480179476159467 -0.0073820976044439227 0 -0.001114119880623437 -0.007676442740511027 0 -0.0014002014405638972 -0.0071900546614191057 0 -0.0015480179476159467 -0.0073820976044439227 0 -0.001114119880623437 -0.007676442740511027 0 -0.0011002529579708016 -0.0076395532704318933 0 -0.0012365184780120009 -0.0071911093434573322 0 -0.001114119880623437 -0.007676442740511027 0 -0.0011002529579708016 -0.0076395532704318933 0 -0.001114119880623437 -0.007676442740511027 0 -0.00095796830846308094 -0.0077459346075346054 0 -0.0008878966898636895 -0.007484118791632046 0 -0.00095796830846308094 -0.0077459346075346054 0 -0.00073684551841290123 -0.0075140670701487602 0 -0.001114119880623437 -0.007676442740511027 0 -0.00095796830846308094 -0.0077459346075346054 0 -0.00083265923778866823 -0.007652924048229928 0 -0.00095796830846308094 -0.0077459346075346054 0 -0.00083265923778866823 -0.007652924048229928 0 -0.00073684551841290123 -0.0075140670701487602 0 -0.001114119880623437 -0.007676442740511027 0 -0.00083265923778866823 -0.007652924048229928 0 -0.00058211928593799342 -0.0076793723634923398 0 -0.0013420020102012473 -0.008001671768179331 0 -0.00082788718664573134 -0.0066639769464983565 0 -0.00083265923778866823 -0.007652924048229928 0 -0.00065299259631714358 -0.0075314029954220846 0 -0.00073684551841290123 -0.0075140670701487602 0 -0.00083265923778866823 -0.007652924048229928 0 -0.00058211928593799342 -0.0076793723634923398 0 -0.00065299259631714358 -0.0075314029954220846 0 -0.00162553499252199 -0.007661511410019901 0 -0.0018476977638420052 -0.0079699685272402558 0 -0.0018294079125649883 -0.0080591535227966023 0 -0.0008530513143123876 -0.0069161658882383372 0 -0.00082788718664573134 -0.0066639769464983565 0 0.00076570882362666571 -0.0019426276892722328 0 0.00096873778321013954 -0.0032588628305281124 0 0.0011704935177997335 -0.0026460775707271476 0 -0.00044416876006732223 -0.0072693999522066627 0 -0.00058211928593799342 -0.0076793723634923398 0 -0.00065299259631714358 -0.0075314029954220846 0 0.00025839693180203862 -0.0043703237671875016 0 -0.00082788718664573134 -0.0066639769464983565 0 0.00076570882362666571 -0.0019426276892722328 0 0.0011704935177997335 -0.0026460775707271476 0 0.0012742312242278652 -0.0023391826565598026 0 -0.00044416876006732223 -0.0072693999522066627 0 -0.00065299259631714358 -0.0075314029954220846 0 -0.00073684551841290123 -0.0075140670701487602 0 -0.00044416876006732223 -0.0072693999522066627 0 -0.00073684551841290123 -0.0075140670701487602 0 -0.0007068566103952354 -0.007279467535797164 0 -0.00081545017094581545 -0.0071369030449351311 0 -0.0008878966898636895 -0.007484118791632046 0 -0.0007068566103952354 -0.007279467535797164 0 -0.0008878966898636895 -0.007484118791632046 0 -0.00073684551841290123 -0.0075140670701487602 0 -0.0007068566103952354 -0.007279467535797164 0 -0.0017011722197298835 -0.0013914873226011579 0 -0.0022944523626773493 -0.0023727564676993751 0 -0.0038989469405830406 -0.0010505110540206344 0 -0.0031331268197112724 -0.00313894521558452 0 -0.0022944523626773493 -0.0023727564676993751 0 -0.0038989469405830406 -0.0010505110540206344 0 -0.0025084823421189788 -0.000238540202680511 0 -0.0012083870999433817 0.0041444080233291056 0 -0.0015847500190280459 -0.0032315206946733513 0 -0.0017011722197298835 -0.0013914873226011579 0 -0.0022944523626773493 -0.0023727564676993751 0 -0.0031730583234529119 -0.0059917696437041517 0 -0.00079076683045844023 -0.0035042635702051167 0 -0.0033651111315078646 -0.0041485769064296286 0 -0.0031331268197112724 -0.00313894521558452 0 -0.0038989469405830406 -0.0010505110540206344 0 -0.0024676890970461223 -0.0074299882581907086 0 -0.0021833868175212918 -0.007763291988705406 0 -0.0022272775176503368 -0.008309557089109942 0 -0.0021833868175212918 -0.007763291988705406 0 -0.0020511967136347523 -0.0080104388187995073 0 -0.0022272775176503368 -0.008309557089109942 0 -0.0019408171433895757 -0.0076947361049680132 0 -0.0018476977638420052 -0.0079699685272402558 0 -0.0020050900646027517 -0.0078615282094554179 0 -0.0021833868175212918 -0.007763291988705406 0 -0.0020050900646027517 -0.0078615282094554179 0 -0.0020511967136347523 -0.0080104388187995073 0 -0.0018476977638420052 -0.0079699685272402558 0 -0.0018324234626807079 -0.0080367540374244213 0 -0.0020511967136347523 -0.0080104388187995073 0 -0.0018476977638420052 -0.0079699685272402558 0 -0.0020050900646027517 -0.0078615282094554179 0 -0.0020511967136347523 -0.0080104388187995073 0 -0.00082788718664573134 -0.0066639769464983565 0 -0.00079076683045844023 -0.0035042635702051167 0 -0.0018324234626807079 -0.0080367540374244213 0 -0.0020511967136347523 -0.0080104388187995073 0 -0.0022272775176503368 -0.008309557089109942 0 0.00096873778321013954 -0.0032588628305281124 0 0.0016575825013912646 -0.0027610075708201895 0 0.0011704935177997335 -0.0026460775707271476 0 0.0014949740052186836 -0.0018412139428740371 0 0.0016575825013912646 -0.0027610075708201895 0 0.0012742312242278652 -0.0023391826565598026 0 0.0014949740052186836 -0.0018412139428740371 0 0.00076570882362666571 -0.0019426276892722328 0 0.0012742312242278652 -0.0023391826565598026 0 0.0013416138170055545 -0.0010810959255275027 0 0.0013369784891494015 -0.0011550472540322282 0 0.0014225150818448972 -0.001082894674652655 0 0.001416317777190938 -0.0012386023217464818 0 -0.00079076683045844023 -0.0035042635702051167 0 0.0016575825013912646 -0.0027610075708201895 0 0.0011704935177997335 -0.0026460775707271476 0 0.0012742312242278652 -0.0023391826565598026 0 -0.0012083870999433817 0.0041444080233291056 0 -3.9022043418923452e-05 0.0053889273036444307 0 -0.0017011722197298835 -0.0013914873226011579 0 -0.0038989469405830406 -0.0010505110540206344 0 -0.0018177176313499588 0.00051449693134849467 0 -0.00063779783053144251 0.0089588250570377254 0 -0.00069851799170327794 0.010396172185901682 0 -3.896553287898966e-06 0.0098635661398526007 0 -0.00079076683045844023 -0.0035042635702051167 0 -3.9022043418923452e-05 0.0053889273036444307 0 -0.00069851799170327794 0.010396172185901682 0 0.00080893580452969145 0.010495568875596483 0 -3.896553287898966e-06 0.0098635661398526007 0 0.00080893580452969145 0.010495568875596483 0 0.00048483501731296934 0.0094042458790148508 0 0.0016429502008594387 0.0096875578779064032 0 0.00080893580452969145 0.010495568875596483 0 0.00048483501731296934 0.0094042458790148508 0 -3.896553287898966e-06 0.0098635661398526007 0 -0.00063779783053144251 0.0089588250570377254 0 0.00048483501731296934 0.0094042458790148508 0 -3.896553287898966e-06 0.0098635661398526007 0 -0.00055239019317160918 0.0074766070204816733 0 -0.00063779783053144251 0.0089588250570377254 0 0.00042619606075269644 0.0083878482875900436 0 -0.00063779783053144251 0.0089588250570377254 0 0.00048483501731296934 0.0094042458790148508 0 0.00042619606075269644 0.0083878482875900436 0 0.00048483501731296934 0.0094042458790148508 0 0.00042619606075269644 0.0083878482875900436 0 0.0016429502008594387 0.0096875578779064032 0 0.00042619606075269644 0.0083878482875900436 0 0.0016429502008594387 0.0096875578779064032 0 0.0012559159576505745 0.0073873654471411712 0 0.0015397029938520649 0.013939468492951974 0 0.0014853759986152865 0.014026994986325186 0 0.0016296749415831517 0.014128196449378974 0 0.0015397029938520649 0.013939468492951974 0 0.0015317671648363415 0.013859565982537635 0 0.0016296749415831517 0.014128196449378974 0 0.0015978961696055465 0.012445724571313323 0 0.0019485762530015954 0.0074917144922380463 0 0.001757995329958884 0.011718834613003926 0 0.00080893580452969145 0.010495568875596483 0 0.0016429502008594387 0.0096875578779064032 0 0.0009104485724961604 0.013378565019966844 0 0.0015397029938520649 0.013939468492951974 0 0.0015317671648363415 0.013859565982537635 0 0.0014575740700456645 0.013930065899149356 0 0.0015397029938520649 0.013939468492951974 0 0.0014792482156818331 0.013962988154908989 0 0.0017923805045527883 0.014847976384063903 0 0.0012139233780317745 0.013431302124075322 0 0.0017923805045527883 0.014847976384063903 0 0.0025757426863421231 0.017708297399075895 0 0.0014575740700456645 0.013930065899149356 0 0.0014356193794860779 0.013988548496956254 0 0.0014792482156818331 0.013962988154908989 0 0.0036087152513780908 0.02074449066413666 0 0.0029002275814202835 0.019287752745171499 0 0.0013178351746500818 0.021593256165962794 0 0.0040254494323098558 0.018121133857030354 0 0.0036087152513780908 0.02074449066413666 0 0.0029002275814202835 0.019287752745171499 0 0.0014173588394679124 0.018777107824885463 0 0.0029002275814202835 0.019287752745171499 0 0.0013178351746500818 0.021593256165962794 0 0.0025757426863421231 0.017708297399075895 0 0.0021311891115198029 0.018092770073964815 0 0.0036087152513780908 0.02074449066413666 0 0.0031314380377344161 0.023370500422280723 0 0.0013178351746500818 0.021593256165962794 0 0.0014356193794860779 0.013988548496956254 0 0.0014853759986152865 0.014026994986325186 0 0.0013958237274683913 0.014152851146501728 0 0.0015397029938520649 0.013939468492951974 0 0.0014792482156818331 0.013962988154908989 0 0.0014853759986152865 0.014026994986325186 0 0.0014356193794860779 0.013988548496956254 0 0.0014792482156818331 0.013962988154908989 0 0.0014853759986152865 0.014026994986325186 0 0.0031716453099960165 0.011712085396049215 0 0.0030226065849464803 0.01245757839443754 0 0.0035335821302896449 0.012223304880824825 0 0.0031716453099960165 0.011712085396049215 0 0.0024584107889335624 0.011802951487423267 0 0.0030226065849464803 0.01245757839443754 0 0.002425849850786083 0.012905353834807207 0 0.0021311891115198029 0.018092770073964815 0 0.0014853759986152865 0.014026994986325186 0 0.0015015667315747717 0.014129747437723019 0 0.0013958237274683913 0.014152851146501728 0 0.0031314380377344161 0.023370500422280723 0 0.0013178351746500818 0.021593256165962794 0 0.00028670477430292493 0.023505366918931143 0 0.0021311891115198029 0.018092770073964815 0 0.0003354954007138312 0.024403577296835621 0 0.0011564149056503983 0.023427386246794975 0 0.00091064845809137539 0.024460827791047472 0 0.00023855536554147453 0.024328751808200207 0 0.0021311891115198029 0.018092770073964815 0 0.001544914656391108 0.018910788459735983 0 0.00091064845809137539 0.024460827791047472 0 0.00023855536554147453 0.024328751808200207 0 0.00037473400426583936 0.024930843786792927 0 0.0024584107889335624 0.011802951487423267 0 0.0023091458626382853 0.012783391148970112 0 0.0030226065849464803 0.01245757839443754 0 0.0023091458626382853 0.012783391148970112 0 0.0030226065849464803 0.01245757839443754 0 0.0027764613257013709 0.013076159516656232 0 0.0030226065849464803 0.01245757839443754 0 0.0031513456329094981 0.012855255494659443 0 0.0027764613257013709 0.013076159516656232 0 0.0030226065849464803 0.01245757839443754 0 0.0031513456329094981 0.012855255494659443 0 0.003500638139758322 0.012691064805077902 0 0.0011001985407025185 0.0032576241854451299 0 0.0019485762530015954 0.0074917144922380463 0 0.0035335821302896449 0.012223304880824825 0 0.0040958901072225091 0.012637719308261984 0 0.0038684296543090605 0.011621546843529498 0 0.0030226065849464803 0.01245757839443754 0 0.003500638139758322 0.012691064805077902 0 0.0035335821302896449 0.012223304880824825 0 0.003500638139758322 0.012691064805077902 0 0.0040958901072225091 0.012637719308261984 0 0.0037590360827838526 0.01305988889083641 0 0.003500638139758322 0.012691064805077902 0 0.0035335821302896449 0.012223304880824825 0 0.0040958901072225091 0.012637719308261984 0 -0.0014712596788330719 -0.0051017601813343801 0 -0.0016160239690168321 -0.0043158383548011683 0 -0.00093594714655612489 -0.0035265473816728996 0 -0.0014712596788330719 -0.0051017601813343801 0 -0.0019232273581284696 -0.004859509468156057 0 -0.0021823288913897709 -0.0055816478635637365 0 -0.0023883783926277229 -0.0049654085514254749 0 -0.0019232273581284696 -0.004859509468156057 0 -0.0021823288913897709 -0.0055816478635637365 0 -0.0023883783926277229 -0.0049654085514254749 0 -0.0019232273581284696 -0.004859509468156057 0 -0.0021058574812973544 -0.004270578765953251 0 -0.0019232273581284696 -0.004859509468156057 0 -0.0016160239690168321 -0.0043158383548011683 0 -0.0021058574812973544 -0.004270578765953251 0 -0.0014712596788330719 -0.0051017601813343801 0 -0.0019232273581284696 -0.004859509468156057 0 -0.0016160239690168321 -0.0043158383548011683 0 -0.0025084823421189788 -0.000238540202680511 0 0.0019485762530015954 0.0074917144922380463 0 -0.0022239443951026674 -0.0034702054974853208 0 -0.0018197060546687534 -0.0038610809531476943 0 -0.00093594714655612489 -0.0035265473816728996 0 -0.00055239019317160918 0.0074766070204816733 0 0.00042619606075269644 0.0083878482875900436 0 0.0012559159576505745 0.0073873654471411712 0 -0.0016160239690168321 -0.0043158383548011683 0 -0.0018197060546687534 -0.0038610809531476943 0 -0.00093594714655612489 -0.0035265473816728996 0 -0.0016160239690168321 -0.0043158383548011683 0 -0.0021058574812973544 -0.004270578765953251 0 -0.0018197060546687534 -0.0038610809531476943 0 -0.0021846309224999483 -0.0037013130630004537 0 -0.0021058574812973544 -0.004270578765953251 0 -0.0018197060546687534 -0.0038610809531476943 0 -0.0022239443951026674 -0.0034702054974853208 0 -0.0021846309224999483 -0.0037013130630004537 0 -0.0018197060546687534 -0.0038610809531476943 0 0.0014853759986152865 0.014026994986325186 0 0.0015015667315747717 0.014129747437723019 0 0.0016296749415831517 0.014128196449378974 0 0.002425849850786083 0.012905353834807207 0 0.0019485762530015954 0.0074917144922380463 0 0.0031716453099960165 0.011712085396049215 0 0.0035335821302896449 0.012223304880824825 0 0.0038684296543090605 0.011621546843529498 0 -0.0029630277742652964 0.022081903421046038 0 -0.0027899625841879385 0.023253781382291425 0 -0.0042602765838695138 0.022553556646532736 0 -0.0029630277742652964 0.022081903421046038 0 -0.0020384368110149885 0.020846328679255999 0 -0.0017892929988373111 0.022465427226826172 0 -0.0029630277742652964 0.022081903421046038 0 -0.0017892929988373111 0.022465427226826172 0 -0.0027899625841879385 0.023253781382291425 0 -0.0040268764905946686 0.019473783069308449 0 -0.0025209332280951482 0.020197449787269652 0 -0.003617192489722071 0.020065183252447282 0 -0.0020384368110149885 0.020846328679255999 0 -0.0038055706156181826 0.021205090050275849 0 -0.0029630277742652964 0.022081903421046038 0 -0.0020384368110149885 0.020846328679255999 0 -0.0038055706156181826 0.021205090050275849 0 -0.0025209332280951482 0.020197449787269652 0 -0.00067139056851265601 0.020962254464161504 0 -0.0018427366019618363 0.018402483034489516 0 -0.0030398917429216425 0.019565113058625409 0 -0.00085957656387125939 0.020532490135839989 0 -0.0020384368110149885 0.020846328679255999 0 -0.0017892929988373111 0.022465427226826172 0 -0.00061289872389734112 0.021398075590784268 0 -1.5822595743967868e-05 0.022348056005144393 0 -0.00061289872389734112 0.021398075590784268 0 -0.0007888565517251263 0.023198464228015688 0 -0.0017892929988373111 0.022465427226826172 0 -0.00061289872389734112 0.021398075590784268 0 -0.0007888565517251263 0.023198464228015688 0 -0.0018427366019618363 0.018402483034489516 0 -0.00085957656387125939 0.020532490135839989 0 -0.00025023011377723578 0.018979830978657606 0 -0.00085957656387125939 0.020532490135839989 0 -0.00025023011377723578 0.018979830978657606 0 0.0013178351746500818 0.021593256165962794 0 0.0014173588394679124 0.018777107824885463 0 -0.00025023011377723578 0.018979830978657606 0 0.0013178351746500818 0.021593256165962794 0 -1.5822595743967868e-05 0.022348056005144393 0 0.0013178351746500818 0.021593256165962794 0 0.00028670477430292493 0.023505366918931143 0 -1.5822595743967868e-05 0.022348056005144393 0 -0.00061289872389734112 0.021398075590784268 0 0.0013178351746500818 0.021593256165962794 0 -0.00067139056851265601 0.020962254464161504 0 0.0012018433788727816 0.021579196741920808 0 0.0011564149056503983 0.023427386246794975 0 0.00028670477430292493 0.023505366918931143 0 0.00023855536554147453 0.024328751808200207 0 0.00028670477430292493 0.023505366918931143 0 0.00023855536554147453 0.024328751808200207 0 -0.00068097822759966464 0.024205494147853696 0 0.00023855536554147453 0.024328751808200207 0 -0.00068097822759966464 0.024205494147853696 0 -0.00071080978466362614 0.024966499755996518 0 -0.00068097822759966464 0.024205494147853696 0 -0.0015156526077237866 0.025117776651590051 0 -0.00071080978466362614 0.024966499755996518 0 -0.00068097822759966464 0.024205494147853696 0 -0.0007888565517251263 0.023198464228015688 0 -0.001598460148467921 0.024013825208597097 0 0.00028670477430292493 0.023505366918931143 0 -0.00068097822759966464 0.024205494147853696 0 -0.0007888565517251263 0.023198464228015688 0 -1.5822595743967868e-05 0.022348056005144393 0 0.00028670477430292493 0.023505366918931143 0 -0.0007888565517251263 0.023198464228015688 0 -0.0017892929988373111 0.022465427226826172 0 -0.001598460148467921 0.024013825208597097 0 -0.0027899625841879385 0.023253781382291425 0 -0.0017892929988373111 0.022465427226826172 0 -0.0007888565517251263 0.023198464228015688 0 -0.001598460148467921 0.024013825208597097 0 -0.001598460148467921 0.024013825208597097 0 -0.0024540043078611754 0.024786172294665253 0 -0.0015156526077237866 0.025117776651590051 0 -0.00068097822759966464 0.024205494147853696 0 -0.001598460148467921 0.024013825208597097 0 -0.0015156526077237866 0.025117776651590051 0 -0.0024540043078611754 0.024786172294665253 0 -0.0027899625841879385 0.023253781382291425 0 -0.0043504445897265464 0.02404393200189826 0 -0.001598460148467921 0.024013825208597097 0 -0.0024540043078611754 0.024786172294665253 0 -0.0027899625841879385 0.023253781382291425 0 -0.0022955812631597679 0.025620305589501909 0 -0.0016988567715077586 0.025929551166439354 0 -0.0026214763126220547 0.026198512160909199 0 -0.0024540043078611754 0.024786172294665253 0 -0.0022955812631597679 0.025620305589501909 0 -0.0015156526077237866 0.025117776651590051 0 -0.0024540043078611754 0.024786172294665253 0 -0.0022955812631597679 0.025620305589501909 0 -0.0028168914263156076 0.025745017072910135 0 -0.0022955812631597679 0.025620305589501909 0 -0.0015156526077237866 0.025117776651590051 0 -0.0016988567715077586 0.025929551166439354 0 -0.0015156526077237866 0.025117776651590051 0 -0.0016988567715077586 0.025929551166439354 0 -0.0010677559833135049 0.025593086086694219 0 -0.0016988567715077586 0.025929551166439354 0 -0.0010677559833135049 0.025593086086694219 0 -0.0012312082474370898 0.026173306630913291 0 -0.0010677559833135049 0.025593086086694219 0 -0.00049128480926616703 0.025766702515384543 0 -0.0012312082474370898 0.026173306630913291 0 -0.0010677559833135049 0.025593086086694219 0 -0.00050590554550048112 0.025362731014336164 0 -0.00049128480926616703 0.025766702515384543 0 -0.0015156526077237866 0.025117776651590051 0 -0.0010677559833135049 0.025593086086694219 0 -0.00071080978466362614 0.024966499755996518 0 -0.0010677559833135049 0.025593086086694219 0 -0.00071080978466362614 0.024966499755996518 0 -0.00050590554550048112 0.025362731014336164 0 -0.00050590554550048112 0.025362731014336164 0 -8.6603343418364286e-05 0.024993005171288486 0 -4.9310870640291938e-05 0.025325454852915659 0 0.00023855536554147453 0.024328751808200207 0 -0.00071080978466362614 0.024966499755996518 0 -8.6603343418364286e-05 0.024993005171288486 0 -0.00071080978466362614 0.024966499755996518 0 -0.00050590554550048112 0.025362731014336164 0 -8.6603343418364286e-05 0.024993005171288486 0 0.00023855536554147453 0.024328751808200207 0 -8.6603343418364286e-05 0.024993005171288486 0 0.00037473400426583936 0.024930843786792927 0 -8.6603343418364286e-05 0.024993005171288486 0 -4.9310870640291938e-05 0.025325454852915659 0 0.00037473400426583936 0.024930843786792927 0 -4.9310870640291938e-05 0.025325454852915659 0 -0.00049128480926616703 0.025766702515384543 0 0.00052843156694507595 0.025521644463355302 0 0.00037916344814304314 0.021138579899246029 0 0.0014382505632755573 0.017679631715381856 0 -0.00049128480926616703 0.025766702515384543 0 -0.00069816552199078495 0.0263857318408359 0 0.00052843156694507595 0.025521644463355302 0 -0.00050590554550048112 0.025362731014336164 0 -4.9310870640291938e-05 0.025325454852915659 0 -0.00049128480926616703 0.025766702515384543 0 -0.00049128480926616703 0.025766702515384543 0 -0.00069816552199078495 0.0263857318408359 0 -0.0012312082474370898 0.026173306630913291 0 0.0016260410090812227 0.015093022225517363 0 0.0021201013715163026 0.014757528195016714 0 0.0020209479347379905 0.015326587153451286 0 0.0016260410090812227 0.015093022225517363 0 0.0017088722829632396 0.015904407808999446 0 0.0020209479347379905 0.015326587153451286 0 0.0016260410090812227 0.015093022225517363 0 0.0017088722829632396 0.015904407808999446 0 0.00091807469841717864 0.01615956873098311 0 0.0017088722829632396 0.015904407808999446 0 0.0020209479347379905 0.015326587153451286 0 0.0021340354754664451 0.015856051418973421 0 -0.00069816552199078495 0.0263857318408359 0 -0.0014108409613952852 0.02646151746563746 0 -0.0018059386594624833 0.026577549532916585 0 -0.0014108409613952852 0.02646151746563746 0 -0.0019971312755106855 0.026450057023921524 0 -0.0018059386594624833 0.026577549532916585 0 0.00037916344814304314 0.021138579899246029 0 -0.00039928279312653135 0.02126073289783845 0 -0.0014108409613952852 0.02646151746563746 0 -0.0012312082474370898 0.026173306630913291 0 -0.0018044743014697113 0.026448937319356713 0 -0.00069816552199078495 0.0263857318408359 0 -0.0014108409613952852 0.02646151746563746 0 -0.0012312082474370898 0.026173306630913291 0 -0.0016988567715077586 0.025929551166439354 0 -0.0012312082474370898 0.026173306630913291 0 -0.0018044743014697113 0.026448937319356713 0 -0.0014108409613952852 0.02646151746563746 0 -0.002082521856908623 0.026201604715327509 0 -0.0019971312755106855 0.026450057023921524 0 -0.0014554026392973401 0.026465772960939257 0 -0.0019403096064521236 0.026324808647619019 0 -0.002082521856908623 0.026201604715327509 0 -0.0019971312755106855 0.026450057023921524 0 -0.0021606562710677389 0.026353205481649253 0 -0.0019971312755106855 0.026450057023921524 0 -0.0021606562710677389 0.026353205481649253 0 -0.0021576725790265487 0.026416532436066606 0 -0.0021606562710677389 0.026353205481649253 0 -0.0021460414150903102 0.026394613384598087 0 -0.0021895016804661183 0.026376874558795921 0 -0.002082521856908623 0.026201604715327509 0 -0.0021606562710677389 0.026353205481649253 0 -0.0022922764779719309 0.02620843437012927 0 -0.0019403096064521236 0.026324808647619019 0 -0.0024519482048743504 0.026202677543679567 0 -0.0016988567715077586 0.025929551166439354 0 -0.0018044743014697113 0.026448937319356713 0 -0.0026214763126220547 0.026198512160909199 0 0.00052852609267477148 0.0046412623016595196 0 -0.0010271537411644912 0.0020342213641329604 0 0.003632183235131902 0.014250580431128668 0 0.0042450965053420263 0.013281323604467593 0 0.0036482423660969638 0.013499913542096217 0 0.003632183235131902 0.014250580431128668 0 0.0036482423660969638 0.013499913542096217 0 0.0032738924351106338 0.013711636390709124 0 -0.0023000221813780086 -0.0055589384464866127 0 -0.002358491918734129 -0.0057716955327656869 0 -0.0024911031731280281 -0.0052985318170453493 0 -0.0029201906688423999 -0.0054494932332375574 0 -0.002358491918734129 -0.0057716955327656869 0 -0.0024911031731280281 -0.0052985318170453493 0 -0.0029201906688423999 -0.0054494932332375574 0 -0.002358491918734129 -0.0057716955327656869 0 -0.0023957418124822094 -0.0059980406618584748 0 -0.002453458814523806 -0.0057412867190737198 0 -0.0010271537411644912 0.0020342213641329604 0 -0.002358491918734129 -0.0057716955327656869 0 -0.0020408175329316631 -0.0056569983898559599 0 -0.0021823288913897709 -0.0055816478635637365 0 -0.0023777987988663528 -0.0058242184536999612 0 -0.002358491918734129 -0.0057716955327656869 0 -0.0021823288913897709 -0.0055816478635637365 0 0.0011001985407025185 0.0032576241854451299 0 -0.0010271537411644912 0.0020342213641329604 0 0.0040958901072225091 0.012637719308261984 0 0.0042450965053420263 0.013281323604467593 0 0.0037590360827838526 0.01305988889083641 0 -0.0014712596788330719 -0.0051017601813343801 0 -0.0020408175329316631 -0.0056569983898559599 0 -0.0021823288913897709 -0.0055816478635637365 0 0.0042450965053420263 0.013281323604467593 0 0.0037590360827838526 0.01305988889083641 0 0.0036482423660969638 0.013499913542096217 0 0.0036482423660969638 0.013499913542096217 0 0.0033048515688439456 0.013198779021153554 0 0.0032738924351106338 0.013711636390709124 0 0.0037590360827838526 0.01305988889083641 0 0.0036482423660969638 0.013499913542096217 0 0.0033048515688439456 0.013198779021153554 0 0.003500638139758322 0.012691064805077902 0 0.0037590360827838526 0.01305988889083641 0 0.0033048515688439456 0.013198779021153554 0 0.0031513456329094981 0.012855255494659443 0 0.003500638139758322 0.012691064805077902 0 0.0033048515688439456 0.013198779021153554 0 0.0033048515688439456 0.013198779021153554 0 0.0027764613257013709 0.013076159516656232 0 0.002859047212643585 0.013556758861566277 0 0.0031513456329094981 0.012855255494659443 0 0.0033048515688439456 0.013198779021153554 0 0.0027764613257013709 0.013076159516656232 0 0.002859047212643585 0.013556758861566277 0 0.0023686795192418286 0.01349761082218898 0 0.002567463216545812 0.013855082502775309 0 0.0027764613257013709 0.013076159516656232 0 0.002859047212643585 0.013556758861566277 0 0.0023686795192418286 0.01349761082218898 0 0.0033048515688439456 0.013198779021153554 0 0.002859047212643585 0.013556758861566277 0 0.0032738924351106338 0.013711636390709124 0 0.00091064845809137539 0.024460827791047472 0 0.00037473400426583936 0.024930843786792927 0 0.00052843156694507595 0.025521644463355302 0 0.001544914656391108 0.018910788459735983 0 0.0014382505632755573 0.017679631715381856 0 0.0023091458626382853 0.012783391148970112 0 0.0023686795192418286 0.01349761082218898 0 0.002144271078873545 0.013839665341998209 0 0.0023091458626382853 0.012783391148970112 0 0.0027764613257013709 0.013076159516656232 0 0.0023686795192418286 0.01349761082218898 0 0.0028852685473076977 0.014235833986263687 0 0.0014382505632755573 0.017679631715381856 0 -4.9310870640291938e-05 0.025325454852915659 0 0.00037473400426583936 0.024930843786792927 0 0.00052843156694507595 0.025521644463355302 0 0.0014382505632755573 0.017679631715381856 0 0.0023083702563672305 0.013408466785168442 0 0.0021660129678055264 0.013824484997253117 0 0.00251530998004633 0.014361260277559941 0 0.0021201013715163026 0.014757528195016714 0 0.0023686795192418286 0.01349761082218898 0 0.0021660129678055264 0.013824484997253117 0 0.002567463216545812 0.013855082502775309 0 0.0021660129678055264 0.013824484997253117 0 0.002567463216545812 0.013855082502775309 0 0.00251530998004633 0.014361260277559941 0 0.003632183235131902 0.014250580431128668 0 0.0029178469541546637 0.014052592352036061 0 0.0029160244625828641 0.014586400025517254 0 0.003632183235131902 0.014250580431128668 0 0.0032738924351106338 0.013711636390709124 0 0.0029178469541546637 0.014052592352036061 0 0.002859047212643585 0.013556758861566277 0 0.0032738924351106338 0.013711636390709124 0 0.0029178469541546637 0.014052592352036061 0 0.002859047212643585 0.013556758861566277 0 0.002567463216545812 0.013855082502775309 0 0.0029178469541546637 0.014052592352036061 0 0.00251530998004633 0.014361260277559941 0 0.0029178469541546637 0.014052592352036061 0 0.0029160244625828641 0.014586400025517254 0 0.002567463216545812 0.013855082502775309 0 0.00251530998004633 0.014361260277559941 0 0.0029178469541546637 0.014052592352036061 0 0.003632183235131902 0.014250580431128668 0 0.0029160244625828641 0.014586400025517254 0 0.0030106111939594126 0.015208822665800828 0 0.00052852609267477148 0.0046412623016595196 0 -0.0002437240555932875 0.0047515999942120942 0 0.0029160244625828641 0.014586400025517254 0 0.002443830827311456 0.01518550120275983 0 0.0030106111939594126 0.015208822665800828 0 0.0016260410090812227 0.015093022225517363 0 0.0022079083826793949 0.014146041283844434 0 0.0021201013715163026 0.014757528195016714 0 0.00251530998004633 0.014361260277559941 0 0.0021201013715163026 0.014757528195016714 0 0.002443830827311456 0.01518550120275983 0 0.00251530998004633 0.014361260277559941 0 0.0029160244625828641 0.014586400025517254 0 0.002443830827311456 0.01518550120275983 0 0.0021201013715163026 0.014757528195016714 0 0.002443830827311456 0.01518550120275983 0 0.0020209479347379905 0.015326587153451286 0 0.002443830827311456 0.01518550120275983 0 0.0030106111939594126 0.015208822665800828 0 0.0024331816903984528 0.016071361855467606 0 0.002443830827311456 0.01518550120275983 0 0.0021340354754664451 0.015856051418973421 0 0.0024331816903984528 0.016071361855467606 0 0.002443830827311456 0.01518550120275983 0 0.0020209479347379905 0.015326587153451286 0 0.0021340354754664451 0.015856051418973421 0 -0.0034039087085168391 -0.0048179239960937058 0 -0.003347757294223817 -0.0043260372082578949 0 -0.0038651649252282099 -0.0040832956211807039 0 -0.0002437240555932875 0.0047515999942120942 0 0.00094211373063422094 0.0091464816382170536 0 -0.0034039087085168391 -0.0048179239960937058 0 -0.003347757294223817 -0.0043260372082578949 0 -0.0029268672924845653 -0.0049209377712053515 0 -0.003347757294223817 -0.0043260372082578949 0 -0.0029268672924845653 -0.0049209377712053515 0 -0.0027114210152811755 -0.0043797139052242562 0 -0.0029268672924845653 -0.0049209377712053515 0 -0.0024911031731280281 -0.0052985318170453493 0 -0.0027114210152811755 -0.0043797139052242562 0 -0.0029201906688423999 -0.0054494932332375574 0 -0.0034039087085168391 -0.0048179239960937058 0 -0.0029268672924845653 -0.0049209377712053515 0 -0.0029201906688423999 -0.0054494932332375574 0 -0.0029268672924845653 -0.0049209377712053515 0 -0.0024911031731280281 -0.0052985318170453493 0 -0.0025255447648589988 -0.0048744370997430954 0 -0.0029299982174581926 -0.0054343692804327869 0 -0.0022397016752996367 -0.0050039283041342277 0 -0.0024911031731280281 -0.0052985318170453493 0 -0.0027114210152811755 -0.0043797139052242562 0 -0.0026644030679960013 -0.0050407368365535648 0 -0.0032722332380067782 -0.0046048301245145253 0 -0.0027387061558154101 -0.0042791202870453831 0 -0.0031553919737349096 -0.0041817908866635858 0 -0.0032722332380067782 -0.0046048301245145253 0 -0.0027387061558154101 -0.0042791202870453831 0 -0.0031553919737349096 -0.0041817908866635858 0 -0.0029696522302717749 -0.0037973236030260453 0 -0.0027387061558154101 -0.0042791202870453831 0 -0.0031553919737349096 -0.0041817908866635858 0 -0.0029696522302717749 -0.0037973236030260453 0 -0.0033671911146126773 -0.0037975131914586863 0 -0.0031553919737349096 -0.0041817908866635858 0 -0.0033671911146126773 -0.0037975131914586863 0 -0.0038629382418902815 -0.0041592311637625385 0 -0.0032886901260248532 -0.00056033378954719313 0 -0.0022311899836245657 0.0032501976515594971 0 -0.003347757294223817 -0.0043260372082578949 0 -0.0027114210152811755 -0.0043797139052242562 0 -0.0034007660468252546 -0.0037414908373989346 0 -0.0031553919737349096 -0.0041817908866635858 0 -0.0032722332380067782 -0.0046048301245145253 0 -0.0038629382418902815 -0.0041592311637625385 0 -0.0029299982174581926 -0.0054343692804327869 0 -0.0022311899836245657 0.0032501976515594971 0 -0.003347757294223817 -0.0043260372082578949 0 -0.0034007660468252546 -0.0037414908373989346 0 -0.0038651649252282099 -0.0040832956211807039 0 -0.0022311899836245657 0.0032501976515594971 0 0.00094211373063422094 0.0091464816382170536 0 0.002646973393678087 0.016518327434877047 0 0.0022788035293836084 0.016248051363037294 0 0.0021014726252062727 0.016593297067369124 0 0.0021340354754664451 0.015856051418973421 0 0.0024571034232729323 0.016159839026913394 0 0.0019473336089917358 0.016303891639827209 0 0.0037202735018335245 0.014756077170271465 0 0.00094211373063422094 0.0091464816382170536 0 0.0024571034232729323 0.016159839026913394 0 0.0021014726252062727 0.016593297067369124 0 0.0019473336089917358 0.016303891639827209 0 0.00094211373063422094 0.0091464816382170536 0 0.00042757825984182922 0.01627662546675614 0 -0.0022311899836245657 0.0032501976515594971 0 7.4597968696977373e-05 0.011037093520000292 0 -0.002151148755816398 0.004088499486412581 0 -0.0017956822369724855 0.0039207524086456768 0 -0.0019337618595299793 0.0037436880507248265 0 0.002646973393678087 0.016518327434877047 0 0.0021014726252062727 0.016593297067369124 0 0.0021244525003092131 0.016975190003480547 0 0.0021014726252062727 0.016593297067369124 0 0.0021244525003092131 0.016975190003480547 0 0.0018450185027849082 0.016734013160967988 0 -0.0025037574062510537 0.0037555266622756049 0 -0.002151148755816398 0.004088499486412581 0 -0.0021724671836944021 0.0036480592336928025 0 -0.002151148755816398 0.004088499486412581 0 -0.0021724671836944021 0.0036480592336928025 0 -0.0019337618595299793 0.0037436880507248265 0 -0.0021724671836944021 0.0036480592336928025 0 -0.0022156140350262942 0.0033913574471645396 0 -0.002490794494720542 0.0034794515166243008 0 -0.0021724671836944021 0.0036480592336928025 0 -0.0018668172007030341 0.0034097004031852967 0 -0.0022156140350262942 0.0033913574471645396 0 -0.0021724671836944021 0.0036480592336928025 0 -0.0019337618595299793 0.0037436880507248265 0 -0.0018668172007030341 0.0034097004031852967 0 -0.0019337618595299793 0.0037436880507248265 0 -0.0018668172007030341 0.0034097004031852967 0 -0.0016867758820088481 0.0036560092804994748 0 -0.0017956822369724855 0.0039207524086456768 0 -0.0019337618595299793 0.0037436880507248265 0 -0.0016867758820088481 0.0036560092804994748 0 -0.0018668172007030341 0.0034097004031852967 0 -0.0016867758820088481 0.0036560092804994748 0 -0.0015613902781200575 0.0034373424095968052 0 -0.0018668172007030341 0.0034097004031852967 0 -0.0022156140350262942 0.0033913574471645396 0 -0.0021521401712701 0.0031962257758426107 0 -0.0018668172007030341 0.0034097004031852967 0 -0.0021521401712701 0.0031962257758426107 0 -0.0020422805299932958 0.0029052971396104376 0 -0.0021521401712701 0.0031962257758426107 0 -0.0023911813439051652 0.0032271872562417135 0 -0.0023180685660896243 0.0029920406811988565 0 -0.0022156140350262942 0.0033913574471645396 0 -0.0021521401712701 0.0031962257758426107 0 -0.0023911813439051652 0.0032271872562417135 0 -0.0022156140350262942 0.0033913574471645396 0 -0.0023911813439051652 0.0032271872562417135 0 -0.002490794494720542 0.0034794515166243008 0 -0.0026014114653434436 0.0032358214261545954 0 -0.0026496342453308148 0.0033712195871810702 0 -0.002490794494720542 0.0034794515166243008 0 -0.0023911813439051652 0.0032271872562417135 0 -0.0026014114653434436 0.0032358214261545954 0 -0.002490794494720542 0.0034794515166243008 0 -0.0023911813439051652 0.0032271872562417135 0 -0.0026014114653434436 0.0032358214261545954 0 -0.0025232255368223592 0.0030537778153758564 0 -0.0027636261843192247 0.003017891180975789 0 -0.0027526246190357532 0.0033125017858980543 0 -0.0026014114653434436 0.0032358214261545954 0 -0.0027636261843192247 0.003017891180975789 0 -0.0026014114653434436 0.0032358214261545954 0 -0.0025232255368223592 0.0030537778153758564 0 -0.0027636261843192247 0.003017891180975789 0 -0.0029012441652428926 0.0032400961170679695 0 -0.003020655516796839 0.0029290838571397865 0 -0.0027636261843192247 0.003017891180975789 0 -0.0029012441652428926 0.0032400961170679695 0 -0.0027526246190357532 0.0033125017858980543 0 -0.0029012441652428926 0.0032400961170679695 0 -0.0027526246190357532 0.0033125017858980543 0 -0.0028405386338730175 0.0034479483972706848 0 -0.0027526246190357532 0.0033125017858980543 0 -0.0026014114653434436 0.0032358214261545954 0 -0.0026496342453308148 0.0033712195871810702 0 -0.0027526246190357532 0.0033125017858980543 0 -0.0026496342453308148 0.0033712195871810702 0 -0.0027504430964941959 0.0034570775016083124 0 -0.0029696522302717749 -0.0037973236030260453 0 -0.0033671911146126773 -0.0037975131914586863 0 -0.0028651543700677581 -0.0034021099200894161 0 -0.0032886901260248532 -0.00056033378954719313 0 -0.0026579897447488897 0.00038201314753173884 0 -0.0025037574062510537 0.0037555266622756049 0 -0.0028375859333587246 0.0034274134207374898 0 -0.0027504430964941959 0.0034570775016083124 0 -0.0026496342453308148 0.0033712195871810702 0 -0.0027504430964941959 0.0034570775016083124 0 -0.002490794494720542 0.0034794515166243008 0 -0.0026579897447488897 0.00038201314753173884 0 -0.0024912504900661699 0.0010181330540527543 0 -0.0027526246190357532 0.0033125017858980543 0 -0.0028405386338730175 0.0034479483972706848 0 -0.0027504430964941959 0.0034570775016083124 0 -0.0029696522302717749 -0.0037973236030260453 0 -0.0028651543700677581 -0.0034021099200894161 0 -0.0027685088119210515 -0.0036366921285360923 0 -0.0025037574062510537 0.0037555266622756049 0 -0.0027504430964941959 0.0034570775016083124 0 -0.002490794494720542 0.0034794515166243008 0 -0.0025037574062510537 0.0037555266622756049 0 -0.0021724671836944021 0.0036480592336928025 0 -0.002490794494720542 0.0034794515166243008 0 -0.0022570724825763475 0.025763512795049719 0 -0.0022131689283199085 0.02613548323776568 0 -0.0019506638361219259 0.025913371650262199 0 -0.0022570724825763475 0.025763512795049719 0 -0.0022683045962370767 0.025204248747531272 0 -0.0019506638361219259 0.025913371650262199 0 -0.0022570724825763475 0.025763512795049719 0 -0.0022131689283199085 0.02613548323776568 0 -0.0026623801646426426 0.025935891597056757 0 -0.0022131689283199085 0.02613548323776568 0 -0.002180648539633157 0.026321944373487505 0 -0.0023428179024878879 0.026240827916326398 0 -0.0022131689283199085 0.02613548323776568 0 -0.0020598623786895732 0.026275454164843913 0 -0.0019506638361219259 0.025913371650262199 0 -0.0022131689283199085 0.02613548323776568 0 -0.0020598623786895732 0.026275454164843913 0 -0.002180648539633157 0.026321944373487505 0 -0.0020598623786895732 0.026275454164843913 0 -0.002107724126381846 0.026381375500088306 0 -0.002180648539633157 0.026321944373487505 0 -0.0020598623786895732 0.026275454164843913 0 -0.002107724126381846 0.026381375500088306 0 -0.0020354770564357701 0.026378437019454574 0 -0.002107724126381846 0.026381375500088306 0 -0.0021460414150903102 0.026394613384598087 0 -0.0021576725790265487 0.026416532436066606 0 -0.0021606562710677389 0.026353205481649253 0 -0.0021460414150903102 0.026394613384598087 0 -0.0021576725790265487 0.026416532436066606 0 -0.002107724126381846 0.026381375500088306 0 -0.0021576725790265487 0.026416532436066606 0 -0.002180648539633157 0.026321944373487505 0 -0.0021576725790265487 0.026416532436066606 0 -0.002180648539633157 0.026321944373487505 0 -0.0023428179024878879 0.026240827916326398 0 -0.0021576725790265487 0.026416532436066606 0 -0.0020988616482803071 0.026428962130940561 0 -0.0023428179024878879 0.026240827916326398 0 -0.0020988616482803071 0.026428962130940561 0 -0.0023428179024878879 0.026240827916326398 0 -0.0018059386594624833 0.026577549532916585 0 -0.0019971312755106855 0.026450057023921524 0 -0.0021576725790265487 0.026416532436066606 0 -0.0020988616482803071 0.026428962130940561 0 -0.0019971312755106855 0.026450057023921524 0 -0.0020988616482803071 0.026428962130940561 0 -0.0018059386594624833 0.026577549532916585 0 -0.0023428179024878879 0.026240827916326398 0 -0.0026623801646426426 0.025935891597056757 0 -0.0018059386594624833 0.026577549532916585 0 -0.0018052119505725 0.022851746662295926 0 -0.00039928279312653135 0.02126073289783845 0 -0.0022131689283199085 0.02613548323776568 0 -0.0023428179024878879 0.026240827916326398 0 -0.0026623801646426426 0.025935891597056757 0 -0.0010874334124832824 0.019843669050144185 0 0.0010847790546242189 0.019948125708900533 0 0.0013931798793235253 0.017125919515411418 0 -0.0010874334124832824 0.019843669050144185 0 0.00091807469841717864 0.01615956873098311 0 0.0013931798793235253 0.017125919515411418 0 0.0010189591002736948 0.019327088106640085 0 0.0014973325804448791 0.017062677550053397 0 0.0014445454793046569 0.017124262905169618 0 0.0014957877019403665 0.017065534334375503 0 0.0013931798793235253 0.017125919515411418 0 0.0014445454793046569 0.017124262905169618 0 0.0014957877019403665 0.017065534334375503 0 0.0015837693774871286 0.017215765712799685 0 0.0014957877019403665 0.017065534334375503 0 0.0013931798793235253 0.017125919515411418 0 0.001619030549675713 0.016768026016843154 0 0.0017088722829632396 0.015904407808999446 0 0.00091807469841717864 0.01615956873098311 0 0.0014616571910490322 0.016427448378174756 0 0.0014616571910490322 0.016427448378174756 0 0.0013931798793235253 0.017125919515411418 0 0.001619030549675713 0.016768026016843154 0 0.00091807469841717864 0.01615956873098311 0 0.0014616571910490322 0.016427448378174756 0 0.0013931798793235253 0.017125919515411418 0 0.001619030549675713 0.016768026016843154 0 0.0016723531885277925 0.01626654477973535 0 0.0019473336089917358 0.016303891639827209 0 0.0014616571910490322 0.016427448378174756 0 0.001619030549675713 0.016768026016843154 0 0.0016723531885277925 0.01626654477973535 0 0.0017088722829632396 0.015904407808999446 0 0.0014616571910490322 0.016427448378174756 0 0.0016723531885277925 0.01626654477973535 0 0.0017088722829632396 0.015904407808999446 0 0.0016723531885277925 0.01626654477973535 0 0.0019473336089917358 0.016303891639827209 0 0.0017088722829632396 0.015904407808999446 0 0.0021340354754664451 0.015856051418973421 0 0.0019473336089917358 0.016303891639827209 0 0.0021014726252062727 0.016593297067369124 0 0.0019473336089917358 0.016303891639827209 0 0.0018450185027849082 0.016734013160967988 0 0.001619030549675713 0.016768026016843154 0 0.0019473336089917358 0.016303891639827209 0 0.0018450185027849082 0.016734013160967988 0 0.0021244525003092131 0.016975190003480547 0 0.0018450185027849082 0.016734013160967988 0 0.0017135065052647815 0.016971436454130805 0 0.0021244525003092131 0.016975190003480547 0 0.0017135065052647815 0.016971436454130805 0 0.0015837693774871286 0.017215765712799685 0 7.4597968696977373e-05 0.011037093520000292 0 0.00036642276184480738 0.0100043293653676 0 0.001619030549675713 0.016768026016843154 0 0.0018450185027849082 0.016734013160967988 0 0.0017135065052647815 0.016971436454130805 0 0.0014957877019403665 0.017065534334375503 0 0.001619030549675713 0.016768026016843154 0 0.0017135065052647815 0.016971436454130805 0 0.0014957877019403665 0.017065534334375503 0 0.0017135065052647815 0.016971436454130805 0 0.0015837693774871286 0.017215765712799685 0 -0.0017956822369724855 0.0039207524086456768 0 -0.0014406027338973563 0.0037584999371646174 0 -0.0016867758820088481 0.0036560092804994748 0 -0.0014406027338973563 0.0037584999371646174 0 -0.0014309879477585677 0.0035899808380625156 0 -0.0016867758820088481 0.0036560092804994748 0 -0.0014309879477585677 0.0035899808380625156 0 -0.0016867758820088481 0.0036560092804994748 0 -0.0015613902781200575 0.0034373424095968052 0 -0.0018668172007030341 0.0034097004031852967 0 -0.0015613902781200575 0.0034373424095968052 0 -0.0015259012360381444 0.0030882412722023464 0 -0.0015613902781200575 0.0034373424095968052 0 -0.001348649700354134 0.0034138956636907002 0 -0.0015259012360381444 0.0030882412722023464 0 -0.0014309879477585677 0.0035899808380625156 0 -0.0015613902781200575 0.0034373424095968052 0 -0.001348649700354134 0.0034138956636907002 0 -0.0014309879477585677 0.0035899808380625156 0 -0.001348649700354134 0.0034138956636907002 0 -0.0012430017719673205 0.0036229825106309991 0 -0.001348649700354134 0.0034138956636907002 0 -0.0011504403724725862 0.0034170391977775692 0 -0.00098904096211188024 0.0032544087476049262 0 -0.0011504403724725862 0.0034170391977775692 0 -0.0012430017719673205 0.0036229825106309991 0 -0.0010257263421361341 0.0033955397325909423 0 -0.00045539651057206282 0.0034284299672064297 0 -0.00067252330272013711 0.0072895030642405861 0 -0.001348649700354134 0.0034138956636907002 0 -0.0011504403724725862 0.0034170391977775692 0 -0.0012430017719673205 0.0036229825106309991 0 -0.0012430017719673205 0.0036229825106309991 0 -0.0011586522192341461 0.0036521243859966002 0 -0.0011390594228355324 0.0036294499347519068 0 -0.0014406027338973563 0.0037584999371646174 0 -0.0012430017719673205 0.0036229825106309991 0 -0.0011586522192341461 0.0036521243859966002 0 0.0010189591002736948 0.019327088106640085 0 0.00021953679548026615 0.01481876334024472 0 0.00036642276184480738 0.0100043293653676 0 0.00021953679548026615 0.01481876334024472 0 0.0014445454793046569 0.017124262905169618 0 0.0015837693774871286 0.017215765712799685 0 0.0013899670128325449 0.017260652303831486 0 -0.0014406027338973563 0.0037584999371646174 0 -0.0014309879477585677 0.0035899808380625156 0 -0.0012430017719673205 0.0036229825106309991 0 0.0010847790546242189 0.019948125708900533 0 0.00050012434168355267 0.022484692564825434 0 -0.00019486221773676719 0.021222992643916666 0 -0.0010874334124832824 0.019843669050144185 0 -0.00019486221773676719 0.021222992643916666 0 -0.0010873277961650893 0.022420107644813163 0 -0.0010874334124832824 0.019843669050144185 0 0.0010847790546242189 0.019948125708900533 0 -0.00019486221773676719 0.021222992643916666 0 0.00050012434168355267 0.022484692564825434 0 -0.00019486221773676719 0.021222992643916666 0 -0.0010873277961650893 0.022420107644813163 0 0.00025716696093847991 0.013220507441174856 0 -4.6686509228371167e-05 0.014297164073657199 0 -0.0022016983083720278 0.014709263131702864 0 0.00021953679548026615 0.01481876334024472 0 -0.00067252330272013711 0.0072895030642405861 0 0.00050012434168355267 0.022484692564825434 0 -0.0010873277961650893 0.022420107644813163 0 -0.00220460315288898 0.024233368615713083 0 -4.6686509228371167e-05 0.014297164073657199 0 -0.0022016983083720278 0.014709263131702864 0 -0.00066085655268728139 0.014974791213326984 0 0.00021953679548026615 0.01481876334024472 0 -0.002135940979608713 0.019063276707278726 0 -0.0011504403724725862 0.0034170391977775692 0 -0.0010257263421361341 0.0033955397325909423 0 -0.00098904096211188024 0.0032544087476049262 0 -0.00067252330272013711 0.0072895030642405861 0 -0.0016668017531395825 0.011012868331414403 0 -0.00018369853067530894 0.0079886989319571649 0 -0.0012975850594322347 0.0092197170890666487 0 -0.00056560223432860503 0.0093557677126059162 0 -0.00067252330272013711 0.0072895030642405861 0 -0.0011944791543050364 0.0069832286270573602 0 -0.0010873277961650893 0.022420107644813163 0 -0.00220460315288898 0.024233368615713083 0 -0.0024152544571051054 0.023833057221322486 0 -0.0021231569113727327 0.020970365061173314 0 -0.0019300112619684727 0.021018150909992529 0 -0.0019632436743625618 0.020880066586668397 0 -0.002135940979608713 0.019063276707278726 0 -0.0015606919156049433 0.02384925111998638 0 -0.00220460315288898 0.024233368615713083 0 -0.0024152544571051054 0.023833057221322486 0 -0.0020982347521629444 0.023616494674173764 0 -0.0024152544571051054 0.023833057221322486 0 -0.0022683045962370767 0.025204248747531272 0 -0.0014043586562612858 0.025410842307548909 0 -0.0026623801646426426 0.025935891597056757 0 -0.0024152544571051054 0.023833057221322486 0 -0.0022683045962370767 0.025204248747531272 0 -0.0018052119505725 0.022851746662295926 0 -0.0023561534200768185 0.023706310150844807 0 -0.0010874334124832824 0.019843669050144185 0 -0.0010873277961650893 0.022420107644813163 0 -0.0024152544571051054 0.023833057221322486 0 -0.0022570724825763475 0.025763512795049719 0 -0.0026623801646426426 0.025935891597056757 0 -0.0022683045962370767 0.025204248747531272 0 -0.0018825769397169346 0.010040390338885976 0 -0.0018676326050684035 0.010028996930681704 0 -0.0018569261694706685 0.010027420922617986 0 -0.0021214473199715794 0.013306954819650579 0 -0.0021015499977328754 0.0091420813886770435 0 -0.0021214473199715794 0.013306954819650579 0 -0.0016668017531395825 0.011012868331414403 0 -0.0019932985916037392 0.015179856601232753 0 -0.0019057785014068671 0.014691190191370962 0 -0.0022819187712524191 0.015101891743519393 0 -0.0019932985916037392 0.015179856601232753 0 -0.0019057785014068671 0.014691190191370962 0 -0.0018131234274853332 0.015080868734093094 0 -0.0021214473199715794 0.013306954819650579 0 -0.0017497335789026386 0.02014532739337091 0 -0.002135940979608713 0.019063276707278726 0 -0.0017497335789026386 0.02014532739337091 0 -0.002135940979608713 0.019063276707278726 0 -0.0016668017531395825 0.011012868331414403 0 -0.0011944791543050364 0.0069832286270573602 0 -0.0013135732205643168 0.0062874276979442362 0 -0.0018577087229056741 0.0099712076622352295 0 -0.0018457607524420782 0.0099679911672318957 0 -0.0018676326050684035 0.010028996930681704 0 -0.0016668017531395825 0.011012868331414403 0 -0.0011944791543050364 0.0069832286270573602 0 -0.0018825769397169346 0.010040390338885976 0 -0.0018577087229056741 0.0099712076622352295 0 -0.0018676326050684035 0.010028996930681704 0 -0.00086660532552801036 0.0031907827278787409 0 -0.0007329841208217853 0.0026802213716895823 0 -0.0011350479024355804 0.0027432938174055629 0 -0.0011350479024355804 0.0027432938174055629 0 -0.0015375565440413673 0.0025336018864267869 0 -0.0010635121770177472 0.0022822864034829759 0 -0.0007329841208217853 0.0026802213716895823 0 -0.0011350479024355804 0.0027432938174055629 0 -0.0010635121770177472 0.0022822864034829759 0 -0.0011944791543050364 0.0069832286270573602 0 -0.0015150054561942476 0.0025726924516237077 0 -0.00086660532552801036 0.0031907827278787409 0 -0.0011350479024355804 0.0027432938174055629 0 -0.001462573472498263 0.0030329340646405413 0 -0.001348649700354134 0.0034138956636907002 0 -0.00098904096211188024 0.0032544087476049262 0 -0.0015259012360381444 0.0030882412722023464 0 -0.001462573472498263 0.0030329340646405413 0 -0.0015375565440413673 0.0025336018864267869 0 -0.0018805549019537411 0.0026477824048022434 0 -0.0011350479024355804 0.0027432938174055629 0 -0.001462573472498263 0.0030329340646405413 0 -0.0015375565440413673 0.0025336018864267869 0 -0.0015375565440413673 0.0025336018864267869 0 -0.0014653400494429323 0.002099914713791751 0 -0.0017431327431244332 0.0023192753859651136 0 -0.0015375565440413673 0.0025336018864267869 0 -0.0014653400494429323 0.002099914713791751 0 -0.0010635121770177472 0.0022822864034829759 0 -0.0014653400494429323 0.002099914713791751 0 -0.0017431327431244332 0.0023192753859651136 0 -0.0017415588203261829 0.0019181593015765626 0 -0.0014653400494429323 0.002099914713791751 0 -0.001219924131101781 0.0018719517877938412 0 -0.0015357313851688743 0.0016936811372906832 0 -0.0014653400494429323 0.002099914713791751 0 -0.0017415588203261829 0.0019181593015765626 0 -0.0015357313851688743 0.0016936811372906832 0 -0.0014653400494429323 0.002099914713791751 0 -0.001219924131101781 0.0018719517877938412 0 -0.0010635121770177472 0.0022822864034829759 0 -0.001219924131101781 0.0018719517877938412 0 -0.0010635121770177472 0.0022822864034829759 0 -0.00087908246413190803 0.0018158759405030489 0 -0.0007329841208217853 0.0026802213716895823 0 -0.0010635121770177472 0.0022822864034829759 0 -0.0006168082627726044 0.0021802324484053153 0 -0.0013135732205643168 0.0062874276979442362 0 -0.0012091960288035447 0.0060092397010003433 0 -0.0010635121770177472 0.0022822864034829759 0 -0.00087908246413190803 0.0018158759405030489 0 -0.0006168082627726044 0.0021802324484053153 0 -0.00087908246413190803 0.0018158759405030489 0 -0.0006168082627726044 0.0021802324484053153 0 -0.00049608455722173451 0.0016898571768983314 0 -0.0012091960288035447 0.0060092397010003433 0 -0.001821164391538422 0.0056954845677799921 0 -0.0017668010610970321 0.0098083623510878248 0 -0.0015904673874659631 0.0096680812746013003 0 -0.0018544425395670648 0.0094141943080888277 0 -0.0017668010610970321 0.0098083623510878248 0 -0.0019329051952051435 0.0099294050159191467 0 -0.0018544425395670648 0.0094141943080888277 0 -0.0017668010610970321 0.0098083623510878248 0 -0.0018569261694706685 0.010027420922617986 0 -0.0016128270083821054 0.0099274980088450149 0 -0.0017650397938840804 0.010452751474975021 0 -0.0018569261694706685 0.010027420922617986 0 -0.0016128270083821054 0.0099274980088450149 0 -0.0018676326050684035 0.010028996930681704 0 -0.0019329051952051435 0.0099294050159191467 0 -0.0018569261694706685 0.010027420922617986 0 -0.0017668010610970321 0.0098083623510878248 0 -0.0019329051952051435 0.0099294050159191467 0 -0.0018569261694706685 0.010027420922617986 0 -0.0023531767110576952 0.0026369795568727664 0 -0.0020654107125895496 0.0022714268875562594 0 -0.0021803351966352431 0.0024434476380242403 0 -0.0022564701794182064 0.0021766254301742328 0 -0.0019855138182508043 0.0021325533221277716 0 -0.0021803351966352431 0.0024434476380242403 0 -0.0022564701794182064 0.0021766254301742328 0 -0.0025324152469333029 0.0026879349158289356 0 -0.0020176672721999964 0.0016491703314982916 0 -0.0025404940742569924 0.0019518051144405192 0 -0.0024160360532396695 0.0013209775539124293 0 -0.0020176672721999964 0.0016491703314982916 0 -0.0025404940742569924 0.0019518051144405192 0 -0.0025324152469333029 0.0026879349158289356 0 -0.0021473207316317889 0.0019215200068833684 0 -0.0024896323317943792 0.0026360343211580439 0 -0.0025404940742569924 0.0019518051144405192 0 -0.0024160360532396695 0.0013209775539124293 0 -0.0028946497415988457 0.0017459491134362577 0 -0.0025404940742569924 0.0019518051144405192 0 -0.0028374296030041313 0.0023029317881420237 0 -0.0028946497415988457 0.0017459491134362577 0 -0.0025404940742569924 0.0019518051144405192 0 -0.0028374296030041313 0.0023029317881420237 0 -0.0025324152469333029 0.0026879349158289356 0 -0.0027335527181525749 0.0029993134188049404 0 -0.0023531767110576952 0.0026369795568727664 0 -0.0027636261843192247 0.003017891180975789 0 -0.0021803351966352431 0.0024434476380242403 0 -0.0025324152469333029 0.0026879349158289356 0 -0.0027636261843192247 0.003017891180975789 0 -0.0024868409780282063 0.002823904379139314 0 -0.0025232255368223592 0.0030537778153758564 0 -0.0028374296030041313 0.0023029317881420237 0 -0.0025324152469333029 0.0026879349158289356 0 -0.0028916513931311265 0.0026707847137980413 0 -0.0027636261843192247 0.003017891180975789 0 -0.0025324152469333029 0.0026879349158289356 0 -0.0028916513931311265 0.0026707847137980413 0 -0.0027636261843192247 0.003017891180975789 0 -0.0028916513931311265 0.0026707847137980413 0 -0.003020655516796839 0.0029290838571397865 0 -0.0024868409780282063 0.002823904379139314 0 -0.0023180685660896243 0.0029920406811988565 0 -0.0021892059721521119 0.0027630937130424921 0 -0.0024868409780282063 0.002823904379139314 0 -0.0025232255368223592 0.0030537778153758564 0 -0.0023180685660896243 0.0029920406811988565 0 -0.0023911813439051652 0.0032271872562417135 0 -0.0025232255368223592 0.0030537778153758564 0 -0.0023180685660896243 0.0029920406811988565 0 -0.0021521401712701 0.0031962257758426107 0 -0.0023180685660896243 0.0029920406811988565 0 -0.0020422805299932958 0.0029052971396104376 0 -0.0023180685660896243 0.0029920406811988565 0 -0.0020422805299932958 0.0029052971396104376 0 -0.0021892059721521119 0.0027630937130424921 0 -0.001462573472498263 0.0030329340646405413 0 -0.0020422805299932958 0.0029052971396104376 0 -0.0018805549019537411 0.0026477824048022434 0 -0.0018668172007030341 0.0034097004031852967 0 -0.0015259012360381444 0.0030882412722023464 0 -0.0020422805299932958 0.0029052971396104376 0 -0.0015150054561942476 0.0025726924516237077 0 -0.0019961259719578797 0.0030417161010341839 0 -0.0015375565440413673 0.0025336018864267869 0 -0.0018805549019537411 0.0026477824048022434 0 -0.0017431327431244332 0.0023192753859651136 0 -0.0024868409780282063 0.002823904379139314 0 -0.0021892059721521119 0.0027630937130424921 0 -0.0021724316847954047 0.0024186554285832622 0 -0.0020422805299932958 0.0029052971396104376 0 -0.0018805549019537411 0.0026477824048022434 0 -0.0021892059721521119 0.0027630937130424921 0 -0.0018805549019537411 0.0026477824048022434 0 -0.0021892059721521119 0.0027630937130424921 0 -0.0021724316847954047 0.0024186554285832622 0 -0.001955846863735111 0.0021632792136673166 0 -0.0020008729381991545 0.0013022638842655153 0 -0.0019433721603355314 0.0020781473690778644 0 -0.0019855138182508043 0.0021325533221277716 0 -0.0021515200305371441 0.0019071503147197609 0 -0.0018805549019537411 0.0026477824048022434 0 -0.0021724316847954047 0.0024186554285832622 0 -0.0017431327431244332 0.0023192753859651136 0 -0.0020654107125895496 0.0022714268875562594 0 -0.0017595791169080003 0.0019384849427639488 0 -0.0021724316847954047 0.0024186554285832622 0 -0.0017431327431244332 0.0023192753859651136 0 -0.0017415588203261829 0.0019181593015765626 0 -0.0019433721603355314 0.0020781473690778644 0 -0.0019855138182508043 0.0021325533221277716 0 -0.0017415588203261829 0.0019181593015765626 0 -0.0017415588203261829 0.0019181593015765626 0 -0.0019901127487811756 0.0017942486174115646 0 -0.0018222605180691362 0.0015485999102287944 0 -0.0019433721603355314 0.0020781473690778644 0 -0.0017415588203261829 0.0019181593015765626 0 -0.0019901127487811756 0.0017942486174115646 0 -0.0017415588203261829 0.0019181593015765626 0 -0.0018222605180691362 0.0015485999102287944 0 -0.0015357313851688743 0.0016936811372906832 0 -0.0019433721603355314 0.0020781473690778644 0 -0.0019901127487811756 0.0017942486174115646 0 -0.0022790896178318406 0.0018723119031890875 0 -0.0019901127487811756 0.0017942486174115646 0 -0.0022790896178318406 0.0018723119031890875 0 -0.0021734659141995506 0.0015120294768612183 0 -0.0018622026830543347 0.00079282323880799357 0 -0.0018082164275812257 0.00083382389905381981 0 -0.0018794887263642952 0.00083350492694830522 0 -0.0020008729381991545 0.0013022638842655153 0 -0.0021579075116993016 0.00039294308259826496 0 -0.0020008729381991545 0.0013022638842655153 0 -0.0020244554756178304 0.0011812820066620432 0 -0.0022564701794182064 0.0021766254301742328 0 -0.0019855138182508043 0.0021325533221277716 0 -0.0021515200305371441 0.0019071503147197609 0 -0.0021473207316317889 0.0019215200068833684 0 -0.0020008729381991545 0.0013022638842655153 0 -0.0020176672721999964 0.0016491703314982916 0 -0.0016764746683887437 0.00068279594166432956 0 -0.0024160360532396695 0.0013209775539124293 0 -0.0016764746683887437 0.00068279594166432956 0 -0.0024160360532396695 0.0013209775539124293 0 -0.0025307451731595978 0.00079220824062392039 0 -0.0024160360532396695 0.0013209775539124293 0 -0.0028729419123800304 0.0011735122571588947 0 -0.0028946497415988457 0.0017459491134362577 0 -0.0024160360532396695 0.0013209775539124293 0 -0.0025307451731595978 0.00079220824062392039 0 -0.0028729419123800304 0.0011735122571588947 0 -0.0016764746683887437 0.00068279594166432956 0 -0.0025307451731595978 0.00079220824062392039 0 -0.0025140260147456061 7.6690319366945432e-05 0 -0.0025307451731595978 0.00079220824062392039 0 -0.0030042756213332087 0.00068092271959614356 0 -0.0025140260147456061 7.6690319366945432e-05 0 -0.0030042756213332087 0.00068092271959614356 0 -0.0033324122772950228 0.00018813706983727188 0 -0.0025140260147456061 7.6690319366945432e-05 0 -0.0030952390127569258 -0.00026815027654925559 0 -0.0031114721767476171 0.00010370830432843396 0 -0.0030042756213332087 0.00068092271959614356 0 -0.0033324122772950228 0.00018813706983727188 0 -0.0034127352814235751 0.0012543564621405707 0 -0.0027599109702436363 -0.0007927536064896533 0 -0.0027906257481448756 -0.00091600375899814654 0 -0.0026107431331253415 -0.00083760566582849125 0 -0.0028993177145412298 -0.00081023858434792499 0 -0.0027906257481448756 -0.00091600375899814654 0 -0.0028219819251477669 -0.00099962815917667772 0 -0.0027599109702436363 -0.0007927536064896533 0 -0.0028993177145412298 -0.00081023858434792499 0 -0.0027906257481448756 -0.00091600375899814654 0 -0.0027906257481448756 -0.00091600375899814654 0 -0.00282186863196288 -0.0010006729650377537 0 -0.0026797851328764217 -0.0010035856002103885 0 -0.0027906257481448756 -0.00091600375899814654 0 -0.00282186863196288 -0.0010006729650377537 0 -0.0028219819251477669 -0.00099962815917667772 0 -0.0030042756213332087 0.00068092271959614356 0 -0.0028729419123800304 0.0011735122571588947 0 -0.0034127352814235751 0.0012543564621405707 0 -0.0025307451731595978 0.00079220824062392039 0 -0.0030042756213332087 0.00068092271959614356 0 -0.0028729419123800304 0.0011735122571588947 0 -0.0028729419123800304 0.0011735122571588947 0 -0.0034127352814235751 0.0012543564621405707 0 -0.0028946497415988457 0.0017459491134362577 0 -0.0034127352814235751 0.0012543564621405707 0 -0.0028946497415988457 0.0017459491134362577 0 -0.0033367373231186835 0.0023878392304193473 0 -0.0028219819251477669 -0.00099962815917667772 0 -0.0028207644519409902 -0.00090223894796913817 0 -0.0027295732584335709 -0.00083432682308043652 0 -0.0031114721767476171 0.00010370830432843396 0 -0.003051747387669734 0.00095668577952199663 0 -0.0028374296030041313 0.0023029317881420237 0 -0.0028946497415988457 0.0017459491134362577 0 -0.0033367373231186835 0.0023878392304193473 0 -0.0030197476774167886 -0.00059824139338301779 0 -0.0024845583446662699 -0.0021837211165144526 0 -0.00282186863196288 -0.0010006729650377537 0 -0.0028207644519409902 -0.00090223894796913817 0 -0.0029359389985972313 -0.00085167214128280093 0 -0.00282186863196288 -0.0010006729650377537 0 -0.0028219819251477669 -0.00099962815917667772 0 -0.0028207644519409902 -0.00090223894796913817 0 -0.00282186863196288 -0.0010006729650377537 0 -0.0027147773530440287 -0.0012147398661952363 0 -0.0026797851328764217 -0.0010035856002103885 0 -0.0028207644519409902 -0.00090223894796913817 0 -0.0028198521031477988 -0.00079746336546225301 0 -0.0029359389985972313 -0.00085167214128280093 0 -0.0028198521031477988 -0.00079746336546225301 0 -0.0029286270856004569 -0.00078634707470815347 0 -0.0026910129351420163 -0.00057419830830383932 0 -0.0028207644519409902 -0.00090223894796913817 0 -0.0028198521031477988 -0.00079746336546225301 0 -0.0027295732584335709 -0.00083432682308043652 0 -0.0028198521031477988 -0.00079746336546225301 0 -0.0029286270856004569 -0.00078634707470815347 0 -0.0029359389985972313 -0.00085167214128280093 0 -0.0028198521031477988 -0.00079746336546225301 0 -0.0027295732584335709 -0.00083432682308043652 0 -0.0026910129351420163 -0.00057419830830383932 0 -0.003020655516796839 0.0029290838571397865 0 -0.0033367373231186835 0.0023878392304193473 0 -0.0031602552627304696 0.0032629028984532738 0 -0.003051747387669734 0.00095668577952199663 0 -0.0025857884682761352 0.00045572399688915109 0 -0.0028916513931311265 0.0026707847137980413 0 -0.003020655516796839 0.0029290838571397865 0 -0.0033367373231186835 0.0023878392304193473 0 -0.0028374296030041313 0.0023029317881420237 0 -0.0028916513931311265 0.0026707847137980413 0 -0.0033367373231186835 0.0023878392304193473 0 -0.001666258087438694 -0.0039039612545592158 0 -0.0018120680115571574 -0.0040648486758493299 0 -0.0016308617540341198 -0.0041858252184687689 0 -0.001913805269424932 -0.0038728234108255811 0 -0.001666258087438694 -0.0039039612545592158 0 -0.0018120680115571574 -0.0040648486758493299 0 -0.0018886833767004321 -0.0038836270380048646 0 -0.0015776303569817502 -0.0039387815382374491 0 -0.0024845583446662699 -0.0021837211165144526 0 -0.0016120006254362173 -0.0036085075767822096 0 -0.0022290514828882824 -0.0022832310015145673 0 -0.0021857269674941202 -0.002067407073682291 0 -0.0017400421914825872 -0.002835069687002634 0 -0.001913805269424932 -0.0038728234108255811 0 -0.0018120680115571574 -0.0040648486758493299 0 -0.0021755855861117579 -0.003867502192682116 0 -0.0018120680115571574 -0.0040648486758493299 0 -0.0021755855861117579 -0.003867502192682116 0 -0.0019375625092418562 -0.0042522691943017556 0 -0.0026682127517201472 -0.0015489880019355494 0 -0.0024845583446662699 -0.0021837211165144526 0 -0.0021755855861117579 -0.003867502192682116 0 -0.0018927736160579674 -0.003651490495160485 0 -0.002114928164780659 -0.0034782124410208649 0 -0.001913805269424932 -0.0038728234108255811 0 -0.0021755855861117579 -0.003867502192682116 0 -0.0018927736160579674 -0.003651490495160485 0 -0.0024845583446662699 -0.0021837211165144526 0 -0.0024005563462383443 -0.0023019734862977999 0 -0.001913805269424932 -0.0038728234108255811 0 -0.0018927736160579674 -0.003651490495160485 0 -0.001766448537817466 -0.0037855291343933798 0 -0.001913805269424932 -0.0038728234108255811 0 -0.0016176098420880244 -0.0039480584814840956 0 -0.001766448537817466 -0.0037855291343933798 0 -0.0016176098420880244 -0.0039480584814840956 0 -0.001766448537817466 -0.0037855291343933798 0 -0.0016377293104651695 -0.0038058757192773246 0 -0.001766448537817466 -0.0037855291343933798 0 -0.0016377293104651695 -0.0038058757192773246 0 -0.0016416726592654398 -0.0037039747748631971 0 -0.0018927736160579674 -0.003651490495160485 0 -0.0016416726592654398 -0.0037039747748631971 0 -0.001687344928798597 -0.0035158500430121104 0 -0.0016416726592654398 -0.0037039747748631971 0 -0.001687344928798597 -0.0035158500430121104 0 -0.0015675445044952357 -0.0035948423278604003 0 -0.0018927736160579674 -0.003651490495160485 0 -0.001766448537817466 -0.0037855291343933798 0 -0.0016416726592654398 -0.0037039747748631971 0 -0.0018927736160579674 -0.003651490495160485 0 -0.001687344928798597 -0.0035158500430121104 0 -0.001857074196802504 -0.0033428984498573345 0 -0.001687344928798597 -0.0035158500430121104 0 -0.001857074196802504 -0.0033428984498573345 0 -0.0016197166673764707 -0.0033460959257071423 0 -0.001857074196802504 -0.0033428984498573345 0 -0.002114928164780659 -0.0034782124410208649 0 -0.0020452579469780532 -0.0030536448521171428 0 -0.0024005563462383443 -0.0023019734862977999 0 -0.0023220729206916702 -0.0019623029248214989 0 -0.0018927736160579674 -0.003651490495160485 0 -0.001857074196802504 -0.0033428984498573345 0 -0.002114928164780659 -0.0034782124410208649 0 -0.0027906257481448756 -0.00091600375899814654 0 -0.0026797851328764217 -0.0010035856002103885 0 -0.0026107431331253415 -0.00083760566582849125 0 -0.0020452579469780532 -0.0030536448521171428 0 -0.0016409354258531119 -0.0031023625199815851 0 -0.0017874268444379292 -0.0028727696405582105 0 -0.001857074196802504 -0.0033428984498573345 0 -0.0020452579469780532 -0.0030536448521171428 0 -0.0016409354258531119 -0.0031023625199815851 0 -0.001857074196802504 -0.0033428984498573345 0 -0.0016197166673764707 -0.0033460959257071423 0 -0.0016409354258531119 -0.0031023625199815851 0 -0.0016409354258531119 -0.0031023625199815851 0 -0.0013370805317478617 -0.0030436522773945149 0 -0.0014985550570403852 -0.0027189912316889632 0 -0.0016197166673764707 -0.0033460959257071423 0 -0.0016409354258531119 -0.0031023625199815851 0 -0.0013681630848263028 -0.0033259449523551339 0 -0.0016409354258531119 -0.0031023625199815851 0 -0.0013370805317478617 -0.0030436522773945149 0 -0.0013681630848263028 -0.0033259449523551339 0 -0.0011475601681813642 -0.0031940092559655025 0 -0.00088617751530790684 -0.0033110321506596824 0 -0.0010340806213155031 -0.00282281993923789 0 -0.0013370805317478617 -0.0030436522773945149 0 -0.0011475601681813642 -0.0031940092559655025 0 -0.0010340806213155031 -0.00282281993923789 0 -0.0013370805317478617 -0.0030436522773945149 0 -0.0011475601681813642 -0.0031940092559655025 0 -0.0013681630848263028 -0.0033259449523551339 0 -0.0011475601681813642 -0.0031940092559655025 0 -0.0011091671212583086 -0.0034610174359308993 0 -0.0013681630848263028 -0.0033259449523551339 0 -0.0011475601681813642 -0.0031940092559655025 0 -0.0011091671212583086 -0.0034610174359308993 0 -0.00088617751530790684 -0.0033110321506596824 0 -0.0011091671212583086 -0.0034610174359308993 0 -0.00087533553822109365 -0.0035644666619372859 0 -0.001093956319671344 -0.0037230684920424302 0 -0.0011091671212583086 -0.0034610174359308993 0 -0.001273586788214483 -0.0035859115362958079 0 -0.001093956319671344 -0.0037230684920424302 0 -0.0011091671212583086 -0.0034610174359308993 0 -0.001273586788214483 -0.0035859115362958079 0 -0.0013681630848263028 -0.0033259449523551339 0 -0.001273586788214483 -0.0035859115362958079 0 -0.0014986304362747409 -0.0034868742677976222 0 -0.0013681630848263028 -0.0033259449523551339 0 -0.001273586788214483 -0.0035859115362958079 0 -0.0014986304362747409 -0.0034868742677976222 0 -0.0014411247266859447 -0.0036730081448558037 0 -0.001687344928798597 -0.0035158500430121104 0 -0.0016197166673764707 -0.0033460959257071423 0 -0.0014986304362747409 -0.0034868742677976222 0 -0.001687344928798597 -0.0035158500430121104 0 -0.0014986304362747409 -0.0034868742677976222 0 -0.0015675445044952357 -0.0035948423278604003 0 -0.0014986304362747409 -0.0034868742677976222 0 -0.0015675445044952357 -0.0035948423278604003 0 -0.0014411247266859447 -0.0036730081448558037 0 -0.0016197166673764707 -0.0033460959257071423 0 -0.0014986304362747409 -0.0034868742677976222 0 -0.0013681630848263028 -0.0033259449523551339 0 -0.00047301936940781714 -0.0028009959659697973 0 -6.8187170357663607e-05 -0.0029838515555356509 0 -0.00035710049782382096 -0.0032112182169550469 0 -0.00055792969573859724 -0.0029288386243719608 0 -5.8654703467721023e-05 -0.003015370132154983 0 -0.00035710049782382096 -0.0032112182169550469 0 -0.00063822285183384785 -0.0031975160466652321 0 -0.00055792969573859724 -0.0029288386243719608 0 -0.00035710049782382096 -0.0032112182169550469 0 -0.00063822285183384785 -0.0031975160466652321 0 -0.0004750501220840097 -0.0035348972791990922 0 -0.00063822285183384785 -0.0031975160466652321 0 -0.00055792969573859724 -0.0029288386243719608 0 -0.0010340806213155031 -0.00282281993923789 0 -0.00063822285183384785 -0.0031975160466652321 0 -0.00088617751530790684 -0.0033110321506596824 0 -0.0010340806213155031 -0.00282281993923789 0 -0.00087533553822109365 -0.0035644666619372859 0 -0.0004750501220840097 -0.0035348972791990922 0 -0.00077699072310022258 -0.0037753936774729529 0 -0.00088617751530790684 -0.0033110321506596824 0 -0.00087533553822109365 -0.0035644666619372859 0 -0.0004750501220840097 -0.0035348972791990922 0 -0.00063822285183384785 -0.0031975160466652321 0 -0.00088617751530790684 -0.0033110321506596824 0 -0.0004750501220840097 -0.0035348972791990922 0 -0.0011091671212583086 -0.0034610174359308993 0 -0.00088617751530790684 -0.0033110321506596824 0 -0.00087533553822109365 -0.0035644666619372859 0 -0.00035710049782382096 -0.0032112182169550469 0 -0.0004750501220840097 -0.0035348972791990922 0 -8.3908894762197816e-05 -0.0034502005052564834 0 -0.0004750501220840097 -0.0035348972791990922 0 -0.00037860117025986811 -0.0039627303388260629 0 -9.2302082273093366e-05 -0.003779719696619493 0 -0.0004750501220840097 -0.0035348972791990922 0 -0.00037860117025986811 -0.0039627303388260629 0 -0.00077452023995408157 -0.0038733048996032441 0 -0.00037860117025986811 -0.0039627303388260629 0 -0.00077452023995408157 -0.0038733048996032441 0 -0.00068119012171189493 -0.0042627517428054842 0 -0.00049896099585668185 -0.0035541322761463373 0 -0.00077896673405683362 -0.0038261316862838661 0 -0.00087533553822109365 -0.0035644666619372859 0 -0.00077699072310022258 -0.0037753936774729529 0 -0.001093956319671344 -0.0037230684920424302 0 -0.00077896673405683362 -0.0038261316862838661 0 -0.00098252664897123727 -0.0041220253906219181 0 -0.00054776012038104259 -0.0042947990583699098 0 -0.00098252664897123727 -0.0041220253906219181 0 -0.00077452023995408157 -0.0038733048996032441 0 -0.00068119012171189493 -0.0042627517428054842 0 -0.0010954337025955504 -0.0042067353550842967 0 -0.00046603092467729733 -0.004324960921822444 0 -0.00072322816538516782 -0.0043150132532850001 0 -0.00063245748155415311 -0.0045749661318497314 0 -0.00054776012038104259 -0.0042947990583699098 0 -0.00027162532392985641 -0.0043159054381710239 0 -0.00037860117025986811 -0.0039627303388260629 0 -0.00068119012171189493 -0.0042627517428054842 0 -0.00022714834957227725 -0.004312853024222945 0 -0.00046603092467729733 -0.004324960921822444 0 -0.00022714834957227725 -0.004312853024222945 0 -0.00038955241148090516 -0.0045280364800217134 0 -0.0013145823071972398 -0.0038516746633311225 0 -0.0015132126527304746 -0.003811729915272107 0 -0.0013274921483113289 -0.0037291303718162082 0 -0.0016176098420880244 -0.0039480584814840956 0 -0.0013145823071972398 -0.0038516746633311225 0 -0.0015132126527304746 -0.003811729915272107 0 -0.0016176098420880244 -0.0039480584814840956 0 -0.0016377293104651695 -0.0038058757192773246 0 -0.0015132126527304746 -0.003811729915272107 0 -0.0016377293104651695 -0.0038058757192773246 0 -0.0016416726592654398 -0.0037039747748631971 0 -0.0015132126527304746 -0.003811729915272107 0 -0.0016416726592654398 -0.0037039747748631971 0 -0.0015132126527304746 -0.003811729915272107 0 -0.0014411247266859447 -0.0036730081448558037 0 -0.0016416726592654398 -0.0037039747748631971 0 -0.0015675445044952357 -0.0035948423278604003 0 -0.0014411247266859447 -0.0036730081448558037 0 -0.001273586788214483 -0.0035859115362958079 0 -0.0013274921483113289 -0.0037291303718162082 0 -0.0014411247266859447 -0.0036730081448558037 0 -0.0015132126527304746 -0.003811729915272107 0 -0.0013274921483113289 -0.0037291303718162082 0 -0.0014411247266859447 -0.0036730081448558037 0 -0.00077699072310022258 -0.0037753936774729529 0 -0.001093956319671344 -0.0037230684920424302 0 -0.0010584706853211455 -0.0040446997628712155 0 -0.001273586788214483 -0.0035859115362958079 0 -0.0013274921483113289 -0.0037291303718162082 0 -0.001093956319671344 -0.0037230684920424302 0 -0.0013145823071972398 -0.0038516746633311225 0 -0.001093956319671344 -0.0037230684920424302 0 -0.0010584706853211455 -0.0040446997628712155 0 -0.0013145823071972398 -0.0038516746633311225 0 -0.0013274921483113289 -0.0037291303718162082 0 -0.001093956319671344 -0.0037230684920424302 0 -0.00072322816538516782 -0.0043150132532850001 0 -0.00088273936876208652 -0.0045152130580413197 0 -0.00063245748155415311 -0.0045749661318497314 0 -0.0011130976819143342 -0.0040313245412638907 0 -0.0012856826176961161 -0.0041489827360767194 0 -0.0012345191160454314 -0.0041542407134742424 0 -0.00098252664897123727 -0.0041220253906219181 0 -0.0010849825399240412 -0.0043599758233671048 0 -0.0013906965792501475 -0.0039931250115018673 0 -0.0011130976819143342 -0.0040313245412638907 0 -0.0012856826176961161 -0.0041489827360767194 0 -0.0013906965792501475 -0.0039931250115018673 0 -0.0013692009762573971 -0.0041671932976789002 0 -0.0012856826176961161 -0.0041489827360767194 0 -0.0015776303569817502 -0.0039387815382374491 0 -0.0014718495956361009 -0.0041159693068223121 0 -0.0015776303569817502 -0.0039387815382374491 0 -0.00098252664897123727 -0.0041220253906219181 0 -0.0016176098420880244 -0.0039480584814840956 0 -0.0013145823071972398 -0.0038516746633311225 0 -0.0010584706853211455 -0.0040446997628712155 0 -0.0013647449285817401 -0.0041661942221500135 0 -0.0013516612793190979 -0.0042719318182644784 0 -0.0012856826176961161 -0.0041489827360767194 0 -0.0010083622591125145 -0.0047133027377259844 0 -0.00088273936876208652 -0.0045152130580413197 0 -0.00079337011621867049 -0.0046747042714904378 0 -0.0014718495956361009 -0.0041159693068223121 0 -0.0013257741995876054 -0.004118375922276216 0 -0.0014718495956361009 -0.0041159693068223121 0 -0.0011930485645084822 -0.0041147148243479434 0 -0.0011930485645084822 -0.0041147148243479434 0 -0.0010849825399240412 -0.0043599758233671048 0 -0.0013516612793190979 -0.0042719318182644784 0 -0.0012856826176961161 -0.0041489827360767194 0 -0.0012345191160454314 -0.0041542407134742424 0 -0.00079337011621867049 -0.0046747042714904378 0 -0.00068189836214096024 -0.0048278844302437358 0 -0.00063245748155415311 -0.0045749661318497314 0 -0.00088273936876208652 -0.0045152130580413197 0 -0.00079337011621867049 -0.0046747042714904378 0 -0.00063245748155415311 -0.0045749661318497314 0 -0.00079337011621867049 -0.0046747042714904378 0 -0.00068189836214096024 -0.0048278844302437358 0 -0.00085369551212473977 -0.0048444155476746621 0 -0.00068189836214096024 -0.0048278844302437358 0 -0.00085369551212473977 -0.0048444155476746621 0 -0.00081133736073358545 -0.0050276518266897949 0 -0.00092257536538560027 -0.0034309056476978282 0 -0.00082931539142546676 -0.0040437052819389616 0 -0.0010097118292267562 -0.0039708922588032967 0 -0.0011930485645084822 -0.0041147148243479434 0 -0.00082863430848033022 -0.0044872037145119933 0 -0.0010083622591125145 -0.0047133027377259844 0 -0.00085369551212473977 -0.0048444155476746621 0 -0.00085761435560900235 -0.0049569804190100356 0 -0.0010083622591125145 -0.0047133027377259844 0 -0.00079337011621867049 -0.0046747042714904378 0 -0.00085369551212473977 -0.0048444155476746621 0 -0.00022714834957227725 -0.004312853024222945 0 -0.00016694210682485878 -0.0046214137211256379 0 -0.00038955241148090516 -0.0045280364800217134 0 -0.00016694210682485878 -0.0046214137211256379 0 -0.00038955241148090516 -0.0045280364800217134 0 -0.00040609065009239085 -0.0048300824830696011 0 -0.00038955241148090516 -0.0045280364800217134 0 -0.00063245748155415311 -0.0045749661318497314 0 -0.00040609065009239085 -0.0048300824830696011 0 -0.00046603092467729733 -0.004324960921822444 0 -0.00038955241148090516 -0.0045280364800217134 0 -0.00063245748155415311 -0.0045749661318497314 0 -0.00068189836214096024 -0.0048278844302437358 0 -0.00063245748155415311 -0.0045749661318497314 0 -0.00040609065009239085 -0.0048300824830696011 0 -0.00068189836214096024 -0.0048278844302437358 0 -0.00040609065009239085 -0.0048300824830696011 0 -0.00056556312313123052 -0.0051805750148282833 0 -0.00016694210682485878 -0.0046214137211256379 0 -0.00040609065009239085 -0.0048300824830696011 0 -0.00011048286491334219 -0.0049057996832530494 0 -0.00040609065009239085 -0.0048300824830696011 0 -0.00011048286491334219 -0.0049057996832530494 0 -0.0002074538809088715 -0.0052517626632543578 0 -0.00040609065009239085 -0.0048300824830696011 0 -0.0002074538809088715 -0.0052517626632543578 0 -0.00056556312313123052 -0.0051805750148282833 0 -0.00068189836214096024 -0.0048278844302437358 0 -0.00056556312313123052 -0.0051805750148282833 0 -0.00081133736073358545 -0.0050276518266897949 0 -0.00056556312313123052 -0.0051805750148282833 0 -0.00050402966233779206 -0.0056142548228295553 0 -0.0008161955710775426 -0.0054864786997988226 0 -0.0002074538809088715 -0.0052517626632543578 0 -0.00056556312313123052 -0.0051805750148282833 0 -0.00050402966233779206 -0.0056142548228295553 0 -0.00012780134893919829 -0.0057928492273022934 0 -0.0002074538809088715 -0.0052517626632543578 0 -0.00050402966233779206 -0.0056142548228295553 0 -0.00085761435560900235 -0.0049569804190100356 0 -0.00081133736073358545 -0.0050276518266897949 0 -0.00076518365416289563 -0.0048075661083625707 0 -0.00088559453579822997 -0.0043176064290285747 0 -0.00082931539142546676 -0.0040437052819389616 0 -0.0010709274575316794 -0.0042155476398526206 0 -0.00082931539142546676 -0.0040437052819389616 0 -0.0010709274575316794 -0.0042155476398526206 0 -0.0010097118292267562 -0.0039708922588032967 0 -0.00085369551212473977 -0.0048444155476746621 0 -0.00085761435560900235 -0.0049569804190100356 0 -0.00081133736073358545 -0.0050276518266897949 0 -0.00056556312313123052 -0.0051805750148282833 0 -0.00081133736073358545 -0.0050276518266897949 0 -0.0008161955710775426 -0.0054864786997988226 0 -0.00081133736073358545 -0.0050276518266897949 0 -0.0008161955710775426 -0.0054864786997988226 0 -0.0011349392962370101 -0.0056959916074147774 0 -0.0008177595102856315 -0.0050291962250734353 0 -0.00094094677590235984 -0.0052585248089257897 0 -0.00081557981965088859 -0.0058563491857681494 0 -0.00050402966233779206 -0.0056142548228295553 0 -0.0008161955710775426 -0.0054864786997988226 0 -0.00094498561011582567 -0.0057219944598336696 0 -0.0008161955710775426 -0.0054864786997988226 0 -0.0011349392962370101 -0.0056959916074147774 0 -0.00088559453579822997 -0.0043176064290285747 0 -0.00082931539142546676 -0.0040437052819389616 0 -0.00078835378123749006 -0.004797900686385778 0 -0.00085761435560900235 -0.0049569804190100356 0 -0.00076518365416289563 -0.0048075661083625707 0 -0.00078835378123749006 -0.004797900686385778 0 -0.00082863430848033022 -0.0044872037145119933 0 -0.00079824196735493248 -0.0047741654127972681 0 -0.00088559453579822997 -0.0043176064290285747 0 -0.00096434004333557542 -0.0045819043208274839 0 -0.0010934509153510315 -0.0044681993879797472 0 -0.00088559453579822997 -0.0043176064290285747 0 -0.00096434004333557542 -0.0045819043208274839 0 -0.00090232737972766215 -0.0046109394843713413 0 -0.00088559453579822997 -0.0043176064290285747 0 -0.00078835378123749006 -0.004797900686385778 0 -0.00090232737972766215 -0.0046109394843713413 0 -0.00096434004333557542 -0.0045819043208274839 0 -0.00090232737972766215 -0.0046109394843713413 0 -0.00096650954124449697 -0.0047402292135552727 0 -0.00096434004333557542 -0.0045819043208274839 0 -0.00096650954124449697 -0.0047402292135552727 0 -0.0010755909459918148 -0.0046779016766743675 0 -0.00078835378123749006 -0.004797900686385778 0 -0.00090232737972766215 -0.0046109394843713413 0 -0.00096650954124449697 -0.0047402292135552727 0 -0.0011584733574989165 -0.0049470883657916154 0 -0.00096650954124449697 -0.0047402292135552727 0 -0.0010755909459918148 -0.0046779016766743675 0 -0.0010755909459918148 -0.0046779016766743675 0 -0.0012969133377408236 -0.0046617222354197263 0 -0.0010934509153510315 -0.0044681993879797472 0 -0.0011584733574989165 -0.0049470883657916154 0 -0.0010755909459918148 -0.0046779016766743675 0 -0.0012969133377408236 -0.0046617222354197263 0 -0.00096434004333557542 -0.0045819043208274839 0 -0.0010755909459918148 -0.0046779016766743675 0 -0.0010934509153510315 -0.0044681993879797472 0 -0.0012969133377408236 -0.0046617222354197263 0 -0.0013154511671812869 -0.0043831085323636724 0 -0.001541721730386461 -0.004566834290632653 0 -0.0012969133377408236 -0.0046617222354197263 0 -0.0013154511671812869 -0.0043831085323636724 0 -0.0010934509153510315 -0.0044681993879797472 0 -0.00088559453579822997 -0.0043176064290285747 0 -0.0010934509153510315 -0.0044681993879797472 0 -0.0010709274575316794 -0.0042155476398526206 0 -0.0013154511671812869 -0.0043831085323636724 0 -0.0010934509153510315 -0.0044681993879797472 0 -0.0010709274575316794 -0.0042155476398526206 0 -0.0013154511671812869 -0.0043831085323636724 0 -0.0010709274575316794 -0.0042155476398526206 0 -0.0012851136418362771 -0.0041545559160994956 0 -0.0010709274575316794 -0.0042155476398526206 0 -0.0012851136418362771 -0.0041545559160994956 0 -0.0010097118292267562 -0.0039708922588032967 0 -0.0013154511671812869 -0.0043831085323636724 0 -0.0012851136418362771 -0.0041545559160994956 0 -0.0015491421932521774 -0.0041441339067852193 0 -0.0012851136418362771 -0.0041545559160994956 0 -0.0013414092841968191 -0.0039187381227022153 0 -0.0015491421932521774 -0.0041441339067852193 0 -0.0012851136418362771 -0.0041545559160994956 0 -0.0013414092841968191 -0.0039187381227022153 0 -0.0010097118292267562 -0.0039708922588032967 0 -0.0015491421932521774 -0.0041441339067852193 0 -0.001978041694070985 -0.0040609876934217994 0 -0.0016570110596084945 -0.0036881460830867695 0 -0.0013414092841968191 -0.0039187381227022153 0 -0.0015491421932521774 -0.0041441339067852193 0 -0.0016570110596084945 -0.0036881460830867695 0 -0.0015491421932521774 -0.0041441339067852193 0 -0.0018528091448604179 -0.0044160651522685704 0 -0.001978041694070985 -0.0040609876934217994 0 -0.0019644916452764803 -0.0048901322504877861 0 -0.0018528091448604179 -0.0044160651522685704 0 -0.001541721730386461 -0.004566834290632653 0 -0.0015491421932521774 -0.0041441339067852193 0 -0.0018528091448604179 -0.0044160651522685704 0 -0.001541721730386461 -0.004566834290632653 0 -0.0013154511671812869 -0.0043831085323636724 0 -0.0015491421932521774 -0.0041441339067852193 0 -0.001541721730386461 -0.004566834290632653 0 -0.0015824443854194168 -0.0049105227722773355 0 -0.0012969133377408236 -0.0046617222354197263 0 -0.001541721730386461 -0.004566834290632653 0 -0.0019644916452764803 -0.0048901322504877861 0 -0.0018528091448604179 -0.0044160651522685704 0 -0.0022298621774319988 -0.0044200251301810978 0 -0.0018528091448604179 -0.0044160651522685704 0 -0.0022298621774319988 -0.0044200251301810978 0 -0.001978041694070985 -0.0040609876934217994 0 -0.0026644030679960013 -0.0050407368365535648 0 -0.0022298621774319988 -0.0044200251301810978 0 -0.0027387061558154101 -0.0042791202870453831 0 -0.0027387061558154101 -0.0042791202870453831 0 -0.0026164024738973483 -0.0038010714079058454 0 -0.0023282749006654996 -0.0040026756750986339 0 -0.0022298621774319988 -0.0044200251301810978 0 -0.0027387061558154101 -0.0042791202870453831 0 -0.0023282749006654996 -0.0040026756750986339 0 -0.0029696522302717749 -0.0037973236030260453 0 -0.0027387061558154101 -0.0042791202870453831 0 -0.0026164024738973483 -0.0038010714079058454 0 -0.0022298621774319988 -0.0044200251301810978 0 -0.001978041694070985 -0.0040609876934217994 0 -0.0023282749006654996 -0.0040026756750986339 0 -0.001978041694070985 -0.0040609876934217994 0 -0.0023282749006654996 -0.0040026756750986339 0 -0.0020990312449719957 -0.0036940386570199117 0 -0.0020990312449719957 -0.0036940386570199117 0 -0.0023602223331233392 -0.0035869467633381879 0 -0.0019998815064307678 -0.00321541868455832 0 -0.0020990312449719957 -0.0036940386570199117 0 -0.0020108401502980846 -0.0032624402934421579 0 -0.0016570110596084945 -0.0036881460830867695 0 -0.001978041694070985 -0.0040609876934217994 0 -0.0020990312449719957 -0.0036940386570199117 0 -0.0016570110596084945 -0.0036881460830867695 0 -0.0021389948231779364 -0.0038153757068595897 0 -0.0021405045739530662 -0.0025910259210329884 0 -0.0023282749006654996 -0.0040026756750986339 0 -0.0020990312449719957 -0.0036940386570199117 0 -0.0023602223331233392 -0.0035869467633381879 0 -0.0023602223331233392 -0.0035869467633381879 0 -0.0024437137362335751 -0.0033150428635668619 0 -0.0019998815064307678 -0.00321541868455832 0 -0.0029696522302717749 -0.0037973236030260453 0 -0.0026164024738973483 -0.0038010714079058454 0 -0.0027685088119210515 -0.0036366921285360923 0 -0.0026164024738973483 -0.0038010714079058454 0 -0.0027685088119210515 -0.0036366921285360923 0 -0.002621144323676855 -0.0035474297522981703 0 -0.0026164024738973483 -0.0038010714079058454 0 -0.0023602223331233392 -0.0035869467633381879 0 -0.002621144323676855 -0.0035474297522981703 0 -0.0026164024738973483 -0.0038010714079058454 0 -0.0023282749006654996 -0.0040026756750986339 0 -0.0023602223331233392 -0.0035869467633381879 0 -0.0023602223331233392 -0.0035869467633381879 0 -0.002621144323676855 -0.0035474297522981703 0 -0.0024437137362335751 -0.0033150428635668619 0 -0.0026579897447488897 0.00038201314753173884 0 -0.0025537136706749054 -0.0020122666205991575 0 -0.0028651543700677581 -0.0034021099200894161 0 -0.0027685088119210515 -0.0036366921285360923 0 -0.002621144323676855 -0.0035474297522981703 0 -0.0028651543700677581 -0.0034021099200894161 0 -0.002621144323676855 -0.0035474297522981703 0 -0.0024437137362335751 -0.0033150428635668619 0 -0.0022302604140710196 -0.00075338162057940299 0 -0.0024001621687200401 -0.00085172138409838748 0 -0.0024797205828387915 -0.00082085591593861955 0 -0.0026579897447488897 0.00038201314753173884 0 -0.0025857884682761352 0.00045572399688915109 0 -0.0029012441652428926 0.0032400961170679695 0 -0.0028405386338730175 0.0034479483972706848 0 -0.0031602552627304696 0.0032629028984532738 0 -0.0022302604140710196 -0.00075338162057940299 0 -0.0024001621687200401 -0.00085172138409838748 0 -0.0024062873868514693 -0.00090432720767474341 0 -0.0024035370663540384 -0.00091151905126348007 0 -0.0025227635975979784 -0.00090905655189210753 0 -0.0026152927375505727 -0.00099377635602336035 0 -0.0024035370663540384 -0.00091151905126348007 0 -0.0024515501066318377 -0.00087285083072334221 0 -0.0025227635975979784 -0.00090905655189210753 0 -0.0026016968337374716 3.0089393521661945e-05 0 -0.0025857884682761352 0.00045572399688915109 0 -0.0024001621687200401 -0.00085172138409838748 0 -0.0024035370663540384 -0.00091151905126348007 0 -0.0024515501066318377 -0.00087285083072334221 0 -0.0024001621687200401 -0.00085172138409838748 0 -0.0024515501066318377 -0.00087285083072334221 0 -0.0024797205828387915 -0.00082085591593861955 0 -0.0024515501066318377 -0.00087285083072334221 0 -0.0024797205828387915 -0.00082085591593861955 0 -0.0025227635975979784 -0.00090905655189210753 0 -0.0029012441652428926 0.0032400961170679695 0 -0.003020655516796839 0.0029290838571397865 0 -0.0031602552627304696 0.0032629028984532738 0 -0.0026682127517201472 -0.0015489880019355494 0 -0.0021405045739530662 -0.0025910259210329884 0 -0.0028188547550749114 -0.0012528282032480912 0 -0.0027451744515547298 -0.00088866378387767256 0 -0.0026152927375505727 -0.00099377635602336035 0 -0.0028188547550749114 -0.0012528282032480912 0 -0.0024035370663540384 -0.00091151905126348007 0 -0.0026152927375505727 -0.00099377635602336035 0 -0.0026682127517201472 -0.0015489880019355494 0 -0.0025857884682761352 0.00045572399688915109 0 -0.0025227635975979784 -0.00090905655189210753 0 -0.0027451744515547298 -0.00088866378387767256 0 -0.0026152927375505727 -0.00099377635602336035 0 -0.0025537136706749054 -0.0020122666205991575 0 -0.0021405045739530662 -0.0025910259210329884 0 -0.0024797205828387915 -0.00082085591593861955 0 -0.0025227635975979784 -0.00090905655189210753 0 -0.0027451744515547298 -0.00088866378387767256 0 -0.0020108401502980846 -0.0032624402934421579 0 -0.0014787914224275421 -0.0031477463494730446 0 -0.0016570110596084945 -0.0036881460830867695 0 -0.0021405045739530662 -0.0025910259210329884 0 -0.0016120006254362173 -0.0036085075767822096 0 -0.0022290514828882824 -0.0022832310015145673 0 -0.0023664663640485385 -0.0029686477305706201 0 -0.0017400421914825872 -0.002835069687002634 0 -0.0014044365009990541 -0.0038518778028546218 0 -0.0014091828550764241 -0.0038489689066862555 0 -0.0014058283142141209 -0.0038523111783378304 0 -0.0018120680115571574 -0.0040648486758493299 0 -0.0016308617540341198 -0.0041858252184687689 0 -0.0019375625092418562 -0.0042522691943017556 0 -0.0014053464958566678 -0.0038503659631766492 0 -0.0014044365009990541 -0.0038518778028546218 0 -0.0014091828550764241 -0.0038489689066862555 0 -0.0014718495956361009 -0.0041159693068223121 0 -0.0016120006254362173 -0.0036085075767822096 0 -0.00092257536538560027 -0.0034309056476978282 0 -0.0010097118292267562 -0.0039708922588032967 0 -0.0011766632558677444 -0.003694038336262459 0 -0.0016120006254362173 -0.0036085075767822096 0 -0.0012266919495798234 -0.0036997099393384133 0 -0.0013414092841968191 -0.0039187381227022153 0 -0.0011981997799396795 -0.0036376947847255679 0 -0.0016570110596084945 -0.0036881460830867695 0 -0.0014787914224275421 -0.0031477463494730446 0 -0.0011981997799396795 -0.0036376947847255679 0 -0.0016570110596084945 -0.0036881460830867695 0 -0.0011930485645084822 -0.0041147148243479434 0 -0.0012266919495798234 -0.0036997099393384133 0 -0.0013414092841968191 -0.0039187381227022153 0 -0.0010097118292267562 -0.0039708922588032967 0 -0.0011981997799396795 -0.0036376947847255679 0 -0.0010558095953794762 -0.0039144171736839777 0 -0.0012266919495798234 -0.0036997099393384133 0 2.4455964780546142e-06 0.034995591123507759 0 9.4427990914955634e-07 0.034998589714006524 0 1.2729849648474829e-06 0.034998749273789133 0 0.00018464419868272262 0.0343712618041917 0 2.6819795525140298e-05 0.035119902263433693 0 2.4455964780546142e-06 0.034995591123507759 0 9.4427990914955634e-07 0.034998589714006524 0 1.083609841260197e-06 0.034998687448468541 0 0.00018464419868272262 0.0343712618041917 0 -3.2458198225929303e-05 0.034979056871627369 0 9.4427990914955634e-07 0.034998589714006524 0 1.0349018431367373e-09 0.034999992861027472 0 -4.6440998558811412e-11 0.035000009361900918 0 9.4427990914955634e-07 0.034998589714006524 0 1.083609841260197e-06 0.034998687448468541 0 1.0349018431367373e-09 0.034999992861027472 0 5.4814029374105132e-05 0.034936711708098367 0 5.1831773549814666e-08 0.034999805047404332 0 7.6530206956712415e-05 0.034934538952765631 0 -3.2458198225929303e-05 0.034979056871627369 0 4.7696390414133298e-08 0.034999960144223831 0 5.4814029374105132e-05 0.034936711708098367 0 7.5173385807994893e-05 0.034925858947878877 0 7.6530206956712415e-05 0.034934538952765631 0 7.2398015761994757e-05 0.034919953685243706 0 5.4814029374105132e-05 0.034936711708098367 0 7.5173385807994893e-05 0.034925858947878877 0 0.00018464419868272262 0.0343712618041917 0 0.00021178583818225744 0.033831140736756471 0 7.2398015761994757e-05 0.034919953685243706 0 7.5173385807994893e-05 0.034925858947878877 0 8.6755632043392767e-05 0.03491276442588969 0 0.00041656672911235507 0.033002977891181458 0 0.00034603849547398227 0.032984339416209714 0 0.00035588074263155173 0.03290663196099556 0 0.00029087306604937623 0.032936781978962326 0 0.00034603849547398227 0.032984339416209714 0 0.00035588074263155173 0.03290663196099556 0 0.00029087306604937623 0.032936781978962326 0 0.00032278837189773116 0.032991006829473014 0 0.00034603849547398227 0.032984339416209714 0 0.00034603849547398227 0.032984339416209714 0 0.00036549833747943807 0.033018789353860246 0 0.00034918106268664104 0.033020901735175474 0 0.00032278837189773116 0.032991006829473014 0 0.00034603849547398227 0.032984339416209714 0 0.00034918106268664104 0.033020901735175474 0 0.00032278837189773116 0.032991006829473014 0 0.00034918106268664104 0.033020901735175474 0 0.00034064711407000715 0.033012642925141063 0 5.9843714862917623e-05 0.035116941127370779 0 0.00014480272840833379 0.03508576654335837 0 7.5681742118277728e-05 0.035030774978202235 0 0.00041656672911235507 0.033002977891181458 0 0.00034603849547398227 0.032984339416209714 0 0.00036549833747943807 0.033018789353860246 0 0.00018464419868272262 0.0343712618041917 0 0.00028853507448955539 0.034036566330141148 0 0.00014480272840833379 0.03508576654335837 0 0.00016138466117109377 0.035020083171389868 0 7.5681742118277728e-05 0.035030774978202235 0 0.00016138466117109377 0.035020083171389868 0 0.00010088964783830282 0.034954422286908378 0 7.5681742118277728e-05 0.035030774978202235 0 0.00035645367822209324 0.033025887290845005 0 0.0003727643018196792 0.033036445683391501 0 0.00035211115071915548 0.033028182781311137 0 0.00035645367822209324 0.033025887290845005 0 0.00034918106268664104 0.033020901735175474 0 0.00034064711407000715 0.033012642925141063 0 0.00032798172587696528 0.033309156039606908 0 0.00018207956270352224 0.033829700950785975 0 0.00035645367822209324 0.033025887290845005 0 0.00034918106268664104 0.033020901735175474 0 0.0003727643018196792 0.033036445683391501 0 0.00036549833747943807 0.033018789353860246 0 0.00034918106268664104 0.033020901735175474 0 0.00034688820941755502 0.033030041940825927 0 0.00014480272840833379 0.03508576654335837 0 0.00016138466117109377 0.035020083171389868 0 0.00025268758691653076 0.035053782172874325 0 0.00028853507448955539 0.034036566330141148 0 0.00018207956270352224 0.033829700950785975 0 0.00016138466117109377 0.035020083171389868 0 0.00025268758691653076 0.035053782172874325 0 0.0002069461512076677 0.034958504170502051 0 0.00025268758691653076 0.035053782172874325 0 0.0002069461512076677 0.034958504170502051 0 0.00035762447316097212 0.034896343649205422 0 0.00018207956270352224 0.033829700950785975 0 0.00040737913594855057 0.03406773127216807 0 0.0002069461512076677 0.034958504170502051 0 0.00019847776450936878 0.034824729312770267 0 0.00035762447316097212 0.034896343649205422 0 0.0002069461512076677 0.034958504170502051 0 0.00010088964783830282 0.034954422286908378 0 0.00019847776450936878 0.034824729312770267 0 0.00016138466117109377 0.035020083171389868 0 0.0002069461512076677 0.034958504170502051 0 0.00010088964783830282 0.034954422286908378 0 0.00010088964783830282 0.034954422286908378 0 2.9710125179188031e-05 0.034942269328212185 0 5.3713091743181356e-05 0.034836446994758428 0 2.9710125179188031e-05 0.034942269328212185 0 8.3259889040701368e-06 0.034980070304370614 0 -2.8264651199222662e-06 0.034947205182086778 0 2.9710125179188031e-05 0.034942269328212185 0 3.577269811191567e-05 0.034991031835539421 0 8.3259889040701368e-06 0.034980070304370614 0 3.577269811191567e-05 0.034991031835539421 0 2.7302295393032986e-06 0.035016467083433485 0 8.3259889040701368e-06 0.034980070304370614 0 0.00010088964783830282 0.034954422286908378 0 2.9710125179188031e-05 0.034942269328212185 0 3.577269811191567e-05 0.034991031835539421 0 3.577269811191567e-05 0.034991031835539421 0 7.5681742118277728e-05 0.035030774978202235 0 2.7302295393032986e-06 0.035016467083433485 0 0.00010088964783830282 0.034954422286908378 0 3.577269811191567e-05 0.034991031835539421 0 7.5681742118277728e-05 0.035030774978202235 0 5.9843714862917623e-05 0.035116941127370779 0 7.5681742118277728e-05 0.035030774978202235 0 2.7302295393032986e-06 0.035016467083433485 0 -4.6440998558811412e-11 0.035000009361900918 0 1.2729849648474829e-06 0.034998749273789133 0 -2.7561953549707263e-06 0.034995898671175286 0 9.4427990914955634e-07 0.034998589714006524 0 -4.6440998558811412e-11 0.035000009361900918 0 1.2729849648474829e-06 0.034998749273789133 0 2.6819795525140298e-05 0.035119902263433693 0 -2.0398938186467808e-05 0.034958141602352277 0 2.7302295393032986e-06 0.035016467083433485 0 8.3259889040701368e-06 0.034980070304370614 0 -2.7561953549707263e-06 0.034995898671175286 0 -4.6440998558811412e-11 0.035000009361900918 0 -9.8651629518753946e-09 0.034999925159309275 0 -2.7561953549707263e-06 0.034995898671175286 0 8.3259889040701368e-06 0.034980070304370614 0 -2.7561953549707263e-06 0.034995898671175286 0 -2.8264651199222662e-06 0.034947205182086778 0 -9.8651629518753946e-09 0.034999925159309275 0 -2.7561953549707263e-06 0.034995898671175286 0 -2.8264651199222662e-06 0.034947205182086778 0 -9.8651629518753946e-09 0.034999925159309275 0 -2.8264651199222662e-06 0.034947205182086778 0 -5.0060502289928175e-08 0.034999746527094526 0 -2.8264651199222662e-06 0.034947205182086778 0 1.0163868010062442e-05 0.034842798229519023 0 5.3713091743181356e-05 0.034836446994758428 0 2.9710125179188031e-05 0.034942269328212185 0 -2.8264651199222662e-06 0.034947205182086778 0 5.3713091743181356e-05 0.034836446994758428 0 1.0163868010062442e-05 0.034842798229519023 0 5.8070401644403539e-05 0.034673590540299518 0 5.3713091743181356e-05 0.034836446994758428 0 -2.8264651199222662e-06 0.034947205182086778 0 1.0163868010062442e-05 0.034842798229519023 0 -5.0060502289928175e-08 0.034999746527094526 0 -5.0060502289928175e-08 0.034999746527094526 0 1.5941587274243713e-05 0.034689681971333139 0 3.3251870778299933e-08 0.034999601445002873 0 1.0163868010062442e-05 0.034842798229519023 0 -5.0060502289928175e-08 0.034999746527094526 0 1.5941587274243713e-05 0.034689681971333139 0 1.0163868010062442e-05 0.034842798229519023 0 1.5941587274243713e-05 0.034689681971333139 0 5.8070401644403539e-05 0.034673590540299518 0 1.5941587274243713e-05 0.034689681971333139 0 2.2578748678562562e-05 0.034653724182291484 0 3.3251870778299933e-08 0.034999601445002873 0 9.4722680185098314e-05 0.034371655063579698 0 0.00014725923428059854 0.034371451542844433 0 0.00036369943859297014 0.033929397559840764 0 0.00025340925749533182 0.034095148871055227 0 9.4722680185098314e-05 0.034371655063579698 0 0.00036369943859297014 0.033929397559840764 0 1.5941587274243713e-05 0.034689681971333139 0 9.4722680185098314e-05 0.034371655063579698 0 0.00014725923428059854 0.034371451542844433 0 2.5041336729086718e-05 0.034438264098882954 0 2.2578748678562562e-05 0.034653724182291484 0 9.4722680185098314e-05 0.034371655063579698 0 1.5941587274243713e-05 0.034689681971333139 0 2.2578748678562562e-05 0.034653724182291484 0 9.4722680185098314e-05 0.034371655063579698 0 1.5941587274243713e-05 0.034689681971333139 0 0.00014725923428059854 0.034371451542844433 0 5.8070401644403539e-05 0.034673590540299518 0 0.00014725923428059854 0.034371451542844433 0 0.00031695620609867661 0.034174639507077081 0 0.00036369943859297014 0.033929397559840764 0 0.00014725923428059854 0.034371451542844433 0 0.00016951044303994549 0.034586335213292269 0 0.00031695620609867661 0.034174639507077081 0 0.00016951044303994549 0.034586335213292269 0 0.00019847776450936878 0.034824729312770267 0 0.00050404394755564855 0.034579430331040543 0 0.00016951044303994549 0.034586335213292269 0 5.8070401644403539e-05 0.034673590540299518 0 5.3713091743181356e-05 0.034836446994758428 0 0.00014725923428059854 0.034371451542844433 0 0.00016951044303994549 0.034586335213292269 0 5.8070401644403539e-05 0.034673590540299518 0 0.00016951044303994549 0.034586335213292269 0 5.3713091743181356e-05 0.034836446994758428 0 0.00019847776450936878 0.034824729312770267 0 0.00010088964783830282 0.034954422286908378 0 5.3713091743181356e-05 0.034836446994758428 0 0.00019847776450936878 0.034824729312770267 0 0.00019847776450936878 0.034824729312770267 0 0.00050404394755564855 0.034579430331040543 0 0.00035762447316097212 0.034896343649205422 0 0.00042341909742568847 0.033202703976341903 0 0.00050424908162508182 0.033291454580999677 0 0.00044436002093412383 0.033157463571320274 0 0.0004913978645486605 0.033923580955421459 0 0.00040737913594855057 0.03406773127216807 0 0.00042341909742568847 0.033202703976341903 0 0.00050424908162508182 0.033291454580999677 0 0.00040669467283635486 0.03326057713005131 0 0.00042341909742568847 0.033202703976341903 0 0.00040669467283635486 0.03326057713005131 0 0.00032110129376845137 0.033116360465100428 0 0.00050424908162508182 0.033291454580999677 0 0.00046805645008783355 0.033314112537261908 0 0.00040669467283635486 0.03326057713005131 0 0.00016951044303994549 0.034586335213292269 0 0.00050404394755564855 0.034579430331040543 0 0.00031695620609867661 0.034174639507077081 0 0.00031695620609867661 0.034174639507077081 0 0.0005505819784841216 0.033620844349726238 0 0.00036369943859297014 0.033929397559840764 0 0.0004913978645486605 0.033923580955421459 0 0.00054799957135318728 0.033673963950106835 0 0.00050404394755564855 0.034579430331040543 0 0.00031695620609867661 0.034174639507077081 0 0.0005505819784841216 0.033620844349726238 0 0.00050424908162508182 0.033291454580999677 0 0.0005505819784841216 0.033620844349726238 0 0.00046805645008783355 0.033314112537261908 0 0.0005505819784841216 0.033620844349726238 0 0.00055471143575350137 0.033157298878004268 0 0.00046805645008783355 0.033314112537261908 0 0.00072612978816472386 0.033608493605755151 0 0.00057428301165622262 0.033108885110481621 0 0.0005505819784841216 0.033620844349726238 0 0.00055471143575350137 0.033157298878004268 0 0.00054559271673024212 0.033548246240624718 0 0.00040575914034173737 0.033674298343829956 0 0.00055471143575350137 0.033157298878004268 0 0.00054559271673024212 0.033548246240624718 0 0.00050048714697922738 0.033731734899209047 0 0.00054559271673024212 0.033548246240624718 0 0.00036369943859297014 0.033929397559840764 0 0.0005505819784841216 0.033620844349726238 0 0.00054559271673024212 0.033548246240624718 0 0.00036369943859297014 0.033929397559840764 0 0.0004162015919105406 0.033042849244870331 0 0.00017227808233131822 0.032208585508856323 0 0.00084600942399616901 0.032673574388660712 0 0.00080499303260298091 0.032951216880089979 0 0.00055471143575350137 0.033157298878004268 0 0.00084600942399616901 0.032673574388660712 0 0.00055471143575350137 0.033157298878004268 0 0.00084600942399616901 0.032673574388660712 0 0.00046805645008783355 0.033314112537261908 0 0.00081337396279584039 0.032527835548189714 0 0.00044994059680222235 0.031528084521502318 0 0.00084600942399616901 0.032673574388660712 0 0.00046805645008783355 0.033314112537261908 0 0.00046273496041369656 0.033362903443243275 0 0.00017227808233131822 0.032208585508856323 0 0.00084600942399616901 0.032673574388660712 0 0.00051769543908429332 0.029745303665051601 0 0.00017227808233131822 0.032208585508856323 0 0.00051769543908429332 0.029745303665051601 0 -0.00068662075944196242 0.031188817206677637 0 0.00046805645008783355 0.033314112537261908 0 0.00046273496041369656 0.033362903443243275 0 0.00040669467283635486 0.03326057713005131 0 0.00030811879008162596 0.03319998385438036 0 0.00040669467283635486 0.03326057713005131 0 0.00032110129376845137 0.033116360465100428 0 0.00046273496041369656 0.033362903443243275 0 0.00030811879008162596 0.03319998385438036 0 0.00040669467283635486 0.03326057713005131 0 0.00046273496041369656 0.033362903443243275 0 0.00030811879008162596 0.03319998385438036 0 0.00011917622168620639 0.033181544021681081 0 0.00044994059680222235 0.031528084521502318 0 -0.0001569451841965086 0.03044078755334766 0 0.00019553013479522806 0.033051095503551543 0 5.6151176841776938e-05 0.032972952890640235 0 0.00011917622168620639 0.033181544021681081 0 0.00030811879008162596 0.03319998385438036 0 0.00019553013479522806 0.033051095503551543 0 0.00011917622168620639 0.033181544021681081 0 0.00019553013479522806 0.033051095503551543 0 0.000150506575081844 0.032927312344293677 0 5.6151176841776938e-05 0.032972952890640235 0 0.00019553013479522806 0.033051095503551543 0 0.00024669912593781054 0.032999180768001075 0 0.00032110129376845137 0.033116360465100428 0 0.00019553013479522806 0.033051095503551543 0 0.00024669912593781054 0.032999180768001075 0 0.000150506575081844 0.032927312344293677 0 0.00030811879008162596 0.03319998385438036 0 0.00019553013479522806 0.033051095503551543 0 0.00032110129376845137 0.033116360465100428 0 0.00032110129376845137 0.033116360465100428 0 0.00037546710841917684 0.033112193054045939 0 0.0003177144574004557 0.033030474527755559 0 0.00042341909742568847 0.033202703976341903 0 0.00032110129376845137 0.033116360465100428 0 0.00037546710841917684 0.033112193054045939 0 0.00044436002093412383 0.033157463571320274 0 0.00037546710841917684 0.033112193054045939 0 0.0003644894751958137 0.033059008273382443 0 0.00042341909742568847 0.033202703976341903 0 0.00044436002093412383 0.033157463571320274 0 0.00037546710841917684 0.033112193054045939 0 0.0003727643018196792 0.033036445683391501 0 0.00044436002093412383 0.033157463571320274 0 0.0003644894751958137 0.033059008273382443 0 0.00037546710841917684 0.033112193054045939 0 0.0003644894751958137 0.033059008273382443 0 0.0003177144574004557 0.033030474527755559 0 0.0003644894751958137 0.033059008273382443 0 0.0003177144574004557 0.033030474527755559 0 0.00032263401555683634 0.033005727199932139 0 0.0003177144574004557 0.033030474527755559 0 0.00032263401555683634 0.033005727199932139 0 0.00029569390348406304 0.032989455810114088 0 0.0003644894751958137 0.033059008273382443 0 0.00035211115071915548 0.033028182781311137 0 0.00032263401555683634 0.033005727199932139 0 0.0003727643018196792 0.033036445683391501 0 0.0003644894751958137 0.033059008273382443 0 0.00035211115071915548 0.033028182781311137 0 0.00035211115071915548 0.033028182781311137 0 0.00034064711407000715 0.033012642925141063 0 0.00032263401555683634 0.033005727199932139 0 0.00035645367822209324 0.033025887290845005 0 0.00035211115071915548 0.033028182781311137 0 0.00034064711407000715 0.033012642925141063 0 0.00024669912593781054 0.032999180768001075 0 0.0003177144574004557 0.033030474527755559 0 0.00026540593503638005 0.032969683365127143 0 0.00024669912593781054 0.032999180768001075 0 0.00032110129376845137 0.033116360465100428 0 0.0003177144574004557 0.033030474527755559 0 0.00026540593503638005 0.032969683365127143 0 0.0002749138419386985 0.032958738025150196 0 0.00018976210962843367 0.032902188846024076 0 0.00024669912593781054 0.032999180768001075 0 0.00026540593503638005 0.032969683365127143 0 0.0001997128477023436 0.032922168717531168 0 0.00026540593503638005 0.032969683365127143 0 0.00018976210962843367 0.032902188846024076 0 0.0001997128477023436 0.032922168717531168 0 0.0003177144574004557 0.033030474527755559 0 0.00026540593503638005 0.032969683365127143 0 0.00029569390348406304 0.032989455810114088 0 0.00029087306604937623 0.032936781978962326 0 0.00032278837189773116 0.032991006829473014 0 0.0002749138419386985 0.032958738025150196 0 0.00032278837189773116 0.032991006829473014 0 0.00032263401555683634 0.033005727199932139 0 0.0002749138419386985 0.032958738025150196 0 0.00032278837189773116 0.032991006829473014 0 0.00034064711407000715 0.033012642925141063 0 0.00032263401555683634 0.033005727199932139 0 0.00032263401555683634 0.033005727199932139 0 0.00029569390348406304 0.032989455810114088 0 0.0002749138419386985 0.032958738025150196 0 0.00026540593503638005 0.032969683365127143 0 0.00029569390348406304 0.032989455810114088 0 0.0002749138419386985 0.032958738025150196 0 0.0002749138419386985 0.032958738025150196 0 0.00018976210962843367 0.032902188846024076 0 0.00020141698138855568 0.032883321911949356 0 0.00029087306604937623 0.032936781978962326 0 0.0002749138419386985 0.032958738025150196 0 0.00020141698138855568 0.032883321911949356 0 0.00018976210962843367 0.032902188846024076 0 0.00014187683963516872 0.032858199351286005 0 8.8096467584804905e-05 0.032847138957156428 0 0.00018976210962843367 0.032902188846024076 0 0.00014187683963516872 0.032858199351286005 0 0.0001997128477023436 0.032922168717531168 0 0.00014187683963516872 0.032858199351286005 0 3.3256345845332896e-05 0.032810974502624123 0 6.6480281679722828e-05 0.032643284411430024 0 0.00014187683963516872 0.032858199351286005 0 2.6867460803490592e-05 0.032847590660346142 0 8.8096467584804905e-05 0.032847138957156428 0 0.00010825639323848557 0.032816514384195979 0 8.4533715135837645e-05 0.032808862375202016 0 0.00014187683963516872 0.032858199351286005 0 0.000150506575081844 0.032927312344293677 0 3.3256345845332896e-05 0.032810974502624123 0 0.000150506575081844 0.032927312344293677 0 3.3256345845332896e-05 0.032810974502624123 0 5.6151176841776938e-05 0.032972952890640235 0 0.00024669912593781054 0.032999180768001075 0 0.000150506575081844 0.032927312344293677 0 0.0001997128477023436 0.032922168717531168 0 0.00014187683963516872 0.032858199351286005 0 0.000150506575081844 0.032927312344293677 0 0.0001997128477023436 0.032922168717531168 0 -0.001138679510895981 0.029454360452486054 0 -0.00076924528721245889 0.029743871006519811 0 -0.0020798399247373778 0.026008970479525884 0 -0.0020993655473371684 0.026253540936142884 0 -0.0014463389556042621 0.026487679999088569 0 -0.00010882549422934928 0.032828310096368794 0 -0.00035904418816358279 0.032752520382621858 0 -8.2054956790358934e-05 0.033001217230193482 0 -0.00010882549422934928 0.032828310096368794 0 -0.00022361135853327818 0.03267982056480602 0 -0.00035904418816358279 0.032752520382621858 0 -0.00010882549422934928 0.032828310096368794 0 3.3256345845332896e-05 0.032810974502624123 0 5.6151176841776938e-05 0.032972952890640235 0 3.3256345845332896e-05 0.032810974502624123 0 -6.7658221750445678e-05 0.032713723034901436 0 6.6480281679722828e-05 0.032643284411430024 0 -0.00010882549422934928 0.032828310096368794 0 3.3256345845332896e-05 0.032810974502624123 0 -6.7658221750445678e-05 0.032713723034901436 0 -6.7658221750445678e-05 0.032713723034901436 0 -0.00011554194820962998 0.032619499684307843 0 6.6480281679722828e-05 0.032643284411430024 0 -0.00022361135853327818 0.03267982056480602 0 -0.00038023073895968246 0.032008190167076497 0 0.00024081386921491948 0.031880407014167243 0 -6.7658221750445678e-05 0.032713723034901436 0 -0.00022361135853327818 0.03267982056480602 0 -0.00011554194820962998 0.032619499684307843 0 -0.00020538808213580925 0.032670550729573498 0 0.00010400582428990939 0.032169156810683101 0 -0.00010882549422934928 0.032828310096368794 0 -6.7658221750445678e-05 0.032713723034901436 0 -0.00022361135853327818 0.03267982056480602 0 -0.00022361135853327818 0.03267982056480602 0 -0.00035904418816358279 0.032752520382621858 0 -0.00038023073895968246 0.032008190167076497 0 -0.001138679510895981 0.029454360452486054 0 -0.0021316538244623823 0.028198901747918823 0 -0.0023040053378496363 0.025911696912685144 0 -0.0024935960616410914 0.025825160271685025 0 -0.0023817113847622653 0.025587061515366188 0 -0.00035904418816358279 0.032752520382621858 0 -0.0010999941733285303 0.031506297647668519 0 -0.00038023073895968246 0.032008190167076497 0 -0.0020798399247373778 0.026008970479525884 0 -0.0023040053378496363 0.025911696912685144 0 -0.0023817113847622653 0.025587061515366188 0 -0.0023040053378496363 0.025911696912685144 0 -0.0022060430892911153 0.026068875517927713 0 -0.0023803592817234426 0.026115478581026082 0 -0.0023040053378496363 0.025911696912685144 0 -0.0024935960616410914 0.025825160271685025 0 -0.0023803592817234426 0.026115478581026082 0 -0.0020798399247373778 0.026008970479525884 0 -0.0023040053378496363 0.025911696912685144 0 -0.0022060430892911153 0.026068875517927713 0 -0.002830946398232176 0.026365335754005535 0 -0.0027025813598547522 0.026321879244715678 0 -0.0027202844490349307 0.026426786915213659 0 -0.0025120589550050505 0.025870960613384616 0 -0.0027186190592101518 0.026274018473621947 0 -0.0024935960616410914 0.025825160271685025 0 -0.0026871713455139516 0.026206361846181046 0 -0.0023803592817234426 0.026115478581026082 0 -0.002830946398232176 0.026365335754005535 0 -0.0027025813598547522 0.026321879244715678 0 -0.0026871713455139516 0.026206361846181046 0 -0.0027025813598547522 0.026321879244715678 0 -0.0026871713455139516 0.026206361846181046 0 -0.0026926197690668573 0.026311468000442834 0 -0.0026871713455139516 0.026206361846181046 0 -0.0027509358529715722 0.026320727050481069 0 -0.0026926197690668573 0.026311468000442834 0 -0.0026871713455139516 0.026206361846181046 0 -0.0025909387774398608 0.026314886255588494 0 -0.0023803592817234426 0.026115478581026082 0 -0.0025909387774398608 0.026314886255588494 0 -0.0027012990791943094 0.026431979193232594 0 -0.0027509358529715722 0.026320727050481069 0 -0.0026871713455139516 0.026206361846181046 0 -0.0025909387774398608 0.026314886255588494 0 -0.0027509358529715722 0.026320727050481069 0 -0.0020798399247373778 0.026008970479525884 0 -0.0022060430892911153 0.026068875517927713 0 -0.0020993655473371684 0.026253540936142884 0 -0.0022060430892911153 0.026068875517927713 0 -0.0023803592817234426 0.026115478581026082 0 -0.0020993655473371684 0.026253540936142884 0 -0.0025909387774398608 0.026314886255588494 0 -0.0023803592817234426 0.026115478581026082 0 -0.0023148375250657549 0.026335274439381169 0 -0.0023803592817234426 0.026115478581026082 0 -0.0023148375250657549 0.026335274439381169 0 -0.0020993655473371684 0.026253540936142884 0 -0.0023148375250657549 0.026335274439381169 0 -0.0020993655473371684 0.026253540936142884 0 -0.0020406426562685057 0.026633289116431504 0 -0.0024990567169748397 0.026486813969506817 0 -0.0020406426562685057 0.026633289116431504 0 -0.002614890420409458 0.026715790008227373 0 -0.0025909387774398608 0.026314886255588494 0 -0.0023148375250657549 0.026335274439381169 0 -0.0024990567169748397 0.026486813969506817 0 -0.0023148375250657549 0.026335274439381169 0 -0.0024990567169748397 0.026486813969506817 0 -0.0020406426562685057 0.026633289116431504 0 -0.0027012990791943094 0.026431979193232594 0 -0.0029280373844524565 0.026692226504117074 0 -0.002614890420409458 0.026715790008227373 0 -0.0025909387774398608 0.026314886255588494 0 -0.0024990567169748397 0.026486813969506817 0 -0.0027012990791943094 0.026431979193232594 0 -0.0024990567169748397 0.026486813969506817 0 -0.0027012990791943094 0.026431979193232594 0 -0.002614890420409458 0.026715790008227373 0 -0.0029280373844524565 0.026692226504117074 0 -0.002614890420409458 0.026715790008227373 0 -0.0028147165860067753 0.02704538926981765 0 -0.002614890420409458 0.026715790008227373 0 -0.0028147165860067753 0.02704538926981765 0 -0.0024912329181148948 0.027083104344737142 0 -0.0029280373844524565 0.026692226504117074 0 -0.0028147165860067753 0.02704538926981765 0 -0.0031055104268257936 0.027052554949100149 0 -0.0020406426562685057 0.026633289116431504 0 -0.002614890420409458 0.026715790008227373 0 -0.0024912329181148948 0.027083104344737142 0 -0.0020406426562685057 0.026633289116431504 0 -0.0024912329181148948 0.027083104344737142 0 -0.0020910619553768436 0.027369827025637006 0 -0.0020406426562685057 0.026633289116431504 0 -0.001513263034640064 0.027410035929340323 0 -0.0014463389556042621 0.026487679999088569 0 -0.0020406426562685057 0.026633289116431504 0 -0.001513263034640064 0.027410035929340323 0 -0.0020910619553768436 0.027369827025637006 0 -0.0020993655473371684 0.026253540936142884 0 -0.0020406426562685057 0.026633289116431504 0 -0.0014463389556042621 0.026487679999088569 0 -0.00010882549422934928 0.032828310096368794 0 -8.2054956790358934e-05 0.033001217230193482 0 5.6151176841776938e-05 0.032972952890640235 0 -8.2054956790358934e-05 0.033001217230193482 0 5.6151176841776938e-05 0.032972952890640235 0 0.00011917622168620639 0.033181544021681081 0 -0.001513263034640064 0.027410035929340323 0 -0.0014463389556042621 0.026487679999088569 0 -0.0004293724012861101 0.027661075354489702 0 -0.00076924528721245889 0.029743871006519811 0 -0.0001569451841965086 0.03044078755334766 0 0.00051769543908429332 0.029745303665051601 0 -0.0004293724012861101 0.027661075354489702 0 -0.00091795743539870044 0.028712223154968217 0 -0.001513263034640064 0.027410035929340323 0 -0.0004293724012861101 0.027661075354489702 0 -0.00091795743539870044 0.028712223154968217 0 -0.001513263034640064 0.027410035929340323 0 -0.0019592518356277722 0.028226452628921518 0 -0.00091795743539870044 0.028712223154968217 0 -0.001513263034640064 0.027410035929340323 0 -0.0019592518356277722 0.028226452628921518 0 -0.0020910619553768436 0.027369827025637006 0 -0.0019592518356277722 0.028226452628921518 0 -0.0015989299778013527 0.0294860355338393 0 -0.00091795743539870044 0.028712223154968217 0 -0.0019592518356277722 0.028226452628921518 0 -0.0015989299778013527 0.0294860355338393 0 -0.0022341604702736085 0.028789415279584004 0 0.00051769543908429332 0.029745303665051601 0 -0.00091795743539870044 0.028712223154968217 0 -0.00068662075944196242 0.031188817206677637 0 -0.0015989299778013527 0.0294860355338393 0 -0.00091795743539870044 0.028712223154968217 0 -0.00068662075944196242 0.031188817206677637 0 -0.0015989299778013527 0.0294860355338393 0 -0.00068662075944196242 0.031188817206677637 0 -0.0020211269812807639 0.030323996274073103 0 -0.0015989299778013527 0.0294860355338393 0 -0.0020211269812807639 0.030323996274073103 0 -0.0022768611918688019 0.029508168159175188 0 -0.00068662075944196242 0.031188817206677637 0 -0.0015026941119783332 0.031385939764369146 0 -0.0020211269812807639 0.030323996274073103 0 -0.00096789074166219542 0.032011469122694758 0 -0.00068662075944196242 0.031188817206677637 0 -0.0015026941119783332 0.031385939764369146 0 -0.0010410166260671481 0.033133020444763725 0 0.00017227808233131822 0.032208585508856323 0 -0.00068662075944196242 0.031188817206677637 0 -0.00069549286695867448 0.032329889013299917 0 -0.00077453655170202384 0.031372741933675077 0 -0.0027808377081130569 0.02526126108465555 0 -0.0033605952042999859 0.02487085720827709 0 -0.0032302057238660117 0.024232751910554452 0 -0.0032302057238660117 0.024232751910554452 0 -0.0038981824412288872 0.024609928967600472 0 -0.0038514161014548596 0.023892783864797467 0 -0.0033605952042999859 0.02487085720827709 0 -0.0032302057238660117 0.024232751910554452 0 -0.0038981824412288872 0.024609928967600472 0 -0.001908200517608065 0.029216141042165484 0 -0.0026819627287096456 0.029379828245349907 0 -0.0026744368302044044 0.028204094612970382 0 -0.0030381646761664036 0.027371288934473801 0 -0.0027347021913046092 0.027409770840577267 0 -0.0015026941119783332 0.031385939764369146 0 -0.0027626630735863894 0.030976802933170948 0 -0.0020211269812807639 0.030323996274073103 0 -0.0024473959019939541 0.026440793775416971 0 -0.0031614468102938425 0.025713275715870548 0 -0.0021547926287664408 0.032047888854163598 0 -0.0015026941119783332 0.031385939764369146 0 -0.0027626630735863894 0.030976802933170948 0 -0.0027626630735863894 0.030976802933170948 0 -0.0020211269812807639 0.030323996274073103 0 -0.0029034792561583997 0.029751938400537175 0 -0.0020211269812807639 0.030323996274073103 0 -0.0022768611918688019 0.029508168159175188 0 -0.0029034792561583997 0.029751938400537175 0 -0.0022768611918688019 0.029508168159175188 0 -0.0029034792561583997 0.029751938400537175 0 -0.0027330116646102575 0.028844276094304473 0 -0.0030381646761664036 0.027371288934473801 0 -0.0027347021913046092 0.027409770840577267 0 -0.003183870511500739 0.026602044194129721 0 -0.0031614468102938425 0.025713275715870548 0 -0.0038733469068582931 0.025756692919130492 0 -0.0030381646761664036 0.027371288934473801 0 -0.003183870511500739 0.026602044194129721 0 -0.0034054083837447031 0.026533644893101033 0 -0.0027626630735863894 0.030976802933170948 0 -0.0029034792561583997 0.029751938400537175 0 -0.003419612707822932 0.029580701138877234 0 -0.0029034792561583997 0.029751938400537175 0 -0.0033720858901086954 0.02950647819489427 0 -0.0030436896376984943 0.029082695884600641 0 -0.0029034792561583997 0.029751938400537175 0 -0.0030436896376984943 0.029082695884600641 0 -0.0027330116646102575 0.028844276094304473 0 -0.0026819627287096456 0.029379828245349907 0 -0.0033099018837221507 0.027606421895338296 0 -0.0032302057238660117 0.024232751910554452 0 -0.0038514161014548596 0.023892783864797467 0 -0.003676527803394892 0.023239558210776761 0 -0.0028233291722201369 0.028494130072752394 0 -0.0033099018837221507 0.027606421895338296 0 -0.0033099018837221507 0.027606421895338296 0 -0.0038733469068582931 0.025756692919130492 0 -0.0041917733290432087 0.025721069696041897 0 -0.0038613152720183043 0.025816526173676378 0 -0.0036791147329184814 0.026227423302090918 0 -0.0033720858901086954 0.02950647819489427 0 -0.0031475463129884882 0.028232385273369982 0 -0.003368966735982166 0.02715196412215878 0 -0.0033099018837221507 0.027606421895338296 0 -0.0035424016826372108 0.027251444964395456 0 -0.0041917733290432087 0.025721069696041897 0 -0.0036791147329184814 0.026227423302090918 0 -0.003368966735982166 0.02715196412215878 0 -0.0038733469068582931 0.025756692919130492 0 -0.0037604913700942694 0.02602761049066863 0 -0.0033720858901086954 0.02950647819489427 0 -0.0030436896376984943 0.029082695884600641 0 -0.0031475463129884882 0.028232385273369982 0 -0.0030436896376984943 0.029082695884600641 0 -0.0031475463129884882 0.028232385273369982 0 -0.0027330116646102575 0.028844276094304473 0 -0.0031475463129884882 0.028232385273369982 0 -0.0027330116646102575 0.028844276094304473 0 -0.0026148785173980694 0.028178000255116332 0 -0.0031475463129884882 0.028232385273369982 0 -0.0026148785173980694 0.028178000255116332 0 -0.0029964067682313939 0.027501825414779621 0 -0.0031475463129884882 0.028232385273369982 0 -0.0029964067682313939 0.027501825414779621 0 -0.003368966735982166 0.02715196412215878 0 -0.0015989299778013527 0.0294860355338393 0 -0.0022768611918688019 0.029508168159175188 0 -0.0022341604702736085 0.028789415279584004 0 -0.0022768611918688019 0.029508168159175188 0 -0.0027330116646102575 0.028844276094304473 0 -0.0022341604702736085 0.028789415279584004 0 -0.0027330116646102575 0.028844276094304473 0 -0.0026148785173980694 0.028178000255116332 0 -0.0022341604702736085 0.028789415279584004 0 -0.0019592518356277722 0.028226452628921518 0 -0.0026148785173980694 0.028178000255116332 0 -0.0022341604702736085 0.028789415279584004 0 -0.0019592518356277722 0.028226452628921518 0 -0.0026148785173980694 0.028178000255116332 0 -0.0025252062052659079 0.027537193000605739 0 -0.0024912329181148948 0.027083104344737142 0 -0.0025252062052659079 0.027537193000605739 0 -0.0020910619553768436 0.027369827025637006 0 -0.0028147165860067753 0.02704538926981765 0 -0.0024912329181148948 0.027083104344737142 0 -0.0025252062052659079 0.027537193000605739 0 -0.0019592518356277722 0.028226452628921518 0 -0.0025252062052659079 0.027537193000605739 0 -0.0020910619553768436 0.027369827025637006 0 -0.0029964067682313939 0.027501825414779621 0 -0.0031055104268257936 0.027052554949100149 0 -0.003368966735982166 0.02715196412215878 0 -0.0026148785173980694 0.028178000255116332 0 -0.0025252062052659079 0.027537193000605739 0 -0.0029964067682313939 0.027501825414779621 0 -0.0028147165860067753 0.02704538926981765 0 -0.0025252062052659079 0.027537193000605739 0 -0.0029964067682313939 0.027501825414779621 0 -0.0028147165860067753 0.02704538926981765 0 -0.0029964067682313939 0.027501825414779621 0 -0.0031055104268257936 0.027052554949100149 0 -0.0029280373844524565 0.026692226504117074 0 -0.0031055104268257936 0.027052554949100149 0 -0.0030876363759499057 0.026754744095937578 0 -0.0030876363759499057 0.026754744095937578 0 -0.0030488808509583913 0.026560656230010977 0 -0.0031766773567510438 0.026827027651311314 0 -0.0031055104268257936 0.027052554949100149 0 -0.0030876363759499057 0.026754744095937578 0 -0.003368966735982166 0.02715196412215878 0 -0.0030876363759499057 0.026754744095937578 0 -0.003368966735982166 0.02715196412215878 0 -0.0031766773567510438 0.026827027651311314 0 -0.003001896644910804 0.026223513633119706 0 -0.0030488808509583913 0.026560656230010977 0 -0.0029817222417722815 0.026293435370470814 0 -0.0030876363759499057 0.026754744095937578 0 -0.003001896644910804 0.026223513633119706 0 -0.0030488808509583913 0.026560656230010977 0 -0.0047008455744960006 0.024871128129686244 0 -0.0047639064833112053 0.024301168456532813 0 -0.0030488808509583913 0.026560656230010977 0 -0.0029817222417722815 0.026293435370470814 0 -0.0031659686262029388 0.026516321703734448 0 -0.003368966735982166 0.02715196412215878 0 -0.0031766773567510438 0.026827027651311314 0 -0.0032958144005833948 0.026483171103040125 0 -0.0035320166180700715 0.027155828830090888 0 -0.0047639064833112053 0.024301168456532813 0 -0.0036791147329184814 0.026227423302090918 0 -0.003368966735982166 0.02715196412215878 0 -0.0032958144005833948 0.026483171103040125 0 -0.0031766773567510438 0.026827027651311314 0 -0.0032958144005833948 0.026483171103040125 0 -0.0030916664918632548 0.026118013976361314 0 -0.0030488808509583913 0.026560656230010977 0 -0.0031766773567510438 0.026827027651311314 0 -0.0031659686262029388 0.026516321703734448 0 -0.003835520233173188 0.025858745599977185 0 -0.0036791147329184814 0.026227423302090918 0 -0.0030916664918632548 0.026118013976361314 0 -0.0036791147329184814 0.026227423302090918 0 -0.0032958144005833948 0.026483171103040125 0 -0.0030916664918632548 0.026118013976361314 0 -0.0047639064833112053 0.024301168456532813 0 -0.0063110494735555836 0.022300399544639662 0 -0.0038733469068582931 0.025756692919130492 0 -0.0047639064833112053 0.024301168456532813 0 -0.0080601811734362355 0.022884786270611985 0 -0.0068382729492726781 0.021772865643679008 0 -0.0079839014400171215 0.020833542201105656 0 -0.0038514161014548596 0.023892783864797467 0 -0.003676527803394892 0.023239558210776761 0 -0.004351495272350959 0.023034740291618509 0 -0.0038514161014548596 0.023892783864797467 0 -0.004351495272350959 0.023034740291618509 0 -0.0044340045214725102 0.024269796851581777 0 -0.0061546006860608181 0.023458651815867659 0 -0.0068382729492726781 0.021772865643679008 0 -0.0054410494635115199 0.021412315576907894 0 -0.0061546006860608181 0.023458651815867659 0 -0.0080601811734362355 0.022884786270611985 0 -0.0068382729492726781 0.021772865643679008 0 -0.0068382729492726781 0.021772865643679008 0 -0.0065622175542972101 0.020212550445419416 0 -0.0054410494635115199 0.021412315576907894 0 -0.0068382729492726781 0.021772865643679008 0 -0.0065622175542972101 0.020212550445419416 0 -0.0079839014400171215 0.020833542201105656 0 -0.0045645299807016773 0.025609711253435061 0 -0.0038981824412288872 0.024609928967600472 0 -0.0044340045214725102 0.024269796851581777 0 -0.0078381675597640373 0.018721060161282325 0 -0.0065622175542972101 0.020212550445419416 0 -0.0079839014400171215 0.020833542201105656 0 -0.0038981824412288872 0.024609928967600472 0 -0.0038514161014548596 0.023892783864797467 0 -0.0044340045214725102 0.024269796851581777 0 -0.003617192489722071 0.020065183252447282 0 -0.0038055706156181826 0.021205090050275849 0 -0.0047704616711075482 0.020352124361952308 0 -0.0038055706156181826 0.021205090050275849 0 -0.0047704616711075482 0.020352124361952308 0 -0.0054410494635115199 0.021412315576907894 0 -0.0065622175542972101 0.020212550445419416 0 -0.005551774023006547 0.020223224720715801 0 -0.0054410494635115199 0.021412315576907894 0 -0.0047704616711075482 0.020352124361952308 0 -0.005551774023006547 0.020223224720715801 0 -0.0054410494635115199 0.021412315576907894 0 -0.0061546006860608181 0.023458651815867659 0 -0.0054410494635115199 0.021412315576907894 0 -0.0042602765838695138 0.022553556646532736 0 -0.0038055706156181826 0.021205090050275849 0 -0.0054410494635115199 0.021412315576907894 0 -0.0042602765838695138 0.022553556646532736 0 -0.0029630277742652964 0.022081903421046038 0 -0.0038055706156181826 0.021205090050275849 0 -0.0042602765838695138 0.022553556646532736 0 -0.0027899625841879385 0.023253781382291425 0 -0.0042602765838695138 0.022553556646532736 0 -0.0043504445897265464 0.02404393200189826 0 -0.0061546006860608181 0.023458651815867659 0 -0.0042602765838695138 0.022553556646532736 0 -0.0043504445897265464 0.02404393200189826 0 -0.0047008455744960006 0.024871128129686244 0 -0.0034975059089880295 0.024861793307212339 0 -0.003001896644910804 0.026223513633119706 0 -0.0029817222417722815 0.026293435370470814 0 -0.0028592091809407998 0.025657393049823944 0 -0.003001896644910804 0.026223513633119706 0 -0.0028592091809407998 0.025657393049823944 0 -0.0028168914263156076 0.025745017072910135 0 -0.0024540043078611754 0.024786172294665253 0 -0.0028592091809407998 0.025657393049823944 0 -0.0028168914263156076 0.025745017072910135 0 -0.0025099196696962197 0.024866062375044986 0 -0.0034975059089880295 0.024861793307212339 0 -0.0028027926330571789 0.026200398269977731 0 -0.0024519482048743504 0.026202677543679567 0 -0.0028168914263156076 0.025745017072910135 0 -0.0029958277543982626 0.026085765329758617 0 -0.0026214763126220547 0.026198512160909199 0 -0.0022955812631597679 0.025620305589501909 0 -0.0028168914263156076 0.025745017072910135 0 -0.0026214763126220547 0.026198512160909199 0 -0.002607174822302535 0.02625066636588589 0 -0.0022922764779719309 0.02620843437012927 0 -0.0025091060186401668 0.026313347546158938 0 -0.003001896644910804 0.026223513633119706 0 -0.0028168914263156076 0.025745017072910135 0 -0.0029958277543982626 0.026085765329758617 0 -0.003001896644910804 0.026223513633119706 0 -0.0029958277543982626 0.026085765329758617 0 -0.0029674332321310854 0.026473396641573364 0 -0.0028027926330571789 0.026200398269977731 0 -0.0029365221911348415 0.026407292485086119 0 -0.0030876363759499057 0.026754744095937578 0 -0.003001896644910804 0.026223513633119706 0 -0.0029674332321310854 0.026473396641573364 0 -0.0029280373844524565 0.026692226504117074 0 -0.0030876363759499057 0.026754744095937578 0 -0.0029674332321310854 0.026473396641573364 0 -0.0029280373844524565 0.026692226504117074 0 -0.0029674332321310854 0.026473396641573364 0 -0.0028625845560524919 0.026426512207976215 0 -0.0027012990791943094 0.026431979193232594 0 -0.0029280373844524565 0.026692226504117074 0 -0.0028625845560524919 0.026426512207976215 0 -0.0027012990791943094 0.026431979193232594 0 -0.0028625845560524919 0.026426512207976215 0 -0.0027509358529715722 0.026320727050481069 0 -0.002607174822302535 0.02625066636588589 0 -0.0028625845560524919 0.026426512207976215 0 -0.0027043170500222163 0.026338014960673607 0 -0.002607174822302535 0.02625066636588589 0 -0.0029674332321310854 0.026473396641573364 0 -0.0028625845560524919 0.026426512207976215 0 -0.002607174822302535 0.02625066636588589 0 -0.0027043170500222163 0.026338014960673607 0 -0.0025091060186401668 0.026313347546158938 0 -0.0027043170500222163 0.026338014960673607 0 -0.0025779549660744747 0.026354704120495637 0 -0.0025091060186401668 0.026313347546158938 0 -0.0028625845560524919 0.026426512207976215 0 -0.0027043170500222163 0.026338014960673607 0 -0.0027509358529715722 0.026320727050481069 0 -0.0027043170500222163 0.026338014960673607 0 -0.0027509358529715722 0.026320727050481069 0 -0.0026926197690668573 0.026311468000442834 0 -0.0027043170500222163 0.026338014960673607 0 -0.0026926197690668573 0.026311468000442834 0 -0.0025779549660744747 0.026354704120495637 0 -0.0027025813598547522 0.026321879244715678 0 -0.0026926197690668573 0.026311468000442834 0 -0.002630976562015247 0.026401637677259383 0 -0.0026926197690668573 0.026311468000442834 0 -0.002630976562015247 0.026401637677259383 0 -0.0025779549660744747 0.026354704120495637 0 -0.0027025813598547522 0.026321879244715678 0 -0.002630976562015247 0.026401637677259383 0 -0.0027202844490349307 0.026426786915213659 0 -0.0025779549660744747 0.026354704120495637 0 -0.0023777974212493237 0.026374478220546727 0 -0.0024951429016347093 0.026433265481461233 0 -0.002630976562015247 0.026401637677259383 0 -0.0025779549660744747 0.026354704120495637 0 -0.0024951429016347093 0.026433265481461233 0 -0.0023777974212493237 0.026374478220546727 0 -0.0023009297024224984 0.026327179320761927 0 -0.0025091060186401668 0.026313347546158938 0 -0.0025779549660744747 0.026354704120495637 0 -0.0023777974212493237 0.026374478220546727 0 -0.0025091060186401668 0.026313347546158938 0 -0.0021606562710677389 0.026353205481649253 0 -0.0023009297024224984 0.026327179320761927 0 -0.0021895016804661183 0.026376874558795921 0 -0.0023777974212493237 0.026374478220546727 0 -0.0023009297024224984 0.026327179320761927 0 -0.0021895016804661183 0.026376874558795921 0 -0.0023777974212493237 0.026374478220546727 0 -0.0021895016804661183 0.026376874558795921 0 -0.0022300293363655397 0.026407161191540785 0 -0.0021606562710677389 0.026353205481649253 0 -0.0023009297024224984 0.026327179320761927 0 -0.0022922764779719309 0.02620843437012927 0 -0.0023009297024224984 0.026327179320761927 0 -0.0022922764779719309 0.02620843437012927 0 -0.0025091060186401668 0.026313347546158938 0 -0.0022216578642595499 0.026492908481114821 0 -0.0023307577073161099 0.026584076550247158 0 -0.0021883931544965994 0.026690822929973761 0 -0.0022216578642595499 0.026492908481114821 0 -0.0021883931544965994 0.026690822929973761 0 -0.0020921570396259929 0.026527497557397813 0 -0.0023307577073161099 0.026584076550247158 0 -0.0021883931544965994 0.026690822929973761 0 -0.0023228292571010598 0.026743519093157479 0 -0.0023307577073161099 0.026584076550247158 0 -0.0024203822879010121 0.026650750123523859 0 -0.0023228292571010598 0.026743519093157479 0 -0.0019029426925116113 0.026392064676977189 0 -0.0020921570396259929 0.026527497557397813 0 -0.0019443868728558074 0.027098549601347471 0 -0.0019506638361219259 0.025913371650262199 0 -0.0019029426925116113 0.026392064676977189 0 -0.0014043586562612858 0.025410842307548909 0 -0.0019780422531064708 0.026732148174837191 0 -0.0017061339660273671 0.026243953150256988 0 -0.0021883931544965994 0.026690822929973761 0 -0.0020921570396259929 0.026527497557397813 0 -0.0020339734162480388 0.026777425835620733 0 -0.0018226960745697418 0.026343107333083107 0 -0.0017061339660273671 0.026243953150256988 0 -0.0020598623786895732 0.026275454164843913 0 -0.0019506638361219259 0.025913371650262199 0 -0.0019029426925116113 0.026392064676977189 0 -0.0020598623786895732 0.026275454164843913 0 -0.0019029426925116113 0.026392064676977189 0 -0.0020354770564357701 0.026378437019454574 0 -0.0019029426925116113 0.026392064676977189 0 -0.0020921570396259929 0.026527497557397813 0 -0.0021065405847827032 0.026422602056056201 0 -0.0022216578642595499 0.026492908481114821 0 -0.0020921570396259929 0.026527497557397813 0 -0.0021065405847827032 0.026422602056056201 0 -0.0019029426925116113 0.026392064676977189 0 -0.0021065405847827032 0.026422602056056201 0 -0.0021055562969289014 0.026399651210390934 0 -0.0021065405847827032 0.026422602056056201 0 -0.0021055562969289014 0.026399651210390934 0 -0.0022300293363655397 0.026407161191540785 0 -0.0019029426925116113 0.026392064676977189 0 -0.0021055562969289014 0.026399651210390934 0 -0.0020354770564357701 0.026378437019454574 0 -0.002107724126381846 0.026381375500088306 0 -0.0021055562969289014 0.026399651210390934 0 -0.0020354770564357701 0.026378437019454574 0 -0.002107724126381846 0.026381375500088306 0 -0.0021460414150903102 0.026394613384598087 0 -0.0021055562969289014 0.026399651210390934 0 -0.0021460414150903102 0.026394613384598087 0 -0.0021895016804661183 0.026376874558795921 0 -0.0021055562969289014 0.026399651210390934 0 -0.0021895016804661183 0.026376874558795921 0 -0.0021055562969289014 0.026399651210390934 0 -0.0022300293363655397 0.026407161191540785 0 -0.0023777974212493237 0.026374478220546727 0 -0.0022300293363655397 0.026407161191540785 0 -0.0023558446463765961 0.026454512579044923 0 -0.0022216578642595499 0.026492908481114821 0 -0.0021065405847827032 0.026422602056056201 0 -0.0022300293363655397 0.026407161191540785 0 -0.0022216578642595499 0.026492908481114821 0 -0.0022300293363655397 0.026407161191540785 0 -0.0023558446463765961 0.026454512579044923 0 -0.0023307577073161099 0.026584076550247158 0 -0.0023558446463765961 0.026454512579044923 0 -0.0024497213764564912 0.026541483877354336 0 -0.0022216578642595499 0.026492908481114821 0 -0.0023307577073161099 0.026584076550247158 0 -0.0023558446463765961 0.026454512579044923 0 -0.0023777974212493237 0.026374478220546727 0 -0.0023558446463765961 0.026454512579044923 0 -0.0024951429016347093 0.026433265481461233 0 -0.002630976562015247 0.026401637677259383 0 -0.0024951429016347093 0.026433265481461233 0 -0.0025643608199893172 0.026515788087786835 0 -0.0024951429016347093 0.026433265481461233 0 -0.0025643608199893172 0.026515788087786835 0 -0.0024497213764564912 0.026541483877354336 0 -0.0023558446463765961 0.026454512579044923 0 -0.0024951429016347093 0.026433265481461233 0 -0.0024497213764564912 0.026541483877354336 0 -0.002630976562015247 0.026401637677259383 0 -0.0026684249944985334 0.02652148938303019 0 -0.0027202844490349307 0.026426786915213659 0 -0.002630976562015247 0.026401637677259383 0 -0.0025643608199893172 0.026515788087786835 0 -0.0026684249944985334 0.02652148938303019 0 -0.0025643608199893172 0.026515788087786835 0 -0.0026684249944985334 0.02652148938303019 0 -0.0026148724864455014 0.026624044483734725 0 -0.0026684249944985334 0.02652148938303019 0 -0.0027150086044372026 0.026624341666673421 0 -0.0026148724864455014 0.026624044483734725 0 -0.0027150086044372026 0.026624341666673421 0 -0.0026148724864455014 0.026624044483734725 0 -0.0026685818794754067 0.026722032402453452 0 -0.0025643608199893172 0.026515788087786835 0 -0.0026148724864455014 0.026624044483734725 0 -0.002516019868130894 0.026637315777452542 0 -0.0026148724864455014 0.026624044483734725 0 -0.002594085344832301 0.026747672567668076 0 -0.002516019868130894 0.026637315777452542 0 -0.0026148724864455014 0.026624044483734725 0 -0.002594085344832301 0.026747672567668076 0 -0.0026685818794754067 0.026722032402453452 0 -0.0023307577073161099 0.026584076550247158 0 -0.0024497213764564912 0.026541483877354336 0 -0.0024203822879010121 0.026650750123523859 0 -0.0024497213764564912 0.026541483877354336 0 -0.002516019868130894 0.026637315777452542 0 -0.0024203822879010121 0.026650750123523859 0 -0.0025643608199893172 0.026515788087786835 0 -0.0024497213764564912 0.026541483877354336 0 -0.002516019868130894 0.026637315777452542 0 -0.002594085344832301 0.026747672567668076 0 -0.002516019868130894 0.026637315777452542 0 -0.0024848700626024286 0.026779310180092688 0 -0.002516019868130894 0.026637315777452542 0 -0.0024203822879010121 0.026650750123523859 0 -0.0024848700626024286 0.026779310180092688 0 -0.0024203822879010121 0.026650750123523859 0 -0.0024848700626024286 0.026779310180092688 0 -0.0023228292571010598 0.026743519093157479 0 -0.0024848700626024286 0.026779310180092688 0 -0.0024649768461258341 0.027035286546463241 0 -0.0023228292571010598 0.026743519093157479 0 -0.0024848700626024286 0.026779310180092688 0 -0.0026128653465078192 0.026886912306130037 0 -0.0024649768461258341 0.027035286546463241 0 -0.0026128653465078192 0.026886912306130037 0 -0.0024649768461258341 0.027035286546463241 0 -0.0027315445632643221 0.026931437699888164 0 -0.002594085344832301 0.026747672567668076 0 -0.0026685818794754067 0.026722032402453452 0 -0.002665068923778038 0.026842760883911475 0 -0.002594085344832301 0.026747672567668076 0 -0.002665068923778038 0.026842760883911475 0 -0.0026128653465078192 0.026886912306130037 0 -0.002594085344832301 0.026747672567668076 0 -0.0024848700626024286 0.026779310180092688 0 -0.0026128653465078192 0.026886912306130037 0 -0.0026128653465078192 0.026886912306130037 0 -0.0027315445632643221 0.026931437699888164 0 -0.0027291384095355091 0.026941958892400121 0 -0.002665068923778038 0.026842760883911475 0 -0.0026128653465078192 0.026886912306130037 0 -0.0027291384095355091 0.026941958892400121 0 -0.00084445042474491205 0.032106845562911067 0 -0.0009994658775292506 0.032118528491297586 0 -0.00080325921098776151 0.032205824304449196 0 -0.00084445042474491205 0.032106845562911067 0 -0.0009994658775292506 0.032118528491297586 0 -0.00092312248224931737 0.032051102487906213 0 -0.001793404441182927 0.029839868766877772 0 -0.0017567263694960688 0.029555827216656852 0 -0.0009994658775292506 0.032118528491297586 0 -0.0012344262481486983 0.032007762802182704 0 -0.0011137612604531031 0.031966251934458997 0 -0.001793404441182927 0.029839868766877772 0 -0.0012001378058336669 0.027597512782780498 0 -0.0024649768461258341 0.027035286546463241 0 -0.0022080376538065457 0.02691779537581299 0 -0.0020648999360666233 0.027129214857637064 0 -0.0024649768461258341 0.027035286546463241 0 -0.0022080376538065457 0.02691779537581299 0 -0.0023228292571010598 0.026743519093157479 0 -0.0021883931544965994 0.026690822929973761 0 -0.0022080376538065457 0.02691779537581299 0 -0.0023228292571010598 0.026743519093157479 0 -0.0017061339660273671 0.026243953150256988 0 -0.0015606919156049433 0.02384925111998638 0 -0.0022080376538065457 0.02691779537581299 0 -0.0020339734162480388 0.026777425835620733 0 -0.0020648999360666233 0.027129214857637064 0 -0.0017061339660273671 0.026243953150256988 0 -0.0012001378058336669 0.027597512782780498 0 -0.0022683045962370767 0.025204248747531272 0 -0.0019506638361219259 0.025913371650262199 0 -0.0014043586562612858 0.025410842307548909 0 -0.0021883931544965994 0.026690822929973761 0 -0.0022080376538065457 0.02691779537581299 0 -0.0020339734162480388 0.026777425835620733 0 -0.0013365621183139042 0.026260571492378097 0 -0.0012891625558352753 0.025713344275262045 0 -0.0014808844663541296 0.025672467801557589 0 -0.0024152544571051054 0.023833057221322486 0 -0.0014043586562612858 0.025410842307548909 0 -0.0020982347521629444 0.023616494674173764 0 -0.0015544365768731599 0.024391879797321443 0 -0.0017020471665071802 0.024354895467618314 0 -0.0017360032962535758 0.024214256476225306 0 -0.0012001378058336669 0.027597512782780498 0 -0.0015606919156049433 0.02384925111998638 0 -0.0012001378058336669 0.027597512782780498 0 -0.0020859381423304034 0.025201126288356194 0 -0.0015544365768731599 0.024391879797321443 0 -0.0017360032962535758 0.024214256476225306 0 -0.0015350884168816266 0.024101671448547385 0 -0.0015606919156049433 0.02384925111998638 0 -0.0017497335789026386 0.02014532739337091 0 -0.003009332154355302 0.018447735670993799 0 -0.0025250228165502112 0.020439402094633057 0 -0.0013152968304607653 0.019725135754046233 0 -0.0017497335789026386 0.02014532739337091 0 -0.0020859381423304034 0.025201126288356194 0 -0.0012344262481486983 0.032007762802182704 0 -0.0012215360815984076 0.03188009786464046 0 -0.0011137612604531031 0.031966251934458997 0 -0.0020859381423304034 0.025201126288356194 0 -0.0013428005865736292 0.028002791249287253 0 -0.0012215360815984076 0.03188009786464046 0 -0.0011137612604531031 0.031966251934458997 0 -0.0011152013058046552 0.031842294756491071 0 -0.0011137612604531031 0.031966251934458997 0 -0.0011152013058046552 0.031842294756491071 0 -0.0009999362396090521 0.031973892035421517 0 -0.0030561754489318109 0.025360376528908352 0 -0.0011812485365292824 0.024244184491469267 0 -0.0028659628147379096 0.023069423791255188 0 -0.0011812485365292824 0.024244184491469267 0 -0.0028659628147379096 0.023069423791255188 0 0.00070190897137621157 0.023134443553019506 0 -0.0020859381423304034 0.025201126288356194 0 -0.0019921043789352779 0.020459572473985159 0 -0.003009332154355302 0.018447735670993799 0 -0.0011691974487907058 0.017986005478894725 0 -0.0010225310699992708 0.016260774631422149 0 -0.003009332154355302 0.018447735670993799 0 -0.0013152968304607653 0.019725135754046233 0 -0.0011691974487907058 0.017986005478894725 0 -0.0017650397938840804 0.010452751474975021 0 -0.0016128270083821054 0.0099274980088450149 0 -0.0013422281415979905 0.010001352178591353 0 -0.0019921043789352779 0.020459572473985159 0 -0.0012029964654115559 0.016368304900693884 0 -0.0021214473199715794 0.013306954819650579 0 -0.0012029964654115559 0.016368304900693884 0 -0.0016128270083821054 0.0099274980088450149 0 -0.0013422281415979905 0.010001352178591353 0 -0.0013355409258902619 0.0099118808356894704 0 -0.0012029964654115559 0.016368304900693884 0 -0.0016403364374235024 0.015944667782239449 0 -0.0026675333408131912 0.020762877599471593 0 -0.0023529222713717496 0.020415277131379288 0 0.00070190897137621157 0.023134443553019506 0 -0.0028659628147379096 0.023069423791255188 0 -0.0026675333408131912 0.020762877599471593 0 0.00070190897137621157 0.023134443553019506 0 -0.0017857168717332009 0.018452223679293521 0 -0.0011355788646172152 0.027387860260393044 0 -0.0011241503514678453 0.017264891345640781 0 -0.0013807501412479587 0.0175468368418264 0 -0.0011677263880785474 0.017731069573383874 0 -0.0012029964654115559 0.016368304900693884 0 -0.0017857168717332009 0.018452223679293521 0 -0.0017857168717332009 0.018452223679293521 0 -0.0016403364374235024 0.015944667782239449 0 -0.0010508066841141224 0.02006319865257852 0 -0.0012540571876065185 0.020330727092328738 0 -0.0011053166539718219 0.02041441737521666 0 -0.0026145940586461852 0.022378542144029692 0 -0.0019993509919099539 0.022359063239278852 0 -0.0021636976903849823 0.021890408600260893 0 -0.0010753700805923971 0.020041603334776028 0 -0.0010508066841141224 0.02006319865257852 0 -0.0012540571876065185 0.020330727092328738 0 -0.0017857168717332009 0.018452223679293521 0 -0.0018664505518266794 0.021569704595075494 0 -0.0016403364374235024 0.015944667782239449 0 -0.00060679519584253417 0.014864472011771421 0 -0.0022807499382392596 0.011546696224880132 0 -0.00061748239790629183 0.013024714181477952 0 -0.00029756176439029174 0.0090819959988769228 0 -0.0017668010610970321 0.0098083623510878248 0 -0.0016128270083821054 0.0099274980088450149 0 -0.0015904673874659631 0.0096680812746013003 0 -0.0016128270083821054 0.0099274980088450149 0 -0.0015904673874659631 0.0096680812746013003 0 -0.0013355409258902619 0.0099118808356894704 0 -0.0020014397705609699 0.010551408645420882 0 -0.0016403364374235024 0.015944667782239449 0 -0.0015443538153749542 0.021983994714298054 0 -0.0019993509919099539 0.022359063239278852 0 -0.0013984783153441823 0.022534581427600071 0 -0.0015443538153749542 0.021983994714298054 0 -0.0019993509919099539 0.022359063239278852 0 -0.0021636976903849823 0.021890408600260893 0 -0.0026145940586461852 0.022378542144029692 0 -0.0019993509919099539 0.022359063239278852 0 -0.0020264320786915935 0.022937096270930039 0 -0.0011760975169931966 0.027248102933794757 0 -0.0011355788646172152 0.027387860260393044 0 -0.0019993509919099539 0.022359063239278852 0 -0.0013984783153441823 0.022534581427600071 0 -0.0020264320786915935 0.022937096270930039 0 -0.0011355788646172152 0.027387860260393044 0 -0.00024759386074301435 0.033103193454487298 0 -0.00081784777420318856 0.0319348294260315 0 -0.00089308868825506513 0.031933828245527034 0 -0.00085561919956485158 0.03200455173047697 0 -0.0011152013058046552 0.031842294756491071 0 -0.0009975469223282114 0.031780434918466764 0 -0.0009999362396090521 0.031973892035421517 0 -0.0009975469223282114 0.031780434918466764 0 -0.0009999362396090521 0.031973892035421517 0 -0.00085561919956485158 0.03200455173047697 0 -0.0013428005865736292 0.028002791249287253 0 -0.0011355788646172152 0.027387860260393044 0 -0.0009994658775292506 0.032118528491297586 0 -0.0011137612604531031 0.031966251934458997 0 -0.0009999362396090521 0.031973892035421517 0 -0.0009994658775292506 0.032118528491297586 0 -0.0009999362396090521 0.031973892035421517 0 -0.00092312248224931737 0.032051102487906213 0 -0.0009999362396090521 0.031973892035421517 0 -0.00085561919956485158 0.03200455173047697 0 -0.00092312248224931737 0.032051102487906213 0 -0.00084445042474491205 0.032106845562911067 0 -0.00085561919956485158 0.03200455173047697 0 -0.00092312248224931737 0.032051102487906213 0 -0.00084445042474491205 0.032106845562911067 0 -0.00085561919956485158 0.03200455173047697 0 -0.00078559581659171356 0.032086395340669802 0 -0.00084445042474491205 0.032106845562911067 0 -0.00078559581659171356 0.032086395340669802 0 -0.00078755341330858731 0.032138870726460149 0 -0.00078559581659171356 0.032086395340669802 0 -0.00073864878399269244 0.0321616339753674 0 -0.00078755341330858731 0.032138870726460149 0 -0.00078559581659171356 0.032086395340669802 0 -0.00072188838092840575 0.032109302935254415 0 -0.00073864878399269244 0.0321616339753674 0 -0.00068357346971929345 0.032184019515523195 0 -0.00072188838092840575 0.032109302935254415 0 -0.00073864878399269244 0.0321616339753674 0 -0.00068357346971929345 0.032184019515523195 0 -0.00072188838092840575 0.032109302935254415 0 -0.00064766229556915576 0.032152413724414422 0 -0.00072188838092840575 0.032109302935254415 0 -0.00076842426056099593 0.032020354746624638 0 -0.00068754332919266096 0.032046991152762654 0 -0.00072188838092840575 0.032109302935254415 0 -0.00068754332919266096 0.032046991152762654 0 -0.00064766229556915576 0.032152413724414422 0 -0.00078559581659171356 0.032086395340669802 0 -0.00072188838092840575 0.032109302935254415 0 -0.00076842426056099593 0.032020354746624638 0 -0.00081784777420318856 0.0319348294260315 0 -0.00085561919956485158 0.03200455173047697 0 -0.00076842426056099593 0.032020354746624638 0 -0.00085561919956485158 0.03200455173047697 0 -0.00078559581659171356 0.032086395340669802 0 -0.00076842426056099593 0.032020354746624638 0 -0.00081784777420318856 0.0319348294260315 0 -0.00076842426056099593 0.032020354746624638 0 -0.0007248097735540602 0.031911119131441595 0 -0.00076842426056099593 0.032020354746624638 0 -0.00068754332919266096 0.032046991152762654 0 -0.0007248097735540602 0.031911119131441595 0 -0.0011760975169931966 0.027248102933794757 0 -0.00076078370316446731 0.027061556456770483 0 -0.0015443538153749542 0.021983994714298054 0 -0.0013984783153441823 0.022534581427600071 0 -0.00080608423339891097 0.022114205432190757 0 -0.000632369129434945 0.031980411974889114 0 -0.00054656379825083264 0.032065620814159576 0 -0.00049741599304838264 0.031956722126526976 0 -0.000632369129434945 0.031980411974889114 0 -0.00049741599304838264 0.031956722126526976 0 -0.00061150416864441367 0.031835735900665942 0 -0.0007248097735540602 0.031911119131441595 0 -0.000632369129434945 0.031980411974889114 0 -0.00061150416864441367 0.031835735900665942 0 -0.00076078370316446731 0.027061556456770483 0 -0.00057517167720861761 0.026417579003294084 0 -0.00068754332919266096 0.032046991152762654 0 -0.0007248097735540602 0.031911119131441595 0 -0.000632369129434945 0.031980411974889114 0 -0.00068754332919266096 0.032046991152762654 0 -0.000632369129434945 0.031980411974889114 0 -0.00059154498039009891 0.032132640747056969 0 -0.000632369129434945 0.031980411974889114 0 -0.00054656379825083264 0.032065620814159576 0 -0.00059154498039009891 0.032132640747056969 0 -0.00054656379825083264 0.032065620814159576 0 -0.00059154498039009891 0.032132640747056969 0 -0.00050408480224156812 0.032193955751262902 0 -0.00059154498039009891 0.032132640747056969 0 -0.00052925052745503667 0.032247511252916104 0 -0.00050408480224156812 0.032193955751262902 0 -0.00059154498039009891 0.032132640747056969 0 -0.00052925052745503667 0.032247511252916104 0 -0.00058298903069797911 0.032208938420759899 0 -0.00068754332919266096 0.032046991152762654 0 -0.00059154498039009891 0.032132640747056969 0 -0.00064766229556915576 0.032152413724414422 0 -0.00059154498039009891 0.032132640747056969 0 -0.00064766229556915576 0.032152413724414422 0 -0.00058298903069797911 0.032208938420759899 0 -0.00064766229556915576 0.032152413724414422 0 -0.00062328144920861762 0.032223525052722371 0 -0.00058298903069797911 0.032208938420759899 0 -0.00068357346971929345 0.032184019515523195 0 -0.00064766229556915576 0.032152413724414422 0 -0.00062328144920861762 0.032223525052722371 0 -0.00052925052745503667 0.032247511252916104 0 -0.00054658267184100903 0.032265235544751608 0 -0.00049238581332376209 0.03230231455080787 0 -0.00052925052745503667 0.032247511252916104 0 -0.00058298903069797911 0.032208938420759899 0 -0.00054658267184100903 0.032265235544751608 0 -0.00062328144920861762 0.032223525052722371 0 -0.00058298903069797911 0.032208938420759899 0 -0.00054658267184100903 0.032265235544751608 0 -0.00054658267184100903 0.032265235544751608 0 -0.00050328583781285665 0.03231763464802194 0 -0.00049238581332376209 0.03230231455080787 0 -0.00054658267184100903 0.032265235544751608 0 -0.00057152784033466628 0.032287495556004159 0 -0.00050328583781285665 0.03231763464802194 0 -0.00062328144920861762 0.032223525052722371 0 -0.00054658267184100903 0.032265235544751608 0 -0.00057152784033466628 0.032287495556004159 0 -0.00057152784033466628 0.032287495556004159 0 -0.00053436507839111594 0.032323637477582164 0 -0.00057353809040413043 0.032330177865973149 0 -0.00057152784033466628 0.032287495556004159 0 -0.00053436507839111594 0.032323637477582164 0 -0.00050328583781285665 0.03231763464802194 0 -0.00057353809040413043 0.032330177865973149 0 -0.00058710124071122756 0.032381261878148208 0 -0.00049897044475234091 0.032353833099594581 0 -0.00053436507839111594 0.032323637477582164 0 -0.00057353809040413043 0.032330177865973149 0 -0.00049897044475234091 0.032353833099594581 0 -0.00044247342904226307 0.029941039335591599 0 -0.00073304810715532512 0.030635581132786409 0 -0.00029280472927290408 0.030491500014289404 0 -0.00044247342904226307 0.029941039335591599 0 -0.00037836653347170473 0.029784347970480723 0 -0.00029280472927290408 0.030491500014289404 0 0.00015115797195323856 0.030434589252581759 0 -0.00037836653347170473 0.029784347970480723 0 -0.00029280472927290408 0.030491500014289404 0 -0.00025755379381199286 0.031376445170957182 0 -0.00085500774633049466 0.031393007284081551 0 -0.00057353809040413043 0.032330177865973149 0 -0.00058710124071122756 0.032381261878148208 0 -0.00060899245126443558 0.032314259362831506 0 -0.00058710124071122756 0.032381261878148208 0 -0.00060899245126443558 0.032314259362831506 0 -0.00065435798433379887 0.032319199444097987 0 -0.00066311575176582725 0.032245321203428226 0 -0.00067477846488275361 0.032241571287463092 0 -0.00067326806036997419 0.032244367544916823 0 -0.00066490879535129022 0.032260251763198557 0 -0.00066311575176582725 0.032245321203428226 0 -0.00067326806036997419 0.032244367544916823 0 -0.0011705943981333399 0.029522136595271208 0 -0.00085500774633049466 0.031393007284081551 0 -0.0006628593095512977 0.03225598296191131 0 -0.00063997658099395867 0.032259939585860584 0 -0.00067477846488275361 0.032241571287463092 0 -0.00085500774633049466 0.031393007284081551 0 -0.00058942556455866726 0.031898073362883743 0 -0.00060899245126443558 0.032314259362831506 0 -0.00065435798433379887 0.032319199444097987 0 -0.00063997658099395867 0.032259939585860584 0 -0.00085500774633049466 0.031393007284081551 0 -0.00088682214092936236 0.032169444487742414 0 -0.00063997658099395867 0.032259939585860584 0 -0.00067126842918857133 0.032225169563030384 0 -0.00067477846488275361 0.032241571287463092 0 -0.00057152784033466628 0.032287495556004159 0 -0.00060899245126443558 0.032314259362831506 0 -0.00063997658099395867 0.032259939585860584 0 -0.00057152784033466628 0.032287495556004159 0 -0.00057353809040413043 0.032330177865973149 0 -0.00060899245126443558 0.032314259362831506 0 -0.00062328144920861762 0.032223525052722371 0 -0.00057152784033466628 0.032287495556004159 0 -0.00063997658099395867 0.032259939585860584 0 -0.00068357346971929345 0.032184019515523195 0 -0.00062328144920861762 0.032223525052722371 0 -0.00067126842918857133 0.032225169563030384 0 -0.00062328144920861762 0.032223525052722371 0 -0.00063997658099395867 0.032259939585860584 0 -0.00067126842918857133 0.032225169563030384 0 -0.00068357346971929345 0.032184019515523195 0 -0.00067126842918857133 0.032225169563030384 0 -0.00070765913647636289 0.032204883053191947 0 -0.00073864878399269244 0.0321616339753674 0 -0.00070765913647636289 0.032204883053191947 0 -0.00073738062660343975 0.032199883621743863 0 -0.00068357346971929345 0.032184019515523195 0 -0.00073864878399269244 0.0321616339753674 0 -0.00070765913647636289 0.032204883053191947 0 -0.00070765913647636289 0.032204883053191947 0 -0.00073738062660343975 0.032199883621743863 0 -0.00072020734564193223 0.032216946775257396 0 -0.00070875390043705793 0.032227593903911965 0 -0.00068971561377936612 0.032238743523045288 0 -0.0007362677644740718 0.032223307110320842 0 -0.00073738062660343975 0.032199883621743863 0 -0.00075495963351153352 0.032202521964635598 0 -0.0007362677644740718 0.032223307110320842 0 -0.00073738062660343975 0.032199883621743863 0 -0.00072020734564193223 0.032216946775257396 0 -0.0007362677644740718 0.032223307110320842 0 -0.00070875390043705793 0.032227593903911965 0 -0.00072020734564193223 0.032216946775257396 0 -0.0007362677644740718 0.032223307110320842 0 -0.00070875390043705793 0.032227593903911965 0 -0.00072020734564193223 0.032216946775257396 0 -0.00069480232338116918 0.032226126291033684 0 -0.00070875390043705793 0.032227593903911965 0 -0.00069480232338116918 0.032226126291033684 0 -0.00068971561377936612 0.032238743523045288 0 -0.00067477846488275361 0.032241571287463092 0 -0.00069480232338116918 0.032226126291033684 0 -0.00068971561377936612 0.032238743523045288 0 -0.00067477846488275361 0.032241571287463092 0 -0.00067326806036997419 0.032244367544916823 0 -0.00068971561377936612 0.032238743523045288 0 -0.00067126842918857133 0.032225169563030384 0 -0.00067477846488275361 0.032241571287463092 0 -0.00069480232338116918 0.032226126291033684 0 -0.00067126842918857133 0.032225169563030384 0 -0.00070765913647636289 0.032204883053191947 0 -0.00069480232338116918 0.032226126291033684 0 -0.00070765913647636289 0.032204883053191947 0 -0.00072020734564193223 0.032216946775257396 0 -0.00069480232338116918 0.032226126291033684 0 -0.00084445042474491205 0.032106845562911067 0 -0.00078755341330858731 0.032138870726460149 0 -0.00080497378746793857 0.03215849485977175 0 -0.00078755341330858731 0.032138870726460149 0 -0.00080497378746793857 0.03215849485977175 0 -0.0007689932372006165 0.03218004628717825 0 -0.00073864878399269244 0.0321616339753674 0 -0.00078755341330858731 0.032138870726460149 0 -0.0007689932372006165 0.03218004628717825 0 -0.00073864878399269244 0.0321616339753674 0 -0.00073738062660343975 0.032199883621743863 0 -0.0007689932372006165 0.03218004628717825 0 -0.00077115691731822849 0.032199602818191252 0 -0.00080325921098776151 0.032205824304449196 0 -0.0007362677644740718 0.032223307110320842 0 -0.00073738062660343975 0.032199883621743863 0 -0.00075495963351153352 0.032202521964635598 0 -0.0007689932372006165 0.03218004628717825 0 -0.00075495963351153352 0.032202521964635598 0 -0.00077115691731822849 0.032199602818191252 0 -0.0007689932372006165 0.03218004628717825 0 -0.00075495963351153352 0.032202521964635598 0 -0.00077115691731822849 0.032199602818191252 0 -0.0007362677644740718 0.032223307110320842 0 -0.00077115691731822849 0.032199602818191252 0 -0.0007689932372006165 0.03218004628717825 0 -0.00078900903047224378 0.032185329921909984 0 -0.00084445042474491205 0.032106845562911067 0 -0.00080497378746793857 0.03215849485977175 0 -0.00080325921098776151 0.032205824304449196 0 -0.00080497378746793857 0.03215849485977175 0 -0.0007689932372006165 0.03218004628717825 0 -0.00078900903047224378 0.032185329921909984 0 -0.00080497378746793857 0.03215849485977175 0 -0.00078900903047224378 0.032185329921909984 0 -0.00080325921098776151 0.032205824304449196 0 -0.00077115691731822849 0.032199602818191252 0 -0.00078900903047224378 0.032185329921909984 0 -0.00080325921098776151 0.032205824304449196 0 -0.0027291384095355091 0.026941958892400121 0 -0.0025098729377702345 0.027151294464954859 0 -0.0025238387164221547 0.027531363135303581 0 -0.0026976237883922201 0.027029666261585334 0 -0.002761592352756562 0.026949983931579317 0 -0.002665068923778038 0.026842760883911475 0 -0.0027291384095355091 0.026941958892400121 0 -0.0028419475573456541 0.026705920781633221 0 -0.0027291384095355091 0.026941958892400121 0 -0.0026272514600826466 0.027009918047428638 0 -0.0025098729377702345 0.027151294464954859 0 -0.0027315445632643221 0.026931437699888164 0 -0.0027291384095355091 0.026941958892400121 0 -0.0026272514600826466 0.027009918047428638 0 -0.0027315445632643221 0.026931437699888164 0 -0.0026272514600826466 0.027009918047428638 0 -0.0025423644315969258 0.02704715101247206 0 -0.0027315445632643221 0.026931437699888164 0 -0.0025423644315969258 0.02704715101247206 0 -0.002315023621762083 0.027103101239213861 0 -0.0026272514600826466 0.027009918047428638 0 -0.0025423644315969258 0.02704715101247206 0 -0.0025098729377702345 0.027151294464954859 0 -0.0025423644315969258 0.02704715101247206 0 -0.0025098729377702345 0.027151294464954859 0 -0.002315023621762083 0.027103101239213861 0 -0.0025098729377702345 0.027151294464954859 0 -0.0022750451298606473 0.027313018033867605 0 -0.0025238387164221547 0.027531363135303581 0 -0.0018332140894145468 0.027053788468167129 0 -0.0027315445632643221 0.026931437699888164 0 -0.002315023621762083 0.027103101239213861 0 -0.00066490879535129022 0.032260251763198557 0 -0.00080325921098776151 0.032205824304449196 0 -0.0007362677644740718 0.032223307110320842 0 -0.0011705943981333399 0.029522136595271208 0 -0.0017567263694960688 0.029555827216656852 0 -0.0018332140894145468 0.027053788468167129 0 -0.002315023621762083 0.027103101239213861 0 -0.0020805589626058832 0.027233566299882845 0 -0.00066490879535129022 0.032260251763198557 0 -0.00068971561377936612 0.032238743523045288 0 -0.0007362677644740718 0.032223307110320842 0 -0.00066490879535129022 0.032260251763198557 0 -0.00067326806036997419 0.032244367544916823 0 -0.00068971561377936612 0.032238743523045288 0 -0.002315023621762083 0.027103101239213861 0 -0.0022750451298606473 0.027313018033867605 0 -0.0020805589626058832 0.027233566299882845 0 -0.0025098729377702345 0.027151294464954859 0 -0.002315023621762083 0.027103101239213861 0 -0.0022750451298606473 0.027313018033867605 0 -0.0018332140894145468 0.027053788468167129 0 -0.0020805589626058832 0.027233566299882845 0 -0.0020083340660792728 0.027512352284938424 0 -0.0022750451298606473 0.027313018033867605 0 -0.0020805589626058832 0.027233566299882845 0 -0.0020083340660792728 0.027512352284938424 0 -0.0011705943981333399 0.029522136595271208 0 -0.0013790513269054229 0.029201479107479045 0 -0.0013790513269054229 0.029201479107479045 0 -0.0021316538244623823 0.028198901747918823 0 -0.0020083340660792728 0.027512352284938424 0 -0.0025238387164221547 0.027531363135303581 0 -0.0022391109671743297 0.028080118940240418 0 -0.0022750451298606473 0.027313018033867605 0 -0.0020083340660792728 0.027512352284938424 0 -0.0025238387164221547 0.027531363135303581 0 -0.00073304810715532512 0.030635581132786409 0 -0.0010999941733285303 0.031506297647668519 0 -0.00021034418404662945 0.031119597819643061 0 -0.002761592352756562 0.026949983931579317 0 -0.0021316538244623823 0.028198901747918823 0 -0.0028419475573456541 0.026705920781633221 0 -0.0027859903900089842 0.026557235610551847 0 -0.0029120583230895312 0.02652366423494373 0 -0.0027150086044372026 0.026624341666673421 0 -0.0026685818794754067 0.026722032402453452 0 -0.0028419475573456541 0.026705920781633221 0 -0.0026685818794754067 0.026722032402453452 0 -0.002665068923778038 0.026842760883911475 0 -0.0028419475573456541 0.026705920781633221 0 -0.0027150086044372026 0.026624341666673421 0 -0.0028419475573456541 0.026705920781633221 0 -0.0027859903900089842 0.026557235610551847 0 -0.002830946398232176 0.026365335754005535 0 -0.0027859903900089842 0.026557235610551847 0 -0.0027202844490349307 0.026426786915213659 0 -0.002830946398232176 0.026365335754005535 0 -0.0027859903900089842 0.026557235610551847 0 -0.0029120583230895312 0.02652366423494373 0 -0.0026684249944985334 0.02652148938303019 0 -0.0027859903900089842 0.026557235610551847 0 -0.0027202844490349307 0.026426786915213659 0 -0.0026684249944985334 0.02652148938303019 0 -0.0027150086044372026 0.026624341666673421 0 -0.0027859903900089842 0.026557235610551847 0 -0.0010999941733285303 0.031506297647668519 0 -0.00038023073895968246 0.032008190167076497 0 -0.00021034418404662945 0.031119597819643061 0 -0.0025120589550050505 0.025870960613384616 0 -0.0021316538244623823 0.028198901747918823 0 0.00024081386921491948 0.031880407014167243 0 0.00068103935852064572 0.031095702140677736 0 -0.00021034418404662945 0.031119597819643061 0 -0.00038023073895968246 0.032008190167076497 0 0.00024081386921491948 0.031880407014167243 0 -0.00021034418404662945 0.031119597819643061 0 -0.00011554194820962998 0.032619499684307843 0 -3.9686493767492258e-05 0.03249284213284629 0 6.6480281679722828e-05 0.032643284411430024 0 -9.1684546402363918e-05 0.032204218919976178 0 8.4533715135837645e-05 0.032808862375202016 0 0.00010400582428990939 0.032169156810683101 0 -9.1684546402363918e-05 0.032204218919976178 0 -0.00058710124071122756 0.032381261878148208 0 -0.00054356043101592673 0.032429413898253281 0 -0.00049897044475234091 0.032353833099594581 0 -9.1684546402363918e-05 0.032204218919976178 0 -0.00031747739695941443 0.032642586800506669 0 -0.00025755379381199286 0.031376445170957182 0 -9.1684546402363918e-05 0.032204218919976178 0 0.00015115797195323856 0.030434589252581759 0 0.00068103935852064572 0.031095702140677736 0 -0.00021034418404662945 0.031119597819643061 0 0.00015115797195323856 0.030434589252581759 0 -0.00029280472927290408 0.030491500014289404 0 -0.00021034418404662945 0.031119597819643061 0 -0.00073304810715532512 0.030635581132786409 0 -0.00029280472927290408 0.030491500014289404 0 -0.00021034418404662945 0.031119597819643061 0 3.4036097157790091e-05 0.032800717057535782 0 1.5266760472515654e-05 0.032809052608185361 0 -4.3063310708166123e-05 0.032760901488500756 0 -3.2064881125715607e-05 0.03280431779114442 0 1.5266760472515654e-05 0.032809052608185361 0 -4.3063310708166123e-05 0.032760901488500756 0 1.5266760472515654e-05 0.032809052608185361 0 2.6867460803490592e-05 0.032847590660346142 0 8.8096467584804905e-05 0.032847138957156428 0 -3.2064881125715607e-05 0.03280431779114442 0 1.5266760472515654e-05 0.032809052608185361 0 2.6867460803490592e-05 0.032847590660346142 0 3.4036097157790091e-05 0.032800717057535782 0 8.8096467584804905e-05 0.032847138957156428 0 0.0001259168416010792 0.032850131817784935 0 3.4036097157790091e-05 0.032800717057535782 0 1.5266760472515654e-05 0.032809052608185361 0 8.8096467584804905e-05 0.032847138957156428 0 0.00029087306604937623 0.032936781978962326 0 0.00020141698138855568 0.032883321911949356 0 0.00023203585266281114 0.032804058217783101 0 0.00018976210962843367 0.032902188846024076 0 8.8096467584804905e-05 0.032847138957156428 0 0.0001259168416010792 0.032850131817784935 0 0.00018976210962843367 0.032902188846024076 0 0.0001259168416010792 0.032850131817784935 0 0.00020141698138855568 0.032883321911949356 0 0.0001259168416010792 0.032850131817784935 0 0.00020141698138855568 0.032883321911949356 0 0.00011317344759879761 0.032811101440096878 0 0.00020141698138855568 0.032883321911949356 0 0.00011317344759879761 0.032811101440096878 0 0.00023203585266281114 0.032804058217783101 0 3.4036097157790091e-05 0.032800717057535782 0 0.0001259168416010792 0.032850131817784935 0 0.00011317344759879761 0.032811101440096878 0 3.4036097157790091e-05 0.032800717057535782 0 0.00011317344759879761 0.032811101440096878 0 -3.9456280492406275e-05 0.032756569458552383 0 0.00011317344759879761 0.032811101440096878 0 4.9864654682112581e-05 0.032726151918811487 0 -3.9456280492406275e-05 0.032756569458552383 0 -7.2276413303541074e-05 0.033281181909846393 0 0.00012735032309938888 0.033765953906807256 0 0.00011317344759879761 0.032811101440096878 0 4.9864654682112581e-05 0.032726151918811487 0 0.00023203585266281114 0.032804058217783101 0 -0.00023186625249710036 0.033815146750481855 0 0.00011873825621417981 0.032808431483664857 0 0.00031989595645684596 0.033845660843394715 0 -7.2276413303541074e-05 0.033281181909846393 0 -0.00023876189327062629 0.032791664543929462 0 4.9864654682112581e-05 0.032726151918811487 0 -0.00010948080422374942 0.032728832907035758 0 -3.9456280492406275e-05 0.032756569458552383 0 4.9864654682112581e-05 0.032726151918811487 0 -0.00010948080422374942 0.032728832907035758 0 -0.00025233877326176138 0.032717673711974787 0 -0.00012981771477681047 0.032737939531687431 0 -3.9456280492406275e-05 0.032756569458552383 0 -4.3063310708166123e-05 0.032760901488500756 0 -0.00010948080422374942 0.032728832907035758 0 -0.00012981771477681047 0.032737939531687431 0 -3.9456280492406275e-05 0.032756569458552383 0 3.4036097157790091e-05 0.032800717057535782 0 -3.9456280492406275e-05 0.032756569458552383 0 -4.3063310708166123e-05 0.032760901488500756 0 -0.00053436507839111594 0.032323637477582164 0 -0.00049897044475234091 0.032353833099594581 0 -0.00050328583781285665 0.03231763464802194 0 -0.00045942999094382404 0.032339429618126248 0 -0.00049897044475234091 0.032353833099594581 0 -0.00050328583781285665 0.03231763464802194 0 -0.00027793672676565433 0.032505201970834424 0 -0.00031747739695941443 0.032642586800506669 0 -0.00045942999094382404 0.032339429618126248 0 -0.00050328583781285665 0.03231763464802194 0 -0.00049238581332376209 0.03230231455080787 0 -0.00045942999094382404 0.032339429618126248 0 -0.00049238581332376209 0.03230231455080787 0 -0.0004641887039227058 0.032323220425744363 0 -0.00045942999094382404 0.032339429618126248 0 -0.00041436868763339632 0.032396478093315632 0 -0.0004641887039227058 0.032323220425744363 0 -0.00052925052745503667 0.032247511252916104 0 -0.00049238581332376209 0.03230231455080787 0 -0.0004641887039227058 0.032323220425744363 0 -0.00012981771477681047 0.032737939531687431 0 -0.00033111548120760755 0.032520747725590729 0 -0.00025233877326176138 0.032717673711974787 0 -0.00027793672676565433 0.032505201970834424 0 -0.00031340085984827681 0.032507445284162995 0 -0.00010948080422374942 0.032728832907035758 0 -0.00012981771477681047 0.032737939531687431 0 -0.00025233877326176138 0.032717673711974787 0 -0.00045942999094382404 0.032339429618126248 0 -0.00033111548120760755 0.032520747725590729 0 -0.00041436868763339632 0.032396478093315632 0 -0.00041436868763339632 0.032396478093315632 0 -0.00044447410907422544 0.0322648499614216 0 -0.00035468438920006407 0.032274651291711663 0 -0.00033111548120760755 0.032520747725590729 0 -0.00041436868763339632 0.032396478093315632 0 -0.00035468438920006407 0.032274651291711663 0 -0.00033111548120760755 0.032520747725590729 0 -0.00035468438920006407 0.032274651291711663 0 -0.00025669285257143211 0.032395718681348655 0 -0.00052925052745503667 0.032247511252916104 0 -0.0004641887039227058 0.032323220425744363 0 -0.00050408480224156812 0.032193955751262902 0 -0.00041436868763339632 0.032396478093315632 0 -0.0004641887039227058 0.032323220425744363 0 -0.00044447410907422544 0.0322648499614216 0 -0.0004641887039227058 0.032323220425744363 0 -0.00044447410907422544 0.0322648499614216 0 -0.00050408480224156812 0.032193955751262902 0 -0.00054656379825083264 0.032065620814159576 0 -0.00050408480224156812 0.032193955751262902 0 -0.00047424896064835891 0.032065404740381907 0 -0.00050408480224156812 0.032193955751262902 0 -0.00047424896064835891 0.032065404740381907 0 -0.00043690458128211451 0.032167707752831225 0 -0.00047424896064835891 0.032065404740381907 0 -0.00043690458128211451 0.032167707752831225 0 -0.00038184366138697566 0.032118246654104544 0 -0.00044447410907422544 0.0322648499614216 0 -0.00050408480224156812 0.032193955751262902 0 -0.00043690458128211451 0.032167707752831225 0 -0.00035468438920006407 0.032274651291711663 0 -0.00029203988097701753 0.032121218093009628 0 -0.00012209460364420079 0.032222011228361477 0 -0.00044447410907422544 0.0322648499614216 0 -0.00043690458128211451 0.032167707752831225 0 -0.00035468438920006407 0.032274651291711663 0 -0.00043690458128211451 0.032167707752831225 0 -0.00035468438920006407 0.032274651291711663 0 -0.00038184366138697566 0.032118246654104544 0 -0.00035468438920006407 0.032274651291711663 0 -0.00029203988097701753 0.032121218093009628 0 -0.00038184366138697566 0.032118246654104544 0 -0.00029203988097701753 0.032121218093009628 0 -0.00038184366138697566 0.032118246654104544 0 -0.0003471083292123297 0.032035714979073544 0 -0.0013104223206358329 0.034429456150245424 0 -0.00067865983737822771 0.034423709403917972 0 -0.0013659082598227134 0.034341499148235977 0 -0.00029203988097701753 0.032121218093009628 0 -0.0003471083292123297 0.032035714979073544 0 -0.00030994093328622709 0.031935114569335205 0 -0.00038184366138697566 0.032118246654104544 0 -0.0003471083292123297 0.032035714979073544 0 -0.00039912110143963919 0.032030111678470127 0 -0.0003471083292123297 0.032035714979073544 0 -0.00039912110143963919 0.032030111678470127 0 -0.0003532292279910092 0.031973025282114015 0 -0.00030994093328622709 0.031935114569335205 0 -0.0003532292279910092 0.031973025282114015 0 -0.00039659030521063053 0.031944233369484994 0 -0.0003471083292123297 0.032035714979073544 0 -0.00030994093328622709 0.031935114569335205 0 -0.0003532292279910092 0.031973025282114015 0 -0.00039912110143963919 0.032030111678470127 0 -0.0003532292279910092 0.031973025282114015 0 -0.00039659030521063053 0.031944233369484994 0 -0.00039659030521063053 0.031944233369484994 0 -0.00049741599304838264 0.031956722126526976 0 -0.00043470700262273872 0.031864397745958346 0 -0.00039912110143963919 0.032030111678470127 0 -0.00039659030521063053 0.031944233369484994 0 -0.00049741599304838264 0.031956722126526976 0 -0.00054656379825083264 0.032065620814159576 0 -0.00047424896064835891 0.032065404740381907 0 -0.00049741599304838264 0.031956722126526976 0 -0.00047424896064835891 0.032065404740381907 0 -0.00039912110143963919 0.032030111678470127 0 -0.00049741599304838264 0.031956722126526976 0 -0.00047424896064835891 0.032065404740381907 0 -0.00038184366138697566 0.032118246654104544 0 -0.00039912110143963919 0.032030111678470127 0 -0.00067865983737822771 0.034423709403917972 0 -0.00038677751706810609 0.034760053101349171 0 -0.00022449379093579573 0.034613422156015858 0 -0.00086177626664465067 0.034512845897794554 0 -0.00041335511919117761 0.034706622474070754 0 -0.0010423737761158171 0.034587904845073743 0 -0.0005834856103063788 0.034812246190486611 0 -0.0006798836123218196 0.034324029885488785 0 -0.00067865983737822771 0.034423709403917972 0 -0.0006484904148781203 0.034896615590536945 0 -0.00038677751706810609 0.034760053101349171 0 -0.00029203988097701753 0.032121218093009628 0 -0.00030994093328622709 0.031935114569335205 0 -0.00012209460364420079 0.032222011228361477 0 -0.00086177626664465067 0.034512845897794554 0 -0.0013064221853968632 0.034360932137829245 0 -0.0013104223206358329 0.034429456150245424 0 -0.00067865983737822771 0.034423709403917972 0 -0.0006484904148781203 0.034896615590536945 0 -0.00081428619078525142 0.033690293448624592 0 -0.00042136391455785052 0.033448148027634225 0 -0.00035468438920006407 0.032274651291711663 0 -0.00012209460364420079 0.032222011228361477 0 -0.00025669285257143211 0.032395718681348655 0 -0.0006484904148781203 0.034896615590536945 0 -0.00038677751706810609 0.034760053101349171 0 -0.00024690991107242314 0.034905229833128396 0 -0.00038677751706810609 0.034760053101349171 0 -0.00024690991107242314 0.034905229833128396 0 -0.0001939896747021756 0.034798114607063599 0 -0.00038677751706810609 0.034760053101349171 0 -0.0001939896747021756 0.034798114607063599 0 -0.00022449379093579573 0.034613422156015858 0 -0.0006484904148781203 0.034896615590536945 0 -0.00024690991107242314 0.034905229833128396 0 -0.00020707504263324525 0.035056362224068674 0 -0.00042136391455785052 0.033448148027634225 0 -5.7527226481494481e-05 0.033941084754682008 0 -0.00012209460364420079 0.032222011228361477 0 -0.00016975723839882733 0.032528157736320652 0 0.00011873825621417981 0.032808431483664857 0 -0.00016975723839882733 0.032528157736320652 0 -0.00025233877326176138 0.032717673711974787 0 0.00011873825621417981 0.032808431483664857 0 -0.00012209460364420079 0.032222011228361477 0 -0.00025669285257143211 0.032395718681348655 0 -0.00016975723839882733 0.032528157736320652 0 -0.00033111548120760755 0.032520747725590729 0 -0.00016975723839882733 0.032528157736320652 0 -0.00025233877326176138 0.032717673711974787 0 -0.00033111548120760755 0.032520747725590729 0 -0.00025669285257143211 0.032395718681348655 0 -0.00016975723839882733 0.032528157736320652 0 -0.00023186625249710036 0.033815146750481855 0 -0.00025233877326176138 0.032717673711974787 0 0.00011873825621417981 0.032808431483664857 0 -5.7527226481494481e-05 0.033941084754682008 0 0.00014986539743557179 0.034393481623863319 0 -0.00020707504263324525 0.035056362224068674 0 -1.4148597006130928e-05 0.03501322185474106 0 5.1199691938134152e-05 0.034999549588350942 0 -1.4148597006130928e-05 0.03501322185474106 0 7.1410408995995284e-06 0.034979183750403466 0 3.6460026163402946e-05 0.035002364538108816 0 7.1410408995995284e-06 0.034979183750403466 0 -8.8042857907594217e-05 0.034970561667460313 0 -2.533510896614149e-05 0.034906197545012195 0 -1.4148597006130928e-05 0.03501322185474106 0 7.1410408995995284e-06 0.034979183750403466 0 -8.8042857907594217e-05 0.034970561667460313 0 -0.00020707504263324525 0.035056362224068674 0 -1.4148597006130928e-05 0.03501322185474106 0 -8.8042857907594217e-05 0.034970561667460313 0 -0.00024690991107242314 0.034905229833128396 0 -0.00020707504263324525 0.035056362224068674 0 -8.8042857907594217e-05 0.034970561667460313 0 -8.8042857907594217e-05 0.034970561667460313 0 -0.0001082635950385025 0.03488191340831262 0 -2.533510896614149e-05 0.034906197545012195 0 -0.00024690991107242314 0.034905229833128396 0 -8.8042857907594217e-05 0.034970561667460313 0 -0.0001082635950385025 0.03488191340831262 0 -0.00024690991107242314 0.034905229833128396 0 -0.0001939896747021756 0.034798114607063599 0 -0.0001082635950385025 0.03488191340831262 0 -0.0001939896747021756 0.034798114607063599 0 -5.6178953765420025e-05 0.034801023997862515 0 -0.00022449379093579573 0.034613422156015858 0 -0.0001939896747021756 0.034798114607063599 0 -5.6178953765420025e-05 0.034801023997862515 0 -0.0001082635950385025 0.03488191340831262 0 -5.6178953765420025e-05 0.034801023997862515 0 -0.0001082635950385025 0.03488191340831262 0 -2.533510896614149e-05 0.034906197545012195 0 7.1410408995995284e-06 0.034979183750403466 0 -2.533510896614149e-05 0.034906197545012195 0 2.9678654247259893e-05 0.034938426549743884 0 -2.533510896614149e-05 0.034906197545012195 0 -2.5856902796447437e-05 0.034829647546499025 0 2.9678654247259893e-05 0.034938426549743884 0 -5.6178953765420025e-05 0.034801023997862515 0 -2.533510896614149e-05 0.034906197545012195 0 -2.5856902796447437e-05 0.034829647546499025 0 -3.5267524207126017e-05 0.034856670000938034 0 -7.0817728605728021e-05 0.034895227943551085 0 -0.00018828754373964072 0.034943032323398744 0 -9.2276333599463506e-05 0.034788583092164885 0 6.4639424158840323e-05 0.034867264755021582 0 -0.00018828754373964072 0.034943032323398744 0 -9.2276333599463506e-05 0.034788583092164885 0 -0.00025751236175545946 0.034657466609210305 0 -9.2276333599463506e-05 0.034788583092164885 0 -2.4686797380719952e-05 0.03468323465912794 0 -0.00025751236175545946 0.034657466609210305 0 -7.0817728605728021e-05 0.034895227943551085 0 -0.00041335511919117761 0.034706622474070754 0 -0.00018828754373964072 0.034943032323398744 0 -0.0005834856103063788 0.034812246190486611 0 -0.00025751236175545946 0.034657466609210305 0 -5.6178953765420025e-05 0.034801023997862515 0 3.2096272201618497e-05 0.034794054670283125 0 -0.00022449379093579573 0.034613422156015858 0 5.1505661399017263e-10 0.034999996393536022 0 -1.0096432272880978e-06 0.034998578620405577 0 -9.2158088178505395e-07 0.034999484490987456 0 4.3208113840358485e-08 0.034999957634885719 0 2.3830887623775222e-05 0.03494694910116504 0 3.0176160899437314e-07 0.034999391725928405 0 6.4639424158840323e-05 0.034867264755021582 0 0.0001028355181020092 0.034850962142652452 0 -7.0817728605728021e-05 0.034895227943551085 0 2.3830887623775222e-05 0.03494694910116504 0 6.4639424158840323e-05 0.034867264755021582 0 -2.4686797380719952e-05 0.03468323465912794 0 0.0001028355181020092 0.034850962142652452 0 -9.2276333599463506e-05 0.034788583092164885 0 6.4639424158840323e-05 0.034867264755021582 0 -2.4686797380719952e-05 0.03468323465912794 0 -4.4493835817503337e-06 0.034997644145905588 0 -1.0096432272880978e-06 0.034998578620405577 0 -9.2158088178505395e-07 0.034999484490987456 0 -7.0817728605728021e-05 0.034895227943551085 0 1.785892049423223e-05 0.034968796294193444 0 1.785892049423223e-05 0.034968796294193444 0 -1.4146833927696971e-08 0.034999979339044349 0 5.1505661399017263e-10 0.034999996393536022 0 -9.2158088178505395e-07 0.034999484490987456 0 -7.8669112051433028e-10 0.035000001782239637 0 5.0893080712463721e-08 0.034999928646008448 0 2.1086388104306296e-05 0.034988103760841799 0 2.0728761220582063e-08 0.035000026556419692 0 2.9678654247259893e-05 0.034938426549743884 0 5.0893080712463721e-08 0.034999928646008448 0 2.1086388104306296e-05 0.034988103760841799 0 7.1410408995995284e-06 0.034979183750403466 0 2.9678654247259893e-05 0.034938426549743884 0 2.1086388104306296e-05 0.034988103760841799 0 7.1410408995995284e-06 0.034979183750403466 0 2.1086388104306296e-05 0.034988103760841799 0 3.6460026163402946e-05 0.035002364538108816 0 2.1086388104306296e-05 0.034988103760841799 0 2.0728761220582063e-08 0.035000026556419692 0 3.6460026163402946e-05 0.035002364538108816 0 2.0728761220582063e-08 0.035000026556419692 0 -3.505220662129967e-09 0.034999919488325662 0 3.6460026163402946e-05 0.035002364538108816 0 -3.505220662129967e-09 0.034999919488325662 0 5.3521646155494411e-05 0.034919263512024366 0 3.6460026163402946e-05 0.035002364538108816 0 -3.505220662129967e-09 0.034999919488325662 0 5.3521646155494411e-05 0.034919263512024366 0 7.6502440621166345e-08 0.034999895509891271 0 5.3521646155494411e-05 0.034919263512024366 0 3.6460026163402946e-05 0.035002364538108816 0 0.00018752078011617079 0.034789215699052897 0 3.6460026163402946e-05 0.035002364538108816 0 5.1199691938134152e-05 0.034999549588350942 0 0.00018752078011617079 0.034789215699052897 0 -1.4148597006130928e-05 0.03501322185474106 0 3.6460026163402946e-05 0.035002364538108816 0 5.1199691938134152e-05 0.034999549588350942 0 -0.00023186625249710036 0.033815146750481855 0 0.00031989595645684596 0.033845660843394715 0 -1.176782723361721e-06 0.034696585314702599 0 0.00031989595645684596 0.033845660843394715 0 0.00018752078011617079 0.034789215699052897 0 -1.176782723361721e-06 0.034696585314702599 0 0.00014986539743557179 0.034393481623863319 0 0.00018728328727002448 0.034725889117587477 0 0.00018752078011617079 0.034789215699052897 0 -1.176782723361721e-06 0.034696585314702599 0 8.6755632043392767e-05 0.03491276442588969 0 0.00029087306604937623 0.032936781978962326 0 0.00023203585266281114 0.032804058217783101 0 0.00035588074263155173 0.03290663196099556 0 0.00012735032309938888 0.033765953906807256 0 0.00021178583818225744 0.033831140736756471 0 0.00018752078011617079 0.034789215699052897 0 8.6755632043392767e-05 0.03491276442588969 0 7.6530206956712415e-05 0.034934538952765631 0 7.5173385807994893e-05 0.034925858947878877 0 8.6755632043392767e-05 0.03491276442588969 0 7.6530206956712415e-05 0.034934538952765631 0 5.1831773549814666e-08 0.034999805047404332 0 7.6530206956712415e-05 0.034934538952765631 0 7.6502440621166345e-08 0.034999895509891271 0 5.3521646155494411e-05 0.034919263512024366 0 7.6530206956712415e-05 0.034934538952765631 0 7.6502440621166345e-08 0.034999895509891271 0 5.3521646155494411e-05 0.034919263512024366 0 0.00018752078011617079 0.034789215699052897 0 7.6530206956712415e-05 0.034934538952765631 0 -7.1669246429641854e-06 0.034965518520983008 0 -4.6910589726667764e-05 0.034923625461647533 0 -7.082062097499007e-06 0.034974827548352683 0 -6.7331521869629209e-09 0.034999957857487954 0 -7.1669246429641854e-06 0.034965518520983008 0 -7.082062097499007e-06 0.034974827548352683 0 -6.7331521869629209e-09 0.034999957857487954 0 -7.1669246429641854e-06 0.034965518520983008 0 1.2258475596080842e-08 0.034999905402563217 0 -7.1669246429641854e-06 0.034965518520983008 0 1.2258475596080842e-08 0.034999905402563217 0 -3.284781340481401e-06 0.034941222417166753 0 -2.9673365665470649e-05 0.034926909063593539 0 -3.2535174975409005e-05 0.034897073462169338 0 -3.284781340481401e-06 0.034941222417166753 0 -7.1669246429641854e-06 0.034965518520983008 0 -2.9673365665470649e-05 0.034926909063593539 0 -3.284781340481401e-06 0.034941222417166753 0 -7.1669246429641854e-06 0.034965518520983008 0 -2.9673365665470649e-05 0.034926909063593539 0 -4.6910589726667764e-05 0.034923625461647533 0 -9.0996100156604128e-05 0.028236766042948568 0 -1.1919776376035838e-05 0.028879068751440876 0 -2.9673365665470649e-05 0.034926909063593539 0 -9.8989719912850142e-05 0.034873280993491962 0 -3.2535174975409005e-05 0.034897073462169338 0 -2.9673365665470649e-05 0.034926909063593539 0 -4.6910589726667764e-05 0.034923625461647533 0 -9.8989719912850142e-05 0.034873280993491962 0 -6.0527360738440914e-05 0.022187943204773707 0 3.8181326481375164e-05 0.022458579245944427 0 -6.5149404249485824e-05 0.022123761634586746 0 -6.0527360738440914e-05 0.022187943204773707 0 0.00024456033680068408 0.022102534162603372 0 -6.5149404249485824e-05 0.022123761634586746 0 0.00024456033680068408 0.022102534162603372 0 0.00028314875414404311 0.021646192889905377 0 0.00079167122952047031 0.021772774469807327 0 0.00024456033680068408 0.022102534162603372 0 0.00079167122952047031 0.021772774469807327 0 0.00057128355574749274 0.022304879283482119 0 -6.0527360738440914e-05 0.022187943204773707 0 0.00024456033680068408 0.022102534162603372 0 0.00028314875414404311 0.021646192889905377 0 0.00028314875414404311 0.021646192889905377 0 0.00039028342869456358 0.020966289539810501 0 0.00079167122952047031 0.021772774469807327 0 0.00028314875414404311 0.021646192889905377 0 -9.7104404226605812e-05 0.021243985127370489 0 0.00039028342869456358 0.020966289539810501 0 -9.8816403323288962e-05 0.02253730473196976 0 -0.00014008443288961685 0.021054123359947927 0 3.8181326481375164e-05 0.022458579245944427 0 -0.00024350572979990278 0.022866388773443349 0 0.00048405153928017004 0.023844438913423072 0 -6.0527360738440914e-05 0.022187943204773707 0 3.8181326481375164e-05 0.022458579245944427 0 -0.00024350572979990278 0.022866388773443349 0 -6.0527360738440914e-05 0.022187943204773707 0 0.00028314875414404311 0.021646192889905377 0 -9.7104404226605812e-05 0.021243985127370489 0 -0.00024350572979990278 0.022866388773443349 0 -0.00028064006078492925 0.024220950464021233 0 0.00048405153928017004 0.023844438913423072 0 -9.0996100156604128e-05 0.028236766042948568 0 0.00044628934541233848 0.031508319530295689 0 -0.00014008443288961685 0.021054123359947927 0 0.00020921304439126156 0.028175679160674885 0 -9.7104404226605812e-05 0.021243985127370489 0 6.2680910046248269e-05 0.020874719432952129 0 0.00014889236343267019 0.020989985092698775 0 0.00020921304439126156 0.028175679160674885 0 0.00044628934541233848 0.031508319530295689 0 -9.7104404226605812e-05 0.021243985127370489 0 0.00014889236343267019 0.020989985092698775 0 0.00039028342869456358 0.020966289539810501 0 6.2680910046248269e-05 0.020874719432952129 0 0.00014889236343267019 0.020989985092698775 0 0.00032348893990539318 0.020876691120038142 0 0.00014889236343267019 0.020989985092698775 0 0.00039028342869456358 0.020966289539810501 0 0.00032348893990539318 0.020876691120038142 0 0.00020921304439126156 0.028175679160674885 0 -8.2783836935401218e-06 0.02656365312631025 0 3.9974708567356909e-05 0.032204286427757092 0 -0.00052837856531444546 0.032566884058336576 0 -0.00030065460457738259 0.032843408822749526 0 0.00020921304439126156 0.028175679160674885 0 -0.00015259182790004747 0.034557344895718656 0 -0.0002641483987761464 0.032990375973268163 0 2.6501328526872216e-05 0.032851550376081784 0 0.00016376684158340236 0.033590877706021767 0 -2.3068229687195032e-06 0.034984134979667049 0 -1.0522396098146684e-05 0.034962507274016411 0 2.7178814635564156e-06 0.034993939094121775 0 0.00044628934541233848 0.031508319530295689 0 8.1781199539880951e-05 0.034798150776756152 0 -2.3068229687195032e-06 0.034984134979667049 0 -1.0522396098146684e-05 0.034962507274016411 0 -7.082062097499007e-06 0.034974827548352683 0 -4.6910589726667764e-05 0.034923625461647533 0 -2.5432758831936455e-05 0.034941154314080999 0 -7.082062097499007e-06 0.034974827548352683 0 0.00044628934541233848 0.031508319530295689 0 -0.00058241611296095579 0.035166155153948442 0 -2.3068229687195032e-06 0.034984134979667049 0 -7.082062097499007e-06 0.034974827548352683 0 -2.7318006255539118e-09 0.034999977396719249 0 -6.7331521869629209e-09 0.034999957857487954 0 -7.082062097499007e-06 0.034974827548352683 0 -2.7318006255539118e-09 0.034999977396719249 0 -2.3068229687195032e-06 0.034984134979667049 0 -2.7318006255539118e-09 0.034999977396719249 0 2.7178814635564156e-06 0.034993939094121775 0 -2.7318006255539118e-09 0.034999977396719249 0 2.7178814635564156e-06 0.034993939094121775 0 4.2012237847977242e-08 0.035000023666275096 0 8.1781199539880951e-05 0.034798150776756152 0 9.4724652695851532e-05 0.034467914527474566 0 0.00016376684158340236 0.033590877706021767 0 0.00019558873689854328 0.034175448395991577 0 -0.00023423350323575282 0.033805770301565861 0 2.7178814635564156e-06 0.034993939094121775 0 3.3486843356008121e-05 0.035009431237561318 0 4.2012237847977242e-08 0.035000023666275096 0 3.3486843356008121e-05 0.035009431237561318 0 4.2012237847977242e-08 0.035000023666275096 0 -5.2899354567159077e-08 0.034999997827373099 0 9.4724652695851532e-05 0.034467914527474566 0 0.00011687639709822905 0.034865105348746657 0 3.3486843356008121e-05 0.035009431237561318 0 -5.2899354567159077e-08 0.034999997827373099 0 0.0001028355181020092 0.034850962142652452 0 0.00019558873689854328 0.034175448395991577 0 -2.4686797380719952e-05 0.03468323465912794 0 -0.00016993356097233441 0.034288050430615537 0 0.00019558873689854328 0.034175448395991577 0 -2.4686797380719952e-05 0.03468323465912794 0 0.0001028355181020092 0.034850962142652452 0 3.0176160899437314e-07 0.034999391725928405 0 -5.2899354567159077e-08 0.034999997827373099 0 0.0001028355181020092 0.034850962142652452 0 -0.0005834856103063788 0.034812246190486611 0 -0.00025751236175545946 0.034657466609210305 0 -0.0006798836123218196 0.034324029885488785 0 -0.00025751236175545946 0.034657466609210305 0 -0.00016993356097233441 0.034288050430615537 0 -0.0006798836123218196 0.034324029885488785 0 -2.4686797380719952e-05 0.03468323465912794 0 -0.00025751236175545946 0.034657466609210305 0 -0.00016993356097233441 0.034288050430615537 0 -0.00016993356097233441 0.034288050430615537 0 -0.00064797333497238114 0.033774885032907841 0 -0.0006798836123218196 0.034324029885488785 0 -0.00016993356097233441 0.034288050430615537 0 -0.00036807745839791367 0.033386668742824817 0 -0.00064797333497238114 0.033774885032907841 0 -0.00036807745839791367 0.033386668742824817 0 -0.00062868967108237574 0.032954280371788013 0 -0.00064797333497238114 0.033774885032907841 0 0.00019558873689854328 0.034175448395991577 0 -0.00016993356097233441 0.034288050430615537 0 -0.00023423350323575282 0.033805770301565861 0 -0.00016993356097233441 0.034288050430615537 0 -0.00036807745839791367 0.033386668742824817 0 4.9261605545389373e-05 0.033161888583433156 0 -0.00014075346848884998 0.033767435161262328 0 -0.00015259182790004747 0.034557344895718656 0 3.9974708567356909e-05 0.032204286427757092 0 4.9261605545389373e-05 0.033161888583433156 0 -0.00030065460457738259 0.032843408822749526 0 -0.0002641483987761464 0.032990375973268163 0 0.00016376684158340236 0.033590877706021767 0 -0.00023423350323575282 0.033805770301565861 0 -0.00052837856531444546 0.032566884058336576 0 -0.00030065460457738259 0.032843408822749526 0 -0.00062868967108237574 0.032954280371788013 0 -0.00036807745839791367 0.033386668742824817 0 4.9261605545389373e-05 0.033161888583433156 0 -0.00030065460457738259 0.032843408822749526 0 -0.00036807745839791367 0.033386668742824817 0 -0.00030065460457738259 0.032843408822749526 0 -0.00062868967108237574 0.032954280371788013 0 -0.00062868967108237574 0.032954280371788013 0 -0.00063713239127450943 0.03282433197571949 0 -0.0006026042074067442 0.032535546814090398 0 -0.00052837856531444546 0.032566884058336576 0 -0.00062868967108237574 0.032954280371788013 0 -0.00063713239127450943 0.03282433197571949 0 -0.00065465448189119639 0.032944023398768868 0 -0.00076302368651478116 0.03294376796542231 0 -0.00037351338500527718 0.024064156351559243 0 0.00046218818760961885 0.019967156929291456 0 -0.00063713239127450943 0.03282433197571949 0 -0.0006026042074067442 0.032535546814090398 0 -0.00018216346980985378 0.032653328334693969 0 -0.00038089404492390049 0.027213075191386112 0 -0.00037351338500527718 0.024064156351559243 0 0.00016322445341805005 0.021095917886708636 0 -0.00030692339349593106 0.021373084377404022 0 0.00012194887459257941 0.020897958446864328 0 -4.9665714461861309e-05 0.02097560550826693 0 -1.1915443328665664e-05 0.020873771769765168 0 0.00012194887459257941 0.020897958446864328 0 -0.0006026042074067442 0.032535546814090398 0 -0.00019765229149866929 0.03211326362986415 0 -0.00018216346980985378 0.032653328334693969 0 -0.0011242515991960796 0.033462715987664267 0 -0.0010639992179879672 0.033914136514601151 0 -0.0014166873027579724 0.033775116896036024 0 -0.00076302368651478116 0.03294376796542231 0 -0.0010480374967658018 0.033216476446420437 0 -0.00062868967108237574 0.032954280371788013 0 -0.0011242515991960796 0.033462715987664267 0 -0.00064797333497238114 0.033774885032907841 0 -0.0011242515991960796 0.033462715987664267 0 -0.00064797333497238114 0.033774885032907841 0 -0.0010639992179879672 0.033914136514601151 0 -0.0010639992179879672 0.033914136514601151 0 -0.0010775391955418583 0.034199624221687201 0 -0.0006798836123218196 0.034324029885488785 0 -0.00064797333497238114 0.033774885032907841 0 -0.0010639992179879672 0.033914136514601151 0 -0.0006798836123218196 0.034324029885488785 0 -0.0010639992179879672 0.033914136514601151 0 -0.0012699856255148252 0.034011070372033818 0 -0.0014166873027579724 0.033775116896036024 0 -0.0010639992179879672 0.033914136514601151 0 -0.0012699856255148252 0.034011070372033818 0 -0.0010775391955418583 0.034199624221687201 0 -0.0010423737761158171 0.034587904845073743 0 -0.0010775391955418583 0.034199624221687201 0 -0.0012747326189111643 0.034225526430502945 0 -0.0010423737761158171 0.034587904845073743 0 -0.0013659082598227134 0.034341499148235977 0 -0.0012747326189111643 0.034225526430502945 0 -0.0012699856255148252 0.034011070372033818 0 -0.0010775391955418583 0.034199624221687201 0 -0.0012747326189111643 0.034225526430502945 0 -0.0010423737761158171 0.034587904845073743 0 -0.0010775391955418583 0.034199624221687201 0 -0.0006798836123218196 0.034324029885488785 0 -0.00030994093328622709 0.031935114569335205 0 -0.00043470700262273872 0.031864397745958346 0 -0.00044520385003906006 0.031722283630080804 0 -0.00043470700262273872 0.031864397745958346 0 -0.00044520385003906006 0.031722283630080804 0 -0.00061150416864441367 0.031835735900665942 0 -0.0013659082598227134 0.034341499148235977 0 -0.0014492900275011149 0.034143582005418428 0 -0.0017409232759458919 0.033976379440882019 0 -0.00081428619078525142 0.033690293448624592 0 -0.00027960949019764615 0.03000268798321103 0 -0.00030994093328622709 0.031935114569335205 0 -0.00039659030521063053 0.031944233369484994 0 -0.00043470700262273872 0.031864397745958346 0 -0.0013104223206358329 0.034429456150245424 0 -0.0013659082598227134 0.034341499148235977 0 -0.0017409232759458919 0.033976379440882019 0 -0.0012747326189111643 0.034225526430502945 0 -0.0014492900275011149 0.034143582005418428 0 -0.0014313825656043846 0.034032855629297781 0 -0.0013659082598227134 0.034341499148235977 0 -0.0012747326189111643 0.034225526430502945 0 -0.0014492900275011149 0.034143582005418428 0 -0.0014492900275011149 0.034143582005418428 0 -0.0014313825656043846 0.034032855629297781 0 -0.0017409232759458919 0.033976379440882019 0 -0.00027960949019764615 0.03000268798321103 0 -0.0010480374967658018 0.033216476446420437 0 0.00032432896694500912 0.031707838764817142 0 0.00015159044955055867 0.032317131141894079 0 -0.00019765229149866929 0.03211326362986415 0 -0.0014313825656043846 0.034032855629297781 0 -0.0017409232759458919 0.033976379440882019 0 -0.0014166873027579724 0.033775116896036024 0 -0.0012699856255148252 0.034011070372033818 0 -0.0012747326189111643 0.034225526430502945 0 -0.0014313825656043846 0.034032855629297781 0 -0.0012699856255148252 0.034011070372033818 0 -0.0014313825656043846 0.034032855629297781 0 -0.0014166873027579724 0.033775116896036024 0 0.00032432896694500912 0.031707838764817142 0 0.00049505994873703192 0.03192381716402385 0 0.00015159044955055867 0.032317131141894079 0 -0.00027960949019764615 0.03000268798321103 0 -0.00072410891767201498 0.024478543184160147 0 -0.00026439697840985202 0.021229520499795505 0 -0.00014418275457502608 0.021087939475901551 0 -0.00024853831774314356 0.021037659316624411 0 -0.00072410891767201498 0.024478543184160147 0 -0.00037793268014396219 0.026925594725627298 0 -0.00014418275457502608 0.021087939475901551 0 -9.6817825031621124e-05 0.020999505587415913 0 -0.00017125911532395689 0.020992678088153475 0 -0.00014418275457502608 0.021087939475901551 0 -0.00024853831774314356 0.021037659316624411 0 -0.00017125911532395689 0.020992678088153475 0 0.00015159044955055867 0.032317131141894079 0 -0.00019765229149866929 0.03211326362986415 0 -0.00018216346980985378 0.032653328334693969 0 -0.00037793268014396219 0.026925594725627298 0 -0.00037351338500527718 0.024064156351559243 0 -0.00014418275457502608 0.021087939475901551 0 -5.6310522204774609e-05 0.020982422845927769 0 -9.6817825031621124e-05 0.020999505587415913 0 -4.9665714461861309e-05 0.02097560550826693 0 -9.6817825031621124e-05 0.020999505587415913 0 -0.00012282121556958175 0.020919416135754775 0 -9.6817825031621124e-05 0.020999505587415913 0 -0.00012282121556958175 0.020919416135754775 0 -0.00017125911532395689 0.020992678088153475 0 -0.00037351338500527718 0.024064156351559243 0 0.00029288828940154824 0.0230075607924605 0 -4.9665714461861309e-05 0.02097560550826693 0 -0.00012282121556958175 0.020919416135754775 0 -1.1915443328665664e-05 0.020873771769765168 0 -0.00024853831774314356 0.021037659316624411 0 -0.00017125911532395689 0.020992678088153475 0 -0.00024416710315750272 0.020897841518019104 0 -0.00012282121556958175 0.020919416135754775 0 -0.00017125911532395689 0.020992678088153475 0 -0.00024416710315750272 0.020897841518019104 0 -0.00012282121556958175 0.020919416135754775 0 -0.00024416710315750272 0.020897841518019104 0 -0.0001828555103709747 0.020772424520663829 0 -0.0001828555103709747 0.020772424520663829 0 -0.00027063522271174258 0.020555990871159103 0 -0.00039226281562758749 0.020693945646062219 0 -0.00024416710315750272 0.020897841518019104 0 -0.0001828555103709747 0.020772424520663829 0 -0.00039226281562758749 0.020693945646062219 0 -0.00027063522271174258 0.020555990871159103 0 -0.00011436399091528536 0.020665042299417496 0 -0.00014426477918324799 0.020457173500161952 0 -0.0001828555103709747 0.020772424520663829 0 -0.00027063522271174258 0.020555990871159103 0 -0.00011436399091528536 0.020665042299417496 0 -0.00011436399091528536 0.020665042299417496 0 4.73799957723029e-05 0.020626649732885628 0 -0.00014426477918324799 0.020457173500161952 0 -0.00011436399091528536 0.020665042299417496 0 1.8174188148460576e-05 0.020761381958515103 0 4.73799957723029e-05 0.020626649732885628 0 -0.00011436399091528536 0.020665042299417496 0 1.8174188148460576e-05 0.020761381958515103 0 -1.1915443328665664e-05 0.020873771769765168 0 -0.0001828555103709747 0.020772424520663829 0 -0.00011436399091528536 0.020665042299417496 0 -1.1915443328665664e-05 0.020873771769765168 0 -0.00012282121556958175 0.020919416135754775 0 -0.0001828555103709747 0.020772424520663829 0 -1.1915443328665664e-05 0.020873771769765168 0 -1.1915443328665664e-05 0.020873771769765168 0 0.00012194887459257941 0.020897958446864328 0 5.5171217949690262e-05 0.020836200154262949 0 0.00016322445341805005 0.021095917886708636 0 0.00012194887459257941 0.020897958446864328 0 0.00026801318767612431 0.020859179149112169 0 0.00012194887459257941 0.020897958446864328 0 0.00026801318767612431 0.020859179149112169 0 0.00012887533692481666 0.020797462301987403 0 0.00012194887459257941 0.020897958446864328 0 5.5171217949690262e-05 0.020836200154262949 0 0.00012887533692481666 0.020797462301987403 0 1.8174188148460576e-05 0.020761381958515103 0 -1.1915443328665664e-05 0.020873771769765168 0 5.5171217949690262e-05 0.020836200154262949 0 1.8174188148460576e-05 0.020761381958515103 0 5.5171217949690262e-05 0.020836200154262949 0 0.00012887533692481666 0.020797462301987403 0 -8.2783836935401218e-06 0.02656365312631025 0 -0.00038089404492390049 0.027213075191386112 0 0.00032348893990539318 0.020876691120038142 0 0.00016322445341805005 0.021095917886708636 0 0.00026801318767612431 0.020859179149112169 0 0.00039028342869456358 0.020966289539810501 0 0.00022213167050270035 0.020779026360573646 0 0.00017998985985696363 0.020569515917693213 0 0.00039028342869456358 0.020966289539810501 0 0.00026801318767612431 0.020859179149112169 0 0.00022213167050270035 0.020779026360573646 0 0.00039028342869456358 0.020966289539810501 0 0.00032348893990539318 0.020876691120038142 0 0.00026801318767612431 0.020859179149112169 0 0.00026801318767612431 0.020859179149112169 0 0.00022213167050270035 0.020779026360573646 0 0.00012887533692481666 0.020797462301987403 0 1.8174188148460576e-05 0.020761381958515103 0 0.00012887533692481666 0.020797462301987403 0 4.73799957723029e-05 0.020626649732885628 0 0.00022213167050270035 0.020779026360573646 0 4.73799957723029e-05 0.020626649732885628 0 0.00017998985985696363 0.020569515917693213 0 0.00022213167050270035 0.020779026360573646 0 0.00012887533692481666 0.020797462301987403 0 4.73799957723029e-05 0.020626649732885628 0 0.00017998985985696363 0.020569515917693213 0 0.00034384093558018249 0.020446143390371666 0 6.0157998317687205e-05 0.020334023482124403 0 4.73799957723029e-05 0.020626649732885628 0 0.00017998985985696363 0.020569515917693213 0 6.0157998317687205e-05 0.020334023482124403 0 0.00039028342869456358 0.020966289539810501 0 0.00017998985985696363 0.020569515917693213 0 0.00034384093558018249 0.020446143390371666 0 0.00041449084477057868 0.020964547112594937 0 0.00053170686878643999 0.021075042161848197 0 0.00079167122952047031 0.021772774469807327 0 0.0010398296361808423 0.022303487572016497 0 0.00057128355574749274 0.022304879283482119 0 0.00053170686878643999 0.021075042161848197 0 0.00071637896038264834 0.021315641790533867 0 0.00034384093558018249 0.020446143390371666 0 6.0157998317687205e-05 0.020334023482124403 0 0.00021146827838781139 0.020124165435943586 0 6.0157998317687205e-05 0.020334023482124403 0 -4.060385634576309e-05 0.020079895389677103 0 0.00021146827838781139 0.020124165435943586 0 6.0157998317687205e-05 0.020334023482124403 0 -0.00021768960082154645 0.020207964521673612 0 -4.060385634576309e-05 0.020079895389677103 0 -0.00021768960082154645 0.020207964521673612 0 -0.00035280217128273766 0.020306594929351458 0 -0.00042960392967715798 0.020032783753198165 0 -0.00021768960082154645 0.020207964521673612 0 -0.00014426477918324799 0.020457173500161952 0 -0.00035280217128273766 0.020306594929351458 0 -0.00027063522271174258 0.020555990871159103 0 -0.00014426477918324799 0.020457173500161952 0 -0.00035280217128273766 0.020306594929351458 0 6.0157998317687205e-05 0.020334023482124403 0 -0.00021768960082154645 0.020207964521673612 0 -0.00014426477918324799 0.020457173500161952 0 4.73799957723029e-05 0.020626649732885628 0 6.0157998317687205e-05 0.020334023482124403 0 -0.00014426477918324799 0.020457173500161952 0 -0.00067233812981897943 0.020305107308740734 0 -0.00055765849782228171 0.020172064052730844 0 -0.00078352688016405025 0.020122679966319761 0 -0.00067233812981897943 0.020305107308740734 0 -0.00055765849782228171 0.020172064052730844 0 -0.00048123335005050574 0.020420169729357229 0 -0.00035280217128273766 0.020306594929351458 0 -0.00055765849782228171 0.020172064052730844 0 -0.00048123335005050574 0.020420169729357229 0 -0.00035280217128273766 0.020306594929351458 0 -0.00055765849782228171 0.020172064052730844 0 -0.00042960392967715798 0.020032783753198165 0 -0.00055765849782228171 0.020172064052730844 0 -0.00066872928595086765 0.019976398888101089 0 -0.00042960392967715798 0.020032783753198165 0 -0.00055765849782228171 0.020172064052730844 0 -0.00066872928595086765 0.019976398888101089 0 -0.00078352688016405025 0.020122679966319761 0 -0.00066872928595086765 0.019976398888101089 0 -0.00089361762579815058 0.019933839194703065 0 -0.00078352688016405025 0.020122679966319761 0 -0.00089361762579815058 0.019933839194703065 0 -0.00095183181455444103 0.02011366357787403 0 -0.0011239029185100154 0.019909183442937406 0 -0.00089361762579815058 0.019933839194703065 0 -0.00095183181455444103 0.02011366357787403 0 -0.00078352688016405025 0.020122679966319761 0 -0.00095183181455444103 0.02011366357787403 0 -0.00088490954659952467 0.020326098082395539 0 -0.001120114825590742 0.020168442396728582 0 -0.00095183181455444103 0.02011366357787403 0 -0.00078352688016405025 0.020122679966319761 0 -0.00088490954659952467 0.020326098082395539 0 -0.00067233812981897943 0.020305107308740734 0 -0.00078352688016405025 0.020122679966319761 0 -0.00088490954659952467 0.020326098082395539 0 -0.00067233812981897943 0.020305107308740734 0 -0.00088490954659952467 0.020326098082395539 0 -0.00062954609106825746 0.020524249810969033 0 -0.00088490954659952467 0.020326098082395539 0 -0.00087375151937016686 0.020610357882605394 0 -0.0011392787556047128 0.020485301031805472 0 -0.00087375151937016686 0.020610357882605394 0 -0.00062954609106825746 0.020524249810969033 0 -0.00059921496575828198 0.020722835865899569 0 -0.00088490954659952467 0.020326098082395539 0 -0.00087375151937016686 0.020610357882605394 0 -0.00062954609106825746 0.020524249810969033 0 -0.00062954609106825746 0.020524249810969033 0 -0.00039226281562758749 0.020693945646062219 0 -0.00059921496575828198 0.020722835865899569 0 -0.00062954609106825746 0.020524249810969033 0 -0.00048123335005050574 0.020420169729357229 0 -0.00039226281562758749 0.020693945646062219 0 -0.00067233812981897943 0.020305107308740734 0 -0.00062954609106825746 0.020524249810969033 0 -0.00048123335005050574 0.020420169729357229 0 -0.00027063522271174258 0.020555990871159103 0 -0.00035280217128273766 0.020306594929351458 0 -0.00048123335005050574 0.020420169729357229 0 -0.00027063522271174258 0.020555990871159103 0 -0.00048123335005050574 0.020420169729357229 0 -0.00039226281562758749 0.020693945646062219 0 -0.00039226281562758749 0.020693945646062219 0 -0.00059921496575828198 0.020722835865899569 0 -0.00037736650414802922 0.020953020650372991 0 -0.00024416710315750272 0.020897841518019104 0 -0.00039226281562758749 0.020693945646062219 0 -0.00037736650414802922 0.020953020650372991 0 -0.00024853831774314356 0.021037659316624411 0 -0.00024416710315750272 0.020897841518019104 0 -0.00037736650414802922 0.020953020650372991 0 -0.00059921496575828198 0.020722835865899569 0 -0.00037736650414802922 0.020953020650372991 0 -0.00073345540343797632 0.020860538657882607 0 -0.00037736650414802922 0.020953020650372991 0 -0.00044067153613517923 0.021302226438384402 0 -0.00068382041054755247 0.021154391649767224 0 -0.00037736650414802922 0.020953020650372991 0 -0.00068382041054755247 0.021154391649767224 0 -0.00073345540343797632 0.020860538657882607 0 -3.2672127973906843e-05 0.021307941982293941 0 -0.00037736650414802922 0.020953020650372991 0 -0.00027626874706038624 0.021370189334835563 0 -0.00072410891767201498 0.024478543184160147 0 -0.00057125039664844665 0.020025954510930939 0 -0.00026439697840985202 0.021229520499795505 0 -0.00024853831774314356 0.021037659316624411 0 -0.00037736650414802922 0.020953020650372991 0 -0.00037736650414802922 0.020953020650372991 0 -0.00027626874706038624 0.021370189334835563 0 -0.00044067153613517923 0.021302226438384402 0 -0.00027626874706038624 0.021370189334835563 0 -0.00041133298431942592 0.021505552265188771 0 -0.00037951768221152984 0.021769619092801767 0 -0.0018277422199649363 0.022703687736847816 0 -0.0014913769074840313 0.023166253485945081 0 -0.00037951768221152984 0.021769619092801767 0 -0.00072410891767201498 0.024478543184160147 0 -0.00021700958367269483 0.021038697867572963 0 -3.2672127973906843e-05 0.021307941982293941 0 -0.00027626874706038624 0.021370189334835563 0 -0.00037951768221152984 0.021769619092801767 0 -0.00027626874706038624 0.021370189334835563 0 -0.00044067153613517923 0.021302226438384402 0 -0.00041133298431942592 0.021505552265188771 0 -0.00044067153613517923 0.021302226438384402 0 -0.00059181548772817858 0.021555638007675283 0 -0.00068382041054755247 0.021154391649767224 0 -0.00044067153613517923 0.021302226438384402 0 -0.00059181548772817858 0.021555638007675283 0 -0.00041133298431942592 0.021505552265188771 0 -0.00080608423339891097 0.022114205432190757 0 -0.00037951768221152984 0.021769619092801767 0 -0.0003934543150952433 0.021741241347111678 0 -0.00059181548772817858 0.021555638007675283 0 -0.00041133298431942592 0.021505552265188771 0 -0.00037951768221152984 0.021769619092801767 0 -0.00080608423339891097 0.022114205432190757 0 -0.00059181548772817858 0.021555638007675283 0 -0.00037951768221152984 0.021769619092801767 0 -0.0018277422199649363 0.022703687736847816 0 -0.00037951768221152984 0.021769619092801767 0 -0.0003934543150952433 0.021741241347111678 0 -0.00049741599304838264 0.031956722126526976 0 -0.00043470700262273872 0.031864397745958346 0 -0.00061150416864441367 0.031835735900665942 0 -0.00027960949019764615 0.03000268798321103 0 -0.00057517167720861761 0.026417579003294084 0 -0.0015443538153749542 0.021983994714298054 0 -0.00080608423339891097 0.022114205432190757 0 -0.0012433629585423935 0.021596014549481509 0 -0.00080608423339891097 0.022114205432190757 0 -0.0012433629585423935 0.021596014549481509 0 -0.00088436529769259987 0.02145987081580044 0 -0.00080608423339891097 0.022114205432190757 0 -0.00059181548772817858 0.021555638007675283 0 -0.00088436529769259987 0.02145987081580044 0 -0.00059181548772817858 0.021555638007675283 0 -0.00088436529769259987 0.02145987081580044 0 -0.00068382041054755247 0.021154391649767224 0 -0.00088436529769259987 0.02145987081580044 0 -0.0011720955144601641 0.020840748470099892 0 -0.00068382041054755247 0.021154391649767224 0 -0.0012433629585423935 0.021596014549481509 0 -0.00088436529769259987 0.02145987081580044 0 -0.0011720955144601641 0.020840748470099892 0 -0.0011720955144601641 0.020840748470099892 0 -0.00068382041054755247 0.021154391649767224 0 -0.00073345540343797632 0.020860538657882607 0 -0.00087375151937016686 0.020610357882605394 0 -0.0011720955144601641 0.020840748470099892 0 -0.00073345540343797632 0.020860538657882607 0 -0.00087375151937016686 0.020610357882605394 0 -0.00059921496575828198 0.020722835865899569 0 -0.00073345540343797632 0.020860538657882607 0 -0.00087375151937016686 0.020610357882605394 0 -0.0011720955144601641 0.020840748470099892 0 -0.0011392787556047128 0.020485301031805472 0 -0.0012318271850171631 0.020630800179243285 0 -0.0013588440611205471 0.020388247626056566 0 -0.0011392787556047128 0.020485301031805472 0 -0.0011720955144601641 0.020840748470099892 0 -0.0012318271850171631 0.020630800179243285 0 -0.0011392787556047128 0.020485301031805472 0 -0.0012318271850171631 0.020630800179243285 0 -0.0012223036377116225 0.020537984057629917 0 -0.0012473300225350696 0.020546719486814011 0 -0.0011720955144601641 0.020840748470099892 0 -0.0012318271850171631 0.020630800179243285 0 -0.0012694553813246019 0.020577387746968795 0 -0.0012261976607691519 0.020862363536243916 0 -0.0014210119540567384 0.020888633354473662 0 -0.0012433629585423935 0.021596014549481509 0 -0.0011720955144601641 0.020840748470099892 0 -0.0017164490907284771 0.021390138974266962 0 -0.0012318271850171631 0.020630800179243285 0 -0.0012694553813246019 0.020577387746968795 0 -0.0012223036377116225 0.020537984057629917 0 -0.0014210119540567384 0.020888633354473662 0 -0.0018664505518266794 0.021569704595075494 0 -0.0012694553813246019 0.020577387746968795 0 -0.0012223036377116225 0.020537984057629917 0 -0.0012540571876065185 0.020330727092328738 0 -0.0015443538153749542 0.021983994714298054 0 -0.0012433629585423935 0.021596014549481509 0 -0.0017164490907284771 0.021390138974266962 0 -0.0015443538153749542 0.021983994714298054 0 -0.0017164490907284771 0.021390138974266962 0 -0.0021636976903849823 0.021890408600260893 0 -0.0022807499382392596 0.011546696224880132 0 -0.002260567306854604 0.009025101380214352 0 -0.00029756176439029174 0.0090819959988769228 0 -0.0012223036377116225 0.020537984057629917 0 -0.0012540571876065185 0.020330727092328738 0 -0.0011053166539718219 0.02041441737521666 0 -0.00060679519584253417 0.014864472011771421 0 -0.00071748508329839641 0.012906398483397809 0 -0.0012223036377116225 0.020537984057629917 0 -0.0011053166539718219 0.02041441737521666 0 -0.0012473300225350696 0.020546719486814011 0 -0.002260567306854604 0.009025101380214352 0 -0.0016147151940895668 0.0067697082830036077 0 -0.0031085166895076718 0.0072522044225184898 0 -0.002260567306854604 0.009025101380214352 0 -0.00029756176439029174 0.0090819959988769228 0 -0.0016147151940895668 0.0067697082830036077 0 -0.00029756176439029174 0.0090819959988769228 0 -0.0016147151940895668 0.0067697082830036077 0 -0.0001222374111748017 0.0052202673077729692 0 -0.0016147151940895668 0.0067697082830036077 0 -0.0022470298498110095 0.0045986374339979028 0 -0.0031085166895076718 0.0072522044225184898 0 -0.0016147151940895668 0.0067697082830036077 0 -0.0022470298498110095 0.0045986374339979028 0 -0.0001222374111748017 0.0052202673077729692 0 -0.0017299624915776948 0.0033994476230322294 0 -0.0022691649491078931 0.0049749652012151969 0 -0.0012318271850171631 0.020630800179243285 0 -0.0012473300225350696 0.020546719486814011 0 -0.0013588440611205471 0.020388247626056566 0 -0.00071748508329839641 0.012906398483397809 0 -0.00093146183666634587 0.01125696889328922 0 -0.0001222374111748017 0.0052202673077729692 0 -0.00097907040547418945 0.0035782464937806442 0 -0.00050035808305926065 0.0023442603956237724 0 -0.0022470298498110095 0.0045986374339979028 0 -0.00097907040547418945 0.0035782464937806442 0 -0.0012674556951137606 0.0024048154053922981 0 -0.0017299624915776948 0.0033994476230322294 0 -0.0013531509073482779 0.0025058493792045875 0 -0.0012766415426007194 0.0022301958334248265 0 -0.0012674556951137606 0.0024048154053922981 0 -0.001289496498683625 0.0022219736991041408 0 -0.0022470298498110095 0.0045986374339979028 0 -0.0001222374111748017 0.0052202673077729692 0 -0.00097907040547418945 0.0035782464937806442 0 -0.0012674556951137606 0.0024048154053922981 0 -0.001289496498683625 0.0022219736991041408 0 -0.0012850824059346523 0.0021789735882917056 0 -0.00097907040547418945 0.0035782464937806442 0 -0.0012674556951137606 0.0024048154053922981 0 -0.00050035808305926065 0.0023442603956237724 0 -0.0012674556951137606 0.0024048154053922981 0 -0.0010925789552279825 0.0020348224446218879 0 -0.00050035808305926065 0.0023442603956237724 0 -0.0012674556951137606 0.0024048154053922981 0 -0.0010925789552279825 0.0020348224446218879 0 -0.0012850824059346523 0.0021789735882917056 0 -0.0010925789552279825 0.0020348224446218879 0 -0.0010999166278585087 0.001847506492684829 0 -0.00087694895620394329 0.0018686662170200362 0 -0.0010925789552279825 0.0020348224446218879 0 -0.0010999166278585087 0.001847506492684829 0 -0.0013150541026555613 0.0019317828023142527 0 -0.00093146183666634587 0.01125696889328922 0 -0.00099883796820274609 0.011714607617298936 0 -0.0010925789552279825 0.0020348224446218879 0 -0.00050035808305926065 0.0023442603956237724 0 -0.00087694895620394329 0.0018686662170200362 0 -0.0013588440611205471 0.020388247626056566 0 -0.0012536079519899837 0.020289777388044439 0 -0.0013982483130406038 0.020082223337424362 0 -0.0013588440611205471 0.020388247626056566 0 -0.0011392787556047128 0.020485301031805472 0 -0.0012536079519899837 0.020289777388044439 0 -0.00088490954659952467 0.020326098082395539 0 -0.0011392787556047128 0.020485301031805472 0 -0.001120114825590742 0.020168442396728582 0 -0.0011392787556047128 0.020485301031805472 0 -0.0012536079519899837 0.020289777388044439 0 -0.001120114825590742 0.020168442396728582 0 -0.0012536079519899837 0.020289777388044439 0 -0.001120114825590742 0.020168442396728582 0 -0.0013982483130406038 0.020082223337424362 0 -0.001120114825590742 0.020168442396728582 0 -0.0011239029185100154 0.019909183442937406 0 -0.0013982483130406038 0.020082223337424362 0 -0.00095183181455444103 0.02011366357787403 0 -0.001120114825590742 0.020168442396728582 0 -0.0011239029185100154 0.019909183442937406 0 -0.00089361762579815058 0.019933839194703065 0 -0.0011239029185100154 0.019909183442937406 0 -0.0010065799117396016 0.019807567179579207 0 -0.0011239029185100154 0.019909183442937406 0 -0.0013722674540537362 0.019739740883679909 0 -0.0013982483130406038 0.020082223337424362 0 -0.0022107395008466855 0.0015655550906744544 0 -0.0017241474538607342 0.0014846094022656772 0 -0.001907326824030754 0.0016837914063247759 0 -0.0023262037035549155 0.007478574555410674 0 -0.00091567214106253716 0.0010602232437508913 0 -0.0023262037035549155 0.007478574555410674 0 -0.00099883796820274609 0.011714607617298936 0 -0.00096525293823628933 0.001780298568445928 0 -0.0010411403511813438 0.0017468540043099558 0 -0.00087694895620394329 0.0018686662170200362 0 -0.0017241474538607342 0.0014846094022656772 0 -0.0015690675645301897 0.0018109472606759158 0 -0.001486904518673376 0.0016368269856507098 0 -0.0010411403511813438 0.0017468540043099558 0 -0.0010999166278585087 0.001847506492684829 0 -0.0012578594082556522 0.0017524961528164122 0 -0.0010411403511813438 0.0017468540043099558 0 -0.0010999166278585087 0.001847506492684829 0 -0.00087694895620394329 0.0018686662170200362 0 -0.00091567214106253716 0.0010602232437508913 0 -0.0015168780516163739 0.0017482277203280979 0 -0.002342208458520424 0.0025104173330725088 0 -0.0019715407252151648 0.0019725163315229268 0 -0.0026893783957903936 0.0021116853753131806 0 -0.002342208458520424 0.0025104173330725088 0 -0.0019715407252151648 0.0019725163315229268 0 -0.0014137169768706017 0.0022635857760498245 0 -0.0019715407252151648 0.0019725163315229268 0 -0.0015690675645301897 0.0018109472606759158 0 -0.0014137169768706017 0.0022635857760498245 0 -0.0019715407252151648 0.0019725163315229268 0 -0.0015690675645301897 0.0018109472606759158 0 -0.001907326824030754 0.0016837914063247759 0 -0.0017241474538607342 0.0014846094022656772 0 -0.0015690675645301897 0.0018109472606759158 0 -0.001907326824030754 0.0016837914063247759 0 -0.0019715407252151648 0.0019725163315229268 0 -0.0022956840636873302 0.001703915728663682 0 -0.0026893783957903936 0.0021116853753131806 0 -0.0019715407252151648 0.0019725163315229268 0 -0.001907326824030754 0.0016837914063247759 0 -0.0022956840636873302 0.001703915728663682 0 -0.0022107395008466855 0.0015655550906744544 0 -0.001907326824030754 0.0016837914063247759 0 -0.0022956840636873302 0.001703915728663682 0 -0.0023262037035549155 0.007478574555410674 0 -0.0020612934257753734 0.0023308336129379587 0 -0.0022956840636873302 0.001703915728663682 0 -0.0032904019280956304 0.0018960002136697112 0 -0.0026893783957903936 0.0021116853753131806 0 -0.0022605981186229196 0.0014078014884941292 0 -0.0022956840636873302 0.001703915728663682 0 -0.0032904019280956304 0.0018960002136697112 0 -0.0023262037035549155 0.007478574555410674 0 -0.0024342661169398168 0.010982616401953004 0 -0.0011239029185100154 0.019909183442937406 0 -0.0013722674540537362 0.019739740883679909 0 -0.0011316539968162643 0.019681863390143762 0 -0.0011316539968162643 0.019681863390143762 0 -0.0010065799117396016 0.019807567179579207 0 -0.0008798963577776439 0.019671074030158393 0 -0.0011239029185100154 0.019909183442937406 0 -0.0011316539968162643 0.019681863390143762 0 -0.0010065799117396016 0.019807567179579207 0 -0.0032904019280956304 0.0018960002136697112 0 -0.0032933450221393724 0.0026943646242110013 0 -0.0043480960697748336 0.0025436379339495389 0 -0.0024342661169398168 0.010982616401953004 0 -0.0011573358367233696 0.013151055550154988 0 -0.0032904019280956304 0.0018960002136697112 0 -0.0032933450221393724 0.0026943646242110013 0 -0.0026893783957903936 0.0021116853753131806 0 -0.002342208458520424 0.0025104173330725088 0 -0.0032933450221393724 0.0026943646242110013 0 -0.0026893783957903936 0.0021116853753131806 0 -0.002342208458520424 0.0025104173330725088 0 -0.0032933450221393724 0.0026943646242110013 0 -0.0029190125345405216 0.0034458719228086005 0 -0.0032933450221393724 0.0026943646242110013 0 -0.0037877907278554249 0.0033688614287722099 0 -0.0043480960697748336 0.0025436379339495389 0 -0.0032933450221393724 0.0026943646242110013 0 -0.0037877907278554249 0.0033688614287722099 0 -0.0029190125345405216 0.0034458719228086005 0 -0.0037877907278554249 0.0033688614287722099 0 -0.0037661104686996672 0.0042028264548155799 0 -0.0029190125345405216 0.0034458719228086005 0 -0.0037877907278554249 0.0033688614287722099 0 -0.0037661104686996672 0.0042028264548155799 0 -0.0045702402763581965 0.0035730649863147243 0 -0.0037661104686996672 0.0042028264548155799 0 -0.0029190125345405216 0.0034458719228086005 0 -0.0028791230565766565 0.0046949826679628963 0 -0.0029190125345405216 0.0034458719228086005 0 -0.0023332225049477145 0.0038973080996319636 0 -0.0028791230565766565 0.0046949826679628963 0 -0.0023332225049477145 0.0038973080996319636 0 -0.001516868417734608 0.0033827066027865308 0 -0.0017408453445552374 0.0044594095109877184 0 -0.0029190125345405216 0.0034458719228086005 0 -0.0023332225049477145 0.0038973080996319636 0 -0.0021181705408086786 0.003103543241252101 0 -0.0023332225049477145 0.0038973080996319636 0 -0.0021181705408086786 0.003103543241252101 0 -0.001516868417734608 0.0033827066027865308 0 -0.002342208458520424 0.0025104173330725088 0 -0.0021181705408086786 0.003103543241252101 0 -0.0014137169768706017 0.0022635857760498245 0 -0.002342208458520424 0.0025104173330725088 0 -0.0029190125345405216 0.0034458719228086005 0 -0.0021181705408086786 0.003103543241252101 0 -0.0014137169768706017 0.0022635857760498245 0 -0.001516868417734608 0.0033827066027865308 0 -0.00050814028738777246 0.0027814477079142028 0 -0.0021181705408086786 0.003103543241252101 0 -0.0014137169768706017 0.0022635857760498245 0 -0.001516868417734608 0.0033827066027865308 0 -0.001516868417734608 0.0033827066027865308 0 -0.0017408453445552374 0.0044594095109877184 0 -0.00082837020881411187 0.0038685587991700147 0 3.4443372678945814e-07 0.018119315726341598 0 0.00010335128032859247 0.021215277548709506 0 -2.2137915491511797e-05 0.023380025834655045 0 -0.0017408453445552374 0.0044594095109877184 0 -0.00082837020881411187 0.0038685587991700147 0 -0.00075001902585661946 0.0050055917646942335 0 -0.0023332225049477145 0.0038973080996319636 0 -0.0017408453445552374 0.0044594095109877184 0 -0.0028791230565766565 0.0046949826679628963 0 -0.0017408453445552374 0.0044594095109877184 0 -0.002138324272197358 0.0059946811298964399 0 -0.0028791230565766565 0.0046949826679628963 0 -0.002138324272197358 0.0059946811298964399 0 -0.00075001902585661946 0.0050055917646942335 0 -0.00059263912330089386 0.0062077628855083059 0 -0.0017408453445552374 0.0044594095109877184 0 -0.002138324272197358 0.0059946811298964399 0 -0.00075001902585661946 0.0050055917646942335 0 -0.00098076317853421947 0.012722474903535355 0 -3.6415643368024291e-05 0.012247314478728193 0 2.400629890587932e-05 0.019374814584201094 0 3.4443372678945814e-07 0.018119315726341598 0 5.6558583978259213e-05 0.017656486235574413 0 2.400629890587932e-05 0.019374814584201094 0 3.4443372678945814e-07 0.018119315726341598 0 0.00010335128032859247 0.021215277548709506 0 -0.00098076317853421947 0.012722474903535355 0 -0.0017844417250226089 0.013082818094392238 0 -0.0035297914106352433 0.0058707653683517129 0 -0.0028791230565766565 0.0046949826679628963 0 -0.0039735685682347971 0.0050528866744075007 0 -0.002138324272197358 0.0059946811298964399 0 -0.0035297914106352433 0.0058707653683517129 0 -0.0028791230565766565 0.0046949826679628963 0 -0.0037661104686996672 0.0042028264548155799 0 -0.0028791230565766565 0.0046949826679628963 0 -0.0039735685682347971 0.0050528866744075007 0 -0.0037661104686996672 0.0042028264548155799 0 -0.0039735685682347971 0.0050528866744075007 0 -0.0047834115641064035 0.0046734362943808977 0 3.4443372678945814e-07 0.018119315726341598 0 -2.2137915491511797e-05 0.023380025834655045 0 1.5114645340391515e-06 0.02649853659402272 0 -0.00082268822588869308 0.019719162342636969 0 -0.00080606637205787933 0.019778954096343903 0 -0.00080623312711496564 0.019760754628799029 0 -0.00082268822588869308 0.019719162342636969 0 -0.000833063116224843 0.019717662321311027 0 -0.00080606637205787933 0.019778954096343903 0 -0.0027738524190808961 0.011388002848841547 0 -0.0020407498097197931 0.017251687913902324 0 -0.0020407498097197931 0.017251687913902324 0 0.00014409879241434305 0.022995265934657092 0 -0.0017844417250226089 0.013082818094392238 0 -0.0020407498097197931 0.017251687913902324 0 -0.0039735685682347971 0.0050528866744075007 0 -0.0047834115641064035 0.0046734362943808977 0 -0.0049486482440344566 0.0058261103037391794 0 -0.0035297914106352433 0.0058707653683517129 0 -0.0039735685682347971 0.0050528866744075007 0 -0.0049486482440344566 0.0058261103037391794 0 0.00010335128032859247 0.021215277548709506 0 -0.00016512616725698897 0.02239695894224869 0 -2.2137915491511797e-05 0.023380025834655045 0 -0.00036022850147106366 0.024341647534275722 0 -2.2137915491511797e-05 0.023380025834655045 0 0.00028400539467788124 0.025074123441265368 0 -0.0020407498097197931 0.017251687913902324 0 -0.00043157421860962221 0.025221692120992296 0 -2.2137915491511797e-05 0.023380025834655045 0 0.00028400539467788124 0.025074123441265368 0 1.5114645340391515e-06 0.02649853659402272 0 0.00028400539467788124 0.025074123441265368 0 0.00019841299719889323 0.026118500883802704 0 1.5114645340391515e-06 0.02649853659402272 0 0.00014409879241434305 0.022995265934657092 0 -0.00026842296652794106 0.022884399399278905 0 -0.00079970912552860076 0.019774113588443751 0 -0.00076919629502759229 0.019883004998450683 0 -0.00070738465491977502 0.019794998515082214 0 -0.000833063116224843 0.019717662321311027 0 -0.00079970912552860076 0.019774113588443751 0 -0.00080606637205787933 0.019778954096343903 0 -0.00080606637205787933 0.019778954096343903 0 -0.00076919629502759229 0.019883004998450683 0 -0.00078265102332938257 0.019821714348683 0 -0.00079970912552860076 0.019774113588443751 0 -0.00080606637205787933 0.019778954096343903 0 -0.00076919629502759229 0.019883004998450683 0 -0.00076919629502759229 0.019883004998450683 0 -0.00074956040537845576 0.019877060141976998 0 -0.00078265102332938257 0.019821714348683 0 -0.00074956040537845576 0.019877060141976998 0 -0.00078214916376437532 0.01980568679348764 0 -0.00078265102332938257 0.019821714348683 0 -0.00074956040537845576 0.019877060141976998 0 -0.00078214916376437532 0.01980568679348764 0 -0.00076897818212721459 0.019815042473197434 0 -0.00078214916376437532 0.01980568679348764 0 -0.000805775214581461 0.019745785787904421 0 -0.00076897818212721459 0.019815042473197434 0 -0.00078214916376437532 0.01980568679348764 0 -0.00078265102332938257 0.019821714348683 0 -0.00080623312711496564 0.019760754628799029 0 -0.00080606637205787933 0.019778954096343903 0 -0.00078265102332938257 0.019821714348683 0 -0.00080623312711496564 0.019760754628799029 0 -0.00082268822588869308 0.019719162342636969 0 -0.00080623312711496564 0.019760754628799029 0 -0.00081677044232889386 0.019702580864798154 0 -0.0027738524190808961 0.011388002848841547 0 -0.00278129397250396 0.011434477711643529 0 -0.0037661104686996672 0.0042028264548155799 0 -0.0047834115641064035 0.0046734362943808977 0 -0.0045702402763581965 0.0035730649863147243 0 -0.00081677044232889386 0.019702580864798154 0 -0.00084124988245200055 0.01967652490749611 0 -0.00084140415932631573 0.019683573323934205 0 -0.00278129397250396 0.011434477711643529 0 -0.0011573358367233696 0.013151055550154988 0 -0.0037877907278554249 0.0033688614287722099 0 -0.0045702402763581965 0.0035730649863147243 0 -0.0043480960697748336 0.0025436379339495389 0 -0.00081677044232889386 0.019702580864798154 0 -0.000805775214581461 0.019745785787904421 0 -0.00084140415932631573 0.019683573323934205 0 -0.00080623312711496564 0.019760754628799029 0 -0.00081677044232889386 0.019702580864798154 0 -0.000805775214581461 0.019745785787904421 0 -0.00078214916376437532 0.01980568679348764 0 -0.00080623312711496564 0.019760754628799029 0 -0.000805775214581461 0.019745785787904421 0 -0.000805775214581461 0.019745785787904421 0 -0.00082037532049516896 0.019727378836994755 0 -0.00076897818212721459 0.019815042473197434 0 -0.00082037532049516896 0.019727378836994755 0 -0.00078508029488697211 0.019838552104962333 0 -0.00055641400424986931 0.019792872598097033 0 -0.0008176304360127853 0.019738000560785316 0 -0.00064736584209598236 0.019815816387588687 0 -0.000805775214581461 0.019745785787904421 0 -0.00082037532049516896 0.019727378836994755 0 -0.00084140415932631573 0.019683573323934205 0 -0.0011316539968162643 0.019681863390143762 0 -0.00087124509914410892 0.019626485963391095 0 -0.0008798963577776439 0.019671074030158393 0 -0.00085579823505433749 0.019675742325228198 0 -0.00084140415932631573 0.019683573323934205 0 -0.0008798963577776439 0.019671074030158393 0 -0.0011573358367233696 0.013151055550154988 0 -0.0015148750963438606 0.013728327988909442 0 -0.00082037532049516896 0.019727378836994755 0 -0.0008798963577776439 0.019671074030158393 0 -0.00084597995784506299 0.019756988478765204 0 -0.00082037532049516896 0.019727378836994755 0 -0.00084140415932631573 0.019683573323934205 0 -0.0008798963577776439 0.019671074030158393 0 -0.0011573358367233696 0.013151055550154988 0 -0.0014191353068809984 0.015893048195445861 0 -0.0010065799117396016 0.019807567179579207 0 -0.0008798963577776439 0.019671074030158393 0 -0.00088940505109528871 0.019797876978323536 0 -0.0008798963577776439 0.019671074030158393 0 -0.00088940505109528871 0.019797876978323536 0 -0.00084597995784506299 0.019756988478765204 0 -0.00088940505109528871 0.019797876978323536 0 -0.00084597995784506299 0.019756988478765204 0 -0.00078508029488697211 0.019838552104962333 0 -0.00089361762579815058 0.019933839194703065 0 -0.00088940505109528871 0.019797876978323536 0 -0.00078508029488697211 0.019838552104962333 0 -0.00089361762579815058 0.019933839194703065 0 -0.0010065799117396016 0.019807567179579207 0 -0.00088940505109528871 0.019797876978323536 0 -0.00066872928595086765 0.019976398888101089 0 -0.00089361762579815058 0.019933839194703065 0 -0.00078508029488697211 0.019838552104962333 0 -0.00082037532049516896 0.019727378836994755 0 -0.00084597995784506299 0.019756988478765204 0 -0.00078508029488697211 0.019838552104962333 0 -0.00066872928595086765 0.019976398888101089 0 -0.00078508029488697211 0.019838552104962333 0 -0.00055641400424986931 0.019792872598097033 0 -0.00066872928595086765 0.019976398888101089 0 -0.00042960392967715798 0.020032783753198165 0 -0.00055641400424986931 0.019792872598097033 0 -0.00042960392967715798 0.020032783753198165 0 -0.00055641400424986931 0.019792872598097033 0 -0.00026588690720812038 0.019841941989352779 0 -0.00074956040537845576 0.019877060141976998 0 -0.00076897818212721459 0.019815042473197434 0 -0.00076774042503570123 0.019854073226673517 0 -0.00064736584209598236 0.019815816387588687 0 -0.00059278718661276702 0.019714853359922704 0 -0.00076774042503570123 0.019854073226673517 0 -0.00080393524452621816 0.019874472406935805 0 -0.00079581418261601903 0.019899442298334249 0 -2.4800503665802576e-05 0.020953585626123664 0 -0.00074617369903575695 0.020213425552987857 0 -0.00059278718661276702 0.019714853359922704 0 -2.4800503665802576e-05 0.020953585626123664 0 -0.00021768960082154645 0.020207964521673612 0 -0.00042960392967715798 0.020032783753198165 0 -0.00026588690720812038 0.019841941989352779 0 -0.00021768960082154645 0.020207964521673612 0 -0.00026588690720812038 0.019841941989352779 0 -4.060385634576309e-05 0.020079895389677103 0 -0.00026588690720812038 0.019841941989352779 0 -4.060385634576309e-05 0.020079895389677103 0 6.6573835623720204e-05 0.019868431126596541 0 -4.060385634576309e-05 0.020079895389677103 0 0.00021146827838781139 0.020124165435943586 0 6.6573835623720204e-05 0.019868431126596541 0 0.0010398296361808423 0.022303487572016497 0 0.00095870799408436153 0.022600409861839515 0 0.001303364637356481 0.022775372640880531 0 0.00071637896038264834 0.021315641790533867 0 -2.4800503665802576e-05 0.020953585626123664 0 0.0010398296361808423 0.022303487572016497 0 0.00057128355574749274 0.022304879283482119 0 0.00075349881656419431 0.022523640939132342 0 0.0010398296361808423 0.022303487572016497 0 0.00095870799408436153 0.022600409861839515 0 0.00075349881656419431 0.022523640939132342 0 0.00095870799408436153 0.022600409861839515 0 0.00075349881656419431 0.022523640939132342 0 0.00073237027308857008 0.022813802563404036 0 0.00057128355574749274 0.022304879283482119 0 0.00075349881656419431 0.022523640939132342 0 0.0004699781760841945 0.022583344788603514 0 0.00075349881656419431 0.022523640939132342 0 0.00073237027308857008 0.022813802563404036 0 0.0004699781760841945 0.022583344788603514 0 3.5834001142744878e-05 0.021316791243117753 0 0.00045053945939442421 0.021020144276630674 0 0.00013201135730843522 0.020959144081865746 0 0.00027494721292844581 0.021417898816422754 0 3.5834001142744878e-05 0.021316791243117753 0 0.00031520173674882301 0.021331480890788311 0 -1.5071730911336492e-05 0.021381114413024087 0 0.00067754627724547214 0.02103004205385018 0 -0.00025003020762598264 0.021318061787293129 0 -0.00015518010031878885 0.020950380621843064 0 -0.00057079689264644086 0.020717836889007576 0 0.00068171583792630771 0.02182008635378458 0 -2.4800503665802576e-05 0.020953585626123664 0 0.00027494721292844581 0.021417898816422754 0 -0.00025003020762598264 0.021318061787293129 0 3.5834001142744878e-05 0.021316791243117753 0 0.00095870799408436153 0.022600409861839515 0 0.00073237027308857008 0.022813802563404036 0 0.001303364637356481 0.022775372640880531 0 3.5834001142744878e-05 0.021316791243117753 0 -0.00015518010031878885 0.020950380621843064 0 0.00013201135730843522 0.020959144081865746 0 -0.00025003020762598264 0.021318061787293129 0 3.5834001142744878e-05 0.021316791243117753 0 -0.00015518010031878885 0.020950380621843064 0 1.9296216924254946e-05 0.020736768943965745 0 0.00016781841663415187 0.020493806373607634 0 -0.00030001716487799713 0.020447985387031714 0 -0.00015518010031878885 0.020950380621843064 0 1.9296216924254946e-05 0.020736768943965745 0 -0.00030001716487799713 0.020447985387031714 0 -0.00015518010031878885 0.020950380621843064 0 -0.00030001716487799713 0.020447985387031714 0 -0.00057079689264644086 0.020717836889007576 0 -0.00015518010031878885 0.020950380621843064 0 1.9296216924254946e-05 0.020736768943965745 0 0.00013201135730843522 0.020959144081865746 0 0.00045053945939442421 0.021020144276630674 0 0.00013201135730843522 0.020959144081865746 0 0.00033972238039169924 0.020767380185741709 0 1.9296216924254946e-05 0.020736768943965745 0 0.00013201135730843522 0.020959144081865746 0 0.00033972238039169924 0.020767380185741709 0 1.9296216924254946e-05 0.020736768943965745 0 0.00033972238039169924 0.020767380185741709 0 0.00016781841663415187 0.020493806373607634 0 0.00033972238039169924 0.020767380185741709 0 0.00048408585095864484 0.02055410535748187 0 0.00016781841663415187 0.020493806373607634 0 0.00048408585095864484 0.02055410535748187 0 0.00016781841663415187 0.020493806373607634 0 0.00068976386256485746 0.020200068840160856 0 0.00016781841663415187 0.020493806373607634 0 -0.00014685121596375196 0.020205071435779674 0 0.00068976386256485746 0.020200068840160856 0 -0.00012635911100442138 0.019366758378315328 0 0.00062358601811495493 0.023409263778498876 0 0.00016781841663415187 0.020493806373607634 0 -0.00030001716487799713 0.020447985387031714 0 -0.00014685121596375196 0.020205071435779674 0 -0.00030001716487799713 0.020447985387031714 0 -0.00014685121596375196 0.020205071435779674 0 -0.00040790346425160237 0.020058013927462155 0 -0.00030001716487799713 0.020447985387031714 0 -0.00057079689264644086 0.020717836889007576 0 -0.00073577326890490898 0.02002062355853975 0 -0.00074617369903575695 0.020213425552987857 0 -0.00071392667860416595 0.020103575286624712 0 -0.00030001716487799713 0.020447985387031714 0 -0.00073577326890490898 0.02002062355853975 0 -0.00040790346425160237 0.020058013927462155 0 -0.00074956040537845576 0.019877060141976998 0 -0.00076774042503570123 0.019854073226673517 0 -0.00079581418261601903 0.019899442298334249 0 -0.00074956040537845576 0.019877060141976998 0 -0.00079581418261601903 0.019899442298334249 0 -0.00073577326890490898 0.02002062355853975 0 -0.00076919629502759229 0.019883004998450683 0 -0.00074956040537845576 0.019877060141976998 0 -0.00073577326890490898 0.02002062355853975 0 -0.00076919629502759229 0.019883004998450683 0 -0.00073577326890490898 0.02002062355853975 0 -0.00058524670914300114 0.019880784509787173 0 -0.00076919629502759229 0.019883004998450683 0 -0.00058524670914300114 0.019880784509787173 0 -0.00070738465491977502 0.019794998515082214 0 -0.00073577326890490898 0.02002062355853975 0 -0.00040790346425160237 0.020058013927462155 0 -0.00058524670914300114 0.019880784509787173 0 -0.00058524670914300114 0.019880784509787173 0 -0.00037211932815025298 0.019812548941348991 0 -0.00034099157888485212 0.019898441546784225 0 -0.00040790346425160237 0.020058013927462155 0 -0.00058524670914300114 0.019880784509787173 0 -0.00034099157888485212 0.019898441546784225 0 0.00019841299719889323 0.026118500883802704 0 0.00014744154478586597 0.027322721723400639 0 7.9618013020445598e-05 0.026648999304853448 0 -0.00058524670914300114 0.019880784509787173 0 -0.00070738465491977502 0.019794998515082214 0 -0.00037211932815025298 0.019812548941348991 0 -0.00026842296652794106 0.022884399399278905 0 -0.00021546910203999124 0.023113267644111736 0 0.00019841299719889323 0.026118500883802704 0 1.5114645340391515e-06 0.02649853659402272 0 0.00014744154478586597 0.027322721723400639 0 1.5114645340391515e-06 0.02649853659402272 0 -2.6128532714635845e-06 0.02995432247141781 0 0.00014744154478586597 0.027322721723400639 0 -0.00017031094577909991 0.029980744405811267 0 -0.00075339866090217322 0.030130242067135465 0 0.00014744154478586597 0.027322721723400639 0 -0.00099752721837119396 0.027685834501339816 0 -0.00040314903447980464 0.027047962656083717 0 -1.8086837662623639e-06 0.029965155920109322 0 -0.00061389989557058134 0.032316279712470981 0 -1.3928057602268544e-05 0.032888399943204936 0 -2.6128532714635845e-06 0.02995432247141781 0 0.00014744154478586597 0.027322721723400639 0 -0.00099752721837119396 0.027685834501339816 0 -0.00075339866090217322 0.030130242067135465 0 0.00017046396803486113 0.029217993870112365 0 -0.00099752721837119396 0.027685834501339816 0 -0.00089589482732268567 0.026530252788999571 0 -0.0012470712877161679 0.026591175624396331 0 -0.00099752721837119396 0.027685834501339816 0 -0.00089589482732268567 0.026530252788999571 0 -0.00040314903447980464 0.027047962656083717 0 -0.00038313996513725907 0.026249999843000808 0 0.00092547818827427852 0.026066978917208859 0 0.0010120598257847447 0.026415461290148361 0 -0.00014016650777922153 0.024193885480477267 0 0.00017046396803486113 0.029217993870112365 0 -0.00014016650777922153 0.024193885480477267 0 0.00041659420493186103 0.027620298208710259 0 -3.0420465146765001e-05 0.019978128863465169 0 -0.00037211932815025298 0.019812548941348991 0 -0.00034099157888485212 0.019898441546784225 0 0.00014744154478586597 0.027322721723400639 0 -0.00040314903447980464 0.027047962656083717 0 7.9618013020445598e-05 0.026648999304853448 0 -0.00014016650777922153 0.024193885480477267 0 -0.00021546910203999124 0.023113267644111736 0 -0.00089589482732268567 0.026530252788999571 0 -0.00040314903447980464 0.027047962656083717 0 7.9618013020445598e-05 0.026648999304853448 0 -0.00014016650777922153 0.024193885480477267 0 -9.2675607200524442e-05 0.019071537609005439 0 0.00015838092808654518 0.019892976747069732 0 -0.00034099157888485212 0.019898441546784225 0 -7.1123795414163019e-05 0.020029342117134235 0 -0.00034099157888485212 0.019898441546784225 0 -7.1123795414163019e-05 0.020029342117134235 0 -0.00024264818008732684 0.020044281469947078 0 -0.00014685121596375196 0.020205071435779674 0 -7.1123795414163019e-05 0.020029342117134235 0 -0.00024264818008732684 0.020044281469947078 0 -0.00014685121596375196 0.020205071435779674 0 -7.1123795414163019e-05 0.020029342117134235 0 0.00011988842088059828 0.0200654587189509 0 -0.00040790346425160237 0.020058013927462155 0 -0.00034099157888485212 0.019898441546784225 0 -0.00024264818008732684 0.020044281469947078 0 -0.00014685121596375196 0.020205071435779674 0 -0.00040790346425160237 0.020058013927462155 0 -0.00024264818008732684 0.020044281469947078 0 0.00011988842088059828 0.0200654587189509 0 0.00029639691483481954 0.019928100557267989 0 0.00037148613527524394 0.020257292040189456 0 -0.00014685121596375196 0.020205071435779674 0 0.00011988842088059828 0.0200654587189509 0 0.00037148613527524394 0.020257292040189456 0 0.00015838092808654518 0.019892976747069732 0 0.00011988842088059828 0.0200654587189509 0 0.00029639691483481954 0.019928100557267989 0 0.00015838092808654518 0.019892976747069732 0 -7.1123795414163019e-05 0.020029342117134235 0 0.00011988842088059828 0.0200654587189509 0 0.00011526890841380773 0.029113406396925098 0 0.00067591748465320597 0.029123184442379543 0 0.00058711591681773851 0.028759014977472717 0 0.00041659420493186103 0.027620298208710259 0 0.00062358601811495493 0.023409263778498876 0 -1.8086837662623639e-06 0.029965155920109322 0 1.1204136287166367e-06 0.034998133055141344 0 0.00022322638913306489 0.034079021466286108 0 0.00086008558654219135 0.031789522117845338 0 0.00041659420493186103 0.027620298208710259 0 0.00011526890841380773 0.029113406396925098 0 0.00018154448378295422 0.028819155436308658 0 0.00058711591681773851 0.028759014977472717 0 0.0011612063647675776 0.033929503094893537 0 0.0011320934073205864 0.034176212324091806 0 0.001717095938213718 0.033872467724846179 0 0.00075042747181640194 0.03457952595902726 0 0.00017046396803486113 0.029217993870112365 0 0.0011320934073205864 0.034176212324091806 0 0.0017257294735570248 0.033909194896148152 0 0.001717095938213718 0.033872467724846179 0 0.00025379504465218426 0.033611274574923744 0 -0.00039560632354659046 0.033376416534490527 0 -1.3928057602268544e-05 0.032888399943204936 0 -0.00061389989557058134 0.032316279712470981 0 -0.00039560632354659046 0.033376416534490527 0 -1.3928057602268544e-05 0.032888399943204936 0 0.00017046396803486113 0.029217993870112365 0 0.00041659420493186103 0.027620298208710259 0 -1.8086837662623639e-06 0.029965155920109322 0 -1.3928057602268544e-05 0.032888399943204936 0 0.00022322638913306489 0.034079021466286108 0 0.00025379504465218426 0.033611274574923744 0 -1.3928057602268544e-05 0.032888399943204936 0 0.00022322638913306489 0.034079021466286108 0 1.1204136287166367e-06 0.034998133055141344 0 0.00022322638913306489 0.034079021466286108 0 -4.8088074150010788e-07 0.034997549835506354 0 0.00022322638913306489 0.034079021466286108 0 -4.8088074150010788e-07 0.034997549835506354 0 9.121061430387028e-05 0.0346059083739087 0 -9.2416076409159598e-10 0.035000002811116419 0 -8.4045152676109612e-07 0.03499691404080741 0 -2.5287451981536949e-09 0.034999978113734266 0 9.121061430387028e-05 0.0346059083739087 0 0.00064280297064190587 0.034115976094208453 0 0.00013361726144221514 0.033772954547003915 0 -4.8088074150010788e-07 0.034997549835506354 0 9.121061430387028e-05 0.0346059083739087 0 0.00013361726144221514 0.033772954547003915 0 -4.854142017850852e-08 0.035001260397243932 0 -0.00036279751039131785 0.033268573124775151 0 0.0011320934073205864 0.034176212324091806 0 9.121061430387028e-05 0.0346059083739087 0 0.00064280297064190587 0.034115976094208453 0 0.00025379504465218426 0.033611274574923744 0 0.00022322638913306489 0.034079021466286108 0 9.121061430387028e-05 0.0346059083739087 0 0.00075042747181640194 0.03457952595902726 0 0.00013898054822741502 0.034313365927496786 0 0.0011612063647675776 0.033929503094893537 0 0.0011320934073205864 0.034176212324091806 0 0.00064280297064190587 0.034115976094208453 0 0.0011612063647675776 0.033929503094893537 0 0.00064280297064190587 0.034115976094208453 0 0.00013361726144221514 0.033772954547003915 0 0.00011526890841380773 0.029113406396925098 0 -0.0002362891844670404 0.02888085572595215 0 -0.00046943228722003708 0.029111336897950542 0 0.00011526890841380773 0.029113406396925098 0 -0.0002362891844670404 0.02888085572595215 0 0.00018154448378295422 0.028819155436308658 0 0.00086008558654219135 0.031789522117845338 0 -0.00036279751039131785 0.033268573124775151 0 -0.00036279751039131785 0.033268573124775151 0 -0.00018847855284023513 0.032679008865942737 0 -0.00021557511948067166 0.033632531941312695 0 -0.00028034135177283512 0.033626753629252978 0 -0.00020183007374615657 0.033573384108412159 0 -0.00036279751039131785 0.033268573124775151 0 -0.00015800312574454134 0.034191773354422396 0 -0.00015800312574454134 0.034191773354422396 0 -0.00018847855284023513 0.032679008865942737 0 -8.4045152676109612e-07 0.03499691404080741 0 -4.7782811138239198e-07 0.034998082457374624 0 -2.5287451981536949e-09 0.034999978113734266 0 -0.00015800312574454134 0.034191773354422396 0 -1.0830452584472473e-07 0.034996960168973808 0 -0.00015800312574454134 0.034191773354422396 0 -9.571971825623264e-07 0.034997699607101258 0 -6.2214425466247851e-07 0.034998446416319967 0 -3.0418813228235965e-10 0.03499999877673305 0 -1.1923476116474433e-10 0.034999999208931404 0 -0.00032562503146077432 0.029454942995198363 0 -0.00032208437149875937 0.032741140438532934 0 0.00011314715016357689 0.031188494471480591 0 -0.00066576427798753404 0.03123693846358214 0 -0.00079350956602616926 0.03178623233796344 0 -0.00032562503146077432 0.029454942995198363 0 -0.00018847855284023513 0.032679008865942737 0 -0.0002362891844670404 0.02888085572595215 0 -0.00046943228722003708 0.029111336897950542 0 -0.00045686340175400203 0.02904982129825525 0 1.4212292196051206e-06 0.03498978115990866 0 9.4906856200719071e-07 0.03499369949140696 0 -1.6005803351757523e-09 0.034999983624786901 0 2.1148846191418781e-07 0.034997559332372891 0 9.4906856200719071e-07 0.03499369949140696 0 -1.6005803351757523e-09 0.034999983624786901 0 2.1148846191418781e-07 0.034997559332372891 0 1.1613126364812313e-09 0.034999996549207914 0 -1.6005803351757523e-09 0.034999983624786901 0 -0.00032208437149875937 0.032741140438532934 0 -0.00018847855284023513 0.032679008865942737 0 -0.00032208437149875937 0.032741140438532934 0 -1.4971730210392631e-07 0.034997641317479032 0 -0.00032208437149875937 0.032741140438532934 0 -0.00017326984041238843 0.032068142163484942 0 -0.00050425815163305761 0.030190868626284239 0 -0.00040145982699424772 0.029762941418347608 0 -0.00024824300308337805 0.029933239148259856 0 4.7138650077317691e-07 0.034992316027910808 0 3.352651515050275e-09 0.034999983550572981 0 2.8272759294608061e-06 0.034987887098473856 0 4.7138650077317691e-07 0.034992316027910808 0 -1.1064676726765236e-09 0.034999976275299355 0 3.352651515050275e-09 0.034999983550572981 0 -0.00032283306163429588 0.030172750257138344 0 -0.00050425815163305761 0.030190868626284239 0 -0.00024824300308337805 0.029933239148259856 0 3.352651515050275e-09 0.034999983550572981 0 2.8272759294608061e-06 0.034987887098473856 0 2.0034937079549467e-06 0.034993840778515271 0 2.8272759294608061e-06 0.034987887098473856 0 2.0034937079549467e-06 0.034993840778515271 0 6.7177050982265446e-06 0.034983290960285976 0 3.352651515050275e-09 0.034999983550572981 0 2.0034937079549467e-06 0.034993840778515271 0 3.650167641150915e-09 0.034999971779589176 0 -0.00017326984041238843 0.032068142163484942 0 0.00022012656758403577 0.03371330185518704 0 -0.00040145982699424772 0.029762941418347608 0 -4.0383342977963694e-05 0.029628287138003216 0 -0.00024824300308337805 0.029933239148259856 0 -0.00040145982699424772 0.029762941418347608 0 -4.0383342977963694e-05 0.029628287138003216 0 -0.00030049176583102664 0.029364462375845769 0 -4.0383342977963694e-05 0.029628287138003216 0 -0.00024824300308337805 0.029933239148259856 0 1.966044486634525e-05 0.029919420663242116 0 -0.00032562503146077432 0.029454942995198363 0 -0.00034717747187940247 0.028317131253089732 0 -0.0012196166830627489 0.026839744405829657 0 -0.00021430309352536413 0.026747981503572511 0 -0.0003442208343884796 0.026229576546730728 0 -0.00032283306163429588 0.030172750257138344 0 -0.00024824300308337805 0.029933239148259856 0 1.966044486634525e-05 0.029919420663242116 0 -0.00032562503146077432 0.029454942995198363 0 -9.8482558073880073e-05 0.027910484646852449 0 -9.8482558073880073e-05 0.027910484646852449 0 0.00062358601811495493 0.023409263778498876 0 -0.00021430309352536413 0.026747981503572511 0 0.00026944773945061849 0.026336424565882154 0 0.00079158756105286699 0.026663647961438979 0 0.00026944773945061849 0.026336424565882154 0 -0.0003442208343884796 0.026229576546730728 0 0.00053576995415413576 0.025636143821381858 0 -0.00021430309352536413 0.026747981503572511 0 0.00026944773945061849 0.026336424565882154 0 -0.0003442208343884796 0.026229576546730728 0 0.00026944773945061849 0.026336424565882154 0 0.00079158756105286699 0.026663647961438979 0 0.00053576995415413576 0.025636143821381858 0 0.00062358601811495493 0.023409263778498876 0 0.00027771352393017351 0.024354541668456086 0 0.00048408585095864484 0.02055410535748187 0 0.00068976386256485746 0.020200068840160856 0 0.00083106688281218651 0.020786606248564987 0 0.00045053945939442421 0.021020144276630674 0 0.00033972238039169924 0.020767380185741709 0 0.00083106688281218651 0.020786606248564987 0 0.00033972238039169924 0.020767380185741709 0 0.00048408585095864484 0.02055410535748187 0 0.00083106688281218651 0.020786606248564987 0 0.00067754627724547214 0.02103004205385018 0 0.00027771352393017351 0.024354541668456086 0 -0.00034717747187940247 0.028317131253089732 0 0.00027771352393017351 0.024354541668456086 0 -4.0383342977963694e-05 0.029628287138003216 0 1.966044486634525e-05 0.029919420663242116 0 0.00035332424227786451 0.029665713927553839 0 -4.0383342977963694e-05 0.029628287138003216 0 0.00035332424227786451 0.029665713927553839 0 0.00025689042208554015 0.029310564876643675 0 -0.0001568370197574752 0.034722212850246625 0 -5.9866627180414373e-05 0.034837159069117496 0 2.9309802207129253e-05 0.034804587148622973 0 -4.0383342977963694e-05 0.029628287138003216 0 0.00025689042208554015 0.029310564876643675 0 -0.00030049176583102664 0.029364462375845769 0 -9.1750032836748993e-05 0.027347936485903071 0 0.00022012656758403577 0.03371330185518704 0 0.00027771352393017351 0.024354541668456086 0 -9.1750032836748993e-05 0.027347936485903071 0 0.00068171583792630771 0.02182008635378458 0 -9.1750032836748993e-05 0.027347936485903071 0 0.00031520173674882301 0.021331480890788311 0 0.00041681195283181503 0.021313409373155519 0 0.00045835607963385988 0.02147115263679408 0 0.00027494721292844581 0.021417898816422754 0 0.00031520173674882301 0.021331480890788311 0 0.00045835607963385988 0.02147115263679408 0 0.00073237027308857008 0.022813802563404036 0 6.5665309045732977e-05 0.02288644700300322 0 0.0004699781760841945 0.022583344788603514 0 6.5665309045732977e-05 0.02288644700300322 0 0.0004699781760841945 0.022583344788603514 0 0.0002417700776811456 0.022389002088584038 0 0.00024456033680068408 0.022102534162603372 0 0.0002417700776811456 0.022389002088584038 0 -6.5149404249485824e-05 0.022123761634586746 0 0.00024456033680068408 0.022102534162603372 0 0.00057128355574749274 0.022304879283482119 0 0.0002417700776811456 0.022389002088584038 0 0.00057128355574749274 0.022304879283482119 0 0.0004699781760841945 0.022583344788603514 0 0.0002417700776811456 0.022389002088584038 0 -0.0001568370197574752 0.034722212850246625 0 -5.9866627180414373e-05 0.034837159069117496 0 -9.8989719912850142e-05 0.034873280993491962 0 -9.1750032836748993e-05 0.027347936485903071 0 -1.1919776376035838e-05 0.028879068751440876 0 6.5665309045732977e-05 0.02288644700300322 0 0.0002417700776811456 0.022389002088584038 0 -6.5149404249485824e-05 0.022123761634586746 0 -5.9866627180414373e-05 0.034837159069117496 0 -9.8989719912850142e-05 0.034873280993491962 0 -3.2535174975409005e-05 0.034897073462169338 0 -5.9866627180414373e-05 0.034837159069117496 0 -3.2535174975409005e-05 0.034897073462169338 0 1.085501200037728e-05 0.034895012218183474 0 -5.9866627180414373e-05 0.034837159069117496 0 1.085501200037728e-05 0.034895012218183474 0 2.9309802207129253e-05 0.034804587148622973 0 -3.2535174975409005e-05 0.034897073462169338 0 1.085501200037728e-05 0.034895012218183474 0 -3.284781340481401e-06 0.034941222417166753 0 1.2258475596080842e-08 0.034999905402563217 0 2.2915504186633176e-06 0.034954972894791603 0 -1.3639442579100123e-08 0.0349998856838886 0 1.2258475596080842e-08 0.034999905402563217 0 -3.284781340481401e-06 0.034941222417166753 0 2.2915504186633176e-06 0.034954972894791603 0 1.085501200037728e-05 0.034895012218183474 0 2.2915504186633176e-06 0.034954972894791603 0 1.1184965715736977e-05 0.034944252907933286 0 1.085501200037728e-05 0.034895012218183474 0 -3.284781340481401e-06 0.034941222417166753 0 2.2915504186633176e-06 0.034954972894791603 0 2.2915504186633176e-06 0.034954972894791603 0 -1.3639442579100123e-08 0.0349998856838886 0 1.1184965715736977e-05 0.034944252907933286 0 -2.0673045204720792e-07 0.035000000435022924 0 0.00022012656758403577 0.03371330185518704 0 2.0034937079549467e-06 0.034993840778515271 0 3.650167641150915e-09 0.034999971779589176 0 6.7177050982265446e-06 0.034983290960285976 0 -2.6140961636107177e-05 0.034921194392500701 0 0.00022012656758403577 0.03371330185518704 0 -0.002063200433975705 -0.00097183506539922249 0 -0.0018979996318280123 -0.0013788468026599359 0 -0.0024636168724654285 -0.0015489909897320939 0 -0.0016964383139928896 0.00030948280141846477 0 -0.0018177610013477539 0.00017608865327804079 0 -0.0017699890323466926 0.00079582413483718448 0 -0.0019359301940227291 -0.00043844053802874022 0 -0.0020606509236787162 -4.9245261631664738e-05 0 -0.0016964383139928896 0.00030948280141846477 0 -0.0017699890323466926 0.00079582413483718448 0 -0.0016094419625917651 0.00069768438901522125 0 -0.002063200433975705 -0.00097183506539922249 0 -0.0017884450471085183 -0.0011199546616986603 0 -0.0018979996318280123 -0.0013788468026599359 0 -0.0017884450471085183 -0.0011199546616986603 0 -0.0017915136797472431 -0.001485475966873828 0 -0.0014760303264588757 -0.0010747922038181097 0 -0.0017884450471085183 -0.0011199546616986603 0 -0.0018979996318280123 -0.0013788468026599359 0 -0.0017915136797472431 -0.001485475966873828 0 -0.0018979996318280123 -0.0013788468026599359 0 -0.0018007866667646558 -0.0014810850040202041 0 -0.0024636168724654285 -0.0015489909897320939 0 -0.0022965377119396071 4.3409258042529521e-05 0 -0.0024045110990682131 -0.00014859001241788778 0 -0.0022556717309344348 -0.00017178335052538159 0 -0.0018613203577682173 -0.0012829091294080067 0 -0.001932499273193691 -0.0011730710270167295 0 -0.0022965377119396071 4.3409258042529521e-05 0 -0.0024045110990682131 -0.00014859001241788778 0 -0.0024431307493811638 -0.00011406950272227418 0 -0.001932499273193691 -0.0011730710270167295 0 -0.0020606509236787162 -4.9245261631664738e-05 0 -0.0024045110990682131 -0.00014859001241788778 0 -0.0024431307493811638 -0.00011406950272227418 0 -0.0025173756871878848 -0.00021958493555914731 0 -0.0022965377119396071 4.3409258042529521e-05 0 -0.0024431307493811638 -0.00011406950272227418 0 -0.002544270359056668 -0.00011588830457095373 0 -0.0024431307493811638 -0.00011406950272227418 0 -0.002544270359056668 -0.00011588830457095373 0 -0.0025173756871878848 -0.00021958493555914731 0 -0.0014483435106615555 0.00095478776546908332 0 -0.0015059698581188542 0.00092371887902172652 0 -0.0014970980070238161 0.00085081313630710315 0 -0.0014483435106615555 0.00095478776546908332 0 -0.0015059698581188542 0.00092371887902172652 0 -0.001491689450777297 0.00094134022467933626 0 -0.0020606509236787162 -4.9245261631664738e-05 0 -0.0019272488901217494 0.00036868704788180635 0 -0.0015059698581188542 0.00092371887902172652 0 -0.0015240881320260436 0.0009524297055649104 0 -0.001491689450777297 0.00094134022467933626 0 -0.0015240881320260436 0.0009524297055649104 0 -0.001468040576280541 0.00091601008048094827 0 -0.001491689450777297 0.00094134022467933626 0 -0.001468040576280541 0.00091601008048094827 0 -0.001491689450777297 0.00094134022467933626 0 -0.0016094419625917651 0.00069768438901522125 0 -0.0020606509236787162 -4.9245261631664738e-05 0 -0.0013740761687013382 0.00067435792115606624 0 -0.0017699890323466926 0.00079582413483718448 0 -0.001491689450777297 0.00094134022467933626 0 -0.0016094419625917651 0.00069768438901522125 0 -0.0016104694480544915 0.0010533316626335236 0 -0.0016067859220434764 0.00094347924826931233 0 -0.0017383867294691795 0.0010371317447804582 0 -0.0016104694480544915 0.0010533316626335236 0 -0.0017038052153730129 0.0012586191050608226 0 -0.0017383867294691795 0.0010371317447804582 0 -0.0015240881320260436 0.0009524297055649104 0 -0.0016104694480544915 0.0010533316626335236 0 -0.0016067859220434764 0.00094347924826931233 0 -0.0015059698581188542 0.00092371887902172652 0 -0.0015240881320260436 0.0009524297055649104 0 -0.0016067859220434764 0.00094347924826931233 0 -0.0015240881320260436 0.0009524297055649104 0 -0.001468040576280541 0.00091601008048094827 0 -0.0016104694480544915 0.0010533316626335236 0 -0.0016104694480544915 0.0010533316626335236 0 -0.0016004902326308521 0.0012965213111173631 0 -0.0017038052153730129 0.0012586191050608226 0 -0.0014847029150073701 0.00089582728503998378 0 -0.0015913898212026917 0.0007088676889336153 0 -0.0016964383139928896 0.00030948280141846477 0 -0.0016094419625917651 0.00069768438901522125 0 -0.0015584467354573892 0.00010116699819669444 0 -0.001468040576280541 0.00091601008048094827 0 -0.0016094419625917651 0.00069768438901522125 0 -0.0015584467354573892 0.00010116699819669444 0 -0.001468040576280541 0.00091601008048094827 0 -0.0016104694480544915 0.0010533316626335236 0 -0.0016004902326308521 0.0012965213111173631 0 -0.0016004902326308521 0.0012965213111173631 0 -0.0016926973266828968 0.0013293834730555543 0 -0.0017038052153730129 0.0012586191050608226 0 -0.0016926973266828968 0.0013293834730555543 0 -0.0017814653017949932 0.0012930386364440459 0 -0.0016969869317036345 0.0012798413963985998 0 -0.0015584467354573892 0.00010116699819669444 0 -0.0016832916905609708 -1.4442758575777925e-05 0 -0.0018529676990947067 0.00014978058289372183 0 -0.0015913898212026917 0.0007088676889336153 0 -0.001798606840642627 0.00073099386225988219 0 -0.0016004902326308521 0.0012965213111173631 0 -0.0016926973266828968 0.0013293834730555543 0 -0.0017814653017949932 0.0012930386364440459 0 -0.0016832916905609708 -1.4442758575777925e-05 0 -0.0015746869764197316 -1.9268998123051689e-06 0 -0.0016364105637160483 0.00029220126707144061 0 -0.0016832916905609708 -1.4442758575777925e-05 0 -0.0016364105637160483 0.00029220126707144061 0 -0.0018529676990947067 0.00014978058289372183 0 -0.0016964383139928896 0.00030948280141846477 0 -0.0018177610013477539 0.00017608865327804079 0 -0.0016832916905609708 -1.4442758575777925e-05 0 -0.0016964383139928896 0.00030948280141846477 0 -0.0015584467354573892 0.00010116699819669444 0 -0.0016832916905609708 -1.4442758575777925e-05 0 -0.0019359301940227291 -0.00043844053802874022 0 -0.001583259023631626 -0.00021247907948061199 0 -0.0018177610013477539 0.00017608865327804079 0 -0.0016832916905609708 -1.4442758575777925e-05 0 -0.0015572733065774727 -0.00026496910077886701 0 -0.002063200433975705 -0.00097183506539922249 0 -0.0017884450471085183 -0.0011199546616986603 0 -0.0015572733065774727 -0.00026496910077886701 0 -0.0017884450471085183 -0.0011199546616986603 0 -0.0015572733065774727 -0.00026496910077886701 0 -0.0014760303264588757 -0.0010747922038181097 0 -0.0015746869764197316 -1.9268998123051689e-06 0 -0.0015572733065774727 -0.00026496910077886701 0 -0.0014163894063303152 7.1321074114181701e-05 0 -0.0016832916905609708 -1.4442758575777925e-05 0 -0.0015746869764197316 -1.9268998123051689e-06 0 -0.0015572733065774727 -0.00026496910077886701 0 -0.0015572733065774727 -0.00026496910077886701 0 -0.0013413886950332955 -0.00014468976231113391 0 -0.0014163894063303152 7.1321074114181701e-05 0 -0.0015572733065774727 -0.00026496910077886701 0 -0.0013413886950332955 -0.00014468976231113391 0 -0.0011224546707041428 -0.00044045743952234479 0 -0.0013413886950332955 -0.00014468976231113391 0 -0.0011224546707041428 -0.00044045743952234479 0 -0.0011731131343047667 -7.1831396996134518e-05 0 -0.0011224546707041428 -0.00044045743952234479 0 -0.00084404036029633736 -0.00044560505189109029 0 -0.00072793538273985595 -0.00089429442385296847 0 -0.0011224546707041428 -0.00044045743952234479 0 -0.00084404036029633736 -0.00044560505189109029 0 -0.0011731131343047667 -7.1831396996134518e-05 0 -0.0011224546707041428 -0.00044045743952234479 0 -0.0010844370144291432 -0.0009438617557688654 0 -0.00072793538273985595 -0.00089429442385296847 0 -0.0015572733065774727 -0.00026496910077886701 0 -0.0010844370144291432 -0.0009438617557688654 0 -0.0014760303264588757 -0.0010747922038181097 0 -0.0015572733065774727 -0.00026496910077886701 0 -0.0011224546707041428 -0.00044045743952234479 0 -0.0010844370144291432 -0.0009438617557688654 0 -0.00020972639504822978 -0.00085526966014166884 0 -0.00022889106533832758 -0.00066269627485918191 0 -0.00010315585000335877 -0.00074705692382440419 0 -0.00020972639504822978 -0.00085526966014166884 0 -0.00022889106533832758 -0.00066269627485918191 0 -0.00036938156922592411 -0.0006611854325812292 0 -0.00022889106533832758 -0.00066269627485918191 0 -0.00036938156922592411 -0.0006611854325812292 0 -0.00032167321849148626 -0.00053567595917619669 0 -0.00036938156922592411 -0.0006611854325812292 0 -0.00032167321849148626 -0.00053567595917619669 0 -0.000509938005215735 -0.00045992191881660821 0 -0.00036938156922592411 -0.0006611854325812292 0 -0.00057425299872654052 -0.00067779588044621021 0 -0.000509938005215735 -0.00045992191881660821 0 -0.00036938156922592411 -0.0006611854325812292 0 -0.00057425299872654052 -0.00067779588044621021 0 -0.00043151615733799561 -0.00092262533755075335 0 -0.00020972639504822978 -0.00085526966014166884 0 -0.00036938156922592411 -0.0006611854325812292 0 -0.00043151615733799561 -0.00092262533755075335 0 -0.00084404036029633736 -0.00044560505189109029 0 -0.00057425299872654052 -0.00067779588044621021 0 -0.00072793538273985595 -0.00089429442385296847 0 -0.00084404036029633736 -0.00044560505189109029 0 -0.00057425299872654052 -0.00067779588044621021 0 -0.000509938005215735 -0.00045992191881660821 0 -0.00072793538273985595 -0.00089429442385296847 0 -0.00043151615733799561 -0.00092262533755075335 0 -0.0004323565153653454 -0.0011927968176499565 0 -0.00057425299872654052 -0.00067779588044621021 0 -0.00072793538273985595 -0.00089429442385296847 0 -0.00043151615733799561 -0.00092262533755075335 0 -0.00043151615733799561 -0.00092262533755075335 0 -0.0004323565153653454 -0.0011927968176499565 0 -0.00015183808759001844 -0.0011833817255120704 0 -0.00020972639504822978 -0.00085526966014166884 0 -0.00043151615733799561 -0.00092262533755075335 0 -0.00015183808759001844 -0.0011833817255120704 0 -0.00021300970294211346 -0.001530073693488042 0 -0.00059366944978489803 -0.0015264042008977499 0 -0.0004323565153653454 -0.0011927968176499565 0 -0.00020440056341214865 -0.0015439353386168995 0 -0.00015183808759001844 -0.0011833817255120704 0 -0.0004323565153653454 -0.0011927968176499565 0 -0.00020440056341214865 -0.0015439353386168995 0 -0.00064385384126201752 -0.0014170467607370562 0 -0.0010844370144291432 -0.0009438617557688654 0 -0.00072793538273985595 -0.00089429442385296847 0 -0.00064385384126201752 -0.0014170467607370562 0 -0.00072793538273985595 -0.00089429442385296847 0 -0.0004323565153653454 -0.0011927968176499565 0 -0.00064385384126201752 -0.0014170467607370562 0 -0.00053747927597007957 -0.0016333771890875521 0 -0.00027735083133443304 -0.0019608669973720295 0 -0.00058648000624816378 -0.0019748114233429986 0 -0.00020440056341214865 -0.0015439353386168995 0 -0.00053747927597007957 -0.0016333771890875521 0 -0.00027735083133443304 -0.0019608669973720295 0 -0.0017915136797472431 -0.001485475966873828 0 -0.0014760303264588757 -0.0010747922038181097 0 -0.0011464123535869643 -0.0014090096547897423 0 -0.0010844370144291432 -0.0009438617557688654 0 -0.0014760303264588757 -0.0010747922038181097 0 -0.0011464123535869643 -0.0014090096547897423 0 -0.0010844370144291432 -0.0009438617557688654 0 -0.00064385384126201752 -0.0014170467607370562 0 -0.0011464123535869643 -0.0014090096547897423 0 -0.00059366944978489803 -0.0015264042008977499 0 -0.00092848173687341514 -0.0015706504023031318 0 -0.00086499997863399532 -0.001666504219902357 0 -0.00091174617841831632 -0.0020207079650836892 0 -0.00058648000624816378 -0.0019748114233429986 0 -0.00053747927597007957 -0.0016333771890875521 0 -0.00086499997863399532 -0.001666504219902357 0 -0.00058648000624816378 -0.0019748114233429986 0 -0.0022965377119396071 4.3409258042529521e-05 0 -0.001840092783090693 -0.00018471108810007709 0 -0.0022556717309344348 -0.00017178335052538159 0 -0.0012322229191090582 -0.0017001999979584586 0 -0.00086499997863399532 -0.001666504219902357 0 -0.00091174617841831632 -0.0020207079650836892 0 -0.001932499273193691 -0.0011730710270167295 0 -0.00092848173687341514 -0.0015706504023031318 0 -0.001932499273193691 -0.0011730710270167295 0 -0.0013556443916791822 -0.0010577318433953775 0 -0.001840092783090693 -0.00018471108810007709 0 -0.0022556717309344348 -0.00017178335052538159 0 -0.0022689748013486164 -0.00034948712562964183 0 -0.00091174617841831632 -0.0020207079650836892 0 -0.00058648000624816378 -0.0019748114233429986 0 -0.00056543355512006651 -0.0022959120853383724 0 -0.001840092783090693 -0.00018471108810007709 0 -0.0010838925678981432 -0.00092773379363010882 0 -0.0018028510787245515 -0.0010551523199138441 0 -0.0013556443916791822 -0.0010577318433953775 0 -0.0008400987765696525 -0.0016307889900011169 0 -0.001840092783090693 -0.00018471108810007709 0 -0.0018028510787245515 -0.0010551523199138441 0 -0.0021796257604396732 -0.00063834828899165781 0 -0.001840092783090693 -0.00018471108810007709 0 -0.0021796257604396732 -0.00063834828899165781 0 -0.0022689748013486164 -0.00034948712562964183 0 -0.00027735083133443304 -0.0019608669973720295 0 -0.00038946474667137513 -0.0021710202490166502 0 -0.00017719487947662291 -0.0022557014949017365 0 -0.00027735083133443304 -0.0019608669973720295 0 -0.00058648000624816378 -0.0019748114233429986 0 -0.00038946474667137513 -0.0021710202490166502 0 -0.00056543355512006651 -0.0022959120853383724 0 -0.00038946474667137513 -0.0021710202490166502 0 -0.00033787728342660357 -0.0023124297665898497 0 -0.00058648000624816378 -0.0019748114233429986 0 -0.00056543355512006651 -0.0022959120853383724 0 -0.00038946474667137513 -0.0021710202490166502 0 -0.00038946474667137513 -0.0021710202490166502 0 -0.00033787728342660357 -0.0023124297665898497 0 -0.00017719487947662291 -0.0022557014949017365 0 -0.00033787728342660357 -0.0023124297665898497 0 -0.0003550559071896807 -0.0023007083760511558 0 -0.00010562559824295864 -0.0025117410437833594 0 -0.00056543355512006651 -0.0022959120853383724 0 -0.00033787728342660357 -0.0023124297665898497 0 -0.0003550559071896807 -0.0023007083760511558 0 -0.0008400987765696525 -0.0016307889900011169 0 -0.00038692390423150218 -0.0022267265135228064 0 -0.0010838925678981432 -0.00092773379363010882 0 -0.0003550559071896807 -0.0023007083760511558 0 -0.001228775971226529 -0.0021966020342031765 0 -0.00047301936940781714 -0.0028009959659697973 0 -0.0011176146286326408 -0.0025014341038892499 0 -0.0003550559071896807 -0.0023007083760511558 0 -0.00041800377547738962 -0.00266677267905504 0 -0.001228775971226529 -0.0021966020342031765 0 -0.0003550559071896807 -0.0023007083760511558 0 -0.00016572671627666311 -0.0026482940808304316 0 -0.00010562559824295864 -0.0025117410437833594 0 -0.0003550559071896807 -0.0023007083760511558 0 -0.00041800377547738962 -0.00266677267905504 0 -0.00016572671627666311 -0.0026482940808304316 0 -0.0018028510787245515 -0.0010551523199138441 0 -0.0022565566484800507 -0.0010792182908778687 0 -0.0021796257604396732 -0.00063834828899165781 0 -0.0018028510787245515 -0.0010551523199138441 0 -0.0020023747450161181 -0.0015919980057176241 0 -0.0022565566484800507 -0.0010792182908778687 0 -0.0010838925678981432 -0.00092773379363010882 0 -0.0018028510787245515 -0.0010551523199138441 0 -0.001228775971226529 -0.0021966020342031765 0 -0.0013370805317478617 -0.0030436522773945149 0 -0.0010340806213155031 -0.00282281993923789 0 -0.0014985550570403852 -0.0027189912316889632 0 -0.0011176146286326408 -0.0025014341038892499 0 -0.0016931196398978037 -0.0022042926653873416 0 -0.0018028510787245515 -0.0010551523199138441 0 -0.001228775971226529 -0.0021966020342031765 0 -0.0020023747450161181 -0.0015919980057176241 0 -0.0020023747450161181 -0.0015919980057176241 0 -0.0026396495789589905 -0.0010804640080816902 0 -0.0022565566484800507 -0.0010792182908778687 0 -0.0014985550570403852 -0.0027189912316889632 0 -0.0017874268444379292 -0.0028727696405582105 0 -0.0019643805890239546 -0.002614303502669545 0 -0.0016409354258531119 -0.0031023625199815851 0 -0.0014985550570403852 -0.0027189912316889632 0 -0.0017874268444379292 -0.0028727696405582105 0 -0.0016931196398978037 -0.0022042926653873416 0 -0.0023975108116256025 -0.0014273158338397424 0 -0.0020452579469780532 -0.0030536448521171428 0 -0.0017874268444379292 -0.0028727696405582105 0 -0.0019643805890239546 -0.002614303502669545 0 -0.0023220729206916702 -0.0019623029248214989 0 -0.0023975108116256025 -0.0014273158338397424 0 -0.0026107431331253415 -0.00083760566582849125 0 -0.0026299806378124982 -0.00069268368755708997 0 -0.0025582333691692178 -0.00062247785585908876 0 -0.0027599109702436363 -0.0007927536064896533 0 -0.0026107431331253415 -0.00083760566582849125 0 -0.0026299806378124982 -0.00069268368755708997 0 -0.0027599109702436363 -0.0007927536064896533 0 -0.0026299806378124982 -0.00069268368755708997 0 -0.0027271876469702381 -0.00067397098197783225 0 -0.0026299806378124982 -0.00069268368755708997 0 -0.0025582333691692178 -0.00062247785585908876 0 -0.0026203403107181288 -0.00063021789173658526 0 -0.0025582333691692178 -0.00062247785585908876 0 -0.0026203403107181288 -0.00063021789173658526 0 -0.0025728251651395062 -0.00062673470027666044 0 -0.0026203403107181288 -0.00063021789173658526 0 -0.002688265888763525 -0.00057867806757105715 0 -0.0027271876469702381 -0.00067397098197783225 0 -0.0026299806378124982 -0.00069268368755708997 0 -0.0026203403107181288 -0.00063021789173658526 0 -0.0027271876469702381 -0.00067397098197783225 0 -0.0026203403107181288 -0.00063021789173658526 0 -0.0026371448784398275 -0.00051015829129215178 0 -0.0025867310557386165 -0.0005956070188466835 0 -0.0026203403107181288 -0.00063021789173658526 0 -0.002688265888763525 -0.00057867806757105715 0 -0.0026371448784398275 -0.00051015829129215178 0 -0.0026371448784398275 -0.00051015829129215178 0 -0.0025867310557386165 -0.0005956070188466835 0 -0.0025698496194981059 -0.00054559162013738242 0 -0.0025867310557386165 -0.0005956070188466835 0 -0.0025538916923773438 -0.00067584278221794478 0 -0.0025698496194981059 -0.00054559162013738242 0 -0.0026203403107181288 -0.00063021789173658526 0 -0.0025867310557386165 -0.0005956070188466835 0 -0.0025728251651395062 -0.00062673470027666044 0 -0.0025867310557386165 -0.0005956070188466835 0 -0.0025728251651395062 -0.00062673470027666044 0 -0.0025538916923773438 -0.00067584278221794478 0 -0.0025582333691692178 -0.00062247785585908876 0 -0.0025538916923773438 -0.00067584278221794478 0 -0.0025654575948239537 -0.00076585029380724133 0 -0.0025582333691692178 -0.00062247785585908876 0 -0.0025728251651395062 -0.00062673470027666044 0 -0.0025538916923773438 -0.00067584278221794478 0 -0.0023975108116256025 -0.0014273158338397424 0 -0.0024077233771976772 -0.00091184929458449455 0 -0.0025538916923773438 -0.00067584278221794478 0 -0.0025698496194981059 -0.00054559162013738242 0 -0.0025654575948239537 -0.00076585029380724133 0 -0.0025698496194981059 -0.00054559162013738242 0 -0.002506735987594906 -0.00060440034514405792 0 -0.002505306919999927 -0.00043598510992192134 0 -0.0025698496194981059 -0.00054559162013738242 0 -0.0025654575948239537 -0.00076585029380724133 0 -0.002506735987594906 -0.00060440034514405792 0 -0.0026371448784398275 -0.00051015829129215178 0 -0.0025698496194981059 -0.00054559162013738242 0 -0.0026644243436061486 -0.0001934070516419696 0 -0.0022565566484800507 -0.0010792182908778687 0 -0.0023815056004121596 -0.00069396719230407889 0 -0.0021796257604396732 -0.00063834828899165781 0 -0.0026396495789589905 -0.0010804640080816902 0 -0.0022565566484800507 -0.0010792182908778687 0 -0.0025654575948239537 -0.00076585029380724133 0 -0.0022565566484800507 -0.0010792182908778687 0 -0.0025654575948239537 -0.00076585029380724133 0 -0.0023815056004121596 -0.00069396719230407889 0 -0.0025654575948239537 -0.00076585029380724133 0 -0.002506735987594906 -0.00060440034514405792 0 -0.0023815056004121596 -0.00069396719230407889 0 -0.0023815056004121596 -0.00069396719230407889 0 -0.0021796257604396732 -0.00063834828899165781 0 -0.002505306919999927 -0.00043598510992192134 0 -0.0021796257604396732 -0.00063834828899165781 0 -0.002505306919999927 -0.00043598510992192134 0 -0.0022689748013486164 -0.00034948712562964183 0 -0.002505306919999927 -0.00043598510992192134 0 -0.0022689748013486164 -0.00034948712562964183 0 -0.002436892464394459 -0.00026394072963169355 0 -0.002506735987594906 -0.00060440034514405792 0 -0.0023815056004121596 -0.00069396719230407889 0 -0.002505306919999927 -0.00043598510992192134 0 -0.0025698496194981059 -0.00054559162013738242 0 -0.002505306919999927 -0.00043598510992192134 0 -0.0026644243436061486 -0.0001934070516419696 0 -0.002505306919999927 -0.00043598510992192134 0 -0.0026644243436061486 -0.0001934070516419696 0 -0.002581882165687035 -0.00025278319766993312 0 -0.002505306919999927 -0.00043598510992192134 0 -0.002581882165687035 -0.00025278319766993312 0 -0.002436892464394459 -0.00026394072963169355 0 -0.002581882165687035 -0.00025278319766993312 0 -0.0025173756871878848 -0.00021958493555914731 0 -0.002436892464394459 -0.00026394072963169355 0 -0.0024045110990682131 -0.00014859001241788778 0 -0.0025173756871878848 -0.00021958493555914731 0 -0.002436892464394459 -0.00026394072963169355 0 -0.0024045110990682131 -0.00014859001241788778 0 -0.0022556717309344348 -0.00017178335052538159 0 -0.002436892464394459 -0.00026394072963169355 0 -0.0022556717309344348 -0.00017178335052538159 0 -0.0022689748013486164 -0.00034948712562964183 0 -0.002436892464394459 -0.00026394072963169355 0 -0.0016067859220434764 0.00094347924826931233 0 -0.0014970980070238161 0.00085081313630710315 0 -0.0017635907600279902 0.0008123836585286644 0 -0.0016067859220434764 0.00094347924826931233 0 -0.0017635907600279902 0.0008123836585286644 0 -0.0017383867294691795 0.0010371317447804582 0 -0.002544270359056668 -0.00011588830457095373 0 -0.0025173756871878848 -0.00021958493555914731 0 -0.0024400833607615361 -0.00034721412230946446 0 -0.002581882165687035 -0.00025278319766993312 0 -0.0025173756871878848 -0.00021958493555914731 0 -0.0024400833607615361 -0.00034721412230946446 0 -0.0015059698581188542 0.00092371887902172652 0 -0.0016067859220434764 0.00094347924826931233 0 -0.0014970980070238161 0.00085081313630710315 0 -0.0024400833607615361 -0.00034721412230946446 0 -0.002444938913762931 -8.1918333800060588e-05 0 -0.0018150618093965105 0.00047360852130361842 0 -0.002581882165687035 -0.00025278319766993312 0 -0.0024400833607615361 -0.00034721412230946446 0 -0.002444938913762931 -8.1918333800060588e-05 0 -0.0026644243436061486 -0.0001934070516419696 0 -0.002581882165687035 -0.00025278319766993312 0 -0.002444938913762931 -8.1918333800060588e-05 0 -0.0026644243436061486 -0.0001934070516419696 0 -0.002444938913762931 -8.1918333800060588e-05 0 -0.0022526824864768508 0.00023366571609747665 0 -0.0019272488901217494 0.00036868704788180635 0 -0.0018442551742335854 0.00041973857329708088 0 -0.0014970980070238161 0.00085081313630710315 0 -0.0018150618093965105 0.00047360852130361842 0 -0.0017635907600279902 0.0008123836585286644 0 -0.002444938913762931 -8.1918333800060588e-05 0 -0.0022526824864768508 0.00023366571609747665 0 -0.0018150618093965105 0.00047360852130361842 0 -0.0018150618093965105 0.00047360852130361842 0 -0.0020247514149713723 0.00077532621999786651 0 -0.0018215634506463492 0.00075933686654258605 0 -0.0022526824864768508 0.00023366571609747665 0 -0.0018150618093965105 0.00047360852130361842 0 -0.0020247514149713723 0.00077532621999786651 0 -0.0026740498318448248 -0.00012676864242652157 0 -0.0025249258115994247 0.00020148385657298211 0 -0.0026644243436061486 -0.0001934070516419696 0 -0.0030801228057074875 -0.00033339222727019638 0 -0.0029417861541884897 -0.00032200657451517866 0 -0.0026644243436061486 -0.0001934070516419696 0 -0.0022526824864768508 0.00023366571609747665 0 -0.0020247514149713723 0.00077532621999786651 0 -0.0026644243436061486 -0.0001934070516419696 0 -0.0029417861541884897 -0.00032200657451517866 0 -0.0027683813395175515 -0.00051818052192752716 0 -0.0026371448784398275 -0.00051015829129215178 0 -0.0026644243436061486 -0.0001934070516419696 0 -0.0027683813395175515 -0.00051818052192752716 0 -0.002688265888763525 -0.00057867806757105715 0 -0.0026371448784398275 -0.00051015829129215178 0 -0.0027683813395175515 -0.00051818052192752716 0 -0.0030952390127569258 -0.00026815027654925559 0 -0.0029781811388286776 -0.00029663485486692344 0 -0.0028993177145412298 -0.00081023858434792499 0 -0.0027683813395175515 -0.00051818052192752716 0 -0.0027271876469702381 -0.00067397098197783225 0 -0.0033324122772950228 0.00018813706983727188 0 -0.0030801228057074875 -0.00033339222727019638 0 -0.0029417861541884897 -0.00032200657451517866 0 -0.0028993177145412298 -0.00081023858434792499 0 -0.0029417861541884897 -0.00032200657451517866 0 -0.0027683813395175515 -0.00051818052192752716 0 -0.002688265888763525 -0.00057867806757105715 0 -0.0027683813395175515 -0.00051818052192752716 0 -0.0027271876469702381 -0.00067397098197783225 0 -0.0027599109702436363 -0.0007927536064896533 0 -0.0028993177145412298 -0.00081023858434792499 0 -0.0027271876469702381 -0.00067397098197783225 0 -0.0025249258115994247 0.00020148385657298211 0 -0.0021579075116993016 0.00039294308259826496 0 -0.0020247514149713723 0.00077532621999786651 0 -0.0018082164275812257 0.00083382389905381981 0 -0.0018215634506463492 0.00075933686654258605 0 -0.0033324122772950228 0.00018813706983727188 0 -0.0030801228057074875 -0.00033339222727019638 0 -0.0025140260147456061 7.6690319366945432e-05 0 -0.0018082164275812257 0.00083382389905381981 0 -0.0018215634506463492 0.00075933686654258605 0 -0.0018230642347124397 0.00084402675164397839 0 -0.0018215634506463492 0.00075933686654258605 0 -0.0018230642347124397 0.00084402675164397839 0 -0.0018157679692224729 0.00070849097199880261 0 -0.0018150618093965105 0.00047360852130361842 0 -0.0018215634506463492 0.00075933686654258605 0 -0.0018157679692224729 0.00070849097199880261 0 -0.0018230642347124397 0.00084402675164397839 0 -0.0019460706713882868 0.0010338552871191372 0 -0.0018413886610368188 0.00087875106375727592 0 -0.0018230642347124397 0.00084402675164397839 0 -0.0018794887263642952 0.00083350492694830522 0 -0.0019460706713882868 0.0010338552871191372 0 -0.0018082164275812257 0.00083382389905381981 0 -0.0018230642347124397 0.00084402675164397839 0 -0.0018794887263642952 0.00083350492694830522 0 -0.0019901127487811756 0.0017942486174115646 0 -0.0021734659141995506 0.0015120294768612183 0 -0.0018222605180691362 0.0015485999102287944 0 -0.0021734659141995506 0.0015120294768612183 0 -0.0018222605180691362 0.0015485999102287944 0 -0.0019460706713882868 0.0010338552871191372 0 -0.0020244554756178304 0.0011812820066620432 0 -0.001959020761855299 0.0010456233323259982 0 -0.0018222605180691362 0.0015485999102287944 0 -0.0015357313851688743 0.0016936811372906832 0 -0.0016340574767412682 0.001305870351428211 0 -0.0018222605180691362 0.0015485999102287944 0 -0.0019460706713882868 0.0010338552871191372 0 -0.0016340574767412682 0.001305870351428211 0 -0.0019460706713882868 0.0010338552871191372 0 -0.0017823003747182433 0.001025948630427681 0 -0.0016340574767412682 0.001305870351428211 0 -0.0019460706713882868 0.0010338552871191372 0 -0.0018758184553904929 0.00097065016902825492 0 -0.0018413886610368188 0.00087875106375727592 0 -0.0019460706713882868 0.0010338552871191372 0 -0.0017823003747182433 0.001025948630427681 0 -0.0018758184553904929 0.00097065016902825492 0 -0.0017823003747182433 0.001025948630427681 0 -0.0018483026939704937 0.00096299280246034294 0 -0.0018758184553904929 0.00097065016902825492 0 -0.0018483026939704937 0.00096299280246034294 0 -0.0018758184553904929 0.00097065016902825492 0 -0.0018585947641715894 0.0013251951935780032 0 -0.0018758184553904929 0.00097065016902825492 0 -0.0018112890976681362 0.0010874607311115721 0 -0.0018585947641715894 0.0013251951935780032 0 -0.0018112890976681362 0.0010874607311115721 0 -0.0018413886610368188 0.00087875106375727592 0 -0.0017383867294691795 0.0010371317447804582 0 -0.0018758184553904929 0.00097065016902825492 0 -0.0018112890976681362 0.0010874607311115721 0 -0.0018413886610368188 0.00087875106375727592 0 -0.0017635907600279902 0.0008123836585286644 0 -0.0018413886610368188 0.00087875106375727592 0 -0.0017383867294691795 0.0010371317447804582 0 -0.0017635907600279902 0.0008123836585286644 0 -0.0018157679692224729 0.00070849097199880261 0 -0.0018413886610368188 0.00087875106375727592 0 -0.0018150618093965105 0.00047360852130361842 0 -0.0017635907600279902 0.0008123836585286644 0 -0.0018157679692224729 0.00070849097199880261 0 -0.0018230642347124397 0.00084402675164397839 0 -0.0018157679692224729 0.00070849097199880261 0 -0.0018413886610368188 0.00087875106375727592 0 -0.001272248822266258 0.0023805649031023762 0 -0.0013139406446948251 0.002580145884260642 0 -0.0014623454804385874 0.0023922767728793725 0 -0.001272248822266258 0.0023805649031023762 0 -0.0014623454804385874 0.0023922767728793725 0 -0.0013482592419669735 0.0022202248688313712 0 -0.0022691649491078931 0.0049749652012151969 0 -0.001821164391538422 0.0056954845677799921 0 -0.002260567306854604 0.009025101380214352 0 -0.0031085166895076718 0.0072522044225184898 0 -0.0039230002023739885 0.010072110120359131 0 -0.0022807499382392596 0.011546696224880132 0 -0.002260567306854604 0.009025101380214352 0 -0.0039230002023739885 0.010072110120359131 0 -0.0020014397705609699 0.010551408645420882 0 -0.001821164391538422 0.0056954845677799921 0 -0.001821164391538422 0.0056954845677799921 0 -0.0012389155392346387 0.0013297758155554167 0 -0.00087908246413190803 0.0018158759405030489 0 -0.00049608455722173451 0.0016898571768983314 0 -0.00095501641336329123 0.0012862591879690009 0 -0.00095501641336329123 0.0012862591879690009 0 -0.0012799898458709723 0.0014769195746096612 0 -0.0014441305243727829 0.00098154457432367889 0 -0.0012389155392346387 0.0013297758155554167 0 -0.001492833389787517 0.001681752767462218 0 -0.00087908246413190803 0.0018158759405030489 0 -0.00095501641336329123 0.0012862591879690009 0 -0.0012799898458709723 0.0014769195746096612 0 -0.001219924131101781 0.0018719517877938412 0 -0.00087908246413190803 0.0018158759405030489 0 -0.0012799898458709723 0.0014769195746096612 0 -0.001219924131101781 0.0018719517877938412 0 -0.0012799898458709723 0.0014769195746096612 0 -0.0015357313851688743 0.0016936811372906832 0 -0.0012799898458709723 0.0014769195746096612 0 -0.0015357313851688743 0.0016936811372906832 0 -0.0016340574767412682 0.001305870351428211 0 -0.0017823003747182433 0.001025948630427681 0 -0.0016340574767412682 0.001305870351428211 0 -0.0014441305243727829 0.00098154457432367889 0 -0.0012799898458709723 0.0014769195746096612 0 -0.0016340574767412682 0.001305870351428211 0 -0.0014441305243727829 0.00098154457432367889 0 -0.0017823003747182433 0.001025948630427681 0 -0.0018483026939704937 0.00096299280246034294 0 -0.0014441305243727829 0.00098154457432367889 0 -0.0017965365156763604 0.0014170799945725822 0 -0.001492833389787517 0.001681752767462218 0 -0.0017859886715434481 0.0018785253629162808 0 -0.0016206349583316963 0.0021917202043481229 0 -0.0015876996620818333 0.0018621386662900316 0 -0.0014813473805048946 0.0021267072412785655 0 -0.001396015046684021 0.0020749444542338168 0 -0.0015876996620818333 0.0018621386662900316 0 -0.0016206349583316963 0.0021917202043481229 0 -0.0014813473805048946 0.0021267072412785655 0 -0.0015876996620818333 0.0018621386662900316 0 -0.0014623454804385874 0.0023922767728793725 0 -0.0016206349583316963 0.0021917202043481229 0 -0.0014813473805048946 0.0021267072412785655 0 -0.0014623454804385874 0.0023922767728793725 0 -0.0014813473805048946 0.0021267072412785655 0 -0.0013482592419669735 0.0022202248688313712 0 -0.0014813473805048946 0.0021267072412785655 0 -0.0013482592419669735 0.0022202248688313712 0 -0.001396015046684021 0.0020749444542338168 0 -0.0012766415426007194 0.0022301958334248265 0 -0.001289496498683625 0.0022219736991041408 0 -0.0013482592419669735 0.0022202248688313712 0 -0.001289496498683625 0.0022219736991041408 0 -0.0013482592419669735 0.0022202248688313712 0 -0.001396015046684021 0.0020749444542338168 0 -0.0012766415426007194 0.0022301958334248265 0 -0.001272248822266258 0.0023805649031023762 0 -0.0013482592419669735 0.0022202248688313712 0 -0.0013150541026555613 0.0019317828023142527 0 -0.0014658286302821814 0.0017249447773359219 0 -0.0012578594082556522 0.0017524961528164122 0 -0.0013150541026555613 0.0019317828023142527 0 -0.0012850824059346523 0.0021789735882917056 0 -0.001396015046684021 0.0020749444542338168 0 -0.0010925789552279825 0.0020348224446218879 0 -0.0013150541026555613 0.0019317828023142527 0 -0.0012850824059346523 0.0021789735882917056 0 -0.001289496498683625 0.0022219736991041408 0 -0.0012850824059346523 0.0021789735882917056 0 -0.001396015046684021 0.0020749444542338168 0 -0.001481059356005455 0.0018568107713068163 0 -0.001396015046684021 0.0020749444542338168 0 -0.0015876996620818333 0.0018621386662900316 0 -0.0013150541026555613 0.0019317828023142527 0 -0.001481059356005455 0.0018568107713068163 0 -0.001396015046684021 0.0020749444542338168 0 -0.001481059356005455 0.0018568107713068163 0 -0.0014658286302821814 0.0017249447773359219 0 -0.0015619653077676087 0.0016887262225716629 0 -0.0013150541026555613 0.0019317828023142527 0 -0.001481059356005455 0.0018568107713068163 0 -0.0014658286302821814 0.0017249447773359219 0 -0.0015619653077676087 0.0016887262225716629 0 -0.001671588683849452 0.0016033597543955174 0 -0.0015666368167075256 0.0015844489357598991 0 -0.001481059356005455 0.0018568107713068163 0 -0.0015619653077676087 0.0016887262225716629 0 -0.0015876996620818333 0.0018621386662900316 0 -0.0017859886715434481 0.0018785253629162808 0 -0.0015876996620818333 0.0018621386662900316 0 -0.0017653073264002337 0.0015815068167697088 0 -0.0015876996620818333 0.0018621386662900316 0 -0.001671588683849452 0.0016033597543955174 0 -0.0017653073264002337 0.0015815068167697088 0 -0.0015619653077676087 0.0016887262225716629 0 -0.0015876996620818333 0.0018621386662900316 0 -0.001671588683849452 0.0016033597543955174 0 -0.001671588683849452 0.0016033597543955174 0 -0.001657741755872411 0.0015260436228104748 0 -0.0015666368167075256 0.0015844489357598991 0 -0.001657741755872411 0.0015260436228104748 0 -0.0016007424098257296 0.0015253423132072761 0 -0.0015666368167075256 0.0015844489357598991 0 -0.0015666368167075256 0.0015844489357598991 0 -0.0014837498493924216 0.0016030385610814385 0 -0.0014891439860861887 0.0016135303698017376 0 -0.0016007424098257296 0.0015253423132072761 0 -0.0015666368167075256 0.0015844489357598991 0 -0.0014891439860861887 0.0016135303698017376 0 -0.0014658286302821814 0.0017249447773359219 0 -0.0015619653077676087 0.0016887262225716629 0 -0.0015666368167075256 0.0015844489357598991 0 -0.0014658286302821814 0.0017249447773359219 0 -0.0014837498493924216 0.0016030385610814385 0 -0.0015031060776585592 0.001552634933741403 0 -0.0014658286302821814 0.0017249447773359219 0 -0.0015666368167075256 0.0015844489357598991 0 -0.0014837498493924216 0.0016030385610814385 0 -0.0014837498493924216 0.0016030385610814385 0 -0.001486904518673376 0.0016368269856507098 0 -0.0014891439860861887 0.0016135303698017376 0 -0.0014837498493924216 0.0016030385610814385 0 -0.001486904518673376 0.0016368269856507098 0 -0.0015031060776585592 0.001552634933741403 0 -0.0017241474538607342 0.0014846094022656772 0 -0.001486904518673376 0.0016368269856507098 0 -0.0015031060776585592 0.001552634933741403 0 -0.0010999166278585087 0.001847506492684829 0 -0.0013150541026555613 0.0019317828023142527 0 -0.0012578594082556522 0.0017524961528164122 0 -0.0014295223606469081 0.0016961282943533684 0 -0.0015168780516163739 0.0017482277203280979 0 -0.0017765488193459461 0.0013162258352404249 0 -0.0017038052153730129 0.0012586191050608226 0 -0.0017383867294691795 0.0010371317447804582 0 -0.0018112890976681362 0.0010874607311115721 0 -0.0017765488193459461 0.0013162258352404249 0 -0.0017383867294691795 0.0010371317447804582 0 -0.0018112890976681362 0.0010874607311115721 0 -0.0017765488193459461 0.0013162258352404249 0 -0.0018585947641715894 0.0013251951935780032 0 -0.0017965365156763604 0.0014170799945725822 0 -0.0018327794992354673 0.001363438920856379 0 -0.0017859886715434481 0.0018785253629162808 0 -0.0018585947641715894 0.0013251951935780032 0 -0.0017653073264002337 0.0015815068167697088 0 -0.001671588683849452 0.0016033597543955174 0 -0.0017653073264002337 0.0015815068167697088 0 -0.001767755784455556 0.0014580029466587589 0 -0.0018585947641715894 0.0013251951935780032 0 -0.0017653073264002337 0.0015815068167697088 0 -0.001767755784455556 0.0014580029466587589 0 -0.0017765488193459461 0.0013162258352404249 0 -0.0018585947641715894 0.0013251951935780032 0 -0.001767755784455556 0.0014580029466587589 0 -0.001767755784455556 0.0014580029466587589 0 -0.001733947629995047 0.0014124840420040041 0 -0.0016864996853120004 0.001468842976969144 0 -0.0017765488193459461 0.0013162258352404249 0 -0.001767755784455556 0.0014580029466587589 0 -0.001733947629995047 0.0014124840420040041 0 -0.001657741755872411 0.0015260436228104748 0 -0.001767755784455556 0.0014580029466587589 0 -0.0016864996853120004 0.001468842976969144 0 -0.001671588683849452 0.0016033597543955174 0 -0.001657741755872411 0.0015260436228104748 0 -0.001767755784455556 0.0014580029466587589 0 -0.0016007424098257296 0.0015253423132072761 0 -0.0016864996853120004 0.001468842976969144 0 -0.0016702766901678105 0.0014224028282655082 0 -0.001657741755872411 0.0015260436228104748 0 -0.0016007424098257296 0.0015253423132072761 0 -0.0016864996853120004 0.001468842976969144 0 -0.001733947629995047 0.0014124840420040041 0 -0.0016864996853120004 0.001468842976969144 0 -0.0016702766901678105 0.0014224028282655082 0 -0.001733947629995047 0.0014124840420040041 0 -0.0017083182419452652 0.001366137167371461 0 -0.0016702766901678105 0.0014224028282655082 0 -0.0017765488193459461 0.0013162258352404249 0 -0.001733947629995047 0.0014124840420040041 0 -0.0017083182419452652 0.001366137167371461 0 -0.0017765488193459461 0.0013162258352404249 0 -0.0017038052153730129 0.0012586191050608226 0 -0.0017083182419452652 0.001366137167371461 0 -0.0016926973266828968 0.0013293834730555543 0 -0.0017038052153730129 0.0012586191050608226 0 -0.0017083182419452652 0.001366137167371461 0 -0.0016926973266828968 0.0013293834730555543 0 -0.0017083182419452652 0.001366137167371461 0 -0.0016969869317036345 0.0012798413963985998 0 -0.0017083182419452652 0.001366137167371461 0 -0.0016711693091743004 0.0013145103831250411 0 -0.0016969869317036345 0.0012798413963985998 0 -0.0016711693091743004 0.0013145103831250411 0 -0.0016969869317036345 0.0012798413963985998 0 -0.0017318493202730073 0.0011655458385976317 0 -0.0016711693091743004 0.0013145103831250411 0 -0.0016512366645373003 0.0012644806822430799 0 -0.0017318493202730073 0.0011655458385976317 0 -0.0016711693091743004 0.0013145103831250411 0 -0.0016316628258922447 0.0013684694017988134 0 -0.0016512366645373003 0.0012644806822430799 0 -0.0017083182419452652 0.001366137167371461 0 -0.0016711693091743004 0.0013145103831250411 0 -0.0016702766901678105 0.0014224028282655082 0 -0.0016007424098257296 0.0015253423132072761 0 -0.0016702766901678105 0.0014224028282655082 0 -0.0016048307480721283 0.0014676005808411021 0 -0.0016702766901678105 0.0014224028282655082 0 -0.0016048307480721283 0.0014676005808411021 0 -0.0016316628258922447 0.0013684694017988134 0 -0.0016048307480721283 0.0014676005808411021 0 -0.0016316628258922447 0.0013684694017988134 0 -0.0015848671793593011 0.0014636932828729597 0 -0.0016711693091743004 0.0013145103831250411 0 -0.0016702766901678105 0.0014224028282655082 0 -0.0016316628258922447 0.0013684694017988134 0 -0.0016316628258922447 0.0013684694017988134 0 -0.0016280572931901011 0.001311332816882836 0 -0.0016512366645373003 0.0012644806822430799 0 -0.0016316628258922447 0.0013684694017988134 0 -0.0016280572931901011 0.001311332816882836 0 -0.001618334049241117 0.0013559578962423417 0 -0.0016316628258922447 0.0013684694017988134 0 -0.001618334049241117 0.0013559578962423417 0 -0.0015848671793593011 0.0014636932828729597 0 -0.0013660464199443767 0.0018574936918680075 0 -0.001607974107597472 0.0013340713154915979 0 -0.0015081494612256725 0.0014367489300194211 0 -0.0016280572931901011 0.001311332816882836 0 -0.001618334049241117 0.0013559578962423417 0 -0.001607974107597472 0.0013340713154915979 0 -0.0014752511292995367 0.0016040494298142148 0 -0.0015900306149833428 0.0013841919995095295 0 -0.0016280572931901011 0.001311332816882836 0 -0.001607974107597472 0.0013340713154915979 0 -0.0016170801837121058 0.001249636432780243 0 -0.001607974107597472 0.0013340713154915979 0 -0.0016170801837121058 0.001249636432780243 0 -0.0016017519270631721 0.001151850474099086 0 -0.0016017519270631721 0.001151850474099086 0 -0.0014285845162115894 0.0010318911082325278 0 -0.0013749023542793959 0.00085553982808443338 0 -0.0016017519270631721 0.001151850474099086 0 -0.0016778452649896542 0.0011982290528616418 0 -0.001780166225324303 0.0011208719244696263 0 -0.0016067459729635731 0.0011201308668279725 0 -0.0015621877043312405 0.0009954465074921248 0 -0.0016170801837121058 0.001249636432780243 0 -0.0016017519270631721 0.001151850474099086 0 -0.0016778452649896542 0.0011982290528616418 0 -0.0016778452649896542 0.0011982290528616418 0 -0.001780166225324303 0.0011208719244696263 0 -0.0017318493202730073 0.0011655458385976317 0 -0.0016778452649896542 0.0011982290528616418 0 -0.0016512366645373003 0.0012644806822430799 0 -0.0017318493202730073 0.0011655458385976317 0 -0.0016280572931901011 0.001311332816882836 0 -0.0016170801837121058 0.001249636432780243 0 -0.0016512366645373003 0.0012644806822430799 0 -0.0016170801837121058 0.001249636432780243 0 -0.0016778452649896542 0.0011982290528616418 0 -0.0016512366645373003 0.0012644806822430799 0 -0.0015690675645301897 0.0018109472606759158 0 -0.0014137169768706017 0.0022635857760498245 0 -0.0014202498399903266 0.0019146202051716214 0 -0.0015690675645301897 0.0018109472606759158 0 -0.0014202498399903266 0.0019146202051716214 0 -0.0014378175171165042 0.0017492743382075762 0 -0.0015690675645301897 0.0018109472606759158 0 -0.001486904518673376 0.0016368269856507098 0 -0.0014378175171165042 0.0017492743382075762 0 -0.001486904518673376 0.0016368269856507098 0 -0.0014378175171165042 0.0017492743382075762 0 -0.0014891439860861887 0.0016135303698017376 0 -0.0014378175171165042 0.0017492743382075762 0 -0.0014923337353642053 0.0016357582028382902 0 -0.0014891439860861887 0.0016135303698017376 0 -0.0014412514043157056 0.0017675752361740724 0 -0.0014923337353642053 0.0016357582028382902 0 -0.0014301534168608104 0.0017070255649810687 0 -0.0014378175171165042 0.0017492743382075762 0 -0.0014412514043157056 0.0017675752361740724 0 -0.0014923337353642053 0.0016357582028382902 0 -0.0014202498399903266 0.0019146202051716214 0 -0.0014378175171165042 0.0017492743382075762 0 -0.0014412514043157056 0.0017675752361740724 0 -0.0014202498399903266 0.0019146202051716214 0 -0.0014412514043157056 0.0017675752361740724 0 -0.0014301534168608104 0.0017070255649810687 0 -0.0014923337353642053 0.0016357582028382902 0 -0.0014891439860861887 0.0016135303698017376 0 -0.0015532329676831436 0.0015415390648955947 0 -0.0016007424098257296 0.0015253423132072761 0 -0.0014891439860861887 0.0016135303698017376 0 -0.0015532329676831436 0.0015415390648955947 0 -0.0016007424098257296 0.0015253423132072761 0 -0.0016048307480721283 0.0014676005808411021 0 -0.0015532329676831436 0.0015415390648955947 0 -0.0016048307480721283 0.0014676005808411021 0 -0.0015532329676831436 0.0015415390648955947 0 -0.0015848671793593011 0.0014636932828729597 0 -0.0014923337353642053 0.0016357582028382902 0 -0.0015532329676831436 0.0015415390648955947 0 -0.0015848671793593011 0.0014636932828729597 0 -0.0014923337353642053 0.0016357582028382902 0 -0.0015848671793593011 0.0014636932828729597 0 -0.0015265059426638767 0.001480385083706575 0 -0.001618334049241117 0.0013559578962423417 0 -0.0015848671793593011 0.0014636932828729597 0 -0.0015265059426638767 0.001480385083706575 0 -0.0009208755277083728 0.0023015195132959896 0 -0.00074246977806137146 0.0018913290979301995 0 -0.0011529966978768257 0.0016923598237941933 0 -0.0014752511292995367 0.0016040494298142148 0 -0.001209319660080547 0.0018907334044067903 0 -0.0013660464199443767 0.0018574936918680075 0 -0.0009208755277083728 0.0023015195132959896 0 -0.0011529966978768257 0.0016923598237941933 0 -0.0009208755277083728 0.0023015195132959896 0 -0.00051185988961700987 0.0023366265045031 0 -0.00074246977806137146 0.0018913290979301995 0 -0.001209319660080547 0.0018907334044067903 0 -0.00093138149424980775 0.0021574498517380482 0 -0.0014923337353642053 0.0016357582028382902 0 -0.0015265059426638767 0.001480385083706575 0 -0.0014301534168608104 0.0017070255649810687 0 -0.0009208755277083728 0.0023015195132959896 0 -0.00033099589948956253 0.0026077019375654537 0 -0.00051185988961700987 0.0023366265045031 0 -0.00033099589948956253 0.0026077019375654537 0 -0.00051185988961700987 0.0023366265045031 0 -0.00050814028738777246 0.0027814477079142028 0 -0.00051185988961700987 0.0023366265045031 0 -0.00035221589679204152 0.0020309647733845627 0 -0.00074246977806137146 0.0018913290979301995 0 -0.00051185988961700987 0.0023366265045031 0 -0.00050814028738777246 0.0027814477079142028 0 -0.00035221589679204152 0.0020309647733845627 0 -0.001516868417734608 0.0033827066027865308 0 -0.00082837020881411187 0.0038685587991700147 0 -0.00050814028738777246 0.0027814477079142028 0 -0.00047215800685392333 0.0026939333785355297 0 -8.4325756904587729e-05 0.0032522221430327796 0 -0.00082837020881411187 0.0038685587991700147 0 -0.00050814028738777246 0.0027814477079142028 0 0.00012711329736701945 0.004115487430205185 0 -0.0014137169768706017 0.0022635857760498245 0 -0.0014202498399903266 0.0019146202051716214 0 -0.0014301534168608104 0.0017070255649810687 0 -0.0014137169768706017 0.0022635857760498245 0 -0.00033099589948956253 0.0026077019375654537 0 -0.00050814028738777246 0.0027814477079142028 0 -0.0013926671581330644 0.002219083407773222 0 -0.00093138149424980775 0.0021574498517380482 0 -0.00075001902585661946 0.0050055917646942335 0 0.0006019529700761262 0.0052672771868342884 0 -0.00059263912330089386 0.0062077628855083059 0 -0.00082837020881411187 0.0038685587991700147 0 -0.00075001902585661946 0.0050055917646942335 0 0.00012711329736701945 0.004115487430205185 0 -0.00075001902585661946 0.0050055917646942335 0 0.00012711329736701945 0.004115487430205185 0 0.0006019529700761262 0.0052672771868342884 0 -0.00035221589679204152 0.0020309647733845627 0 -0.00055531842398218504 0.0015127183090995755 0 -0.00074246977806137146 0.0018913290979301995 0 -8.4325756904587729e-05 0.0032522221430327796 0 -0.00021250816330237147 0.0024541014383219822 0 -0.00021250816330237147 0.0024541014383219822 0 -0.00022035837091586305 0.0091886186619204446 0 -0.00055531842398218504 0.0015127183090995755 0 -0.00083970903081225727 0.0013405781470364399 0 -0.00075064738399804995 0.0011771396138021641 0 -0.00055531842398218504 0.0015127183090995755 0 -0.00083970903081225727 0.0013405781470364399 0 -0.00095260738955358368 0.0014855033368530773 0 -0.00055531842398218504 0.0015127183090995755 0 -0.00074246977806137146 0.0018913290979301995 0 -0.00095260738955358368 0.0014855033368530773 0 -0.00074246977806137146 0.0018913290979301995 0 -0.0011529966978768257 0.0016923598237941933 0 -0.00095260738955358368 0.0014855033368530773 0 -0.0011529966978768257 0.0016923598237941933 0 -0.00095260738955358368 0.0014855033368530773 0 -0.0011967868884737482 0.0013508504458687543 0 -0.00083970903081225727 0.0013405781470364399 0 -0.00095260738955358368 0.0014855033368530773 0 -0.0010270740289445497 0.0012758736714025593 0 -0.00095260738955358368 0.0014855033368530773 0 -0.0011967868884737482 0.0013508504458687543 0 -0.0010270740289445497 0.0012758736714025593 0 -0.0011967868884737482 0.0013508504458687543 0 -0.0011808057636231589 0.00124673233601786 0 -0.0010270740289445497 0.0012758736714025593 0 -0.0010270740289445497 0.0012758736714025593 0 -0.00075064738399804995 0.0011771396138021641 0 -0.0012090483584191324 0.0011438692381209026 0 -0.00075064738399804995 0.0011771396138021641 0 -0.0012257690409264777 0.00112206704672159 0 -0.0012090483584191324 0.0011438692381209026 0 -0.00022035837091586305 0.0091886186619204446 0 -0.00059422408631487926 0.0065709281536802605 0 -0.0011808057636231589 0.00124673233601786 0 -0.0010270740289445497 0.0012758736714025593 0 -0.0012090483584191324 0.0011438692381209026 0 -1.1171031106014122e-06 0.0143419385902297 0 -0.0006738821433057839 0.012987717309472346 0 0.00023247625128291897 0.012685188621488801 0 0.00028661455590063946 0.016440491811796815 0 -0.00022035837091586305 0.0091886186619204446 0 -0.00083970903081225727 0.0013405781470364399 0 -0.0010270740289445497 0.0012758736714025593 0 -0.00075064738399804995 0.0011771396138021641 0 3.4443372678945814e-07 0.018119315726341598 0 -1.272117814658413e-06 0.014349489781306721 0 5.6558583978259213e-05 0.017656486235574413 0 -1.272117814658413e-06 0.014349489781306721 0 -0.00027457931010466932 0.016179519441014232 0 5.6558583978259213e-05 0.017656486235574413 0 -0.00022035837091586305 0.0091886186619204446 0 -3.6415643368024291e-05 0.012247314478728193 0 0.0006019529700761262 0.0052672771868342884 0 0.0010802162510593232 0.0064216103689752335 0 -0.00059263912330089386 0.0062077628855083059 0 7.9317366151471539e-07 0.011570791471870109 0 -3.8150015514515415e-06 0.009170218499670096 0 -2.9162858363655301e-07 0.0068705583524397299 0 -0.0015680637226377515 0.0012248153175910422 0 -0.001559837347836204 0.0012463289420052695 0 -0.001515155153143345 0.0012010022050031241 0 -0.001559837347836204 0.0012463289420052695 0 -0.001515155153143345 0.0012010022050031241 0 -0.0015553919842094548 0.0012232810861365323 0 -0.0015680637226377515 0.0012248153175910422 0 -0.001559837347836204 0.0012463289420052695 0 -0.0015648837992089523 0.0013096418172397688 0 -0.001515155153143345 0.0012010022050031241 0 -0.0015433305486682533 0.0011534881996555983 0 -0.0014285845162115894 0.0010318911082325278 0 -0.0015680637226377515 0.0012248153175910422 0 -0.001515155153143345 0.0012010022050031241 0 -0.0015433305486682533 0.0011534881996555983 0 -0.0016017519270631721 0.001151850474099086 0 -0.0015433305486682533 0.0011534881996555983 0 -0.0014285845162115894 0.0010318911082325278 0 -0.0016017519270631721 0.001151850474099086 0 -0.0015433305486682533 0.0011534881996555983 0 -0.001590757228737935 0.0012405124603566073 0 -0.001607974107597472 0.0013340713154915979 0 -0.0016017519270631721 0.001151850474099086 0 -0.001590757228737935 0.0012405124603566073 0 -0.0015680637226377515 0.0012248153175910422 0 -0.0015433305486682533 0.0011534881996555983 0 -0.001590757228737935 0.0012405124603566073 0 -0.0015680637226377515 0.0012248153175910422 0 -0.001590757228737935 0.0012405124603566073 0 -0.0015648837992089523 0.0013096418172397688 0 -0.001607974107597472 0.0013340713154915979 0 -0.001590757228737935 0.0012405124603566073 0 -0.0015648837992089523 0.0013096418172397688 0 -0.001607974107597472 0.0013340713154915979 0 -0.0015648837992089523 0.0013096418172397688 0 -0.0015081494612256725 0.0014367489300194211 0 -0.0015081494612256725 0.0014367489300194211 0 -0.0013623556397389703 0.0014162610342310373 0 -0.0014890508560108982 0.001322289401051777 0 -0.0015648837992089523 0.0013096418172397688 0 -0.0015081494612256725 0.0014367489300194211 0 -0.0014890508560108982 0.001322289401051777 0 -0.0013660464199443767 0.0018574936918680075 0 -0.0015081494612256725 0.0014367489300194211 0 -0.0013623556397389703 0.0014162610342310373 0 -0.0013660464199443767 0.0018574936918680075 0 -0.0011529966978768257 0.0016923598237941933 0 -0.0013623556397389703 0.0014162610342310373 0 -0.0011529966978768257 0.0016923598237941933 0 -0.0011967868884737482 0.0013508504458687543 0 -0.0013623556397389703 0.0014162610342310373 0 -0.0013623556397389703 0.0014162610342310373 0 -0.0014890508560108982 0.001322289401051777 0 -0.0013795629091501074 0.0012455016796462993 0 -0.0013623556397389703 0.0014162610342310373 0 -0.0013011182846587666 0.0013176190057182869 0 -0.0013795629091501074 0.0012455016796462993 0 -0.0013011182846587666 0.0013176190057182869 0 -0.0012577002914866573 0.0012564792093561715 0 -0.0013795629091501074 0.0012455016796462993 0 -0.0011967868884737482 0.0013508504458687543 0 -0.0013623556397389703 0.0014162610342310373 0 -0.0013011182846587666 0.0013176190057182869 0 -0.0011967868884737482 0.0013508504458687543 0 -0.0011808057636231589 0.00124673233601786 0 -0.0012577002914866573 0.0012564792093561715 0 -0.0011967868884737482 0.0013508504458687543 0 -0.0013011182846587666 0.0013176190057182869 0 -0.0012577002914866573 0.0012564792093561715 0 -0.001559837347836204 0.0012463289420052695 0 -0.0015648837992089523 0.0013096418172397688 0 -0.0014890508560108982 0.001322289401051777 0 -0.0014890508560108982 0.001322289401051777 0 -0.0015076671174266206 0.0012645745441036921 0 -0.0013795629091501074 0.0012455016796462993 0 -0.001559837347836204 0.0012463289420052695 0 -0.0015076671174266206 0.0012645745441036921 0 -0.0015553919842094548 0.0012232810861365323 0 -0.001559837347836204 0.0012463289420052695 0 -0.0014890508560108982 0.001322289401051777 0 -0.0015076671174266206 0.0012645745441036921 0 -1.1171031106014122e-06 0.0143419385902297 0 0.00023247625128291897 0.012685188621488801 0 7.9317366151471539e-07 0.011570791471870109 0 -0.00059422408631487926 0.0065709281536802605 0 -0.00051987588757970314 0.0061399395778170872 0 -0.0012791451779631355 0.0010609512228292406 0 -0.0012257690409264777 0.00112206704672159 0 -0.0012762450078908027 0.0010580080243374839 0 -0.0015076671174266206 0.0012645745441036921 0 -0.0015553919842094548 0.0012232810861365323 0 -0.0013795629091501074 0.0012455016796462993 0 -0.0014050696261722676 0.0011417182891802948 0 -0.0012180826859842842 0.0011382072712178488 0 -0.0015553919842094548 0.0012232810861365323 0 -0.0013795629091501074 0.0012455016796462993 0 -0.0012090483584191324 0.0011438692381209026 0 -0.0012791451779631355 0.0010609512228292406 0 -0.0012257690409264777 0.00112206704672159 0 -0.0012090483584191324 0.0011438692381209026 0 -0.0011808057636231589 0.00124673233601786 0 -0.0012577002914866573 0.0012564792093561715 0 -0.0012090483584191324 0.0011438692381209026 0 -0.0012577002914866573 0.0012564792093561715 0 -0.0013795629091501074 0.0012455016796462993 0 -0.0012090483584191324 0.0011438692381209026 0 0.00023247625128291897 0.012685188621488801 0 7.9317366151471539e-07 0.011570791471870109 0 3.2794656628401113e-06 0.011146189817711582 0 7.9317366151471539e-07 0.011570791471870109 0 3.2794656628401113e-06 0.011146189817711582 0 -3.8150015514515415e-06 0.009170218499670096 0 -0.00051987588757970314 0.0061399395778170872 0 -0.00056891420842288595 0.0050833986917372684 0 -0.0012762450078908027 0.0010580080243374839 0 -0.001282790402344459 0.0010171216419261374 0 -0.0012843255297462304 0.00098832096399615482 0 -0.0012867816125903102 0.00096408441025884527 0 -0.0012791451779631355 0.0010609512228292406 0 -0.001282790402344459 0.0010171216419261374 0 -0.0014024142571433488 0.0010687014280471535 0 -0.0014050696261722676 0.0011417182891802948 0 -0.0012791451779631355 0.0010609512228292406 0 -0.0012762450078908027 0.0010580080243374839 0 -0.001282790402344459 0.0010171216419261374 0 -0.0012867816125903102 0.00096408441025884527 0 -0.001282790402344459 0.0010171216419261374 0 -0.0012843255297462304 0.00098832096399615482 0 -0.00056891420842288595 0.0050833986917372684 0 -0.00054336617649673648 0.0040609855408999668 0 -0.0012843255297462304 0.00098832096399615482 0 -0.0012603429524361705 0.00094073300733046438 0 -0.0012791021750081441 0.00092669959895048568 0 -3.8150015514515415e-06 0.009170218499670096 0 -9.4444886901237475e-06 0.0071590256478086022 0 -2.9162858363655301e-07 0.0068705583524397299 0 -0.0012791021750081441 0.00092669959895048568 0 -0.0012143782109811331 0.00080965544062454873 0 -0.0012724256808329287 0.00087305837291491196 0 -0.0012603429524361705 0.00094073300733046438 0 -0.0012791021750081441 0.00092669959895048568 0 -0.0012143782109811331 0.00080965544062454873 0 -0.0012867816125903102 0.00096408441025884527 0 -0.0012843255297462304 0.00098832096399615482 0 -0.0012791021750081441 0.00092669959895048568 0 -2.9162858363655301e-07 0.0068705583524397299 0 -6.1278677332871111e-06 0.0051361590328882862 0 -2.9480947087299438e-06 0.0031083946287606273 0 -0.0012603429524361705 0.00094073300733046438 0 -0.0010224760852416863 0.00093278809556089333 0 -0.0012143782109811331 0.00080965544062454873 0 -0.00054336617649673648 0.0040609855408999668 0 -0.00043422181423906033 0.0030405155294584729 0 -9.4444886901237475e-06 0.0071590256478086022 0 -2.9162858363655301e-07 0.0068705583524397299 0 -6.1278677332871111e-06 0.0051361590328882862 0 -0.0010224760852416863 0.00093278809556089333 0 -0.0012143782109811331 0.00080965544062454873 0 -0.00085279287202160684 0.00058758420117314232 0 -0.0011999552015124011 0.00063785246183071229 0 -0.00083071888943052623 0.00028155913069196053 0 -0.00085279287202160684 0.00058758420117314232 0 -0.0012143782109811331 0.00080965544062454873 0 -0.0011999552015124011 0.00063785246183071229 0 -0.00085279287202160684 0.00058758420117314232 0 -0.0012143782109811331 0.00080965544062454873 0 -0.0011999552015124011 0.00063785246183071229 0 -0.0012724256808329287 0.00087305837291491196 0 -0.0011999552015124011 0.00063785246183071229 0 -0.0012524102534702028 0.00083717618719098366 0 -0.0012682022715730489 0.00081300756142182269 0 -0.0012092611313800307 0.00063862434011327616 0 -0.0011555688377516747 0.00036529382282104843 0 -0.0011999552015124011 0.00063785246183071229 0 -0.00083071888943052623 0.00028155913069196053 0 -0.0010898151779082656 -1.2447787122686326e-05 0 -0.00083071888943052623 0.00028155913069196053 0 -0.0010898151779082656 -1.2447787122686326e-05 0 -0.00061969484225611647 -4.6905272897451123e-05 0 -0.0014024142571433488 0.0010687014280471535 0 -0.0012848975145427891 0.00090719982959081176 0 -0.0012867816125903102 0.00096408441025884527 0 -0.0012791021750081441 0.00092669959895048568 0 -0.0012724256808329287 0.00087305837291491196 0 -0.001515155153143345 0.0012010022050031241 0 -0.0012724256808329287 0.00087305837291491196 0 -0.0014285845162115894 0.0010318911082325278 0 -0.0012724256808329287 0.00087305837291491196 0 -0.0012524102534702028 0.00083717618719098366 0 -0.0014285845162115894 0.0010318911082325278 0 -0.0011999552015124011 0.00063785246183071229 0 -0.0012724256808329287 0.00087305837291491196 0 -0.0012524102534702028 0.00083717618719098366 0 -0.0012524102534702028 0.00083717618719098366 0 -0.0014285845162115894 0.0010318911082325278 0 -0.0013749023542793959 0.00085553982808443338 0 -0.0018051558626132245 0.0010819882018763584 0 -0.0017318493202730073 0.0011655458385976317 0 -0.0018555353557545371 0.00095380090834773707 0 -0.001780166225324303 0.0011208719244696263 0 -0.0018051558626132245 0.0010819882018763584 0 -0.0017318493202730073 0.0011655458385976317 0 -0.0018051558626132245 0.0010819882018763584 0 -0.0017650507071267057 0.0010963261093800021 0 -0.0018555353557545371 0.00095380090834773707 0 -0.001780166225324303 0.0011208719244696263 0 -0.0018051558626132245 0.0010819882018763584 0 -0.0017650507071267057 0.0010963261093800021 0 -0.0015621877043312405 0.0009954465074921248 0 -0.001548299713664762 0.0010055304586388404 0 -0.0012524102534702028 0.00083717618719098366 0 -0.0013749023542793959 0.00085553982808443338 0 -0.0012676231151025727 0.00080483165344363134 0 -0.0012524102534702028 0.00083717618719098366 0 -0.0012676231151025727 0.00080483165344363134 0 -0.0012682022715730489 0.00081300756142182269 0 -0.0010898151779082656 -1.2447787122686326e-05 0 -0.00096922318767115993 -0.00039880280824545057 0 -0.0007447820522296023 -0.00025539741892931109 0 -0.0011555688377516747 0.00036529382282104843 0 -0.0012503640244905475 0.00037154745267528632 0 -0.0017650507071267057 0.0010963261093800021 0 -0.0013846052032278641 0.00090423211664404613 0 -0.0016012878931275581 0.0007339610055258197 0 -0.0012676231151025727 0.00080483165344363134 0 -0.0012682022715730489 0.00081300756142182269 0 -0.0012619760463405344 0.00079794472733263442 0 -0.0017650507071267057 0.0010963261093800021 0 -0.0016012878931275581 0.0007339610055258197 0 -0.0018555353557545371 0.00095380090834773707 0 -0.001548299713664762 0.0010055304586388404 0 -0.0012503640244905475 0.00037154745267528632 0 -0.0016012878931275581 0.0007339610055258197 0 -0.0013393639364589994 0.00054704596886949713 0 -0.0016364105637160483 0.00029220126707144061 0 -0.0016012878931275581 0.0007339610055258197 0 -0.0016364105637160483 0.00029220126707144061 0 -0.0018555353557545371 0.00095380090834773707 0 -0.0014868685898267139 0.0003364926749872617 0 -0.0014512279080842036 0.00016103080670734605 0 -0.0012503193236886334 0.00025340558289057343 0 -0.0012503640244905475 0.00037154745267528632 0 -0.0014098879650355064 0.00039765502498360607 0 -0.0013846052032278641 0.00090423211664404613 0 -0.0016012878931275581 0.0007339610055258197 0 -0.0013393639364589994 0.00054704596886949713 0 -0.0015746869764197316 -1.9268998123051689e-06 0 -0.0014163894063303152 7.1321074114181701e-05 0 -0.0016364105637160483 0.00029220126707144061 0 -0.0013393639364589994 0.00054704596886949713 0 -0.0014163894063303152 7.1321074114181701e-05 0 -0.0016364105637160483 0.00029220126707144061 0 -0.0014098879650355064 0.00039765502498360607 0 -0.001395493989882554 0.00012197342395268319 0 -0.0014512279080842036 0.00016103080670734605 0 -0.0014163894063303152 7.1321074114181701e-05 0 -0.0013316816526984523 9.5816391077887947e-05 0 -0.001798606840642627 0.00073099386225988219 0 -0.0018522496623150104 0.00093476813005353163 0 -0.0016364105637160483 0.00029220126707144061 0 -0.0018529676990947067 0.00014978058289372183 0 -0.0018555353557545371 0.00095380090834773707 0 -0.0017814653017949932 0.0012930386364440459 0 -0.0016969869317036345 0.0012798413963985998 0 -0.0018555353557545371 0.00095380090834773707 0 -0.0016969869317036345 0.0012798413963985998 0 -0.0017318493202730073 0.0011655458385976317 0 -0.0018555353557545371 0.00095380090834773707 0 -0.0001583007796229369 -0.00055041750594023902 0 -0.00033611887596449408 -0.00058699149144163742 0 -0.00019124489366193937 -0.00024818171731726308 0 -0.0001583007796229369 -0.00055041750594023902 0 -0.00033611887596449408 -0.00058699149144163742 0 -5.1523234432344625e-05 -0.00068374289973509588 0 -0.0001583007796229369 -0.00055041750594023902 0 -1.5617231339864623e-05 -0.00045484945067536309 0 -0.00019124489366193937 -0.00024818171731726308 0 -1.5617231339864623e-05 -0.00045484945067536309 0 -7.1787846255161821e-06 -0.00055916205585948705 0 0.0001929032592427003 -0.00054754892144050237 0 -7.1787846255161821e-06 -0.00055916205585948705 0 -5.1523234432344625e-05 -0.00068374289973509588 0 0.0001929032592427003 -0.00054754892144050237 0 -0.0001583007796229369 -0.00055041750594023902 0 -1.5617231339864623e-05 -0.00045484945067536309 0 -7.1787846255161821e-06 -0.00055916205585948705 0 -0.0001583007796229369 -0.00055041750594023902 0 -7.1787846255161821e-06 -0.00055916205585948705 0 -5.1523234432344625e-05 -0.00068374289973509588 0 -0.00023049129995354376 -0.00046207656297645393 0 9.988300664185275e-05 -0.00050777645570581091 0 -0.00024489393237281203 -0.00050691163701690697 0 -0.00016095224965577309 -0.00054211383465473063 0 -4.1771188606662938e-05 -0.00045993523074919874 0 -0.00036650939351363975 -0.00028160508951564569 0 -0.00042298872190983991 -0.00028609018284097231 0 -0.00035244143068612782 -0.00041782231324252202 0 -0.00023049129995354376 -0.00046207656297645393 0 -0.00025375033433483983 -0.00045662376175340777 0 -0.00023049129995354376 -0.00046207656297645393 0 -0.00022373279926760122 -0.00047853196905141884 0 -0.00022889106533832758 -0.00066269627485918191 0 -0.00016095224965577309 -0.00054211383465473063 0 -0.00032167321849148626 -0.00053567595917619669 0 -0.00016095224965577309 -0.00054211383465473063 0 -0.00035244143068612782 -0.00041782231324252202 0 -0.00032167321849148626 -0.00053567595917619669 0 -0.00036650939351363975 -0.00028160508951564569 0 -0.00016095224965577309 -0.00054211383465473063 0 -0.00035244143068612782 -0.00041782231324252202 0 -0.00035244143068612782 -0.00041782231324252202 0 -0.00032167321849148626 -0.00053567595917619669 0 -0.000509938005215735 -0.00045992191881660821 0 -0.00042298872190983991 -0.00028609018284097231 0 -0.00035244143068612782 -0.00041782231324252202 0 -0.000509938005215735 -0.00045992191881660821 0 -0.0008611508043490717 7.3347275017450451e-05 0 -0.00036664753452632316 -0.00026011549204712619 0 -0.00069016024933673571 -0.00018541551381849131 0 -0.00042298872190983991 -0.00028609018284097231 0 -0.000509938005215735 -0.00045992191881660821 0 -0.00069016024933673571 -0.00018541551381849131 0 -0.00060710641297569818 -0.00025865075216050155 0 -0.00023049129995354376 -0.00046207656297645393 0 -0.00036664753452632316 -0.00026011549204712619 0 -0.00042298872190983991 -0.00028609018284097231 0 -0.00069016024933673571 -0.00018541551381849131 0 -0.0008611508043490717 7.3347275017450451e-05 0 -0.00069016024933673571 -0.00018541551381849131 0 -0.00091732432036708417 -0.00016802759946199771 0 -0.00084404036029633736 -0.00044560505189109029 0 -0.000509938005215735 -0.00045992191881660821 0 -0.00069016024933673571 -0.00018541551381849131 0 -0.00084404036029633736 -0.00044560505189109029 0 -0.00069016024933673571 -0.00018541551381849131 0 -0.00091732432036708417 -0.00016802759946199771 0 -0.00084404036029633736 -0.00044560505189109029 0 -0.00091732432036708417 -0.00016802759946199771 0 -0.0011731131343047667 -7.1831396996134518e-05 0 -0.0008611508043490717 7.3347275017450451e-05 0 -0.00091732432036708417 -0.00016802759946199771 0 -0.0011731131343047667 -7.1831396996134518e-05 0 -0.0013413886950332955 -0.00014468976231113391 0 -0.0011731131343047667 -7.1831396996134518e-05 0 -0.0013316816526984523 9.5816391077887947e-05 0 -0.0013413886950332955 -0.00014468976231113391 0 -0.0014163894063303152 7.1321074114181701e-05 0 -0.0013316816526984523 9.5816391077887947e-05 0 -0.0012503640244905475 0.00037154745267528632 0 -0.00092034931405510733 -0.00016305774541341519 0 -0.0011731131343047667 -7.1831396996134518e-05 0 -0.0013316816526984523 9.5816391077887947e-05 0 -0.0012503193236886334 0.00025340558289057343 0 -0.0014512279080842036 0.00016103080670734605 0 -0.0013316816526984523 9.5816391077887947e-05 0 -0.0012503193236886334 0.00025340558289057343 0 -0.00033611887596449408 -0.00058699149144163742 0 -0.00063303893455550432 -0.00050057129424494634 0 -0.00045948887884619827 -0.00028763767339430509 0 -0.00060710641297569818 -0.00025865075216050155 0 -0.00092034931405510733 -0.00016305774541341519 0 -0.0008611508043490717 7.3347275017450451e-05 0 -0.0011731131343047667 -7.1831396996134518e-05 0 -0.0012503193236886334 0.00025340558289057343 0 -0.00096922318767115993 -0.00039880280824545057 0 -0.00063303893455550432 -0.00050057129424494634 0 -0.0007447820522296023 -0.00025539741892931109 0 -0.00063303893455550432 -0.00050057129424494634 0 -0.00045948887884619827 -0.00028763767339430509 0 -0.0007447820522296023 -0.00025539741892931109 0 -0.0010898151779082656 -1.2447787122686326e-05 0 -0.0007447820522296023 -0.00025539741892931109 0 -0.00061969484225611647 -4.6905272897451123e-05 0 -0.00045948887884619827 -0.00028763767339430509 0 -0.0007447820522296023 -0.00025539741892931109 0 -0.00061969484225611647 -4.6905272897451123e-05 0 -0.00045948887884619827 -0.00028763767339430509 0 -0.00061969484225611647 -4.6905272897451123e-05 0 -0.00029079433062468283 -7.7693027120850002e-05 0 -0.00029079433062468283 -7.7693027120850002e-05 0 -0.00019124489366193937 -0.00024818171731726308 0 -5.5024719331004803e-05 -0.00010758721717736694 0 -0.00045948887884619827 -0.00028763767339430509 0 -0.00029079433062468283 -7.7693027120850002e-05 0 -0.00019124489366193937 -0.00024818171731726308 0 -0.00033611887596449408 -0.00058699149144163742 0 -0.00045948887884619827 -0.00028763767339430509 0 -0.00019124489366193937 -0.00024818171731726308 0 -1.5617231339864623e-05 -0.00045484945067536309 0 -0.00019124489366193937 -0.00024818171731726308 0 0.00012514953548351586 -0.00034222008947774424 0 -0.00019124489366193937 -0.00024818171731726308 0 -6.978251022885544e-05 -0.00010505563618910822 0 -6.5129302380737724e-05 -0.000131866345176734 0 -0.0001720843319418978 -0.00023913913789050541 0 -1.1208610200908006e-05 -0.00020413538866942337 0 -0.00019124489366193937 -0.00024818171731726308 0 -5.5024719331004803e-05 -0.00010758721717736694 0 -6.5129302380737724e-05 -0.000131866345176734 0 -2.9162858363655301e-07 0.0068705583524397299 0 -2.9480947087299438e-06 0.0031083946287606273 0 3.4478551327423722e-08 0.0010791662294174207 0 -0.00029079433062468283 -7.7693027120850002e-05 0 -5.5024719331004803e-05 -0.00010758721717736694 0 -0.00021193859691000838 3.9831651893786516e-05 0 -0.00021193859691000838 3.9831651893786516e-05 0 5.0971053365820486e-06 -2.3413204094337894e-05 0 -0.00036851239567695158 0.00037346845278464442 0 -5.5024719331004803e-05 -0.00010758721717736694 0 -0.00021193859691000838 3.9831651893786516e-05 0 5.0971053365820486e-06 -2.3413204094337894e-05 0 -5.5024719331004803e-05 -0.00010758721717736694 0 5.0971053365820486e-06 -2.3413204094337894e-05 0 6.1503320262901753e-05 -0.00022858760853053189 0 -0.00083071888943052623 0.00028155913069196053 0 -0.00061969484225611647 -4.6905272897451123e-05 0 -0.00050647353342714524 0.00016925711772152125 0 -0.00061969484225611647 -4.6905272897451123e-05 0 -0.00029079433062468283 -7.7693027120850002e-05 0 -0.00050647353342714524 0.00016925711772152125 0 -0.00029079433062468283 -7.7693027120850002e-05 0 -0.00021193859691000838 3.9831651893786516e-05 0 -0.00050647353342714524 0.00016925711772152125 0 -0.00021193859691000838 3.9831651893786516e-05 0 -0.00050647353342714524 0.00016925711772152125 0 -0.00036851239567695158 0.00037346845278464442 0 -0.00050647353342714524 0.00016925711772152125 0 -0.00085279287202160684 0.00058758420117314232 0 -0.00036851239567695158 0.00037346845278464442 0 -0.00083071888943052623 0.00028155913069196053 0 -0.00050647353342714524 0.00016925711772152125 0 -0.00085279287202160684 0.00058758420117314232 0 -0.00085279287202160684 0.00058758420117314232 0 -0.00064037567753646714 0.00090230912773493993 0 -0.00036851239567695158 0.00037346845278464442 0 -0.0010224760852416863 0.00093278809556089333 0 -0.00085279287202160684 0.00058758420117314232 0 -0.00064037567753646714 0.00090230912773493993 0 -0.00043422181423906033 0.0030405155294584729 0 -0.00020982568663803383 0.002024616887281656 0 5.0971053365820486e-06 -2.3413204094337894e-05 0 -3.1550373369588523e-05 0.00030302245154483534 0 0.00014062592960294114 -0.00020055839317819994 0 5.0971053365820486e-06 -2.3413204094337894e-05 0 -3.1550373369588523e-05 0.00030302245154483534 0 -0.00036851239567695158 0.00037346845278464442 0 -0.00020982568663803383 0.002024616887281656 0 2.5756022458429487e-07 0.0010787842357239076 0 -0.00064037567753646714 0.00090230912773493993 0 -0.00036851239567695158 0.00037346845278464442 0 -6.3788442282382053e-07 0.0010757046999151296 0 -3.1550373369588523e-05 0.00030302245154483534 0 -0.00036851239567695158 0.00037346845278464442 0 -6.3788442282382053e-07 0.0010757046999151296 0 -6.3788442282382053e-07 0.0010757046999151296 0 1.0654438566932133e-06 -0.0006394301632216445 0 0.00014062592960294114 -0.00020055839317819994 0 -3.1550373369588523e-05 0.00030302245154483534 0 -6.3788442282382053e-07 0.0010757046999151296 0 0.00014062592960294114 -0.00020055839317819994 0 1.0654438566932133e-06 -0.0006394301632216445 0 0.00014062592960294114 -0.00020055839317819994 0 9.7819797688221269e-05 -0.00058670696277138648 0 0.00014062592960294114 -0.00020055839317819994 0 9.7819797688221269e-05 -0.00058670696277138648 0 6.1503320262901753e-05 -0.00022858760853053189 0 5.0971053365820486e-06 -2.3413204094337894e-05 0 0.00014062592960294114 -0.00020055839317819994 0 6.1503320262901753e-05 -0.00022858760853053189 0 1.0654438566932133e-06 -0.0006394301632216445 0 9.7819797688221269e-05 -0.00058670696277138648 0 -1.5163509666483146e-06 -0.0023529437150331778 0 9.7819797688221269e-05 -0.00058670696277138648 0 -1.5163509666483146e-06 -0.0023529437150331778 0 -0.00071697395381610529 -0.00086862629192479104 0 -2.4155273790661782e-07 -0.0023614127407811879 0 2.1612851826563e-07 -0.003765043917881399 0 -1.7540073283740724e-05 -0.003669982111706065 0 -6.7252445801944138e-08 -0.0023568983431432504 0 -0.00028023215403299827 -0.0023601701560181701 0 -6.6411853618147766e-08 -0.0037703079436083539 0 -0.00021005684843802917 -0.0052468920654591385 0 2.1612851826563e-07 -0.003765043917881399 0 -1.7540073283740724e-05 -0.003669982111706065 0 -4.9648788587479096e-06 -0.0036927637927382903 0 -1.7540073283740724e-05 -0.003669982111706065 0 -4.9648788587479096e-06 -0.0036927637927382903 0 -1.9329683118074915e-05 -0.0038311246567538171 0 9.7819797688221269e-05 -0.00058670696277138648 0 -0.00071697395381610529 -0.00086862629192479104 0 -0.00036028324761428523 -0.00037208276162407038 0 -0.00045873681857862487 -0.00020250970939117427 0 -0.00076421589446980709 -0.00041231261645158625 0 -0.00065358778662851066 -2.9341293895108759e-05 0 -0.00071697395381610529 -0.00086862629192479104 0 -0.00036028324761428523 -0.00037208276162407038 0 -0.00076421589446980709 -0.00041231261645158625 0 -0.00028023215403299827 -0.0023601701560181701 0 -0.00053455795376298467 -0.0017956760944453896 0 -0.00036028324761428523 -0.00037208276162407038 0 -0.00045873681857862487 -0.00020250970939117427 0 -0.00076421589446980709 -0.00041231261645158625 0 -0.00036028324761428523 -0.00037208276162407038 0 -0.00045873681857862487 -0.00020250970939117427 0 -0.0002148580173371396 -0.00013353261622665245 0 -8.1289906235583456e-05 -0.00021595998014598211 0 -5.7556628440885562e-05 -0.00013901932081764761 0 -0.0002148580173371396 -0.00013353261622665245 0 -0.00036028324761428523 -0.00037208276162407038 0 -8.1289906235583456e-05 -0.00021595998014598211 0 -0.0002148580173371396 -0.00013353261622665245 0 -5.5024719331004803e-05 -0.00010758721717736694 0 -5.7556628440885562e-05 -0.00013901932081764761 0 6.1503320262901753e-05 -0.00022858760853053189 0 -8.1289906235583456e-05 -0.00021595998014598211 0 -5.7556628440885562e-05 -0.00013901932081764761 0 6.1503320262901753e-05 -0.00022858760853053189 0 9.7819797688221269e-05 -0.00058670696277138648 0 -0.00036028324761428523 -0.00037208276162407038 0 -8.1289906235583456e-05 -0.00021595998014598211 0 9.7819797688221269e-05 -0.00058670696277138648 0 -8.1289906235583456e-05 -0.00021595998014598211 0 6.1503320262901753e-05 -0.00022858760853053189 0 0.00023645532817845411 -0.00844887657550643 0 4.1855963296726523e-05 -0.0082505491335235909 0 0.00029992101058793881 -0.008935385304984755 0 0.00023645532817845411 -0.00844887657550643 0 2.1190395697635562e-07 -0.0072895023667500719 0 1.0110254743763975e-06 -0.0090497386112288053 0 0.00023645532817845411 -0.00844887657550643 0 2.1190395697635562e-07 -0.0072895023667500719 0 4.1855963296726523e-05 -0.0082505491335235909 0 2.1190395697635562e-07 -0.0072895023667500719 0 4.1855963296726523e-05 -0.0082505491335235909 0 -9.8146503718300122e-05 -0.00712666167683458 0 -9.8146503718300122e-05 -0.00712666167683458 0 -0.00065128478447711046 -0.0066322047004148182 0 -0.00061108458825384236 -0.0083872298132920131 0 4.1855963296726523e-05 -0.0082505491335235909 0 -9.8146503718300122e-05 -0.00712666167683458 0 -0.00061108458825384236 -0.0083872298132920131 0 2.1190395697635562e-07 -0.0072895023667500719 0 -9.8146503718300122e-05 -0.00712666167683458 0 9.2199218396139562e-08 -0.0055299077124338278 0 -9.8146503718300122e-05 -0.00712666167683458 0 9.2199218396139562e-08 -0.0055299077124338278 0 -0.00065128478447711046 -0.0066322047004148182 0 -2.0408005070850547e-06 -0.0037722900493075682 0 9.2199218396139562e-08 -0.0055299077124338278 0 -0.00065128478447711046 -0.0066322047004148182 0 -0.00021005684843802917 -0.0052468920654591385 0 -0.00024590391007527616 -0.0059405892925451023 0 -0.00076421589446980709 -0.00041231261645158625 0 -0.00089243775892791253 -0.00017164144983570809 0 -0.00065358778662851066 -2.9341293895108759e-05 0 -4.9648788587479096e-06 -0.0036927637927382903 0 -1.9329683118074915e-05 -0.0038311246567538171 0 9.6885035402060493e-05 -0.0038190353618271552 0 -0.00053455795376298467 -0.0017956760944453896 0 -1.4224152830901654e-05 -0.0038068774060255918 0 -1.9329683118074915e-05 -0.0038311246567538171 0 9.6885035402060493e-05 -0.0038190353618271552 0 0.00011219623695825836 -0.0040844659946009838 0 -0.00024590391007527616 -0.0059405892925451023 0 -0.00039163302646938399 -0.0078112342061064334 0 -0.00061108458825384236 -0.0083872298132920131 0 -0.00026069362460576467 -0.0088360130429985771 0 -0.00042416839576474839 -0.009461744242580717 0 9.6885035402060493e-05 -0.0038190353618271552 0 0.00022997556589388676 -0.0040384330650808315 0 0.00011219623695825836 -0.0040844659946009838 0 4.1855963296726523e-05 -0.0082505491335235909 0 -0.00061108458825384236 -0.0083872298132920131 0 -0.00026069362460576467 -0.0088360130429985771 0 4.1855963296726523e-05 -0.0082505491335235909 0 2.4453998447443648e-05 -0.0089606704322655415 0 -0.00026069362460576467 -0.0088360130429985771 0 -0.00026069362460576467 -0.0088360130429985771 0 -0.00042416839576474839 -0.009461744242580717 0 -0.00019936334251535799 -0.0094229299445077238 0 -0.00039163302646938399 -0.0078112342061064334 0 -0.00065432199098898675 -0.0091262761431921934 0 -0.00083640510573959744 -0.0097889464400662176 0 -0.00019936334251535799 -0.0094229299445077238 0 -0.00030438216424165724 -0.0099739718560436282 0 -0.00019936334251535799 -0.0094229299445077238 0 2.1228071767503995e-05 -0.010126409799621977 0 -0.00030438216424165724 -0.0099739718560436282 0 2.4453998447443648e-05 -0.0089606704322655415 0 -0.00026069362460576467 -0.0088360130429985771 0 -0.00019936334251535799 -0.0094229299445077238 0 0.00019269121189847976 -0.0094945071485947434 0 2.1228071767503995e-05 -0.010126409799621977 0 0.00034842215966430124 -0.010532236659987594 0 2.4453998447443648e-05 -0.0089606704322655415 0 -0.00019936334251535799 -0.0094229299445077238 0 0.00019269121189847976 -0.0094945071485947434 0 -0.00019936334251535799 -0.0094229299445077238 0 0.00019269121189847976 -0.0094945071485947434 0 2.1228071767503995e-05 -0.010126409799621977 0 2.4453998447443648e-05 -0.0089606704322655415 0 0.00019269121189847976 -0.0094945071485947434 0 0.00029992101058793881 -0.008935385304984755 0 4.1855963296726523e-05 -0.0082505491335235909 0 2.4453998447443648e-05 -0.0089606704322655415 0 0.00029992101058793881 -0.008935385304984755 0 4.1231263347396853e-05 -0.010970502160548888 0 7.7481935141712885e-05 -0.011331788266268602 0 0.00052085332739558118 -0.011170514571376595 0 4.1231263347396853e-05 -0.010970502160548888 0 0.00017153778633846204 -0.0106717111009208 0 0.00052085332739558118 -0.011170514571376595 0 4.1231263347396853e-05 -0.010970502160548888 0 0.00017153778633846204 -0.0106717111009208 0 -0.00029989308764761965 -0.010478339978636519 0 0.00017153778633846204 -0.0106717111009208 0 2.1228071767503995e-05 -0.010126409799621977 0 0.00034842215966430124 -0.010532236659987594 0 0.00017153778633846204 -0.0106717111009208 0 2.1228071767503995e-05 -0.010126409799621977 0 -0.00029989308764761965 -0.010478339978636519 0 -0.00029989308764761965 -0.010478339978636519 0 -0.00050723157100004436 -0.01088145809271251 0 -0.0010634893382771272 -0.01013784546398418 0 2.1228071767503995e-05 -0.010126409799621977 0 -0.00029989308764761965 -0.010478339978636519 0 -0.00030438216424165724 -0.0099739718560436282 0 -0.00083640510573959744 -0.0097889464400662176 0 -0.00029989308764761965 -0.010478339978636519 0 -0.00030438216424165724 -0.0099739718560436282 0 -0.00039163302646938399 -0.0078112342061064334 0 -4.3876732419816831e-05 -0.010742742267323328 0 4.1231263347396853e-05 -0.010970502160548888 0 -0.00050723157100004436 -0.01088145809271251 0 7.7481935141712885e-05 -0.011331788266268602 0 4.1231263347396853e-05 -0.010970502160548888 0 -0.00029989308764761965 -0.010478339978636519 0 -0.00050723157100004436 -0.01088145809271251 0 0.0015485350556245618 -0.00036676499555843663 0 0.0012511818383800272 -0.00032795376876478157 0 0.0013437387393035538 -0.0005239983068606812 0 0.0012511818383800272 -0.00032795376876478157 0 0.00109751635113791 -0.00050631682833820048 0 0.0013437387393035538 -0.0005239983068606812 0 -0.00062609646858433109 -0.0099164204711689827 0 -0.00029989308764761965 -0.010478339978636519 0 -0.0010634893382771272 -0.01013784546398418 0 0.00062280028971386191 -0.0058339243722827011 0 -1.4224152830901654e-05 -0.0038068774060255918 0 0.0015485350556245618 -0.00036676499555843663 0 0.0012511818383800272 -0.00032795376876478157 0 0.0012783596224609454 -8.633034303671711e-05 0 -0.00039163302646938399 -0.0078112342061064334 0 -1.4224152830901654e-05 -0.0038068774060255918 0 0.0012511818383800272 -0.00032795376876478157 0 0.0012783596224609454 -8.633034303671711e-05 0 0.00097445720976034676 -0.00022287123247867612 0 -1.4224152830901654e-05 -0.0038068774060255918 0 0.00040636298960326783 0.00022015792302752224 0 0.00097445720976034676 -0.00022287123247867612 0 0.00109751635113791 -0.00050631682833820048 0 0.00088791141493149847 -0.00042972884954550907 0 0.0012511818383800272 -0.00032795376876478157 0 0.00097445720976034676 -0.00022287123247867612 0 0.00109751635113791 -0.00050631682833820048 0 0.00109751635113791 -0.00050631682833820048 0 0.00088791141493149847 -0.00042972884954550907 0 0.00088032850016447081 -0.00061748499713589475 0 0.00109751635113791 -0.00050631682833820048 0 0.0010651787043689115 -0.00073428575372150187 0 0.0012927512490844223 -0.00073268115195053375 0 0.00109751635113791 -0.00050631682833820048 0 0.0010651787043689115 -0.00073428575372150187 0 0.00088032850016447081 -0.00061748499713589475 0 0.0010651787043689115 -0.00073428575372150187 0 0.0010238025394049735 -0.00092586418305821408 0 0.00080749952367057635 -0.00082353648434881251 0 0.0010238025394049735 -0.00092586418305821408 0 0.0012129785088814073 -0.00094973673249770102 0 0.0010759087903340291 -0.0011217127357428373 0 0.0010651787043689115 -0.00073428575372150187 0 0.0010238025394049735 -0.00092586418305821408 0 0.0012129785088814073 -0.00094973673249770102 0 0.0010651787043689115 -0.00073428575372150187 0 0.0012129785088814073 -0.00094973673249770102 0 0.0012927512490844223 -0.00073268115195053375 0 0.0014969898609130516 -0.00100467184138005 0 0.0012927512490844223 -0.00073268115195053375 0 0.0015356256920857486 -0.00071884299039071987 0 0.0012129785088814073 -0.00094973673249770102 0 0.0014969898609130516 -0.00100467184138005 0 0.0012927512490844223 -0.00073268115195053375 0 0.0012129785088814073 -0.00094973673249770102 0 0.0014969898609130516 -0.00100467184138005 0 0.0012983906113106553 -0.0011825412706538392 0 0.0015485350556245618 -0.00036676499555843663 0 0.0013437387393035538 -0.0005239983068606812 0 0.0015356256920857486 -0.00071884299039071987 0 0.00109751635113791 -0.00050631682833820048 0 0.0012927512490844223 -0.00073268115195053375 0 0.0013437387393035538 -0.0005239983068606812 0 0.0012927512490844223 -0.00073268115195053375 0 0.0013437387393035538 -0.0005239983068606812 0 0.0015356256920857486 -0.00071884299039071987 0 0.00062280028971386191 -0.0058339243722827011 0 0.00099356545104294265 -0.0060039278663863195 0 0.0015485350556245618 -0.00036676499555843663 0 0.0015356256920857486 -0.00071884299039071987 0 0.0019695915340321207 -0.00069179896352951538 0 0.0015356256920857486 -0.00071884299039071987 0 0.0017083853264485166 -0.00094912099875368004 0 0.0019695915340321207 -0.00069179896352951538 0 0.0014969898609130516 -0.00100467184138005 0 0.0015356256920857486 -0.00071884299039071987 0 0.0017083853264485166 -0.00094912099875368004 0 0.0014969898609130516 -0.00100467184138005 0 0.0017474175259118716 -0.0010974727094939364 0 0.0016734656721520912 -0.0011927233687579067 0 0.0014969898609130516 -0.00100467184138005 0 0.0017474175259118716 -0.0010974727094939364 0 0.0017083853264485166 -0.00094912099875368004 0 0.0016390304573925779 -0.0063896484601322192 0 0.00099356545104294265 -0.0060039278663863195 0 0.0003574045710695118 -0.011444500223024064 0 7.7481935141712885e-05 -0.011331788266268602 0 0.00047363960116290828 -0.011327268876549813 0 0.0017083853264485166 -0.00094912099875368004 0 0.00278363119552542 -0.0017226040594130489 0 0.0024552852557728532 -0.0022111452996072178 0 0.0017645395574378752 -0.0010611165046739484 0 0.002243187687368386 -0.0015685045921061144 0 0.0017474175259118716 -0.0010974727094939364 0 0.0017083853264485166 -0.00094912099875368004 0 0.0020436477781646391 -0.0011935864213214922 0 0.0017083853264485166 -0.00094912099875368004 0 0.00278363119552542 -0.0017226040594130489 0 0.0019695915340321207 -0.00069179896352951538 0 -0.00012394527261414521 -7.607423173100162e-05 0 -6.978251022885544e-05 -0.00010505563618910822 0 -0.00018598756647640266 5.318324359690298e-05 0 -0.00012394527261414521 -7.607423173100162e-05 0 -0.00024139647821886699 -2.7265914249430946e-05 0 -0.00018598756647640266 5.318324359690298e-05 0 -0.00012394527261414521 -7.607423173100162e-05 0 -6.978251022885544e-05 -0.00010505563618910822 0 -6.5129302380737724e-05 -0.000131866345176734 0 -1.1208610200908006e-05 -0.00020413538866942337 0 0.00020492124882523827 -0.0003321189059736075 0 -5.5024719331004803e-05 -0.00010758721717736694 0 -5.7556628440885562e-05 -0.00013901932081764761 0 -6.5129302380737724e-05 -0.000131866345176734 0 -5.7556628440885562e-05 -0.00013901932081764761 0 -0.00012394527261414521 -7.607423173100162e-05 0 -6.5129302380737724e-05 -0.000131866345176734 0 -5.7556628440885562e-05 -0.00013901932081764761 0 -0.00012394527261414521 -7.607423173100162e-05 0 -0.0002148580173371396 -0.00013353261622665245 0 -0.00012394527261414521 -7.607423173100162e-05 0 -0.0002148580173371396 -0.00013353261622665245 0 -0.00024139647821886699 -2.7265914249430946e-05 0 -0.0002148580173371396 -0.00013353261622665245 0 -0.00038119063562230636 -6.5551034574010616e-05 0 -0.00024139647821886699 -2.7265914249430946e-05 0 -0.00045873681857862487 -0.00020250970939117427 0 -0.0002148580173371396 -0.00013353261622665245 0 -0.00038119063562230636 -6.5551034574010616e-05 0 -0.00045873681857862487 -0.00020250970939117427 0 -0.00065358778662851066 -2.9341293895108759e-05 0 -0.00038119063562230636 -6.5551034574010616e-05 0 0.00040636298960326783 0.00022015792302752224 0 7.4681622137186751e-05 -0.00020393761378248551 0 0.00088791141493149847 -0.00042972884954550907 0 0.00068471948759765721 -0.00036676969030033856 0 0.00064795931711945866 -0.0005699257822158845 0 0.00097445720976034676 -0.00022287123247867612 0 0.00088791141493149847 -0.00042972884954550907 0 0.00068471948759765721 -0.00036676969030033856 0 -0.00065358778662851066 -2.9341293895108759e-05 0 -0.00038119063562230636 -6.5551034574010616e-05 0 -0.00038533195366074482 5.1418188358828658e-05 0 0.00068471948759765721 -0.00036676969030033856 0 0.00064795931711945866 -0.0005699257822158845 0 0.00040432481720019663 -0.00050908309810003473 0 -0.00024139647821886699 -2.7265914249430946e-05 0 -0.00038533195366074482 5.1418188358828658e-05 0 -0.00018598756647640266 5.318324359690298e-05 0 7.4681622137186751e-05 -0.00020393761378248551 0 0.00020492124882523827 -0.0003321189059736075 0 -0.00038119063562230636 -6.5551034574010616e-05 0 -0.00024139647821886699 -2.7265914249430946e-05 0 -0.00038533195366074482 5.1418188358828658e-05 0 0.00063105580317788547 -0.00051814157544490674 0 0.00020492124882523827 -0.0003321189059736075 0 0.00056398271629251584 -0.00044704416850535454 0 0.00037279725693160779 -0.00058936866965999927 0 0.00026601243788264777 -0.00034267544627893462 0 0.00056398271629251584 -0.00044704416850535454 0 0.00064607890326262346 -0.00065273621736671437 0 0.00037279725693160779 -0.00058936866965999927 0 0.00056398271629251584 -0.00044704416850535454 0 0.00064607890326262346 -0.00065273621736671437 0 0.00088032850016447081 -0.00061748499713589475 0 0.00063105580317788547 -0.00051814157544490674 0 0.00083190367122869572 -0.00059115476499999389 0 0.00088791141493149847 -0.00042972884954550907 0 0.00064795931711945866 -0.0005699257822158845 0 0.00088032850016447081 -0.00061748499713589475 0 0.0010651787043689115 -0.00073428575372150187 0 0.00088032850016447081 -0.00061748499713589475 0 0.00080749952367057635 -0.00082353648434881251 0 0.00064607890326262346 -0.00065273621736671437 0 0.00088032850016447081 -0.00061748499713589475 0 0.00080749952367057635 -0.00082353648434881251 0 0.00064607890326262346 -0.00065273621736671437 0 0.00080749952367057635 -0.00082353648434881251 0 0.00052015901250895521 -0.00079280578919172894 0 0.00080749952367057635 -0.00082353648434881251 0 0.00052015901250895521 -0.00079280578919172894 0 0.00062291665397759294 -0.0010299230290513048 0 0.0010238025394049735 -0.00092586418305821408 0 0.00080749952367057635 -0.00082353648434881251 0 0.00087449324913816589 -0.0010369201536612621 0 0.00037279725693160779 -0.00058936866965999927 0 0.00052015901250895521 -0.00079280578919172894 0 0.00021003146021268421 -0.00074503540312169619 0 0.00052015901250895521 -0.00079280578919172894 0 0.00021003146021268421 -0.00074503540312169619 0 0.00039213752719492137 -0.00093766737475674917 0 0.00064607890326262346 -0.00065273621736671437 0 0.00037279725693160779 -0.00058936866965999927 0 0.00052015901250895521 -0.00079280578919172894 0 0.00021003146021268421 -0.00074503540312169619 0 0.000156255737344513 -0.00056363386818457134 0 5.8286925944103305e-06 -0.00065374462618221323 0 0.00021003146021268421 -0.00074503540312169619 0 5.8286925944103305e-06 -0.00065374462618221323 0 6.2336020664480158e-05 -0.00081876696930495213 0 0.00037279725693160779 -0.00058936866965999927 0 0.00021003146021268421 -0.00074503540312169619 0 0.000156255737344513 -0.00056363386818457134 0 0.00020492124882523827 -0.0003321189059736075 0 9.988300664185275e-05 -0.00050777645570581091 0 0.000156255737344513 -0.00056363386818457134 0 0.00026601243788264777 -0.00034267544627893462 0 -4.1771188606662938e-05 -0.00045993523074919874 0 0.00037279725693160779 -0.00058936866965999927 0 0.000156255737344513 -0.00056363386818457134 0 0.00026601243788264777 -0.00034267544627893462 0 -1.5617231339864623e-05 -0.00045484945067536309 0 0.00012514953548351586 -0.00034222008947774424 0 0.0001929032592427003 -0.00054754892144050237 0 0.00012514953548351586 -0.00034222008947774424 0 0.00042796465340020083 -0.00041999275389432658 0 0.0001929032592427003 -0.00054754892144050237 0 -0.00016095224965577309 -0.00054211383465473063 0 -4.1771188606662938e-05 -0.00045993523074919874 0 5.8286925944103305e-06 -0.00065374462618221323 0 0.000156255737344513 -0.00056363386818457134 0 -4.1771188606662938e-05 -0.00045993523074919874 0 5.8286925944103305e-06 -0.00065374462618221323 0 -0.00016095224965577309 -0.00054211383465473063 0 5.8286925944103305e-06 -0.00065374462618221323 0 -0.00010315585000335877 -0.00074705692382440419 0 -0.00022889106533832758 -0.00066269627485918191 0 -0.00016095224965577309 -0.00054211383465473063 0 -0.00010315585000335877 -0.00074705692382440419 0 -0.00010315585000335877 -0.00074705692382440419 0 6.2336020664480158e-05 -0.00081876696930495213 0 -7.325189900684024e-07 -0.00098983891335949789 0 5.8286925944103305e-06 -0.00065374462618221323 0 -0.00010315585000335877 -0.00074705692382440419 0 6.2336020664480158e-05 -0.00081876696930495213 0 -0.00020972639504822978 -0.00085526966014166884 0 -0.00010315585000335877 -0.00074705692382440419 0 -7.325189900684024e-07 -0.00098983891335949789 0 0.00021003146021268421 -0.00074503540312169619 0 0.00020096968760722022 -0.00097281908312720617 0 0.00039213752719492137 -0.00093766737475674917 0 0.00021003146021268421 -0.00074503540312169619 0 6.2336020664480158e-05 -0.00081876696930495213 0 0.00020096968760722022 -0.00097281908312720617 0 6.2336020664480158e-05 -0.00081876696930495213 0 -7.325189900684024e-07 -0.00098983891335949789 0 0.00020096968760722022 -0.00097281908312720617 0 -7.325189900684024e-07 -0.00098983891335949789 0 0.00020096968760722022 -0.00097281908312720617 0 0.00018329854827363949 -0.00120212171548408 0 0.00020096968760722022 -0.00097281908312720617 0 0.00041330619153592558 -0.0011495541982534118 0 0.00039213752719492137 -0.00093766737475674917 0 0.00020096968760722022 -0.00097281908312720617 0 0.00018329854827363949 -0.00120212171548408 0 0.00041330619153592558 -0.0011495541982534118 0 0.00018329854827363949 -0.00120212171548408 0 0.0001806948663630268 -0.0015072862417428478 0 0.00045566491775496148 -0.0014169984466578299 0 0.00018329854827363949 -0.00120212171548408 0 0.00045566491775496148 -0.0014169984466578299 0 0.00041330619153592558 -0.0011495541982534118 0 -7.325189900684024e-07 -0.00098983891335949789 0 0.00018329854827363949 -0.00120212171548408 0 -0.00015183808759001844 -0.0011833817255120704 0 0.00018329854827363949 -0.00120212171548408 0 -0.00015183808759001844 -0.0011833817255120704 0 0.0001806948663630268 -0.0015072862417428478 0 -0.00020972639504822978 -0.00085526966014166884 0 -7.325189900684024e-07 -0.00098983891335949789 0 -0.00015183808759001844 -0.0011833817255120704 0 -0.00020440056341214865 -0.0015439353386168995 0 -0.00015183808759001844 -0.0011833817255120704 0 0.0001806948663630268 -0.0015072862417428478 0 -0.00020440056341214865 -0.0015439353386168995 0 0.0001806948663630268 -0.0015072862417428478 0 3.8747763074588123e-05 -0.0018801213813207744 0 0.0001806948663630268 -0.0015072862417428478 0 0.00039500887686845949 -0.0016262840519723658 0 0.00045566491775496148 -0.0014169984466578299 0 0.0001806948663630268 -0.0015072862417428478 0 0.00032713893426582127 -0.0018412316455210305 0 0.00039500887686845949 -0.0016262840519723658 0 3.8747763074588123e-05 -0.0018801213813207744 0 0.00032713893426582127 -0.0018412316455210305 0 0.000229246659376614 -0.0022404622012773979 0 0.0001806948663630268 -0.0015072862417428478 0 3.8747763074588123e-05 -0.0018801213813207744 0 0.00032713893426582127 -0.0018412316455210305 0 -0.00020440056341214865 -0.0015439353386168995 0 -0.00027735083133443304 -0.0019608669973720295 0 3.8747763074588123e-05 -0.0018801213813207744 0 0.00075430971436505788 -0.0020568026310037865 0 0.00062420209146477079 -0.001742290870010759 0 0.00095686951073607491 -0.0019088511998210356 0 0.00075430971436505788 -0.0020568026310037865 0 0.00053349251642916765 -0.002085066603115041 0 0.00062420209146477079 -0.001742290870010759 0 0.00075430971436505788 -0.0020568026310037865 0 0.00053349251642916765 -0.002085066603115041 0 0.00066787121869568266 -0.0023921484627504835 0 0.00075430971436505788 -0.0020568026310037865 0 0.00094067340288137848 -0.0022548203902165729 0 0.00066787121869568266 -0.0023921484627504835 0 0.00075430971436505788 -0.0020568026310037865 0 0.00095686951073607491 -0.0019088511998210356 0 0.00094067340288137848 -0.0022548203902165729 0 0.00053349251642916765 -0.002085066603115041 0 0.00032713893426582127 -0.0018412316455210305 0 0.00062420209146477079 -0.001742290870010759 0 0.00053349251642916765 -0.002085066603115041 0 0.00032713893426582127 -0.0018412316455210305 0 0.000229246659376614 -0.0022404622012773979 0 0.00032713893426582127 -0.0018412316455210305 0 0.00039500887686845949 -0.0016262840519723658 0 0.00062420209146477079 -0.001742290870010759 0 0.00039500887686845949 -0.0016262840519723658 0 0.00062420209146477079 -0.001742290870010759 0 0.00045566491775496148 -0.0014169984466578299 0 0.00062420209146477079 -0.001742290870010759 0 0.00086275950819598806 -0.0016233102154692206 0 0.00095686951073607491 -0.0019088511998210356 0 0.00062420209146477079 -0.001742290870010759 0 0.00086275950819598806 -0.0016233102154692206 0 0.00071568981531851608 -0.0014114202060388241 0 0.00086275950819598806 -0.0016233102154692206 0 0.00071568981531851608 -0.0014114202060388241 0 0.00085512040167997803 -0.0012565402977557146 0 0.00071568981531851608 -0.0014114202060388241 0 0.00059150299302743398 -0.001226901179208772 0 0.00085512040167997803 -0.0012565402977557146 0 0.00062420209146477079 -0.001742290870010759 0 0.00071568981531851608 -0.0014114202060388241 0 0.00045566491775496148 -0.0014169984466578299 0 0.00071568981531851608 -0.0014114202060388241 0 0.00045566491775496148 -0.0014169984466578299 0 0.00059150299302743398 -0.001226901179208772 0 0.00045566491775496148 -0.0014169984466578299 0 0.00059150299302743398 -0.001226901179208772 0 0.00041330619153592558 -0.0011495541982534118 0 0.00041330619153592558 -0.0011495541982534118 0 0.00062291665397759294 -0.0010299230290513048 0 0.00039213752719492137 -0.00093766737475674917 0 0.00059150299302743398 -0.001226901179208772 0 0.00041330619153592558 -0.0011495541982534118 0 0.00062291665397759294 -0.0010299230290513048 0 0.00052015901250895521 -0.00079280578919172894 0 0.00062291665397759294 -0.0010299230290513048 0 0.00039213752719492137 -0.00093766737475674917 0 0.00059150299302743398 -0.001226901179208772 0 0.00062291665397759294 -0.0010299230290513048 0 0.00085512040167997803 -0.0012565402977557146 0 0.00062291665397759294 -0.0010299230290513048 0 0.00085512040167997803 -0.0012565402977557146 0 0.00087449324913816589 -0.0010369201536612621 0 0.00080749952367057635 -0.00082353648434881251 0 0.00062291665397759294 -0.0010299230290513048 0 0.00087449324913816589 -0.0010369201536612621 0 0.00085512040167997803 -0.0012565402977557146 0 0.00087449324913816589 -0.0010369201536612621 0 0.0010759087903340291 -0.0011217127357428373 0 0.0010238025394049735 -0.00092586418305821408 0 0.00087449324913816589 -0.0010369201536612621 0 0.0010759087903340291 -0.0011217127357428373 0 0.00085512040167997803 -0.0012565402977557146 0 0.0010759087903340291 -0.0011217127357428373 0 0.0010997086733439752 -0.0013764751303621582 0 0.0010759087903340291 -0.0011217127357428373 0 0.0012983906113106553 -0.0011825412706538392 0 0.0010997086733439752 -0.0013764751303621582 0 0.0012129785088814073 -0.00094973673249770102 0 0.0010759087903340291 -0.0011217127357428373 0 0.0012983906113106553 -0.0011825412706538392 0 0.0014969898609130516 -0.00100467184138005 0 0.0012983906113106553 -0.0011825412706538392 0 0.0014975130917926857 -0.0012512328836935046 0 0.0012983906113106553 -0.0011825412706538392 0 0.0014975130917926857 -0.0012512328836935046 0 0.0013433862595908991 -0.0014210244806831982 0 0.0014975130917926857 -0.0012512328836935046 0 0.0013433862595908991 -0.0014210244806831982 0 0.001618849394576556 -0.0014504431246820605 0 0.0012983906113106553 -0.0011825412706538392 0 0.0013433862595908991 -0.0014210244806831982 0 0.0010997086733439752 -0.0013764751303621582 0 0.0013433862595908991 -0.0014210244806831982 0 0.0014656293571257534 -0.0017137386625217417 0 0.0011233624189998393 -0.0016607781469757351 0 0.0013433862595908991 -0.0014210244806831982 0 0.0014656293571257534 -0.0017137386625217417 0 0.001618849394576556 -0.0014504431246820605 0 0.00086275950819598806 -0.0016233102154692206 0 0.00085512040167997803 -0.0012565402977557146 0 0.0010997086733439752 -0.0013764751303621582 0 0.00086275950819598806 -0.0016233102154692206 0 0.0010997086733439752 -0.0013764751303621582 0 0.0011233624189998393 -0.0016607781469757351 0 0.0013433862595908991 -0.0014210244806831982 0 0.0010997086733439752 -0.0013764751303621582 0 0.0011233624189998393 -0.0016607781469757351 0 0.0020436477781646391 -0.0011935864213214922 0 0.0018541654463418522 -0.0013633914379942325 0 0.0018277446589549252 -0.0011996173688918514 0 0.0017474175259118716 -0.0010974727094939364 0 0.0020436477781646391 -0.0011935864213214922 0 0.0018277446589549252 -0.0011996173688918514 0 0.0020436477781646391 -0.0011935864213214922 0 0.0018541654463418522 -0.0013633914379942325 0 0.0020918817177606902 -0.0014505245081272427 0 0.0018541654463418522 -0.0013633914379942325 0 0.0016734656721520912 -0.0011927233687579067 0 0.001618849394576556 -0.0014504431246820605 0 0.0018541654463418522 -0.0013633914379942325 0 0.0018277446589549252 -0.0011996173688918514 0 0.0016734656721520912 -0.0011927233687579067 0 0.0017474175259118716 -0.0010974727094939364 0 0.0018277446589549252 -0.0011996173688918514 0 0.0016734656721520912 -0.0011927233687579067 0 0.0014969898609130516 -0.00100467184138005 0 0.0014975130917926857 -0.0012512328836935046 0 0.0016734656721520912 -0.0011927233687579067 0 0.0014975130917926857 -0.0012512328836935046 0 0.0016734656721520912 -0.0011927233687579067 0 0.001618849394576556 -0.0014504431246820605 0 0.0014656293571257534 -0.0017137386625217417 0 0.001618849394576556 -0.0014504431246820605 0 0.0016803410525617539 -0.00168187973646744 0 0.0016803410525617539 -0.00168187973646744 0 0.0018246034128852309 -0.0015619486708273226 0 0.0019157060902361589 -0.0018608178793691099 0 0.001618849394576556 -0.0014504431246820605 0 0.0016803410525617539 -0.00168187973646744 0 0.0018246034128852309 -0.0015619486708273226 0 0.0018541654463418522 -0.0013633914379942325 0 0.001618849394576556 -0.0014504431246820605 0 0.0018246034128852309 -0.0015619486708273226 0 0.0018541654463418522 -0.0013633914379942325 0 0.0018246034128852309 -0.0015619486708273226 0 0.0020328204634464738 -0.0015872734976400613 0 0.0018541654463418522 -0.0013633914379942325 0 0.0020328204634464738 -0.0015872734976400613 0 0.0020918817177606902 -0.0014505245081272427 0 0.0018246034128852309 -0.0015619486708273226 0 0.0020328204634464738 -0.0015872734976400613 0 0.0019157060902361589 -0.0018608178793691099 0 0.0021828070476921681 -0.0016036070190950213 0 0.0020328204634464738 -0.0015872734976400613 0 0.0021845898466461787 -0.0018173144226762874 0 0.0020328204634464738 -0.0015872734976400613 0 0.0021845898466461787 -0.0018173144226762874 0 0.0019157060902361589 -0.0018608178793691099 0 0.0021828070476921681 -0.0016036070190950213 0 0.0020328204634464738 -0.0015872734976400613 0 0.0020918817177606902 -0.0014505245081272427 0 0.0020810901229541866 -0.0020221423455509574 0 0.002000846322268005 -0.0022212301475595122 0 0.0022325603889900799 -0.002185729533379139 0 0.0020810901229541866 -0.0020221423455509574 0 0.0021845898466461787 -0.0018173144226762874 0 0.0019157060902361589 -0.0018608178793691099 0 0.0020810901229541866 -0.0020221423455509574 0 0.0021845898466461787 -0.0018173144226762874 0 0.0022325603889900799 -0.002185729533379139 0 0.0019157060902361589 -0.0018608178793691099 0 0.0018037484710972502 -0.0021129664283470084 0 0.002000846322268005 -0.0022212301475595122 0 0.0020810901229541866 -0.0020221423455509574 0 0.0019157060902361589 -0.0018608178793691099 0 0.002000846322268005 -0.0022212301475595122 0 0.0018037484710972502 -0.0021129664283470084 0 0.0016567253633859831 -0.0019102194228305044 0 0.0016153145910515225 -0.0021410292027304015 0 0.0016803410525617539 -0.00168187973646744 0 0.0019157060902361589 -0.0018608178793691099 0 0.0016567253633859831 -0.0019102194228305044 0 0.0019157060902361589 -0.0018608178793691099 0 0.0018037484710972502 -0.0021129664283470084 0 0.0016567253633859831 -0.0019102194228305044 0 0.0014656293571257534 -0.0017137386625217417 0 0.0016803410525617539 -0.00168187973646744 0 0.0016567253633859831 -0.0019102194228305044 0 0.0014656293571257534 -0.0017137386625217417 0 0.0016567253633859831 -0.0019102194228305044 0 0.0014763746941339982 -0.0019619861166610825 0 0.0016567253633859831 -0.0019102194228305044 0 0.0016153145910515225 -0.0021410292027304015 0 0.0014763746941339982 -0.0019619861166610825 0 0.0016153145910515225 -0.0021410292027304015 0 0.0015682538110410669 -0.0023718543964466755 0 0.0017874681404225358 -0.0023392708608182371 0 0.0017874681404225358 -0.0023392708608182371 0 0.0019665019656871256 -0.0025598303942753042 0 0.0017517078969358946 -0.0025867506152847781 0 0.0015682538110410669 -0.0023718543964466755 0 0.0017874681404225358 -0.0023392708608182371 0 0.0017517078969358946 -0.0025867506152847781 0 0.0018037484710972502 -0.0021129664283470084 0 0.0016153145910515225 -0.0021410292027304015 0 0.0017874681404225358 -0.0023392708608182371 0 0.0017874681404225358 -0.0023392708608182371 0 0.002000846322268005 -0.0022212301475595122 0 0.0019665019656871256 -0.0025598303942753042 0 0.0018037484710972502 -0.0021129664283470084 0 0.0017874681404225358 -0.0023392708608182371 0 0.002000846322268005 -0.0022212301475595122 0 0.0019665019656871256 -0.0025598303942753042 0 0.0021865486431519921 -0.0024766097486216532 0 0.0021341416487896687 -0.0027482956574909744 0 0.002000846322268005 -0.0022212301475595122 0 0.0019665019656871256 -0.0025598303942753042 0 0.0021865486431519921 -0.0024766097486216532 0 0.002000846322268005 -0.0022212301475595122 0 0.0021865486431519921 -0.0024766097486216532 0 0.0022325603889900799 -0.002185729533379139 0 0.00095686951073607491 -0.0019088511998210356 0 0.0011233624189998393 -0.0016607781469757351 0 0.0012658509514719399 -0.0019241962864186221 0 0.00086275950819598806 -0.0016233102154692206 0 0.00095686951073607491 -0.0019088511998210356 0 0.0011233624189998393 -0.0016607781469757351 0 0.0014656293571257534 -0.0017137386625217417 0 0.0011233624189998393 -0.0016607781469757351 0 0.0012658509514719399 -0.0019241962864186221 0 0.0014656293571257534 -0.0017137386625217417 0 0.0014763746941339982 -0.0019619861166610825 0 0.0012658509514719399 -0.0019241962864186221 0 0.0016153145910515225 -0.0021410292027304015 0 0.0014763746941339982 -0.0019619861166610825 0 0.0014110507408766652 -0.0021478952798075347 0 0.0014763746941339982 -0.0019619861166610825 0 0.0012658509514719399 -0.0019241962864186221 0 0.0014110507408766652 -0.0021478952798075347 0 0.0012658509514719399 -0.0019241962864186221 0 0.0014110507408766652 -0.0021478952798075347 0 0.0011666065732498466 -0.0021502707273193251 0 0.0016153145910515225 -0.0021410292027304015 0 0.0015682538110410669 -0.0023718543964466755 0 0.0014110507408766652 -0.0021478952798075347 0 0.0015682538110410669 -0.0023718543964466755 0 0.0014110507408766652 -0.0021478952798075347 0 0.0013503738407478472 -0.0023738825305604063 0 0.0014110507408766652 -0.0021478952798075347 0 0.0013503738407478472 -0.0023738825305604063 0 0.0011666065732498466 -0.0021502707273193251 0 0.00095686951073607491 -0.0019088511998210356 0 0.0012658509514719399 -0.0019241962864186221 0 0.0011666065732498466 -0.0021502707273193251 0 0.0013503738407478472 -0.0023738825305604063 0 0.0011666065732498466 -0.0021502707273193251 0 0.0011426903061205816 -0.0024004436930151513 0 0.0011666065732498466 -0.0021502707273193251 0 0.00094067340288137848 -0.0022548203902165729 0 0.0011426903061205816 -0.0024004436930151513 0 0.00095686951073607491 -0.0019088511998210356 0 0.0011666065732498466 -0.0021502707273193251 0 0.00094067340288137848 -0.0022548203902165729 0 0.00094067340288137848 -0.0022548203902165729 0 0.00096176917079203515 -0.0026258426410464214 0 0.0011426903061205816 -0.0024004436930151513 0 0.00096176917079203515 -0.0026258426410464214 0 0.0011426903061205816 -0.0024004436930151513 0 0.0012871493215338573 -0.0026230616252483864 0 0.0013503738407478472 -0.0023738825305604063 0 0.0011426903061205816 -0.0024004436930151513 0 0.0012871493215338573 -0.0026230616252483864 0 0.0013503738407478472 -0.0023738825305604063 0 0.0015262860781793026 -0.0025957587013097074 0 0.0012871493215338573 -0.0026230616252483864 0 0.0015682538110410669 -0.0023718543964466755 0 0.0013503738407478472 -0.0023738825305604063 0 0.0015262860781793026 -0.0025957587013097074 0 0.0015262860781793026 -0.0025957587013097074 0 0.0012871493215338573 -0.0026230616252483864 0 0.001483437652374146 -0.002838644150261247 0 0.0012871493215338573 -0.0026230616252483864 0 0.001483437652374146 -0.002838644150261247 0 0.0012242346902967584 -0.0028630665979920396 0 0.001483437652374146 -0.002838644150261247 0 0.0012242346902967584 -0.0028630665979920396 0 0.0014739286402312031 -0.003147088872831784 0 0.00096176917079203515 -0.0026258426410464214 0 0.0012871493215338573 -0.0026230616252483864 0 0.0012242346902967584 -0.0028630665979920396 0 0.0012242346902967584 -0.0028630665979920396 0 0.0014739286402312031 -0.003147088872831784 0 0.00087453140109410466 -0.0030906599723893998 0 0.00096176917079203515 -0.0026258426410464214 0 0.0012242346902967584 -0.0028630665979920396 0 0.00087453140109410466 -0.0030906599723893998 0 0.0021014003025659287 -0.0029659718529331425 0 0.0021341416487896687 -0.0027482956574909744 0 0.0022971575895839045 -0.0029618478567033724 0 0.0021014003025659287 -0.0029659718529331425 0 0.0021341416487896687 -0.0027482956574909744 0 0.0019103278626419304 -0.0028213583438457391 0 0.0019665019656871256 -0.0025598303942753042 0 0.0021341416487896687 -0.0027482956574909744 0 0.0019103278626419304 -0.0028213583438457391 0 0.0019665019656871256 -0.0025598303942753042 0 0.0019103278626419304 -0.0028213583438457391 0 0.0017517078969358946 -0.0025867506152847781 0 0.0021014003025659287 -0.0029659718529331425 0 0.0019103278626419304 -0.0028213583438457391 0 0.0019346945898842942 -0.0031041761504933042 0 0.0019103278626419304 -0.0028213583438457391 0 0.0016899487629187689 -0.0027647922244987276 0 0.001814091245859943 -0.0029317195750869522 0 0.0019103278626419304 -0.0028213583438457391 0 0.0017517078969358946 -0.0025867506152847781 0 0.0016899487629187689 -0.0027647922244987276 0 0.0015262860781793026 -0.0025957587013097074 0 0.0017517078969358946 -0.0025867506152847781 0 0.0016899487629187689 -0.0027647922244987276 0 0.0015682538110410669 -0.0023718543964466755 0 0.0015262860781793026 -0.0025957587013097074 0 0.0017517078969358946 -0.0025867506152847781 0 0.0015262860781793026 -0.0025957587013097074 0 0.001483437652374146 -0.002838644150261247 0 0.0016899487629187689 -0.0027647922244987276 0 0.0017245691721634435 -0.0030261287069999329 0 0.0019822857081684634 -0.0032293918603102999 0 0.0014739286402312031 -0.003147088872831784 0 0.001483437652374146 -0.002838644150261247 0 0.0017245691721634435 -0.0030261287069999329 0 0.0014739286402312031 -0.003147088872831784 0 0.001483437652374146 -0.002838644150261247 0 0.0016899487629187689 -0.0027647922244987276 0 0.0017245691721634435 -0.0030261287069999329 0 0.0016899487629187689 -0.0027647922244987276 0 0.0017245691721634435 -0.0030261287069999329 0 0.001814091245859943 -0.0029317195750869522 0 0.0017245691721634435 -0.0030261287069999329 0 0.001814091245859943 -0.0029317195750869522 0 0.0019346945898842942 -0.0031041761504933042 0 0.0019103278626419304 -0.0028213583438457391 0 0.001814091245859943 -0.0029317195750869522 0 0.0019346945898842942 -0.0031041761504933042 0 0.0019495930103292289 -0.003182740232125184 0 0.0019569196217077449 -0.0032333409090525836 0 0.0017245691721634435 -0.0030261287069999329 0 0.0019346945898842942 -0.0031041761504933042 0 0.0019822857081684634 -0.0032293918603102999 0 0.0019346945898842942 -0.0031041761504933042 0 0.0019967006541104981 -0.0034496288078468859 0 0.0022350992749241207 -0.0032137082974398961 0 0.0021014003025659287 -0.0029659718529331425 0 0.0019346945898842942 -0.0031041761504933042 0 0.0022350992749241207 -0.0032137082974398961 0 0.0020423973438711243 -0.0025629514834859244 0 0.0016568774053395841 -0.0029581370739593877 0 0.0022692519651997655 -0.0032887501651565646 0 0.0019569196217077449 -0.0032333409090525836 0 0.0022015982807887615 -0.0038316218914361908 0 0.0019569196217077449 -0.0032333409090525836 0 0.0013696680996616998 -0.0028568866910637244 0 0.0020423973438711243 -0.0025629514834859244 0 0.0016568774053395841 -0.0029581370739593877 0 0.0012443347478029261 -0.0026218093836342534 0 0.0016568774053395841 -0.0029581370739593877 0 0.0012443347478029261 -0.0026218093836342534 0 0.001297889993630946 -0.0029730734663183261 0 0.0016568774053395841 -0.0029581370739593877 0 0.0012726464284818879 -0.0033307624900536371 0 0.001777162421271207 -0.0036553656434313926 0 0.0016568774053395841 -0.0029581370739593877 0 0.001297889993630946 -0.0029730734663183261 0 0.0012726464284818879 -0.0033307624900536371 0 0.0016568774053395841 -0.0029581370739593877 0 0.0022692519651997655 -0.0032887501651565646 0 0.001777162421271207 -0.0036553656434313926 0 0.0013696680996616998 -0.0028568866910637244 0 0.0007225593869572526 -0.0027496472592115021 0 0.0012443347478029261 -0.0026218093836342534 0 0.00087853878726302636 -0.0029946393625306764 0 0.00048879975973203254 -0.0026717941373524865 0 0.001053602940290312 -0.0029994150995890784 0 0.00071632106455396419 -0.0029694102674357402 0 0.00080774551657275507 -0.0026967674279522588 0 0.00094988017427486424 -0.0029886716057997355 0 0.0007225593869572526 -0.0027496472592115021 0 0.0012443347478029261 -0.0026218093836342534 0 0.001297889993630946 -0.0029730734663183261 0 0.00087853878726302636 -0.0029946393625306764 0 0.0012500360856893217 -0.0032885763883549386 0 0.00094988017427486424 -0.0029886716057997355 0 0.001297889993630946 -0.0029730734663183261 0 0.0012726464284818879 -0.0033307624900536371 0 0.00087853878726302636 -0.0029946393625306764 0 0.00090386884421135452 -0.0032378906020034464 0 0.001053602940290312 -0.0029994150995890784 0 0.00071632106455396419 -0.0029694102674357402 0 0.0012726464284818879 -0.0033307624900536371 0 0.00090386884421135452 -0.0032378906020034464 0 0.001053602940290312 -0.0029994150995890784 0 0.00090386884421135452 -0.0032378906020034464 0 0.00071632106455396419 -0.0029694102674357402 0 0.00061646254764977744 -0.0033246192739288978 0 0.00071632106455396419 -0.0029694102674357402 0 0.00040930764163438259 -0.0029032549480589053 0 0.00061646254764977744 -0.0033246192739288978 0 0.00071632106455396419 -0.0029694102674357402 0 0.00080774551657275507 -0.0026967674279522588 0 0.00052118650980455207 -0.0026484946825078948 0 0.00060831218412112564 -0.0025187585658987674 0 0.00040554378557866225 -0.002527733625499338 0 0.00040540185646663845 -0.0023561457915729535 0 0.0007225593869572526 -0.0027496472592115021 0 0.000449363333083131 -0.0025887249953497893 0 0.00040554378557866225 -0.002527733625499338 0 0.00021659394940586635 -0.0025498950598944934 0 0.00026271444333710893 -0.0023844243204888798 0 0.000449363333083131 -0.0025887249953497893 0 0.00023931176476072323 -0.0025673703054212883 0 0.00052118650980455207 -0.0026484946825078948 0 0.00040930764163438259 -0.0029032549480589053 0 0.00021659394940586635 -0.0025498950598944934 0 0.00071632106455396419 -0.0029694102674357402 0 0.00052118650980455207 -0.0026484946825078948 0 0.00040930764163438259 -0.0029032549480589053 0 0.00040930764163438259 -0.0029032549480589053 0 0.00061646254764977744 -0.0033246192739288978 0 0.00027330567503902446 -0.0030935340767191803 0 0.00040930764163438259 -0.0029032549480589053 0 9.1243839170766127e-05 -0.0027858607417338998 0 0.00027330567503902446 -0.0030935340767191803 0 9.1243839170766127e-05 -0.0027858607417338998 0 0.00027330567503902446 -0.0030935340767191803 0 -5.8654703467721023e-05 -0.003015370132154983 0 0.00040930764163438259 -0.0029032549480589053 0 9.1243839170766127e-05 -0.0027858607417338998 0 0.00021659394940586635 -0.0025498950598944934 0 9.1243839170766127e-05 -0.0027858607417338998 0 -0.00016572671627666311 -0.0026482940808304316 0 -0.00010562559824295864 -0.0025117410437833594 0 9.1243839170766127e-05 -0.0027858607417338998 0 -0.00016572671627666311 -0.0026482940808304316 0 -5.8654703467721023e-05 -0.003015370132154983 0 -0.00041800377547738962 -0.00266677267905504 0 -0.00016572671627666311 -0.0026482940808304316 0 -5.8654703467721023e-05 -0.003015370132154983 0 -0.00033787728342660357 -0.0023124297665898497 0 -0.00010562559824295864 -0.0025117410437833594 0 -0.00017719487947662291 -0.0022557014949017365 0 9.1243839170766127e-05 -0.0027858607417338998 0 -0.00010562559824295864 -0.0025117410437833594 0 0.00021659394940586635 -0.0025498950598944934 0 -0.00010562559824295864 -0.0025117410437833594 0 0.00021659394940586635 -0.0025498950598944934 0 7.0678743987251665e-05 -0.0023365014578988741 0 0.00021659394940586635 -0.0025498950598944934 0 7.0678743987251665e-05 -0.0023365014578988741 0 0.00026271444333710893 -0.0023844243204888798 0 7.0678743987251665e-05 -0.0023365014578988741 0 0.000229246659376614 -0.0022404622012773979 0 0.00026271444333710893 -0.0023844243204888798 0 7.0678743987251665e-05 -0.0023365014578988741 0 -0.00017719487947662291 -0.0022557014949017365 0 -2.0186977302078446e-05 -0.00212784185543838 0 -0.00010562559824295864 -0.0025117410437833594 0 7.0678743987251665e-05 -0.0023365014578988741 0 -0.00017719487947662291 -0.0022557014949017365 0 -0.00027735083133443304 -0.0019608669973720295 0 3.8747763074588123e-05 -0.0018801213813207744 0 -2.0186977302078446e-05 -0.00212784185543838 0 -0.00027735083133443304 -0.0019608669973720295 0 -0.00017719487947662291 -0.0022557014949017365 0 -2.0186977302078446e-05 -0.00212784185543838 0 3.8747763074588123e-05 -0.0018801213813207744 0 -2.0186977302078446e-05 -0.00212784185543838 0 0.000229246659376614 -0.0022404622012773979 0 7.0678743987251665e-05 -0.0023365014578988741 0 -2.0186977302078446e-05 -0.00212784185543838 0 0.000229246659376614 -0.0022404622012773979 0 0.000229246659376614 -0.0022404622012773979 0 0.00066787121869568266 -0.0023921484627504835 0 0.00053938589331980905 -0.0027285467483094392 0 0.00053349251642916765 -0.002085066603115041 0 0.000229246659376614 -0.0022404622012773979 0 0.00066787121869568266 -0.0023921484627504835 0 0.00096176917079203515 -0.0026258426410464214 0 0.00066787121869568266 -0.0023921484627504835 0 0.00053938589331980905 -0.0027285467483094392 0 0.00094067340288137848 -0.0022548203902165729 0 0.00096176917079203515 -0.0026258426410464214 0 0.00066787121869568266 -0.0023921484627504835 0 0.00096176917079203515 -0.0026258426410464214 0 0.00087453140109410466 -0.0030906599723893998 0 0.00053938589331980905 -0.0027285467483094392 0 0.0007225593869572526 -0.0027496472592115021 0 0.0004855346229391461 -0.0025458318449500346 0 0.00024927384472091452 -0.0022843539621444685 0 0.0004855346229391461 -0.0025458318449500346 0 0.000229246659376614 -0.0022404622012773979 0 0.00026271444333710893 -0.0023844243204888798 0 0.00040540185646663845 -0.0023561457915729535 0 0.00040554378557866225 -0.002527733625499338 0 0.00026271444333710893 -0.0023844243204888798 0 0.00040540185646663845 -0.0023561457915729535 0 -0.0017913414079081759 -0.021826454400079499 0 -0.0022258705475425404 -0.022726317884612632 0 -0.0031728067501419818 -0.021318935484566492 0 0.00091337970838693827 -0.013354267826257116 0 0.00026339482100676422 -0.012383497508743992 0 -0.0018464477366394796 -0.020577249370759273 0 -0.0031728067501419818 -0.021318935484566492 0 -0.0029299505068962495 -0.019774035893235897 0 -0.0017913414079081759 -0.021826454400079499 0 -0.0018464477366394796 -0.020577249370759273 0 -0.0031728067501419818 -0.021318935484566492 0 -0.0017913414079081759 -0.021826454400079499 0 -0.0018464477366394796 -0.020577249370759273 0 -0.00076478839139637112 -0.021698062325550712 0 -0.001085531917808394 -0.022115075376902743 0 -0.001211339653481035 -0.020835716241604758 0 -0.0018464477366394796 -0.020577249370759273 0 -0.00076478839139637112 -0.021698062325550712 0 -0.0007889737038260183 -0.020384770580953244 0 -0.0014141331928223268 -0.022575158026093525 0 -0.00066539036315384876 -0.02148339144818864 0 -0.001639416002480795 -0.021294040033754572 0 -0.0014141331928223268 -0.022575158026093525 0 -0.00066539036315384876 -0.02148339144818864 0 -0.00039553028492867647 -0.022474761687098291 0 -0.0014141331928223268 -0.022575158026093525 0 -0.00094750007458714461 -0.023142653087303889 0 -0.00073742842543427531 -0.023171901274194783 0 -0.0014141331928223268 -0.022575158026093525 0 -0.00073742842543427531 -0.023171901274194783 0 -0.00039553028492867647 -0.022474761687098291 0 -0.0017913414079081759 -0.021826454400079499 0 -0.00076478839139637112 -0.021698062325550712 0 -0.00094750007458714461 -0.023142653087303889 0 -0.001085531917808394 -0.022115075376902743 0 -0.00097347198940959468 -0.023029260006797014 0 -0.00094750007458714461 -0.023142653087303889 0 -0.00073742842543427531 -0.023171901274194783 0 -0.00057235208295936912 -0.023610148173488162 0 -0.00094750007458714461 -0.023142653087303889 0 -0.00057235208295936912 -0.023610148173488162 0 -0.000871780553059601 -0.023692512570092431 0 -0.00057235208295936912 -0.023610148173488162 0 -0.00060519945740679533 -0.023765543696695857 0 -0.000871780553059601 -0.023692512570092431 0 -0.00094750007458714461 -0.023142653087303889 0 -0.000871780553059601 -0.023692512570092431 0 -0.0013070639497257265 -0.02369002937040314 0 0.004073839021459448 -0.0040762969394868738 0 0.0038410067195015704 -0.0046118224532902376 0 0.0044608306501596126 -0.004744889239304109 0 0.00091337970838693827 -0.013354267826257116 0 0.0015749832607007707 -0.014327810562544358 0 -0.00094750007458714461 -0.023142653087303889 0 -0.0022258705475425404 -0.022726317884612632 0 -0.0013070639497257265 -0.02369002937040314 0 0.004073839021459448 -0.0040762969394868738 0 0.0038410067195015704 -0.0046118224532902376 0 0.0032849980750507481 -0.003949540961215847 0 -0.0017913414079081759 -0.021826454400079499 0 -0.00094750007458714461 -0.023142653087303889 0 -0.0022258705475425404 -0.022726317884612632 0 0.0038410067195015704 -0.0046118224532902376 0 0.0032849980750507481 -0.003949540961215847 0 0.0032212248757188338 -0.0047142244226792791 0 0.0032849980750507481 -0.003949540961215847 0 0.0027336421257667222 -0.0042721107784135567 0 0.0032212248757188338 -0.0047142244226792791 0 0.0021291018950231537 -0.004424620905837862 0 0.0027336421257667222 -0.0042721107784135567 0 0.0023243691970183376 -0.0039977460198024764 0 0.0021291018950231537 -0.004424620905837862 0 0.0027336421257667222 -0.0042721107784135567 0 0.0027316882744137174 -0.0047814360131388216 0 0.0032849980750507481 -0.003949540961215847 0 0.0027336421257667222 -0.0042721107784135567 0 0.0026163031500732094 -0.0036186317816406795 0 0.0027336421257667222 -0.0042721107784135567 0 0.0023243691970183376 -0.0039977460198024764 0 0.0026163031500732094 -0.0036186317816406795 0 0.0019569196217077449 -0.0032333409090525836 0 0.0025859760958133488 -0.0036744048735412008 0 0.0018953964677774016 -0.0036831875553562893 0 0.0021291018950231537 -0.004424620905837862 0 0.0023243691970183376 -0.0039977460198024764 0 0.0018953964677774016 -0.0036831875553562893 0 0.0023243691970183376 -0.0039977460198024764 0 0.0026163031500732094 -0.0036186317816406795 0 0.0022350992749241207 -0.0032137082974398961 0 0.0025404269899023265 -0.0032213552905452367 0 0.0026163031500732094 -0.0036186317816406795 0 0.0019967006541104981 -0.0034496288078468859 0 0.0022350992749241207 -0.0032137082974398961 0 0.0026163031500732094 -0.0036186317816406795 0 0.0022350992749241207 -0.0032137082974398961 0 0.0025404269899023265 -0.0032213552905452367 0 0.0022971575895839045 -0.0029618478567033724 0 0.0021014003025659287 -0.0029659718529331425 0 0.0022350992749241207 -0.0032137082974398961 0 0.0022971575895839045 -0.0029618478567033724 0 0.0032849980750507481 -0.003949540961215847 0 0.0026163031500732094 -0.0036186317816406795 0 0.0028933748233041577 -0.0033617244771414435 0 0.0025404269899023265 -0.0032213552905452367 0 0.0028933748233041577 -0.0033617244771414435 0 0.0026626125062348158 -0.0029685075068728848 0 0.0025404269899023265 -0.0032213552905452367 0 0.0026163031500732094 -0.0036186317816406795 0 0.0028933748233041577 -0.0033617244771414435 0 0.0026626125062348158 -0.0029685075068728848 0 0.0030279425072764791 -0.00296428860130514 0 0.0028226628304461737 -0.0027600545300455561 0 0.0028933748233041577 -0.0033617244771414435 0 0.0026626125062348158 -0.0029685075068728848 0 0.0030279425072764791 -0.00296428860130514 0 0.0026626125062348158 -0.0029685075068728848 0 0.0026187040428948196 -0.0026324660325006935 0 0.0028226628304461737 -0.0027600545300455561 0 0.0025404269899023265 -0.0032213552905452367 0 0.0026626125062348158 -0.0029685075068728848 0 0.0022971575895839045 -0.0029618478567033724 0 0.0026626125062348158 -0.0029685075068728848 0 0.0023618403652632637 -0.0026964177060429168 0 0.0022971575895839045 -0.0029618478567033724 0 0.0026626125062348158 -0.0029685075068728848 0 0.0023618403652632637 -0.0026964177060429168 0 0.0026187040428948196 -0.0026324660325006935 0 0.0021341416487896687 -0.0027482956574909744 0 0.0023618403652632637 -0.0026964177060429168 0 0.0022971575895839045 -0.0029618478567033724 0 0.004073839021459448 -0.0040762969394868738 0 0.0032849980750507481 -0.003949540961215847 0 0.0036450058649099681 -0.0033467776937680274 0 0.0032849980750507481 -0.003949540961215847 0 0.0028933748233041577 -0.0033617244771414435 0 0.0036450058649099681 -0.0033467776937680274 0 0.0028933748233041577 -0.0033617244771414435 0 0.0030279425072764791 -0.00296428860130514 0 0.0036450058649099681 -0.0033467776937680274 0 0.0030279425072764791 -0.00296428860130514 0 0.0036450058649099681 -0.0033467776937680274 0 0.0031103755600125995 -0.0026693621025833808 0 0.00026339482100676422 -0.012383497508743992 0 -0.00055011641901086519 -0.011163685922598331 0 -0.0031728067501419818 -0.021318935484566492 0 -0.0040131045346997679 -0.019989163676361429 0 -0.0029299505068962495 -0.019774035893235897 0 0.0030279425072764791 -0.00296428860130514 0 0.0030508560441935306 -0.0026634106958973508 0 0.0031103755600125995 -0.0026693621025833808 0 0.0030279425072764791 -0.00296428860130514 0 0.0030508560441935306 -0.0026634106958973508 0 0.0028226628304461737 -0.0027600545300455561 0 -0.00055011641901086519 -0.011163685922598331 0 -0.00055772328904144821 -0.01167066445169025 0 -0.0040131045346997679 -0.019989163676361429 0 -0.0048695882226996792 -0.018728456456190902 0 -0.0037853744834884582 -0.018736537277791891 0 0.0030508560441935306 -0.0026634106958973508 0 0.0031103755600125995 -0.0026693621025833808 0 0.0029704891352266075 -0.0028937494830035887 0 -0.0040131045346997679 -0.019989163676361429 0 -0.0037853744834884582 -0.018736537277791891 0 -0.0029299505068962495 -0.019774035893235897 0 -0.0037853744834884582 -0.018736537277791891 0 -0.0027780949025228898 -0.01873551777069617 0 -0.0029299505068962495 -0.019774035893235897 0 0.0021865486431519921 -0.0024766097486216532 0 0.0024108132821526337 -0.0024314328553785929 0 0.0022325603889900799 -0.002185729533379139 0 0.0021865486431519921 -0.0024766097486216532 0 0.0023618403652632637 -0.0026964177060429168 0 0.0024108132821526337 -0.0024314328553785929 0 0.0021865486431519921 -0.0024766097486216532 0 0.0021341416487896687 -0.0027482956574909744 0 0.0023618403652632637 -0.0026964177060429168 0 0.0023618403652632637 -0.0026964177060429168 0 0.0024108132821526337 -0.0024314328553785929 0 0.0026187040428948196 -0.0026324660325006935 0 0.0024108132821526337 -0.0024314328553785929 0 0.0027255801835955312 -0.0024601115141724243 0 0.0026187040428948196 -0.0026324660325006935 0 0.0027255801835955312 -0.0024601115141724243 0 0.0026187040428948196 -0.0026324660325006935 0 0.0028029139796707271 -0.0026294080255816867 0 0.0026187040428948196 -0.0026324660325006935 0 0.0028029139796707271 -0.0026294080255816867 0 0.0028226628304461737 -0.0027600545300455561 0 0.0030508560441935306 -0.0026634106958973508 0 0.0028029139796707271 -0.0026294080255816867 0 0.0028226628304461737 -0.0027600545300455561 0 0.0030508560441935306 -0.0026634106958973508 0 0.0027255801835955312 -0.0024601115141724243 0 0.0028029139796707271 -0.0026294080255816867 0 0.0030508560441935306 -0.0026634106958973508 0 0.0027255801835955312 -0.0024601115141724243 0 0.0026849983493746348 -0.0021147770581324173 0 0.0024108132821526337 -0.0024314328553785929 0 0.0027255801835955312 -0.0024601115141724243 0 0.0026849983493746348 -0.0021147770581324173 0 0.0030508560441935306 -0.0026634106958973508 0 0.0030160121028332161 -0.0028454450111059112 0 0.0029704891352266075 -0.0028937494830035887 0 0.0029937324793955023 -0.002396704223522297 0 0.0025366358036530345 -0.0034130699006649562 0 0.0025366358036530345 -0.0034130699006649562 0 -0.00055772328904144821 -0.01167066445169025 0 0.0023577737186145026 -0.0015580156080307066 0 0.0027522672323082027 -0.0034695166230180774 0 0.0024108132821526337 -0.0024314328553785929 0 0.0026958438077988572 -0.0020022915643512699 0 0.0024563892026429812 -0.0021387534677372519 0 0.0024724808352375362 -0.0020014856929043284 0 0.0022325603889900799 -0.002185729533379139 0 0.0024742280718321932 -0.0017631805997021079 0 0.0021845898466461787 -0.0018173144226762874 0 0.0022325603889900799 -0.002185729533379139 0 0.0024757965297507942 -0.0016282026702946681 0 0.0026450840881004061 -0.0020168102086369323 0 0.0025366358036530345 -0.0034130699006649562 0 0.0026958438077988572 -0.0020022915643512699 0 0.0024563892026429812 -0.0021387534677372519 0 0.0024724808352375362 -0.0020014856929043284 0 0.0026958438077988572 -0.0020022915643512699 0 0.0024724808352375362 -0.0020014856929043284 0 0.0024742280718321932 -0.0017631805997021079 0 0.0024563892026429812 -0.0021387534677372519 0 0.0024724808352375362 -0.0020014856929043284 0 0.0022325603889900799 -0.002185729533379139 0 0.0024108132821526337 -0.0024314328553785929 0 0.0024563892026429812 -0.0021387534677372519 0 0.0022325603889900799 -0.002185729533379139 0 0.0021828070476921681 -0.0016036070190950213 0 0.0020918817177606902 -0.0014505245081272427 0 0.0024757965297507942 -0.0016282026702946681 0 0.0021828070476921681 -0.0016036070190950213 0 0.0021845898466461787 -0.0018173144226762874 0 0.0024757965297507942 -0.0016282026702946681 0 0.0025366358036530345 -0.0034130699006649562 0 0.0027522672323082027 -0.0034695166230180774 0 0.0027522672323082027 -0.0034695166230180774 0 0.00084610301607849353 -0.0089485845069066615 0 -2.0278542035420584e-05 -0.012590802450306653 0 -8.2546333106557385e-05 -0.012515949636999533 0 -0.00016469856776825674 -0.012679327776745845 0 0.00084610301607849353 -0.0089485845069066615 0 -0.00055772328904144821 -0.01167066445169025 0 0.0014831705851125587 -0.0072303706869420309 0 0.0014267229815633626 -0.0073471249815909396 0 0.0012960337045327119 -0.007166453467194119 0 0.0013602044842147688 -0.0070730683149372474 0 0.0014831705851125587 -0.0072303706869420309 0 0.0012960337045327119 -0.007166453467194119 0 0.00084610301607849353 -0.0089485845069066615 0 2.0050741213501007e-05 -0.012712906653914823 0 -2.0278542035420584e-05 -0.012590802450306653 0 -0.00016469856776825674 -0.012679327776745845 0 -8.6797524176205617e-05 -0.012729380805763668 0 0.0016390304573925779 -0.0063896484601322192 0 0.00084610301607849353 -0.0089485845069066615 0 0.0020436477781646391 -0.0011935864213214922 0 0.0020918817177606902 -0.0014505245081272427 0 0.0024757965297507942 -0.0016282026702946681 0 0.00278363119552542 -0.0017226040594130489 0 0.0024552852557728532 -0.0022111452996072178 0 0.0037556556794288865 -0.0030544252098801262 0 0.0003574045710695118 -0.011444500223024064 0 0.00046145281077946917 -0.011526364987581084 0 0.0005489799400705764 -0.011397245135662933 0 0.0024552852557728532 -0.0022111452996072178 0 0.0034942935967376735 -0.0035989722993277039 0 0.0037556556794288865 -0.0030544252098801262 0 0.002243187687368386 -0.0015685045921061144 0 0.0027522672323082027 -0.0034695166230180774 0 -0.0037853744834884582 -0.018736537277791891 0 -0.0031925438106157628 -0.017899547177303389 0 -0.0027780949025228898 -0.01873551777069617 0 -0.0037853744834884582 -0.018736537277791891 0 -0.0040930289186778606 -0.017628511953888176 0 -0.0031925438106157628 -0.017899547177303389 0 -0.0048695882226996792 -0.018728456456190902 0 -0.0037853744834884582 -0.018736537277791891 0 -0.0040930289186778606 -0.017628511953888176 0 -0.00055772328904144821 -0.01167066445169025 0 -0.0026175268754557407 -0.015993621809099818 0 -0.0040930289186778606 -0.017628511953888176 0 -0.0031925438106157628 -0.017899547177303389 0 -0.0032344424137352849 -0.016344451646153786 0 -0.0024964715552862407 -0.017258196556126749 0 -0.0019549695712552514 -0.017806858697092108 0 -0.0017472046307029057 -0.016971240206008226 0 -0.0024872561933626603 -0.018090496642631061 0 -0.0019549695712552514 -0.017806858697092108 0 -0.0019827746134789175 -0.018481046768158826 0 -0.0024964715552862407 -0.017258196556126749 0 -0.0024872561933626603 -0.018090496642631061 0 -0.0019549695712552514 -0.017806858697092108 0 -0.0031925438106157628 -0.017899547177303389 0 -0.0024964715552862407 -0.017258196556126749 0 -0.0024872561933626603 -0.018090496642631061 0 -0.0012980144297674288 -0.017785032562419582 0 -0.0010050423025439056 -0.017868838920583073 0 -0.00095436541016081621 -0.016301937401768413 0 -0.0019549695712552514 -0.017806858697092108 0 -0.0012980144297674288 -0.017785032562419582 0 -0.0017472046307029057 -0.016971240206008226 0 -0.0019549695712552514 -0.017806858697092108 0 -0.001659722990052185 -0.018067959381050526 0 -0.0012980144297674288 -0.017785032562419582 0 -0.0019549695712552514 -0.017806858697092108 0 -0.001659722990052185 -0.018067959381050526 0 -0.0019827746134789175 -0.018481046768158826 0 -0.001659722990052185 -0.018067959381050526 0 -0.0012980144297674288 -0.017785032562419582 0 -0.0014192320598675891 -0.018349592284587383 0 -0.0012980144297674288 -0.017785032562419582 0 -0.0014192320598675891 -0.018349592284587383 0 -0.0010690582539664864 -0.017877941770359118 0 -0.0012700016063872375 -0.018079458761820585 0 -0.0012603367135017717 -0.018155995352259206 0 -0.0019827746134789175 -0.018481046768158826 0 -0.0015804852663203243 -0.018801388515031742 0 -0.0019915792683547567 -0.019323854666916211 0 -0.0014192320598675891 -0.018349592284587383 0 -0.0015804852663203243 -0.018801388515031742 0 -0.001252067813181766 -0.018809290914387836 0 -0.0014192320598675891 -0.018349592284587383 0 -0.0019827746134789175 -0.018481046768158826 0 -0.0015804852663203243 -0.018801388515031742 0 -0.001659722990052185 -0.018067959381050526 0 -0.0014192320598675891 -0.018349592284587383 0 -0.0019827746134789175 -0.018481046768158826 0 -0.0015804852663203243 -0.018801388515031742 0 -0.0014086485967364046 -0.019130568601197759 0 -0.001252067813181766 -0.018809290914387836 0 -0.0019827746134789175 -0.018481046768158826 0 -0.0027780949025228898 -0.01873551777069617 0 -0.0019915792683547567 -0.019323854666916211 0 -0.0031925438106157628 -0.017899547177303389 0 -0.0024872561933626603 -0.018090496642631061 0 -0.0027780949025228898 -0.01873551777069617 0 -0.0024872561933626603 -0.018090496642631061 0 -0.0019827746134789175 -0.018481046768158826 0 -0.0027780949025228898 -0.01873551777069617 0 -0.0027780949025228898 -0.01873551777069617 0 -0.0019915792683547567 -0.019323854666916211 0 -0.0029299505068962495 -0.019774035893235897 0 -0.0015804852663203243 -0.018801388515031742 0 -0.0019915792683547567 -0.019323854666916211 0 -0.0014086485967364046 -0.019130568601197759 0 -0.0019915792683547567 -0.019323854666916211 0 -0.0014086485967364046 -0.019130568601197759 0 -0.0013490314420470679 -0.019764962418943387 0 -0.0018464477366394796 -0.020577249370759273 0 -0.0019915792683547567 -0.019323854666916211 0 -0.0013490314420470679 -0.019764962418943387 0 -0.0018464477366394796 -0.020577249370759273 0 -0.0019915792683547567 -0.019323854666916211 0 -0.0029299505068962495 -0.019774035893235897 0 -0.00066539036315384876 -0.02148339144818864 0 -0.001639416002480795 -0.021294040033754572 0 -0.0008491650226973552 -0.020032949171171478 0 -0.0007889737038260183 -0.020384770580953244 0 -0.0013490314420470679 -0.019764962418943387 0 -0.00095797606262879172 -0.019139748482614266 0 -0.001211339653481035 -0.020835716241604758 0 -0.0013068887488540367 -0.019573434691300937 0 -0.0018464477366394796 -0.020577249370759273 0 -0.0007889737038260183 -0.020384770580953244 0 -0.0013490314420470679 -0.019764962418943387 0 -0.0014086485967364046 -0.019130568601197759 0 -0.0013490314420470679 -0.019764962418943387 0 -0.00095797606262879172 -0.019139748482614266 0 -0.0014086485967364046 -0.019130568601197759 0 -0.00095797606262879172 -0.019139748482614266 0 -0.001252067813181766 -0.018809290914387836 0 -0.001639416002480795 -0.021294040033754572 0 -0.0016585631756123789 -0.019946598552439607 0 -0.0008491650226973552 -0.020032949171171478 0 -0.0016585631756123789 -0.019946598552439607 0 -0.0008491650226973552 -0.020032949171171478 0 -0.0011909702509078856 -0.019291571604269298 0 -0.0008491650226973552 -0.020032949171171478 0 -0.0011909702509078856 -0.019291571604269298 0 -0.00071584346350451989 -0.018941671049775618 0 -0.0011909702509078856 -0.019291571604269298 0 -0.00071584346350451989 -0.018941671049775618 0 -0.0013745248467058886 -0.01869525410328406 0 -0.0016585631756123789 -0.019946598552439607 0 -0.0011909702509078856 -0.019291571604269298 0 -0.0013745248467058886 -0.01869525410328406 0 -0.00095797606262879172 -0.019139748482614266 0 -0.001252067813181766 -0.018809290914387836 0 -0.0013745248467058886 -0.01869525410328406 0 -0.0013068887488540367 -0.019573434691300937 0 -0.0013648828203631906 -0.018798572565579989 0 -0.0012642470275154895 -0.018670439734712878 0 -0.0012603367135017717 -0.018155995352259206 0 -0.0014192320598675891 -0.018349592284587383 0 -0.001252067813181766 -0.018809290914387836 0 -0.0010690582539664864 -0.017877941770359118 0 -0.001252067813181766 -0.018809290914387836 0 -0.0015838159577733731 -0.018544482574125731 0 -0.0013745248467058886 -0.01869525410328406 0 -0.0011851852467576216 -0.0182171049595104 0 -0.00032723368879993312 -0.017893402510343725 0 -0.00063860775899772461 -0.017442455938183592 0 -0.00041127671563976497 -0.018779909205804527 0 -0.0012603367135017717 -0.018155995352259206 0 -0.00071584346350451989 -0.018941671049775618 0 -0.0015838159577733731 -0.018544482574125731 0 -0.0013745248467058886 -0.01869525410328406 0 -6.2711188292249593e-05 -0.01856861682380637 0 -0.0011851852467576216 -0.0182171049595104 0 -0.00032723368879993312 -0.017893402510343725 0 -6.2711188292249593e-05 -0.01856861682380637 0 -0.00032723368879993312 -0.017893402510343725 0 0.00012105795042105734 -0.017930864143157997 0 -0.00032723368879993312 -0.017893402510343725 0 -2.0671683882561029e-06 -0.017346607400630661 0 0.00012105795042105734 -0.017930864143157997 0 -2.0671683882561029e-06 -0.017346607400630661 0 -0.00043264889006464617 -0.016666589415414289 0 -0.00063860775899772461 -0.017442455938183592 0 -0.00032723368879993312 -0.017893402510343725 0 -2.0671683882561029e-06 -0.017346607400630661 0 -0.00063860775899772461 -0.017442455938183592 0 -2.0671683882561029e-06 -0.017346607400630661 0 -0.00043264889006464617 -0.016666589415414289 0 0.00022111168756607145 -0.016709773868534582 0 -0.00043264889006464617 -0.016666589415414289 0 -3.4288442175222504e-05 -0.016095489597114598 0 0.00022111168756607145 -0.016709773868534582 0 -0.00043264889006464617 -0.016666589415414289 0 -0.0012628605968783937 -0.017052209160511572 0 -0.0012158741470448557 -0.01577339208001691 0 -0.0011851852467576216 -0.0182171049595104 0 -0.00063860775899772461 -0.017442455938183592 0 -0.0012628605968783937 -0.017052209160511572 0 -0.0012603367135017717 -0.018155995352259206 0 -0.0010940514186194121 -0.016646763291399545 0 -0.00043264889006464617 -0.016666589415414289 0 -0.00063860775899772461 -0.017442455938183592 0 -0.0012628605968783937 -0.017052209160511572 0 -0.00095436541016081621 -0.016301937401768413 0 -0.0017472046307029057 -0.016971240206008226 0 -0.0020371136281931591 -0.016060916208597495 0 -0.0012980144297674288 -0.017785032562419582 0 -0.00095436541016081621 -0.016301937401768413 0 -0.0017472046307029057 -0.016971240206008226 0 -0.0024964715552862407 -0.017258196556126749 0 -0.0020371136281931591 -0.016060916208597495 0 -0.0032344424137352849 -0.016344451646153786 0 -0.0024964715552862407 -0.017258196556126749 0 -0.0017472046307029057 -0.016971240206008226 0 -0.0020371136281931591 -0.016060916208597495 0 -0.0012133067797426343 -0.013975315709564127 0 -0.0015820001353711415 -0.014352401822294329 0 -0.0020371136281931591 -0.016060916208597495 0 -0.0020932846984967829 -0.014919168762019966 0 -0.0032344424137352849 -0.016344451646153786 0 -0.00095436541016081621 -0.016301937401768413 0 -0.0020371136281931591 -0.016060916208597495 0 -0.00096012833375675019 -0.014725544781742922 0 -0.0010940514186194121 -0.016646763291399545 0 -0.0010400360845193451 -0.015254918614773273 0 -0.0020371136281931591 -0.016060916208597495 0 -0.00096012833375675019 -0.014725544781742922 0 -0.0020932846984967829 -0.014919168762019966 0 -0.00096012833375675019 -0.014725544781742922 0 -0.0020932846984967829 -0.014919168762019966 0 -0.00075932529219485537 -0.014144136306894102 0 -0.0003308724865990671 -0.012827159079535008 0 -0.00025118822110768702 -0.013305771966584079 0 -9.6281662735561236e-05 -0.012819378481212814 0 -0.0003308724865990671 -0.012827159079535008 0 -0.00025118822110768702 -0.013305771966584079 0 -0.00075932529219485537 -0.014144136306894102 0 -0.00025118822110768702 -0.013305771966584079 0 -0.00043256022204007775 -0.013887972565485709 0 -0.00020315604847956795 -0.013533873930699452 0 -0.00096012833375675019 -0.014725544781742922 0 -0.00075932529219485537 -0.014144136306894102 0 -0.00065718647762283151 -0.014073295958063734 0 -0.0012158741470448557 -0.01577339208001691 0 -0.00057095820031732912 -0.015005228099763729 0 -0.00065718647762283151 -0.014073295958063734 0 -0.00025118822110768702 -0.013305771966584079 0 -0.00075932529219485537 -0.014144136306894102 0 -0.00043256022204007775 -0.013887972565485709 0 -0.0012133067797426343 -0.013975315709564127 0 -0.00083009350156034822 -0.014067542912960484 0 -0.0010400360845193451 -0.015254918614773273 0 -0.00076241493282560994 -0.014167778676185719 0 -0.00057095820031732912 -0.015005228099763729 0 -0.00041872115938361329 -0.014585430045066626 0 -0.00065718647762283151 -0.014073295958063734 0 -0.00057095820031732912 -0.015005228099763729 0 -0.00027688230423348806 -0.015015322431157847 0 -0.0004323340728409197 -0.015692539787292129 0 -0.00057095820031732912 -0.015005228099763729 0 -0.00027688230423348806 -0.015015322431157847 0 -0.00041872115938361329 -0.014585430045066626 0 -0.00027688230423348806 -0.015015322431157847 0 -0.0001616254893006586 -0.014774518157974207 0 -0.00041872115938361329 -0.014585430045066626 0 -0.00027688230423348806 -0.015015322431157847 0 -3.0129617783175835e-05 -0.015156082913557379 0 -0.0001616254893006586 -0.014774518157974207 0 -0.00027688230423348806 -0.015015322431157847 0 -3.0129617783175835e-05 -0.015156082913557379 0 -0.00011419677409314691 -0.015527168532468208 0 -3.0129617783175835e-05 -0.015156082913557379 0 -0.00011419677409314691 -0.015527168532468208 0 0.00021022585377663449 -0.015682055597926105 0 -0.00027688230423348806 -0.015015322431157847 0 -0.00011419677409314691 -0.015527168532468208 0 -0.0004323340728409197 -0.015692539787292129 0 -0.00043264889006464617 -0.016666589415414289 0 -3.4288442175222504e-05 -0.016095489597114598 0 -0.0004323340728409197 -0.015692539787292129 0 -0.00011419677409314691 -0.015527168532468208 0 -3.4288442175222504e-05 -0.016095489597114598 0 -0.0004323340728409197 -0.015692539787292129 0 -0.00011419677409314691 -0.015527168532468208 0 -3.4288442175222504e-05 -0.016095489597114598 0 0.00021022585377663449 -0.015682055597926105 0 -0.00043264889006464617 -0.016666589415414289 0 -0.0012158741470448557 -0.01577339208001691 0 -0.0004323340728409197 -0.015692539787292129 0 -0.0012158741470448557 -0.01577339208001691 0 -0.00057095820031732912 -0.015005228099763729 0 -0.0004323340728409197 -0.015692539787292129 0 7.7481935141712885e-05 -0.011331788266268602 0 0.00047363960116290828 -0.011327268876549813 0 0.00052085332739558118 -0.011170514571376595 0 0.0003574045710695118 -0.011444500223024064 0 0.00047363960116290828 -0.011327268876549813 0 0.0005489799400705764 -0.011397245135662933 0 0.00047363960116290828 -0.011327268876549813 0 0.0005489799400705764 -0.011397245135662933 0 0.00059583920117267067 -0.011246339103071067 0 0.00047363960116290828 -0.011327268876549813 0 0.00059583920117267067 -0.011246339103071067 0 0.00052085332739558118 -0.011170514571376595 0 2.0050741213501007e-05 -0.012712906653914823 0 0.00028285777978261209 -0.01190889485855475 0 -8.6797524176205617e-05 -0.012729380805763668 0 -0.00013368209214991681 -0.012753870606371629 0 -0.00012312713501681828 -0.012810236931402168 0 -0.00013368209214991681 -0.012753870606371629 0 -0.0001624941016586251 -0.012746136165341542 0 -0.00012312713501681828 -0.012810236931402168 0 -0.00016469856776825674 -0.012679327776745845 0 -0.00013368209214991681 -0.012753870606371629 0 -0.0001624941016586251 -0.012746136165341542 0 -0.00016469856776825674 -0.012679327776745845 0 -8.6797524176205617e-05 -0.012729380805763668 0 -0.00013368209214991681 -0.012753870606371629 0 -0.0026175268754557407 -0.015993621809099818 0 -0.0015820001353711415 -0.014352401822294329 0 -0.0031925438106157628 -0.017899547177303389 0 -0.0024964715552862407 -0.017258196556126749 0 -0.0032344424137352849 -0.016344451646153786 0 -0.0003308724865990671 -0.012827159079535008 0 -0.0001624941016586251 -0.012746136165341542 0 -9.6281662735561236e-05 -0.012819378481212814 0 -0.0001624941016586251 -0.012746136165341542 0 -9.6281662735561236e-05 -0.012819378481212814 0 -0.00012312713501681828 -0.012810236931402168 0 -0.00025118822110768702 -0.013305771966584079 0 -6.7550364386678873e-05 -0.012667924132841622 0 -0.00020315604847956795 -0.013533873930699452 0 -0.00025118822110768702 -0.013305771966584079 0 -9.6281662735561236e-05 -0.012819378481212814 0 -6.7550364386678873e-05 -0.012667924132841622 0 -6.7550364386678873e-05 -0.012667924132841622 0 0.00086605461226206863 -0.011549364078665041 0 0.0004058020364759809 -0.013339191894762766 0 -6.7550364386678873e-05 -0.012667924132841622 0 0.00059583920117267067 -0.011246339103071067 0 0.00086605461226206863 -0.011549364078665041 0 -7.2803496415620877e-05 -0.012683152033538972 0 0.00028285777978261209 -0.01190889485855475 0 -9.6281662735561236e-05 -0.012819378481212814 0 -6.7550364386678873e-05 -0.012667924132841622 0 -0.00012312713501681828 -0.012810236931402168 0 0.00059583920117267067 -0.011246339103071067 0 0.00086605461226206863 -0.011549364078665041 0 0.00052085332739558118 -0.011170514571376595 0 0.00017153778633846204 -0.0106717111009208 0 0.00034842215966430124 -0.010532236659987594 0 0.00052085332739558118 -0.011170514571376595 0 0.00086605461226206863 -0.011549364078665041 0 0.00034842215966430124 -0.010532236659987594 0 0.00047401352813265693 -0.0097475654333479909 0 0.00086605461226206863 -0.011549364078665041 0 0.00034842215966430124 -0.010532236659987594 0 0.00052085332739558118 -0.011170514571376595 0 0.00019269121189847976 -0.0094945071485947434 0 0.00029992101058793881 -0.008935385304984755 0 0.00047401352813265693 -0.0097475654333479909 0 0.00029992101058793881 -0.008935385304984755 0 0.00048605335196422249 -0.0091337158322138661 0 0.00047401352813265693 -0.0097475654333479909 0 0.00019269121189847976 -0.0094945071485947434 0 0.00034842215966430124 -0.010532236659987594 0 0.00047401352813265693 -0.0097475654333479909 0 0.00086605461226206863 -0.011549364078665041 0 0.00047401352813265693 -0.0097475654333479909 0 0.0010375207498727133 -0.0095861349951287377 0 0.00085301523048678801 -0.011520682146533854 0 0.00064890050846228746 -0.011441099700158313 0 0.00064890050846228746 -0.011441099700158313 0 2.0075015666400472e-05 -0.011116349694977145 0 0.00048605335196422249 -0.0091337158322138661 0 0.0010375207498727133 -0.0095861349951287377 0 0.00020602849369381538 -0.0090401184415983479 0 0.00048605335196422249 -0.0091337158322138661 0 0.00047401352813265693 -0.0097475654333479909 0 0.0010375207498727133 -0.0095861349951287377 0 0.0004058020364759809 -0.013339191894762766 0 4.0065563092390102e-05 -0.013477985544183235 0 -3.9258330251191576e-05 -0.013445108824496363 0 0.0004058020364759809 -0.013339191894762766 0 4.0065563092390102e-05 -0.013477985544183235 0 -0.00035031695978636571 -0.01314212023567495 0 -6.7550364386678873e-05 -0.012667924132841622 0 0.0004058020364759809 -0.013339191894762766 0 -3.9258330251191576e-05 -0.013445108824496363 0 -6.7550364386678873e-05 -0.012667924132841622 0 -3.9258330251191576e-05 -0.013445108824496363 0 -0.00020315604847956795 -0.013533873930699452 0 -3.9258330251191576e-05 -0.013445108824496363 0 -0.00020315604847956795 -0.013533873930699452 0 -9.8953667329031606e-05 -0.013763717835633021 0 4.0065563092390102e-05 -0.013477985544183235 0 -3.9258330251191576e-05 -0.013445108824496363 0 5.007320204845006e-05 -0.013702359409933876 0 -3.9258330251191576e-05 -0.013445108824496363 0 5.007320204845006e-05 -0.013702359409933876 0 -9.8953667329031606e-05 -0.013763717835633021 0 5.007320204845006e-05 -0.013702359409933876 0 0.00014846861523089644 -0.01312455241028356 0 9.2823236582969214e-05 -0.013992154725033498 0 4.0065563092390102e-05 -0.013477985544183235 0 5.007320204845006e-05 -0.013702359409933876 0 0.00014846861523089644 -0.01312455241028356 0 0.00014846861523089644 -0.01312455241028356 0 1.0343235986645906e-06 -0.012757352351131478 0 9.2823236582969214e-05 -0.013992154725033498 0 0.00014846861523089644 -0.01312455241028356 0 1.0343235986645906e-06 -0.012757352351131478 0 -1.8161840977072347e-06 -0.010812866336574373 0 0.00014846861523089644 -0.01312455241028356 0 -0.00035031695978636571 -0.01314212023567495 0 -1.8161840977072347e-06 -0.010812866336574373 0 4.0065563092390102e-05 -0.013477985544183235 0 0.00014846861523089644 -0.01312455241028356 0 -0.00035031695978636571 -0.01314212023567495 0 0.00048605335196422249 -0.0091337158322138661 0 0.00020602849369381538 -0.0090401184415983479 0 0.00038428314967162396 -0.0090128278840594985 0 0.00020602849369381538 -0.0090401184415983479 0 -7.4529301628987856e-07 -0.010805751893501945 0 0.00038428314967162396 -0.0090128278840594985 0 2.0075015666400472e-05 -0.011116349694977145 0 -6.9768661800856703e-08 -0.010809192235178533 0 -7.4529301628987856e-07 -0.010805751893501945 0 1.0110254743763975e-06 -0.0090497386112288053 0 0.00038428314967162396 -0.0090128278840594985 0 0.00023645532817845411 -0.00844887657550643 0 1.0110254743763975e-06 -0.0090497386112288053 0 0.00038428314967162396 -0.0090128278840594985 0 0.00029992101058793881 -0.008935385304984755 0 0.00048605335196422249 -0.0091337158322138661 0 0.00038428314967162396 -0.0090128278840594985 0 0.00023645532817845411 -0.00844887657550643 0 0.00029992101058793881 -0.008935385304984755 0 0.00038428314967162396 -0.0090128278840594985 0 -0.00012483719775174611 -0.014652963136569986 0 -4.1994203789742742e-05 -0.015043151098451212 0 -0.00023617270184500343 -0.014571504813870156 0 -0.00012483719775174611 -0.014652963136569986 0 -0.00023617270184500343 -0.014571504813870156 0 -0.00029515397081101327 -0.014356795449177479 0 -4.1994203789742742e-05 -0.015043151098451212 0 -0.00012337335573354744 -0.01486556527492101 0 -0.00023453910977264464 -0.015401524430290081 0 -4.1994203789742742e-05 -0.015043151098451212 0 -0.00012337335573354744 -0.01486556527492101 0 -0.00023617270184500343 -0.014571504813870156 0 -0.00012337335573354744 -0.01486556527492101 0 -0.0001616254893006586 -0.014774518157974207 0 -0.00023617270184500343 -0.014571504813870156 0 -0.00012337335573354744 -0.01486556527492101 0 -0.0001616254893006586 -0.014774518157974207 0 -2.441057358522768e-05 -0.014777579397808847 0 -3.0129617783175835e-05 -0.015156082913557379 0 -0.0001616254893006586 -0.014774518157974207 0 -2.441057358522768e-05 -0.014777579397808847 0 -0.0001616254893006586 -0.014774518157974207 0 -0.00023617270184500343 -0.014571504813870156 0 -0.00041872115938361329 -0.014585430045066626 0 -0.00023617270184500343 -0.014571504813870156 0 -0.00042925843873098976 -0.014354517553307258 0 -0.00029515397081101327 -0.014356795449177479 0 -0.00023617270184500343 -0.014571504813870156 0 -0.00042925843873098976 -0.014354517553307258 0 -0.00041872115938361329 -0.014585430045066626 0 -0.00042925843873098976 -0.014354517553307258 0 -0.00041872115938361329 -0.014585430045066626 0 -0.00065718647762283151 -0.014073295958063734 0 -0.00042925843873098976 -0.014354517553307258 0 -0.00065718647762283151 -0.014073295958063734 0 -0.00042944478419244196 -0.01419428524506889 0 -0.00065718647762283151 -0.014073295958063734 0 -0.00042101870440007646 -0.014060574561274521 0 -0.00042944478419244196 -0.01419428524506889 0 -0.00043256022204007775 -0.013887972565485709 0 -0.00042101870440007646 -0.014060574561274521 0 -0.00027895234023761131 -0.014045771895959822 0 -0.00075932529219485537 -0.014144136306894102 0 -0.00065718647762283151 -0.014073295958063734 0 -0.00043256022204007775 -0.013887972565485709 0 -0.00065718647762283151 -0.014073295958063734 0 -0.00043256022204007775 -0.013887972565485709 0 -0.00042101870440007646 -0.014060574561274521 0 -0.00042101870440007646 -0.014060574561274521 0 -0.00027895234023761131 -0.014045771895959822 0 -0.00042944478419244196 -0.01419428524506889 0 -0.00042925843873098976 -0.014354517553307258 0 -0.00029515397081101327 -0.014356795449177479 0 -0.00042944478419244196 -0.01419428524506889 0 -0.00027895234023761131 -0.014045771895959822 0 -0.00029515397081101327 -0.014356795449177479 0 -0.00042944478419244196 -0.01419428524506889 0 -0.00043256022204007775 -0.013887972565485709 0 -0.00027895234023761131 -0.014045771895959822 0 -0.00020315604847956795 -0.013533873930699452 0 -0.00027895234023761131 -0.014045771895959822 0 -0.00020315604847956795 -0.013533873930699452 0 -9.8953667329031606e-05 -0.013763717835633021 0 5.007320204845006e-05 -0.013702359409933876 0 -9.8953667329031606e-05 -0.013763717835633021 0 -5.9183880081137773e-05 -0.014003341576633388 0 -0.00027895234023761131 -0.014045771895959822 0 -9.8953667329031606e-05 -0.013763717835633021 0 -5.9183880081137773e-05 -0.014003341576633388 0 -0.00012483719775174611 -0.014652963136569986 0 -0.00029515397081101327 -0.014356795449177479 0 -5.3200288703962611e-05 -0.014363237176770972 0 -0.00027895234023761131 -0.014045771895959822 0 -0.00029515397081101327 -0.014356795449177479 0 -5.3200288703962611e-05 -0.014363237176770972 0 -0.00027895234023761131 -0.014045771895959822 0 -5.9183880081137773e-05 -0.014003341576633388 0 -5.3200288703962611e-05 -0.014363237176770972 0 -5.3200288703962611e-05 -0.014363237176770972 0 9.2823236582969214e-05 -0.013992154725033498 0 6.2207603087988033e-05 -0.015044954771009894 0 -5.9183880081137773e-05 -0.014003341576633388 0 -5.3200288703962611e-05 -0.014363237176770972 0 9.2823236582969214e-05 -0.013992154725033498 0 5.007320204845006e-05 -0.013702359409933876 0 -5.9183880081137773e-05 -0.014003341576633388 0 9.2823236582969214e-05 -0.013992154725033498 0 1.0343235986645906e-06 -0.012757352351131478 0 9.2823236582969214e-05 -0.013992154725033498 0 -4.9690219327725224e-08 -0.014705952052370465 0 9.2823236582969214e-05 -0.013992154725033498 0 -4.9690219327725224e-08 -0.014705952052370465 0 6.2207603087988033e-05 -0.015044954771009894 0 -4.9690219327725224e-08 -0.014705952052370465 0 6.2207603087988033e-05 -0.015044954771009894 0 9.9306407123985715e-07 -0.016654097988717267 0 -0.00012483719775174611 -0.014652963136569986 0 -4.1994203789742742e-05 -0.015043151098451212 0 6.2207603087988033e-05 -0.015044954771009894 0 -0.00012483719775174611 -0.014652963136569986 0 -5.3200288703962611e-05 -0.014363237176770972 0 6.2207603087988033e-05 -0.015044954771009894 0 -4.1994203789742742e-05 -0.015043151098451212 0 -1.9622046588346333e-05 -0.016091556047019884 0 -0.00023453910977264464 -0.015401524430290081 0 -4.1994203789742742e-05 -0.015043151098451212 0 6.2207603087988033e-05 -0.015044954771009894 0 -1.9622046588346333e-05 -0.016091556047019884 0 6.2207603087988033e-05 -0.015044954771009894 0 -1.9622046588346333e-05 -0.016091556047019884 0 9.9306407123985715e-07 -0.016654097988717267 0 -1.9622046588346333e-05 -0.016091556047019884 0 9.9306407123985715e-07 -0.016654097988717267 0 -2.6896551849623399e-06 -0.018599671654148785 0 -2.6896551849623399e-06 -0.018599671654148785 0 -0.00097745996192828721 -0.016496956815074442 0 -0.00060661687410069735 -0.016423870400869813 0 -1.9622046588346333e-05 -0.016091556047019884 0 -2.6896551849623399e-06 -0.018599671654148785 0 -0.00060661687410069735 -0.016423870400869813 0 -7.9870799608017492e-07 -0.018605009097394015 0 9.0659167642456205e-05 -0.01969536984357536 0 1.0188005100776016e-06 -0.020673874800232212 0 -0.00023261371734779353 -0.019217140999624068 0 0.00062715642211701498 -0.021668141588967776 0 -7.9870799608017492e-07 -0.018605009097394015 0 9.0659167642456205e-05 -0.01969536984357536 0 -0.00013762959554716365 -0.019639097348571544 0 9.0659167642456205e-05 -0.01969536984357536 0 -0.00013762959554716365 -0.019639097348571544 0 0.00019635533754526011 -0.020170558418300823 0 -4.0513128695670813e-07 -0.018601771516385288 0 -0.00023261371734779353 -0.019217140999624068 0 0.00087190869865130468 -0.022682613776835205 0 0.00083778397988677864 -0.022678580669811325 0 0.00082000671143263955 -0.022736219725564569 0 -0.00023261371734779353 -0.019217140999624068 0 6.694515903668732e-05 -0.019270118437340403 0 0.00087190869865130468 -0.022682613776835205 0 0.00087522864040487076 -0.022631211507732358 0 0.00083778397988677864 -0.022678580669811325 0 -0.00077822374244010915 -0.016455237363337854 0 -0.00060661687410069735 -0.016423870400869813 0 -0.0007025260662639329 -0.015234721122686369 0 -1.9622046588346333e-05 -0.016091556047019884 0 -0.00060661687410069735 -0.016423870400869813 0 -0.00023453910977264464 -0.015401524430290081 0 -0.00060661687410069735 -0.016423870400869813 0 -0.00023453910977264464 -0.015401524430290081 0 -0.0007025260662639329 -0.015234721122686369 0 -0.00023261371734779353 -0.019217140999624068 0 -0.00028556460499072064 -0.018933399681152704 0 -0.00023453910977264464 -0.015401524430290081 0 -0.00028215432321650582 -0.014972359015438069 0 -0.0007025260662639329 -0.015234721122686369 0 -0.00012337335573354744 -0.01486556527492101 0 -0.00023453910977264464 -0.015401524430290081 0 -0.00028215432321650582 -0.014972359015438069 0 0.00087522864040487076 -0.022631211507732358 0 0.00083423290488281805 -0.022630659013092014 0 0.00083778397988677864 -0.022678580669811325 0 -0.00028215432321650582 -0.014972359015438069 0 -0.0007025260662639329 -0.015234721122686369 0 -0.00054638269294234672 -0.014650841341088398 0 6.694515903668732e-05 -0.019270118437340403 0 0.00098714444410463818 -0.017331849150126481 0 0.00087522864040487076 -0.022631211507732358 0 0.00087514208728680873 -0.022554451169791583 0 0.00083423290488281805 -0.022630659013092014 0 0.00088920621209144556 -0.014945474166715343 0 -2.441057358522768e-05 -0.014777579397808847 0 0.00044603885640791832 -0.015384939146319394 0 0.00098714444410463818 -0.017331849150126481 0 -0.00039027521766871941 -0.014922701603305881 0 -0.00012337335573354744 -0.01486556527492101 0 -0.00028215432321650582 -0.014972359015438069 0 -2.441057358522768e-05 -0.014777579397808847 0 -0.00028215432321650582 -0.014972359015438069 0 -0.00054638269294234672 -0.014650841341088398 0 -2.441057358522768e-05 -0.014777579397808847 0 0.00078295401546764527 -0.022705452505170892 0 0.00075350285910100428 -0.022682642840225378 0 0.00081057522639044882 -0.022593146615899583 0 0.00098714444410463818 -0.017331849150126481 0 0.0013457951228346885 -0.019213355912046034 0 0.00083423290488281805 -0.022630659013092014 0 0.00078295401546764527 -0.022705452505170892 0 0.00081057522639044882 -0.022593146615899583 0 0.00087514208728680873 -0.022554451169791583 0 0.00083423290488281805 -0.022630659013092014 0 0.00081057522639044882 -0.022593146615899583 0 0.00083423290488281805 -0.022630659013092014 0 0.00078295401546764527 -0.022705452505170892 0 0.00083778397988677864 -0.022678580669811325 0 0.00078295401546764527 -0.022705452505170892 0 0.00082000671143263955 -0.022736219725564569 0 0.00075829276550079625 -0.022798156208942811 0 0.00078295401546764527 -0.022705452505170892 0 0.00083778397988677864 -0.022678580669811325 0 0.00082000671143263955 -0.022736219725564569 0 9.0659167642456205e-05 -0.01969536984357536 0 0.00019635533754526011 -0.020170558418300823 0 1.0188005100776016e-06 -0.020673874800232212 0 0.00062715642211701498 -0.021668141588967776 0 0.00018736944659129707 -0.021735035163716266 0 0.00019635533754526011 -0.020170558418300823 0 -1.200975121915875e-06 -0.021359485628940935 0 -0.00039229595155511256 -0.021067623481591288 0 0.00019635533754526011 -0.020170558418300823 0 1.0188005100776016e-06 -0.020673874800232212 0 -1.200975121915875e-06 -0.021359485628940935 0 -5.829965396272545e-08 -0.021361458689271622 0 3.4390178802693766e-08 -0.022745233658913958 0 -2.5969252071464318e-06 -0.022614755907543201 0 0.00018736944659129707 -0.021735035163716266 0 -0.00012883088369233309 -0.023438080142766323 0 -1.200975121915875e-06 -0.021359485628940935 0 -0.00061132654371722644 -0.021273571749326921 0 -0.00039229595155511256 -0.021067623481591288 0 -0.00061132654371722644 -0.021273571749326921 0 -0.00039229595155511256 -0.021067623481591288 0 -0.0011334400286353019 -0.021266814280237103 0 6.0281461002283068e-05 -0.021577613736519632 0 -0.00029567602259362351 -0.021935932256512154 0 0.00069231013376321211 -0.022862823501826161 0 0.00072080449694603491 -0.022794826261570915 0 0.00067265609534020567 -0.022826002726481612 0 0.00075829276550079625 -0.022798156208942811 0 0.00069231013376321211 -0.022862823501826161 0 0.00072080449694603491 -0.022794826261570915 0 -0.00029567602259362351 -0.021935932256512154 0 -0.00012883088369233309 -0.023438080142766323 0 3.4390178802693766e-08 -0.022745233658913958 0 1.6865004822877904e-06 -0.023732669756270867 0 1.379137935003181e-08 -0.024816107651384263 0 3.4390178802693766e-08 -0.022745233658913958 0 -2.5969252071464318e-06 -0.022614755907543201 0 1.6865004822877904e-06 -0.023732669756270867 0 0.00072080449694603491 -0.022794826261570915 0 0.00067265609534020567 -0.022826002726481612 0 0.00071341786750418116 -0.022750469860407921 0 0.00078295401546764527 -0.022705452505170892 0 0.00075829276550079625 -0.022798156208942811 0 0.00072080449694603491 -0.022794826261570915 0 0.00078295401546764527 -0.022705452505170892 0 0.00072080449694603491 -0.022794826261570915 0 0.00071341786750418116 -0.022750469860407921 0 0.00062997678651273946 -0.022904257195614848 0 0.00061873559859362424 -0.022857870469890254 0 0.00055043665338387257 -0.022942156657343022 0 -9.5667941090504926e-05 -0.025773288014655144 0 8.4575219140756959e-08 -0.025655950240205328 0 7.5677932900197482e-05 -0.026500490407000379 0 0.00041239176531003942 -0.024277872848297941 0 -0.00021818538261559321 -0.027129511858055115 0 -0.00012883088369233309 -0.023438080142766323 0 0.00041239176531003942 -0.024277872848297941 0 1.6865004822877904e-06 -0.023732669756270867 0 -4.432731917795023e-08 -0.025652905329104792 0 1.379137935003181e-08 -0.024816107651384263 0 -0.00047387139247122322 -0.025679100749774701 0 -9.5667941090504926e-05 -0.025773288014655144 0 8.4575219140756959e-08 -0.025655950240205328 0 0.00069231013376321211 -0.022862823501826161 0 0.00062997678651273946 -0.022904257195614848 0 0.00067265609534020567 -0.022826002726481612 0 -0.00012883088369233309 -0.023438080142766323 0 6.011696316716114e-06 -0.025797625787922693 0 0.00062997678651273946 -0.022904257195614848 0 0.00067265609534020567 -0.022826002726481612 0 0.00061873559859362424 -0.022857870469890254 0 0.00067265609534020567 -0.022826002726481612 0 0.00061873559859362424 -0.022857870469890254 0 0.00065263781574880777 -0.022789938004665743 0 0.00065263781574880777 -0.022789938004665743 0 0.00062930215432982354 -0.022776213782797285 0 0.00057076567065284401 -0.022848546313418899 0 0.00061873559859362424 -0.022857870469890254 0 0.00065263781574880777 -0.022789938004665743 0 0.00057076567065284401 -0.022848546313418899 0 0.00065263781574880777 -0.022789938004665743 0 0.00071341786750418116 -0.022750469860407921 0 0.00070567891573023475 -0.022708694949577501 0 0.00067265609534020567 -0.022826002726481612 0 0.00065263781574880777 -0.022789938004665743 0 0.00071341786750418116 -0.022750469860407921 0 0.00065263781574880777 -0.022789938004665743 0 0.00066914472445004974 -0.022727522335546247 0 0.00070567891573023475 -0.022708694949577501 0 0.00065263781574880777 -0.022789938004665743 0 0.00066914472445004974 -0.022727522335546247 0 0.00062930215432982354 -0.022776213782797285 0 0.00066914472445004974 -0.022727522335546247 0 0.00062930215432982354 -0.022776213782797285 0 0.00058969590676421005 -0.022768018418617381 0 0.00062930215432982354 -0.022776213782797285 0 0.00057076567065284401 -0.022848546313418899 0 0.00058969590676421005 -0.022768018418617381 0 0.00088136769453949675 -0.022511622490316508 0 0.00068420642891436965 -0.027405690441309482 0 0.00078295401546764527 -0.022705452505170892 0 0.00071341786750418116 -0.022750469860407921 0 0.00075350285910100428 -0.022682642840225378 0 0.00071341786750418116 -0.022750469860407921 0 0.00070567891573023475 -0.022708694949577501 0 0.00075350285910100428 -0.022682642840225378 0 0.00075350285910100428 -0.022682642840225378 0 0.00075286041031818822 -0.022634163308784757 0 0.00081057522639044882 -0.022593146615899583 0 0.00070567891573023475 -0.022708694949577501 0 0.00075350285910100428 -0.022682642840225378 0 0.00075286041031818822 -0.022634163308784757 0 0.0031007954538278168 -0.015998526284755676 0 0.0036378078896773672 -0.016813468887710743 0 0.0043886581554638945 -0.016385676046170933 0 0.00070567891573023475 -0.022708694949577501 0 0.00075286041031818822 -0.022634163308784757 0 0.00069417031015745682 -0.022684719496127919 0 0.0019099946252127942 -0.019366809145298845 0 0.0026162386250744994 -0.018867144783154561 0 0.0036378078896773672 -0.016813468887710743 0 0.0045735425324996172 -0.017502363760284415 0 0.0033936458146587283 -0.017749533949962773 0 0.0034665737904404402 -0.017425944904303072 0 0.0024903800242799166 -0.016470804085903859 0 0.0031007954538278168 -0.015998526284755676 0 0.0036378078896773672 -0.016813468887710743 0 0.002448977359621133 -0.016775591616768708 0 0.0036378078896773672 -0.016813468887710743 0 0.0033936458146587283 -0.017749533949962773 0 0.002448977359621133 -0.016775591616768708 0 0.00066914472445004974 -0.022727522335546247 0 0.00067740884643238501 -0.022749114629355749 0 0.00069417031015745682 -0.022684719496127919 0 0.00066914472445004974 -0.022727522335546247 0 0.00067740884643238501 -0.022749114629355749 0 0.00067056831874740279 -0.022768110585154596 0 0.0023930266956027155 -0.025416081370711729 0 0.0026162386250744994 -0.018867144783154561 0 0.00066914472445004974 -0.022727522335546247 0 0.00070567891573023475 -0.022708694949577501 0 0.00069417031015745682 -0.022684719496127919 0 0.0057003462338068682 -0.016720460565917049 0 0.0043886581554638945 -0.016385676046170933 0 0.0045735425324996172 -0.017502363760284415 0 0.0036378078896773672 -0.016813468887710743 0 0.0043886581554638945 -0.016385676046170933 0 0.0045735425324996172 -0.017502363760284415 0 0.0057003462338068682 -0.016720460565917049 0 0.0055669466010074718 -0.018079534293558196 0 0.0045735425324996172 -0.017502363760284415 0 0.0023930266956027155 -0.025416081370711729 0 0.0042777140386498352 -0.024268739788894853 0 0.0055669466010074718 -0.018079534293558196 0 0.0045735425324996172 -0.017502363760284415 0 0.0043783739994297782 -0.018651421514861884 0 0.00421280607626069 -0.017767102361853152 0 0.0048410561050070723 -0.022218573398343159 0 0.0027171802401025832 -0.030305706413214784 0 0.0024319059278751836 -0.029134204055820141 0 0.003064216738866898 -0.028731771391250688 0 0.0042777140386498352 -0.024268739788894853 0 0.0048410561050070723 -0.022218573398343159 0 0.0055669466010074718 -0.018079534293558196 0 0.0043783739994297782 -0.018651421514861884 0 0.0054038010821653706 -0.01953080242724366 0 0.0034500361631365959 -0.016956876373041014 0 0.0026251419670651316 -0.017152407080501482 0 0.002543868933403129 -0.01619491817346571 0 0.0045735425324996172 -0.017502363760284415 0 0.0043783739994297782 -0.018651421514861884 0 0.0033936458146587283 -0.017749533949962773 0 0.00421280607626069 -0.017767102361853152 0 0.0034665737904404402 -0.017425944904303072 0 0.0042668572357897512 -0.017764126099928289 0 0.0034500361631365959 -0.016956876373041014 0 0.0033823289820785977 -0.01815241661336621 0 0.0042668572357897512 -0.017764126099928289 0 0.0033823289820785977 -0.01815241661336621 0 0.0040411744124714067 -0.01846281579960446 0 0.0034500361631365959 -0.016956876373041014 0 0.0026251419670651316 -0.017152407080501482 0 0.0033823289820785977 -0.01815241661336621 0 0.0023865035764592075 -0.017972812656826057 0 0.0026251419670651316 -0.017152407080501482 0 0.0033823289820785977 -0.01815241661336621 0 0.0023865035764592075 -0.017972812656826057 0 0.0026251419670651316 -0.017152407080501482 0 0.0019205475285560328 -0.017160699841850927 0 0.0026251419670651316 -0.017152407080501482 0 0.0020691211043826897 -0.01664699400282476 0 0.002543868933403129 -0.01619491817346571 0 0.0026251419670651316 -0.017152407080501482 0 0.0020691211043826897 -0.01664699400282476 0 0.0019205475285560328 -0.017160699841850927 0 0.0015839153131106847 -0.016597777639586007 0 0.0019205475285560328 -0.017160699841850927 0 0.0011783385385593004 -0.017133946440487508 0 0.0020691211043826897 -0.01664699400282476 0 0.0015839153131106847 -0.016597777639586007 0 0.0019205475285560328 -0.017160699841850927 0 0.0023865035764592075 -0.017972812656826057 0 0.0019205475285560328 -0.017160699841850927 0 0.0015184103639849672 -0.017905395608620284 0 0.0019205475285560328 -0.017160699841850927 0 0.0015184103639849672 -0.017905395608620284 0 0.0011783385385593004 -0.017133946440487508 0 0.00051389453243548121 -0.017290589946696452 0 0.0011783385385593004 -0.017133946440487508 0 0.00073905002151022372 -0.018030050191912235 0 0.0015184103639849672 -0.017905395608620284 0 0.0011783385385593004 -0.017133946440487508 0 0.00073905002151022372 -0.018030050191912235 0 -2.0671683882561029e-06 -0.017346607400630661 0 0.00051389453243548121 -0.017290589946696452 0 0.00012105795042105734 -0.017930864143157997 0 0.00051389453243548121 -0.017290589946696452 0 0.00012105795042105734 -0.017930864143157997 0 0.00073905002151022372 -0.018030050191912235 0 -2.0671683882561029e-06 -0.017346607400630661 0 0.00051389453243548121 -0.017290589946696452 0 0.00022111168756607145 -0.016709773868534582 0 0.00051389453243548121 -0.017290589946696452 0 0.00022111168756607145 -0.016709773868534582 0 0.00080866347461532951 -0.016605307610356345 0 0.00022111168756607145 -0.016709773868534582 0 0.00080866347461532951 -0.016605307610356345 0 0.00043333088280056903 -0.016156593902813453 0 0.00051389453243548121 -0.017290589946696452 0 0.0011783385385593004 -0.017133946440487508 0 0.00080866347461532951 -0.016605307610356345 0 0.0015839153131106847 -0.016597777639586007 0 0.0011783385385593004 -0.017133946440487508 0 0.0011781783282333353 -0.016665258567440392 0 0.0011783385385593004 -0.017133946440487508 0 0.00080866347461532951 -0.016605307610356345 0 0.0011781783282333353 -0.016665258567440392 0 0.00080866347461532951 -0.016605307610356345 0 0.0011781783282333353 -0.016665258567440392 0 0.0012243836549864586 -0.016273761746912023 0 0.0015839153131106847 -0.016597777639586007 0 0.0011781783282333353 -0.016665258567440392 0 0.0012243836549864586 -0.016273761746912023 0 0.00080866347461532951 -0.016605307610356345 0 0.0012243836549864586 -0.016273761746912023 0 0.00084668863274095691 -0.016061935410215899 0 0.00084668863274095691 -0.016061935410215899 0 0.0012359396578915506 -0.015821727787646327 0 0.00085371522652359947 -0.015699898434851728 0 0.00084668863274095691 -0.016061935410215899 0 0.00055761177981893432 -0.015810700797570503 0 0.00085371522652359947 -0.015699898434851728 0 0.0012243836549864586 -0.016273761746912023 0 0.00084668863274095691 -0.016061935410215899 0 0.0012359396578915506 -0.015821727787646327 0 -3.4288442175222504e-05 -0.016095489597114598 0 0.00022111168756607145 -0.016709773868534582 0 0.00043333088280056903 -0.016156593902813453 0 0.00080866347461532951 -0.016605307610356345 0 0.00084668863274095691 -0.016061935410215899 0 0.00043333088280056903 -0.016156593902813453 0 0.00043333088280056903 -0.016156593902813453 0 0.00055761177981893432 -0.015810700797570503 0 0.00021022585377663449 -0.015682055597926105 0 0.00084668863274095691 -0.016061935410215899 0 0.00043333088280056903 -0.016156593902813453 0 0.00055761177981893432 -0.015810700797570503 0 -3.4288442175222504e-05 -0.016095489597114598 0 0.00043333088280056903 -0.016156593902813453 0 0.00021022585377663449 -0.015682055597926105 0 -3.0129617783175835e-05 -0.015156082913557379 0 0.00021022585377663449 -0.015682055597926105 0 0.00044603885640791832 -0.015384939146319394 0 0.00055761177981893432 -0.015810700797570503 0 0.00044603885640791832 -0.015384939146319394 0 0.00085371522652359947 -0.015699898434851728 0 0.00055761177981893432 -0.015810700797570503 0 0.00021022585377663449 -0.015682055597926105 0 0.00044603885640791832 -0.015384939146319394 0 -3.0129617783175835e-05 -0.015156082913557379 0 -2.441057358522768e-05 -0.014777579397808847 0 0.00044603885640791832 -0.015384939146319394 0 0.00090947700610029215 -0.015097004145253161 0 0.00093714492783517479 -0.015332949465653587 0 0.0016450834389529201 -0.01565118772079508 0 0.0012359396578915506 -0.015821727787646327 0 0.00093714492783517479 -0.015332949465653587 0 0.0016450834389529201 -0.01565118772079508 0 0.0012359396578915506 -0.015821727787646327 0 0.00085371522652359947 -0.015699898434851728 0 0.00093714492783517479 -0.015332949465653587 0 0.00044603885640791832 -0.015384939146319394 0 0.00085371522652359947 -0.015699898434851728 0 0.00093714492783517479 -0.015332949465653587 0 0.00088920621209144556 -0.014945474166715343 0 0.00044603885640791832 -0.015384939146319394 0 0.00093714492783517479 -0.015332949465653587 0 0.00098714444410463818 -0.017331849150126481 0 0.00087497956268836835 -0.015591868870851842 0 0.00090947700610029215 -0.015097004145253161 0 0.0016450834389529201 -0.01565118772079508 0 0.0018906974373162778 -0.015491799646703049 0 0.0012359396578915506 -0.015821727787646327 0 0.0016450834389529201 -0.01565118772079508 0 0.0017093378566742105 -0.016146900298672967 0 0.0031007954538278168 -0.015998526284755676 0 0.0018906974373162778 -0.015491799646703049 0 0.002448977359621133 -0.016775591616768708 0 0.0016450834389529201 -0.01565118772079508 0 0.0018906974373162778 -0.015491799646703049 0 0.002448977359621133 -0.016775591616768708 0 0.0017160791128250975 -0.015741319910581024 0 0.0024903800242799166 -0.016470804085903859 0 0.0019099946252127942 -0.019366809145298845 0 0.0013457951228346885 -0.019213355912046034 0 0.0020691211043826897 -0.01664699400282476 0 0.002543868933403129 -0.01619491817346571 0 0.0017093378566742105 -0.016146900298672967 0 0.0016450834389529201 -0.01565118772079508 0 0.002543868933403129 -0.01619491817346571 0 0.0017093378566742105 -0.016146900298672967 0 0.0020691211043826897 -0.01664699400282476 0 0.0015839153131106847 -0.016597777639586007 0 0.0017093378566742105 -0.016146900298672967 0 0.0015839153131106847 -0.016597777639586007 0 0.0012243836549864586 -0.016273761746912023 0 0.0017093378566742105 -0.016146900298672967 0 0.0012243836549864586 -0.016273761746912023 0 0.0012359396578915506 -0.015821727787646327 0 0.0017093378566742105 -0.016146900298672967 0 2.6553326769135545e-07 -0.034999235745868204 0 5.1895815479823144e-05 -0.034494945073498311 0 0.00011944212616212805 -0.034356278142721526 0 2.6553326769135545e-07 -0.034999235745868204 0 -1.6193126605094201e-06 -0.034691860186723211 0 5.1895815479823144e-05 -0.034494945073498311 0 2.6553326769135545e-07 -0.034999235745868204 0 -1.6193126605094201e-06 -0.034691860186723211 0 -7.4036417212674396e-05 -0.034941001524628236 0 -1.6193126605094201e-06 -0.034691860186723211 0 -0.00011216586049313983 -0.034354534441966476 0 -7.4036417212674396e-05 -0.034941001524628236 0 -0.00014695687613889839 -0.034346239828894468 0 -0.00031495552180426387 -0.034015863110156419 0 -1.6193126605094201e-06 -0.034691860186723211 0 5.1895815479823144e-05 -0.034494945073498311 0 -0.00011216586049313983 -0.034354534441966476 0 5.1895815479823144e-05 -0.034494945073498311 0 3.7179605781483804e-05 -0.033988476755907722 0 -0.00011216586049313983 -0.034354534441966476 0 2.6553326769135545e-07 -0.034999235745868204 0 2.2342207498953836e-07 -0.034997830443514864 0 0.00011944212616212805 -0.034356278142721526 0 2.2342207498953836e-07 -0.034997830443514864 0 9.2308405131250377e-05 -0.033559023897735275 0 6.3163510045488017e-07 -0.032018235922834641 0 2.2342207498953836e-07 -0.034997830443514864 0 9.2308405131250377e-05 -0.033559023897735275 0 0.00011944212616212805 -0.034356278142721526 0 5.1895815479823144e-05 -0.034494945073498311 0 0.00011944212616212805 -0.034356278142721526 0 3.7179605781483804e-05 -0.033988476755907722 0 9.2308405131250377e-05 -0.033559023897735275 0 0.00011944212616212805 -0.034356278142721526 0 3.7179605781483804e-05 -0.033988476755907722 0 6.3163510045488017e-07 -0.032018235922834641 0 -0.00014047219667538349 -0.032309479847008896 0 -1.9291054970734596e-06 -0.02982176816023625 0 9.2308405131250377e-05 -0.033559023897735275 0 3.7179605781483804e-05 -0.033988476755907722 0 -0.00014585854705214898 -0.033274309142350057 0 9.2308405131250377e-05 -0.033559023897735275 0 -0.00014585854705214898 -0.033274309142350057 0 6.3163510045488017e-07 -0.032018235922834641 0 -0.00014585854705214898 -0.033274309142350057 0 6.3163510045488017e-07 -0.032018235922834641 0 -0.00014047219667538349 -0.032309479847008896 0 -0.00014047219667538349 -0.032309479847008896 0 -0.00010642106299154292 -0.032748706740450405 0 -0.00047433143757757154 -0.032441591037389889 0 -0.00010642106299154292 -0.032748706740450405 0 7.9669877893839261e-05 -0.032875696788402624 0 -0.00047433143757757154 -0.032441591037389889 0 6.8414683161002323e-05 -0.032491208644463546 0 -7.1170246574238225e-05 -0.031216071664935452 0 -8.0251761576838337e-05 -0.031698002340764489 0 -7.1170246574238225e-05 -0.031216071664935452 0 -0.00014585854705214898 -0.033274309142350057 0 -0.00014047219667538349 -0.032309479847008896 0 -0.00010642106299154292 -0.032748706740450405 0 -0.00014585854705214898 -0.033274309142350057 0 -0.00010642106299154292 -0.032748706740450405 0 7.9669877893839261e-05 -0.032875696788402624 0 6.8414683161002323e-05 -0.032491208644463546 0 -0.00014076822075877223 -0.031955586153143783 0 6.7371385491038046e-05 -0.03190394472512801 0 2.0436397586161248e-05 -0.031956337649980605 0 1.258198482910188e-05 -0.031833051243489847 0 6.7371385491038046e-05 -0.03190394472512801 0 2.0436397586161248e-05 -0.031956337649980605 0 -0.00012643008727903968 -0.031991624349678845 0 -0.0001585786208718705 -0.033295451709446484 0 -0.00019903268808839469 -0.033198943205214541 0 -0.00014585854705214898 -0.033274309142350057 0 7.9669877893839261e-05 -0.032875696788402624 0 -0.00037122175081501994 -0.03218396734645057 0 3.7179605781483804e-05 -0.033988476755907722 0 -0.00014585854705214898 -0.033274309142350057 0 -0.00011216586049313983 -0.034354534441966476 0 -0.00014585854705214898 -0.033274309142350057 0 -0.00011216586049313983 -0.034354534441966476 0 -6.3663977670926018e-05 -0.034283104190639305 0 7.9669877893839261e-05 -0.032875696788402624 0 -0.00037122175081501994 -0.03218396734645057 0 -0.00012643008727903968 -0.031991624349678845 0 -0.00011216586049313983 -0.034354534441966476 0 -6.3663977670926018e-05 -0.034283104190639305 0 -0.00060187453119917933 -0.033137643214282107 0 -0.00037122175081501994 -0.03218396734645057 0 -0.00012643008727903968 -0.031991624349678845 0 -0.00042246821128940877 -0.03141139774558542 0 2.0436397586161248e-05 -0.031956337649980605 0 0.00013526892196920212 -0.031837238085657582 0 0.00060303116324878479 -0.031982087211055651 0 -0.00012643008727903968 -0.031991624349678845 0 0.00013526892196920212 -0.031837238085657582 0 -9.4596092654463637e-05 -0.031580503548538107 0 2.0436397586161248e-05 -0.031956337649980605 0 -0.00012643008727903968 -0.031991624349678845 0 0.00013526892196920212 -0.031837238085657582 0 4.6254514293458726e-05 -0.031960301204713493 0 0.00032803406923942935 -0.031858902458621038 0 0.00060303116324878479 -0.031982087211055651 0 0.0008460954087464173 -0.031490067746616598 0 0.00033418941027471213 -0.031653419106833114 0 0.00013526892196920212 -0.031837238085657582 0 0.00060303116324878479 -0.031982087211055651 0 0.00033418941027471213 -0.031653419106833114 0 0.00032803406923942935 -0.031858902458621038 0 0.00056338474053181978 -0.032204325132227478 0 0.00060303116324878479 -0.031982087211055651 0 0.001216575972291191 -0.031835070276733657 0 0.0008460954087464173 -0.031490067746616598 0 1.258198482910188e-05 -0.031833051243489847 0 -1.262812101441247e-05 -0.031741228546175823 0 -1.0449306345265334e-05 -0.031749295686771678 0 1.258198482910188e-05 -0.031833051243489847 0 1.5785490464534555e-05 -0.031792074757275725 0 -1.262812101441247e-05 -0.031741228546175823 0 6.7371385491038046e-05 -0.03190394472512801 0 1.258198482910188e-05 -0.031833051243489847 0 1.5785490464534555e-05 -0.031792074757275725 0 1.5785490464534555e-05 -0.031792074757275725 0 5.0557614484109243e-05 -0.031750296229871605 0 -8.747776661978109e-06 -0.031704789947493851 0 6.7371385491038046e-05 -0.03190394472512801 0 1.5785490464534555e-05 -0.031792074757275725 0 5.0557614484109243e-05 -0.031750296229871605 0 -0.00014047219667538349 -0.032309479847008896 0 -0.0003539836236231073 -0.031882759622226801 0 -1.9291054970734596e-06 -0.02982176816023625 0 -0.00034794946627675772 -0.029208237550700195 0 -9.8267375706935455e-07 -0.029817159791589189 0 0.00013420703454047444 -0.028671793879335158 0 -7.1170246574238225e-05 -0.031216071664935452 0 -4.1698027498044816e-07 -0.02981939079094573 0 -7.1170246574238225e-05 -0.031216071664935452 0 0.00015781522587579431 -0.030350931598405375 0 -9.8267375706935455e-07 -0.029817159791589189 0 0.00013420703454047444 -0.028671793879335158 0 1.0097263696742199e-06 -0.028353523323096066 0 1.5785490464534555e-05 -0.031792074757275725 0 -8.747776661978109e-06 -0.031704789947493851 0 -1.262812101441247e-05 -0.031741228546175823 0 -8.747776661978109e-06 -0.031704789947493851 0 -3.958272144877089e-05 -0.0316492524474353 0 -1.262812101441247e-05 -0.031741228546175823 0 0.00015781522587579431 -0.030350931598405375 0 -0.00021818538261559321 -0.027129511858055115 0 0.00013420703454047444 -0.028671793879335158 0 1.0097263696742199e-06 -0.028353523323096066 0 -3.2519997632374868e-05 -0.027362500862521896 0 1.0097263696742199e-06 -0.028353523323096066 0 -1.0298626777122024e-06 -0.026889138746233852 0 -3.2519997632374868e-05 -0.027362500862521896 0 8.4575219140756959e-08 -0.025655950240205328 0 -7.3236157388742392e-08 -0.026884532461764081 0 7.5677932900197482e-05 -0.026500490407000379 0 -1.2518260895379729e-07 -0.026887252404504427 0 -0.00021818538261559321 -0.027129511858055115 0 0.00061873559859362424 -0.022857870469890254 0 0.00055043665338387257 -0.022942156657343022 0 0.00057076567065284401 -0.022848546313418899 0 -0.00021818538261559321 -0.027129511858055115 0 0.00027966977897719587 -0.027267638200318467 0 -3.958272144877089e-05 -0.0316492524474353 0 -2.8115607901251575e-05 -0.031696010529509766 0 -1.262812101441247e-05 -0.031741228546175823 0 0.00027966977897719587 -0.027267638200318467 0 0.00068420642891436965 -0.027405690441309482 0 -2.8115607901251575e-05 -0.031696010529509766 0 -1.262812101441247e-05 -0.031741228546175823 0 -1.0449306345265334e-05 -0.031749295686771678 0 -2.8115607901251575e-05 -0.031696010529509766 0 -1.0449306345265334e-05 -0.031749295686771678 0 -1.0178742813155171e-05 -0.031687283622118492 0 0.00056338474053181978 -0.032204325132227478 0 0.00068420642891436965 -0.027405690441309482 0 0.001216575972291191 -0.031835070276733657 0 0.0017871688108894565 -0.031682039578614846 0 0.0014685429556105729 -0.031441978298783459 0 0.0023930266956027155 -0.025416081370711729 0 0.00068420642891436965 -0.027405690441309482 0 0.0018489314672408689 -0.031198267759344322 0 0.0014685429556105729 -0.031441978298783459 0 0.0012348896979373623 -0.031155574399125356 0 0.0018489314672408689 -0.031198267759344322 0 0.0017871688108894565 -0.031682039578614846 0 0.0014685429556105729 -0.031441978298783459 0 0.0014685429556105729 -0.031441978298783459 0 0.0012348896979373623 -0.031155574399125356 0 0.0008460954087464173 -0.031490067746616598 0 0.001216575972291191 -0.031835070276733657 0 0.0014685429556105729 -0.031441978298783459 0 0.0008460954087464173 -0.031490067746616598 0 0.0016154394753199717 -0.031137274122753633 0 0.0020240781525367154 -0.030590941731445102 0 0.0012541347936876877 -0.030471909455885252 0 0.0025349471964333636 -0.031238487227112578 0 0.0027171802401025832 -0.030305706413214784 0 0.0020240781525367154 -0.030590941731445102 0 0.0025349471964333636 -0.031238487227112578 0 0.0016154394753199717 -0.031137274122753633 0 0.0020240781525367154 -0.030590941731445102 0 0.0023930266956027155 -0.025416081370711729 0 0.0014803416328034405 -0.031820407136052088 0 0.0020240781525367154 -0.030590941731445102 0 0.0022130256667634175 -0.029869394639762493 0 0.0016878040857431671 -0.029875042441860407 0 0.0027171802401025832 -0.030305706413214784 0 0.0020240781525367154 -0.030590941731445102 0 0.0022130256667634175 -0.029869394639762493 0 0.0022130256667634175 -0.029869394639762493 0 0.0016878040857431671 -0.029875042441860407 0 0.001958555299557452 -0.029514921881670139 0 0.0027171802401025832 -0.030305706413214784 0 0.0022130256667634175 -0.029869394639762493 0 0.0024319059278751836 -0.029134204055820141 0 0.0022130256667634175 -0.029869394639762493 0 0.0024319059278751836 -0.029134204055820141 0 0.0018144095962596971 -0.028641420590500375 0 0.0021284217947193811 -0.029660913615200808 0 0.0019625788950669533 -0.029506569537493473 0 0.0016878040857431671 -0.029875042441860407 0 0.0010885280878912059 -0.029735401139022285 0 0.0016136452575993426 -0.029617665192924851 0 0.0020240781525367154 -0.030590941731445102 0 0.0016878040857431671 -0.029875042441860407 0 0.0012541347936876877 -0.030471909455885252 0 0.0012541347936876877 -0.030471909455885252 0 0.0010885280878912059 -0.029735401139022285 0 0.00040266440079514372 -0.030477426397280155 0 0.0016878040857431671 -0.029875042441860407 0 0.0012541347936876877 -0.030471909455885252 0 0.0010885280878912059 -0.029735401139022285 0 0.0011128634660207825 -0.029957833861800294 0 0.00045959237716329537 -0.030680652086515957 0 0.0011401168925624008 -0.030171469927348406 0 0.00032721122848690517 -0.030421664381101415 0 0.0003221970024415239 -0.029876087582619084 0 0.0011401168925624008 -0.030171469927348406 0 0.00051003486332125848 -0.030889328163855364 0 0.00032721122848690517 -0.030421664381101415 0 0.0012541347936876877 -0.030471909455885252 0 0.00040266440079514372 -0.030477426397280155 0 0.00066409215091094262 -0.031067054863848816 0 0.00040266440079514372 -0.030477426397280155 0 0.00066409215091094262 -0.031067054863848816 0 0.00031046385100043074 -0.031336588331015706 0 0.0014803416328034405 -0.031820407136052088 0 0.00065570912785543152 -0.03090874184817877 0 0.0016154394753199717 -0.031137274122753633 0 0.0012541347936876877 -0.030471909455885252 0 0.00066409215091094262 -0.031067054863848816 0 0.0012348896979373623 -0.031155574399125356 0 0.00066409215091094262 -0.031067054863848816 0 0.0008460954087464173 -0.031490067746616598 0 0.00031046385100043074 -0.031336588331015706 0 0.0008460954087464173 -0.031490067746616598 0 0.00033418941027471213 -0.031653419106833114 0 0.00066409215091094262 -0.031067054863848816 0 0.00031046385100043074 -0.031336588331015706 0 0.0008460954087464173 -0.031490067746616598 0 0.00013526892196920212 -0.031837238085657582 0 0.00033418941027471213 -0.031653419106833114 0 -9.4596092654463637e-05 -0.031580503548538107 0 0.00031046385100043074 -0.031336588331015706 0 -9.4596092654463637e-05 -0.031580503548538107 0 -5.955430736780406e-05 -0.031265906833228468 0 0.00031046385100043074 -0.031336588331015706 0 0.00033418941027471213 -0.031653419106833114 0 -9.4596092654463637e-05 -0.031580503548538107 0 -0.00019903268808839469 -0.033198943205214541 0 -0.00032481195037682416 -0.032067751102537602 0 -0.00012643008727903968 -0.031991624349678845 0 -9.4596092654463637e-05 -0.031580503548538107 0 -0.00042246821128940877 -0.03141139774558542 0 -6.3663977670926018e-05 -0.034283104190639305 0 -0.00016410352115106517 -0.032718137337935639 0 -0.00060187453119917933 -0.033137643214282107 0 -9.4596092654463637e-05 -0.031580503548538107 0 -0.00042246821128940877 -0.03141139774558542 0 -0.00023832555772742401 -0.031349808850748576 0 -9.4596092654463637e-05 -0.031580503548538107 0 -0.00023832555772742401 -0.031349808850748576 0 -5.955430736780406e-05 -0.031265906833228468 0 -0.00023832555772742401 -0.031349808850748576 0 -0.00030035618413207238 -0.031222964729323118 0 -5.955430736780406e-05 -0.031265906833228468 0 -0.00042246821128940877 -0.03141139774558542 0 -0.00042450796651419595 -0.03120785216315598 0 -0.00030035618413207238 -0.031222964729323118 0 -0.00042246821128940877 -0.03141139774558542 0 -0.00023832555772742401 -0.031349808850748576 0 -0.00030035618413207238 -0.031222964729323118 0 -0.00030035618413207238 -0.031222964729323118 0 -5.955430736780406e-05 -0.031265906833228468 0 -4.3303640557886785e-05 -0.031028348292382241 0 0.00045959237716329537 -0.030680652086515957 0 -1.6241336392582734e-05 -0.03121726105958765 0 0.00040266440079514372 -0.030477426397280155 0 0.00031046385100043074 -0.031336588331015706 0 -5.955430736780406e-05 -0.031265906833228468 0 0.00051003486332125848 -0.030889328163855364 0 -5.955430736780406e-05 -0.031265906833228468 0 -4.3303640557886785e-05 -0.031028348292382241 0 0.00051003486332125848 -0.030889328163855364 0 -4.3303640557886785e-05 -0.031028348292382241 0 -6.3213348789805859e-06 -0.030708676235275584 0 0.00051003486332125848 -0.030889328163855364 0 -6.3213348789805859e-06 -0.030708676235275584 0 0.00032721122848690517 -0.030421664381101415 0 -6.3213348789805859e-06 -0.030708676235275584 0 0.00032721122848690517 -0.030421664381101415 0 -8.7769603789652749e-05 -0.030192232781605759 0 0.00032721122848690517 -0.030421664381101415 0 -8.7769603789652749e-05 -0.030192232781605759 0 0.0003221970024415239 -0.029876087582619084 0 -0.00057168244510792145 -0.030177344057460236 0 -0.00031376378167142588 -0.030649642620212164 0 -0.00061461938372222257 -0.031136088876131507 0 -0.00057168244510792145 -0.030177344057460236 0 -8.7769603789652749e-05 -0.030192232781605759 0 -0.00031376378167142588 -0.030649642620212164 0 -6.3213348789805859e-06 -0.030708676235275584 0 -8.7769603789652749e-05 -0.030192232781605759 0 -0.00031376378167142588 -0.030649642620212164 0 -0.00031376378167142588 -0.030649642620212164 0 -0.00032150245605824758 -0.030998542020144054 0 -0.00061461938372222257 -0.031136088876131507 0 -4.3303640557886785e-05 -0.031028348292382241 0 -6.3213348789805859e-06 -0.030708676235275584 0 -0.00032150245605824758 -0.030998542020144054 0 -6.3213348789805859e-06 -0.030708676235275584 0 -0.00031376378167142588 -0.030649642620212164 0 -0.00032150245605824758 -0.030998542020144054 0 -0.00030035618413207238 -0.031222964729323118 0 -4.3303640557886785e-05 -0.031028348292382241 0 -0.00032150245605824758 -0.030998542020144054 0 -0.00042450796651419595 -0.03120785216315598 0 -0.00030035618413207238 -0.031222964729323118 0 -0.00032150245605824758 -0.030998542020144054 0 -0.00042450796651419595 -0.03120785216315598 0 -0.00032150245605824758 -0.030998542020144054 0 -0.00061461938372222257 -0.031136088876131507 0 -0.00039337459976071824 -0.033244378250069165 0 -0.00011730898765426249 -0.033794285889861927 0 -0.00076635711699679231 -0.031368274887604582 0 -0.00079112192112722462 -0.031386485085814035 0 -0.00019067176134065516 -0.03259329692029489 0 -0.00057168244510792145 -0.030177344057460236 0 -0.00076635711699679231 -0.031368274887604582 0 -0.00061461938372222257 -0.031136088876131507 0 -0.00083777418913216664 -0.031466792236758676 0 -0.00076696017077873459 -0.03133898277885188 0 -0.0011138158296294803 -0.032713384832375986 0 -0.00076635711699679231 -0.031368274887604582 0 -0.00019067176134065516 -0.03259329692029489 0 -2.5186862124104181e-05 -0.034989481478119949 0 -5.0292396799362218e-06 -0.034996064594118186 0 -1.0497856093746856e-07 -0.035000191280940049 0 2.6553326769135545e-07 -0.034999235745868204 0 -2.5186862124104181e-05 -0.034989481478119949 0 -1.0497856093746856e-07 -0.035000191280940049 0 2.6553326769135545e-07 -0.034999235745868204 0 -2.5186862124104181e-05 -0.034989481478119949 0 -7.4036417212674396e-05 -0.034941001524628236 0 -0.00016410352115106517 -0.032718137337935639 0 -0.00079112192112722462 -0.031386485085814035 0 -0.00060187453119917933 -0.033137643214282107 0 -0.00042246821128940877 -0.03141139774558542 0 -0.00042450796651419595 -0.03120785216315598 0 -0.00061461938372222257 -0.031136088876131507 0 -0.00039337459976071824 -0.033244378250069165 0 -0.00031495552180426387 -0.034015863110156419 0 -0.00016410352115106517 -0.032718137337935639 0 -0.00076635711699679231 -0.031368274887604582 0 -0.00061461938372222257 -0.031136088876131507 0 -0.00016410352115106517 -0.032718137337935639 0 -0.00076635711699679231 -0.031368274887604582 0 -0.00079112192112722462 -0.031386485085814035 0 -0.00032481195037682416 -0.032067751102537602 0 -0.00057566749389848242 -0.031178164314141735 0 -1.0497856093746856e-07 -0.035000191280940049 0 4.9474739116815708e-08 -0.034999889341554943 0 -7.4779745394175139e-07 -0.034998632636061636 0 6.5918088608638168e-07 -0.034998135776107726 0 -0.00038126231175192755 -0.035128985409331272 0 -6.5344672999997646e-07 -0.035001433938790238 0 6.5918088608638168e-07 -0.034998135776107726 0 -0.00061017990592562355 -0.034914453457770084 0 -0.00038126231175192755 -0.035128985409331272 0 6.5918088608638168e-07 -0.034998135776107726 0 -0.00061017990592562355 -0.034914453457770084 0 -0.00074459514355973335 -0.034527098082667872 0 -0.00061017990592562355 -0.034914453457770084 0 -0.00094767811569631535 -0.03483816013079051 0 -0.00084082044632183858 -0.03511268613368608 0 -0.00061017990592562355 -0.034914453457770084 0 -0.00074459514355973335 -0.034527098082667872 0 -0.00094767811569631535 -0.03483816013079051 0 6.5918088608638168e-07 -0.034998135776107726 0 -0.00074459514355973335 -0.034527098082667872 0 -1.178237619804228e-05 -0.033863617907072416 0 1.4283383947047536e-08 -0.034999843504150412 0 -1.300201606094341e-05 -0.034418114581608192 0 -5.0292396799362218e-06 -0.034996064594118186 0 -1.0497856093746856e-07 -0.035000191280940049 0 -7.4779745394175139e-07 -0.034998632636061636 0 -0.00019067176134065516 -0.03259329692029489 0 -1.178237619804228e-05 -0.033863617907072416 0 -0.00068524326040684657 -0.033573511306805047 0 -0.00011730898765426249 -0.033794285889861927 0 -1.300201606094341e-05 -0.034418114581608192 0 -0.0011138158296294803 -0.032713384832375986 0 -0.00019067176134065516 -0.03259329692029489 0 -0.00068524326040684657 -0.033573511306805047 0 -0.00074459514355973335 -0.034527098082667872 0 -0.00068524326040684657 -0.033573511306805047 0 -0.0012882613637044365 -0.033881257225220722 0 -0.00074459514355973335 -0.034527098082667872 0 -1.178237619804228e-05 -0.033863617907072416 0 -0.00068524326040684657 -0.033573511306805047 0 -0.00057168244510792145 -0.030177344057460236 0 -8.7769603789652749e-05 -0.030192232781605759 0 -0.00030861688531209599 -0.029294411033211638 0 -0.0011138158296294803 -0.032713384832375986 0 -0.00068524326040684657 -0.033573511306805047 0 -0.0012882613637044365 -0.033881257225220722 0 -0.00083777418913216664 -0.031466792236758676 0 -0.00073601376216917325 -0.031440050418538014 0 -8.7769603789652749e-05 -0.030192232781605759 0 -0.00030861688531209599 -0.029294411033211638 0 0.0003221970024415239 -0.029876087582619084 0 -0.00030861688531209599 -0.029294411033211638 0 0.0003221970024415239 -0.029876087582619084 0 0.00029482612698488792 -0.029106330045926821 0 -0.00030861688531209599 -0.029294411033211638 0 0.00029482612698488792 -0.029106330045926821 0 -1.5789848241649288e-05 -0.028374926786864773 0 0.00029482612698488792 -0.029106330045926821 0 -1.5789848241649288e-05 -0.028374926786864773 0 0.00047360344617205727 -0.028599949934386727 0 -0.00074459514355973335 -0.034527098082667872 0 -0.0012882613637044365 -0.033881257225220722 0 -0.0013442111708227742 -0.034678723615273375 0 -0.00073601376216917325 -0.031440050418538014 0 -0.0009650435993781057 -0.032084032142826381 0 -0.00074459514355973335 -0.034527098082667872 0 -0.00094767811569631535 -0.03483816013079051 0 -0.0013442111708227742 -0.034678723615273375 0 -0.00094767811569631535 -0.03483816013079051 0 -0.0011007407597950166 -0.03499330540601639 0 -0.00084082044632183858 -0.03511268613368608 0 -0.00094767811569631535 -0.03483816013079051 0 -0.0013442111708227742 -0.034678723615273375 0 -0.0011007407597950166 -0.03499330540601639 0 -0.0013442111708227742 -0.034678723615273375 0 -0.0014479643434767259 -0.035170105961948042 0 -0.0011007407597950166 -0.03499330540601639 0 -1.5789848241649288e-05 -0.028374926786864773 0 0.00075185593980331238 -0.028163986823147347 0 0.00047360344617205727 -0.028599949934386727 0 -1.5789848241649288e-05 -0.028374926786864773 0 0.00060085488943989115 -0.027785069408435746 0 0.00032445807804012359 -0.027353234351990236 0 -0.0009650435993781057 -0.032084032142826381 0 0.000946980744667111 -0.028793101255587854 0 0.00075185593980331238 -0.028163986823147347 0 0.0011198337155725437 -0.028445996288660864 0 0.001036774034577745 -0.027781695906602146 0 -1.5789848241649288e-05 -0.028374926786864773 0 0.00075185593980331238 -0.028163986823147347 0 0.00060085488943989115 -0.027785069408435746 0 0.00075185593980331238 -0.028163986823147347 0 0.0010629700685339917 -0.028422330817495005 0 0.00047360344617205727 -0.028599949934386727 0 0.0010227759471682627 -0.028094119716151281 0 0.001159928023274401 -0.027596825235570333 0 0.00075185593980331238 -0.028163986823147347 0 0.001036774034577745 -0.027781695906602146 0 0.00060085488943989115 -0.027785069408435746 0 0.0011198337155725437 -0.028445996288660864 0 0.001673145151005067 -0.027397648527632181 0 0.001036774034577745 -0.027781695906602146 0 0.001159928023274401 -0.027596825235570333 0 0.0027967120659996162 -0.024783752019232219 0 0.0023064176270449232 -0.025381321693833957 0 0.0029470419626018186 -0.025317664474239145 0 0.0027233135259108953 -0.024594518827697479 0 0.0010126824808561923 -0.028453879889285504 0 0.0014642107976170229 -0.028810246678709711 0 0.00075178741071093419 -0.028967518723543806 0 0.0023064176270449232 -0.025381321693833957 0 0.0027402009316162407 -0.025708221161577813 0 0.0029470419626018186 -0.025317664474239145 0 0.001159928023274401 -0.027596825235570333 0 0.0022036725131382258 -0.027350539910679782 0 0.0010629700685339917 -0.028422330817495005 0 0.00075178741071093419 -0.028967518723543806 0 0.00047360344617205727 -0.028599949934386727 0 0.001159928023274401 -0.027596825235570333 0 0.00066168103008848163 -0.029138903615379238 0 0.00029482612698488792 -0.029106330045926821 0 0.00075178741071093419 -0.028967518723543806 0 0.00047360344617205727 -0.028599949934386727 0 0.0003221970024415239 -0.029876087582619084 0 0.00029482612698488792 -0.029106330045926821 0 0.00071816340693544385 -0.029482038634010867 0 0.00029482612698488792 -0.029106330045926821 0 0.00075178741071093419 -0.028967518723543806 0 0.00071816340693544385 -0.029482038634010867 0 0.00075178741071093419 -0.028967518723543806 0 0.00071816340693544385 -0.029482038634010867 0 0.0011943314648743604 -0.02927070179257988 0 0.0011401168925624008 -0.030171469927348406 0 0.0003221970024415239 -0.029876087582619084 0 0.00071816340693544385 -0.029482038634010867 0 0.0011128634660207825 -0.029957833861800294 0 0.0016211354953112396 -0.029408413959970292 0 0.0011401168925624008 -0.030171469927348406 0 0.0011943314648743604 -0.02927070179257988 0 0.0016680159080846074 -0.029363114455455742 0 0.0011401168925624008 -0.030171469927348406 0 0.00071816340693544385 -0.029482038634010867 0 0.0011943314648743604 -0.02927070179257988 0 0.0011943314648743604 -0.02927070179257988 0 0.0015211545067887297 -0.029135361992945717 0 0.0016680159080846074 -0.029363114455455742 0 0.0014642107976170229 -0.028810246678709711 0 0.00075178741071093419 -0.028967518723543806 0 0.0011943314648743604 -0.02927070179257988 0 0.0014642107976170229 -0.028810246678709711 0 0.0011943314648743604 -0.02927070179257988 0 0.0015211545067887297 -0.029135361992945717 0 0.0018399269932126326 -0.02913702267093965 0 0.0016680159080846074 -0.029363114455455742 0 0.001958555299557452 -0.029514921881670139 0 0.0014642107976170229 -0.028810246678709711 0 0.0015211545067887297 -0.029135361992945717 0 0.0018399269932126326 -0.02913702267093965 0 0.0022036725131382258 -0.027350539910679782 0 0.0029952963232840247 -0.025574616522244235 0 0.0015211545067887297 -0.029135361992945717 0 0.0018399269932126326 -0.02913702267093965 0 0.0016680159080846074 -0.029363114455455742 0 0.0010885280878912059 -0.029735401139022285 0 0.0016680159080846074 -0.029363114455455742 0 0.0016136452575993426 -0.029617665192924851 0 0.0016680159080846074 -0.029363114455455742 0 0.0016136452575993426 -0.029617665192924851 0 0.001958555299557452 -0.029514921881670139 0 0.0016878040857431671 -0.029875042441860407 0 0.0016136452575993426 -0.029617665192924851 0 0.001958555299557452 -0.029514921881670139 0 0.0024319059278751836 -0.029134204055820141 0 0.0018144095962596971 -0.028641420590500375 0 0.0022794776021043297 -0.028042066712424527 0 0.0024319059278751836 -0.029134204055820141 0 0.0022794776021043297 -0.028042066712424527 0 0.003064216738866898 -0.028731771391250688 0 0.0056815961755263232 -0.019240085396995087 0 0.005632775825109888 -0.01993600351586677 0 0.0051631103631429535 -0.019581249119426058 0 0.0029952963232840247 -0.025574616522244235 0 0.0019625788950669533 -0.029506569537493473 0 0.0014307523410301579 -0.027336247710820352 0 0.0018144095962596971 -0.028641420590500375 0 0.0022794776021043297 -0.028042066712424527 0 0.0062626686401603855 -0.019795588583933946 0 0.0056815961755263232 -0.019240085396995087 0 0.005632775825109888 -0.01993600351586677 0 0.0029952963232840247 -0.025574616522244235 0 0.0039256107004175316 -0.023618333208811286 0 0.0062626686401603855 -0.019795588583933946 0 0.005632775825109888 -0.01993600351586677 0 0.0056844799671234222 -0.020649692093279583 0 0.0027402009316162407 -0.025708221161577813 0 0.0031627191269709026 -0.026034667913237296 0 0.0029470419626018186 -0.025317664474239145 0 0.0029952963232840247 -0.025574616522244235 0 0.0050385031795392452 -0.022462004995198251 0 0.0062626686401603855 -0.019795588583933946 0 0.0056844799671234222 -0.020649692093279583 0 0.0065612252741110225 -0.020993425560448805 0 0.0050385031795392452 -0.022462004995198251 0 0.0027967120659996162 -0.024783752019232219 0 0.0065612252741110225 -0.020993425560448805 0 0.0059720644448233136 -0.02180379880773976 0 0.006859190963435598 -0.022171294544593503 0 0.0056844799671234222 -0.020649692093279583 0 0.0059720644448233136 -0.02180379880773976 0 0.0049010097770079758 -0.021673591156834999 0 0.0056844799671234222 -0.020649692093279583 0 0.0065612252741110225 -0.020993425560448805 0 0.0059720644448233136 -0.02180379880773976 0 0.0059720644448233136 -0.02180379880773976 0 0.0066484822537050238 -0.022553872387959775 0 0.0053146282691302641 -0.022741128035990554 0 0.0059720644448233136 -0.02180379880773976 0 0.0053146282691302641 -0.022741128035990554 0 0.0049010097770079758 -0.021673591156834999 0 0.0059720644448233136 -0.02180379880773976 0 0.0066484822537050238 -0.022553872387959775 0 0.006859190963435598 -0.022171294544593503 0 0.0018992724281592863 -0.024805228752955037 0 0.0027967120659996162 -0.024783752019232219 0 0.0018992724281592863 -0.024805228752955037 0 -0.0021991225426124684 -0.027173955340430326 0 -0.00076631184104767117 -0.025265592638557658 0 -0.00063883378825221404 -0.026105257668152707 0 -0.0015313363399782863 -0.026620842127085764 0 -0.00076631184104767117 -0.025265592638557658 0 -0.00063883378825221404 -0.026105257668152707 0 -0.00048261310366241671 -0.025563716889829231 0 0.0018992724281592863 -0.024805228752955037 0 0.0011760349394193588 -0.025444704440374853 0 0.0018992724281592863 -0.024805228752955037 0 0.0019103222345018744 -0.024490767721236234 0 -0.0012758524779621333 -0.026214684931200789 0 -0.0018789408176073021 -0.026378039457668583 0 -0.0015313363399782863 -0.026620842127085764 0 -0.0018789408176073021 -0.026378039457668583 0 -0.0019964253527664862 -0.026932157242696764 0 -0.0015313363399782863 -0.026620842127085764 0 -0.0019964253527664862 -0.026932157242696764 0 -0.002064679943563305 -0.027544548568453078 0 -0.0015313363399782863 -0.026620842127085764 0 -0.0019964253527664862 -0.026932157242696764 0 -0.002064679943563305 -0.027544548568453078 0 -0.0020218108860634858 -0.026885211341129613 0 -0.002064679943563305 -0.027544548568453078 0 -0.0015313363399782863 -0.026620842127085764 0 -0.00063184026450813159 -0.027760652281196417 0 -0.00063883378825221404 -0.026105257668152707 0 -0.0015313363399782863 -0.026620842127085764 0 -0.00014272757166050915 -0.026669288677912739 0 -0.0015313363399782863 -0.026620842127085764 0 -0.00014272757166050915 -0.026669288677912739 0 -0.00063184026450813159 -0.027760652281196417 0 -0.00014272757166050915 -0.026669288677912739 0 0.00088744938556331501 -0.027296767074898084 0 0.00076673976372995298 -0.026121543988496247 0 -0.00063883378825221404 -0.026105257668152707 0 -0.00014272757166050915 -0.026669288677912739 0 0.00013607972356303189 -0.026041621284289742 0 -0.00014272757166050915 -0.026669288677912739 0 0.00076673976372995298 -0.026121543988496247 0 0.00013607972356303189 -0.026041621284289742 0 -0.00063184026450813159 -0.027760652281196417 0 0.00088744938556331501 -0.027296767074898084 0 0.0010586516045771584 -0.028811978892098741 0 -0.00014272757166050915 -0.026669288677912739 0 -0.00063184026450813159 -0.027760652281196417 0 0.00088744938556331501 -0.027296767074898084 0 0.00088744938556331501 -0.027296767074898084 0 0.0026074287216586271 -0.02827919325108804 0 0.0010586516045771584 -0.028811978892098741 0 0.00088744938556331501 -0.027296767074898084 0 0.00076673976372995298 -0.026121543988496247 0 0.0017683376769813939 -0.02654997765399307 0 0.0015710070356196749 -0.025615968860757461 0 0.00076673976372995298 -0.026121543988496247 0 0.0017683376769813939 -0.02654997765399307 0 0.0015710070356196749 -0.025615968860757461 0 0.00072164244795831713 -0.025116574550375682 0 0.0017983736112440983 -0.025000048621560383 0 0.0015710070356196749 -0.025615968860757461 0 0.00076673976372995298 -0.026121543988496247 0 0.00072164244795831713 -0.025116574550375682 0 0.00076673976372995298 -0.026121543988496247 0 0.00027630342159538777 -0.025615840402903347 0 0.00072164244795831713 -0.025116574550375682 0 0.00076673976372995298 -0.026121543988496247 0 0.00013607972356303189 -0.026041621284289742 0 0.00027630342159538777 -0.025615840402903347 0 0.00013607972356303189 -0.026041621284289742 0 -0.00018780932923736439 -0.025679618390687858 0 0.00027630342159538777 -0.025615840402903347 0 -0.00063883378825221404 -0.026105257668152707 0 -0.00018780932923736439 -0.025679618390687858 0 -0.00048261310366241671 -0.025563716889829231 0 -0.00063883378825221404 -0.026105257668152707 0 0.00013607972356303189 -0.026041621284289742 0 -0.00018780932923736439 -0.025679618390687858 0 -0.00018780932923736439 -0.025679618390687858 0 -0.00031720826482403578 -0.0252353433696903 0 0.00027630342159538777 -0.025615840402903347 0 -0.00018780932923736439 -0.025679618390687858 0 -0.00048261310366241671 -0.025563716889829231 0 -0.00033187796749734662 -0.025196373426579835 0 0.00059553156062225809 -0.02531859199688468 0 0.0011760349394193588 -0.025444704440374853 0 -0.00076631184104767117 -0.025265592638557658 0 -0.00048261310366241671 -0.025563716889829231 0 -0.00033187796749734662 -0.025196373426579835 0 -0.00031720826482403578 -0.0252353433696903 0 0.00027630342159538777 -0.025615840402903347 0 0.00072164244795831713 -0.025116574550375682 0 0.0011760349394193588 -0.025444704440374853 0 0.00082404989536203526 -0.026249880303723615 0 0.0015837782054616216 -0.027109866205649001 0 0.001673145151005067 -0.027397648527632181 0 0.00094489795432076867 -0.027227559780723717 0 0.001673145151005067 -0.027397648527632181 0 0.001036774034577745 -0.027781695906602146 0 0.00094489795432076867 -0.027227559780723717 0 0.0019432185484960719 -0.02518253421757689 0 0.0021025245403635102 -0.025158708823605956 0 0.0020501599743298869 -0.024981615866154556 0 0.0011760349394193588 -0.025444704440374853 0 0.0027967120659996162 -0.024783752019232219 0 0.001036774034577745 -0.027781695906602146 0 0.00060085488943989115 -0.027785069408435746 0 0.00094489795432076867 -0.027227559780723717 0 0.00082404989536203526 -0.026249880303723615 0 0.000946980744667111 -0.028793101255587854 0 0.00060085488943989115 -0.027785069408435746 0 0.00094489795432076867 -0.027227559780723717 0 0.00032445807804012359 -0.027353234351990236 0 0.0017885571391472465 -0.025162731936577934 0 0.0033013625900698397 -0.025015380759200286 0 0.0024142828591194334 -0.025716411202568304 0 -0.0014479643434767259 -0.035170105961948042 0 -0.0011007407597950166 -0.03499330540601639 0 -0.00087461523666747796 -0.035170068817541623 0 0.000946980744667111 -0.028793101255587854 0 0.00012152537659694239 -0.031853169185558673 0 -0.0011007407597950166 -0.03499330540601639 0 -0.00084082044632183858 -0.03511268613368608 0 -0.00087461523666747796 -0.035170068817541623 0 -0.00023625642993401597 -0.032965383330374735 0 0.00012152537659694239 -0.031853169185558673 0 0.00011422532083378308 -0.035022270747991024 0 0.00019001521615673146 -0.034998526968505639 0 9.0746574823031366e-05 -0.03500943653375329 0 0.0033013625900698397 -0.025015380759200286 0 0.0024142828591194334 -0.025716411202568304 0 0.0029178377005054435 -0.026482432218733139 0 0.00012152537659694239 -0.031853169185558673 0 0.0018344058051072405 -0.030306590138846998 0 0.0024142828591194334 -0.025716411202568304 0 0.0017683376769813939 -0.02654997765399307 0 0.0029178377005054435 -0.026482432218733139 0 0.0015710070356196749 -0.025615968860757461 0 0.0017885571391472465 -0.025162731936577934 0 0.0024142828591194334 -0.025716411202568304 0 0.0019176571195534901 -0.025335952405310242 0 0.000946980744667111 -0.028793101255587854 0 0.0015710070356196749 -0.025615968860757461 0 0.0024142828591194334 -0.025716411202568304 0 0.0017683376769813939 -0.02654997765399307 0 0.0017683376769813939 -0.02654997765399307 0 0.0026074287216586271 -0.02827919325108804 0 0.0029178377005054435 -0.026482432218733139 0 0.00088744938556331501 -0.027296767074898084 0 0.0017683376769813939 -0.02654997765399307 0 0.0026074287216586271 -0.02827919325108804 0 0.0014360435659971854 -0.031740987061044688 0 0.0018344058051072405 -0.030306590138846998 0 0.00035666685934538549 -0.034972248868858795 0 0.00019001521615673146 -0.034998526968505639 0 0.00013437235310540549 -0.03499345572913698 0 0.00013437235310540549 -0.03499345572913698 0 5.7373797001528842e-05 -0.035002439595274049 0 9.0746574823031366e-05 -0.03500943653375329 0 0.00019001521615673146 -0.034998526968505639 0 0.00013437235310540549 -0.03499345572913698 0 9.0746574823031366e-05 -0.03500943653375329 0 0.00013437235310540549 -0.03499345572913698 0 6.4954538701158647e-08 -0.035000003424027315 0 7.0511678397013549e-05 -0.034972416705978442 0 0.00013437235310540549 -0.03499345572913698 0 6.4954538701158647e-08 -0.035000003424027315 0 5.7373797001528842e-05 -0.035002439595274049 0 5.7373797001528842e-05 -0.035002439595274049 0 5.0296841587456229e-08 -0.034999996100358227 0 9.0746574823031366e-05 -0.03500943653375329 0 6.4954538701158647e-08 -0.035000003424027315 0 5.7373797001528842e-05 -0.035002439595274049 0 5.0296841587456229e-08 -0.034999996100358227 0 5.0296841587456229e-08 -0.034999996100358227 0 9.0746574823031366e-05 -0.03500943653375329 0 5.7123172642839168e-05 -0.035027704269214331 0 0.00011422532083378308 -0.035022270747991024 0 9.0746574823031366e-05 -0.03500943653375329 0 5.7123172642839168e-05 -0.035027704269214331 0 -0.00084082044632183858 -0.03511268613368608 0 -0.00087057409780568102 -0.035201411614886817 0 -0.00038126231175192755 -0.035128985409331272 0 0.00012152537659694239 -0.031853169185558673 0 -0.00032984051746399155 -0.035060834190703653 0 -0.00061017990592562355 -0.034914453457770084 0 -0.00084082044632183858 -0.03511268613368608 0 -0.00038126231175192755 -0.035128985409331272 0 -0.00032984051746399155 -0.035060834190703653 0 7.6535912713421722e-08 -0.035000019639848598 0 5.0296841587456229e-08 -0.034999996100358227 0 5.7123172642839168e-05 -0.035027704269214331 0 3.3477215415413877e-08 -0.035000103305737246 0 0.0020976673900676927 -0.019566118752487278 0 0.0019827640039469358 -0.020759329742746101 0 0.00093334150983323452 -0.020401039835423972 0 0.0020976673900676927 -0.019566118752487278 0 0.00093334150983323452 -0.020401039835423972 0 0.00060373174395210373 -0.019308310986234999 0 0.0020976673900676927 -0.019566118752487278 0 0.0019827640039469358 -0.020759329742746101 0 0.0030247454021663268 -0.019817419088608811 0 0.0017633266987224006 -0.020941992065408959 0 0.0027756177583416362 -0.020112088347382828 0 0.0015949132913916652 -0.021112952643109136 0 0.0025337423917735397 -0.020393961061927056 0 0.002615502598769318 -0.021398644267478676 0 0.0015949132913916652 -0.021112952643109136 0 0.002615502598769318 -0.021398644267478676 0 0.0018999283253900744 -0.022221553968421164 0 0.0017633266987224006 -0.020941992065408959 0 0.00074735113331742356 -0.02168011765107445 0 0.0019827640039469358 -0.020759329742746101 0 0.00093334150983323452 -0.020401039835423972 0 0.00068102151956792414 -0.021726878463424779 0 -3.0415425900920538e-05 -0.020563621748932729 0 0.00093334150983323452 -0.020401039835423972 0 0.00068102151956792414 -0.021726878463424779 0 -0.00066539036315384876 -0.02148339144818864 0 -0.0008491650226973552 -0.020032949171171478 0 -3.0415425900920538e-05 -0.020563621748932729 0 -0.00066539036315384876 -0.02148339144818864 0 -3.0415425900920538e-05 -0.020563621748932729 0 0.00068102151956792414 -0.021726878463424779 0 -0.0008491650226973552 -0.020032949171171478 0 -3.0415425900920538e-05 -0.020563621748932729 0 0.00060373174395210373 -0.019308310986234999 0 -3.0415425900920538e-05 -0.020563621748932729 0 0.00093334150983323452 -0.020401039835423972 0 0.00060373174395210373 -0.019308310986234999 0 -0.00041127671563976497 -0.018779909205804527 0 0.00083111924320757925 -0.019163512506114262 0 -0.0008491650226973552 -0.020032949171171478 0 -0.00071584346350451989 -0.018941671049775618 0 0.00060373174395210373 -0.019308310986234999 0 -6.2711188292249593e-05 -0.01856861682380637 0 0.00098796870459117348 -0.019010235283663426 0 0.00073905002151022372 -0.018030050191912235 0 -6.2711188292249593e-05 -0.01856861682380637 0 0.00012105795042105734 -0.017930864143157997 0 0.00073905002151022372 -0.018030050191912235 0 0.0015184103639849672 -0.017905395608620284 0 0.00098796870459117348 -0.019010235283663426 0 0.00073905002151022372 -0.018030050191912235 0 0.0023865035764592075 -0.017972812656826057 0 0.0015184103639849672 -0.017905395608620284 0 0.0019599998994391144 -0.018650750544192688 0 0.0015184103639849672 -0.017905395608620284 0 0.00098796870459117348 -0.019010235283663426 0 0.0019599998994391144 -0.018650750544192688 0 0.0020462364051451625 -0.019545813043219937 0 0.00083111924320757925 -0.019163512506114262 0 0.0020976673900676927 -0.019566118752487278 0 0.00098796870459117348 -0.019010235283663426 0 0.0019599998994391144 -0.018650750544192688 0 0.0020976673900676927 -0.019566118752487278 0 0.0019599998994391144 -0.018650750544192688 0 0.0027900418336131161 -0.018834918897013421 0 0.0020976673900676927 -0.019566118752487278 0 0.0027900418336131161 -0.018834918897013421 0 0.0030247454021663268 -0.019817419088608811 0 0.0023865035764592075 -0.017972812656826057 0 0.0019599998994391144 -0.018650750544192688 0 0.0027900418336131161 -0.018834918897013421 0 0.0023865035764592075 -0.017972812656826057 0 0.0033823289820785977 -0.01815241661336621 0 0.0027900418336131161 -0.018834918897013421 0 0.0033823289820785977 -0.01815241661336621 0 0.0038788416727220656 -0.019121340911860386 0 0.0027900418336131161 -0.018834918897013421 0 0.0033823289820785977 -0.01815241661336621 0 0.0040411744124714067 -0.01846281579960446 0 0.0038788416727220656 -0.019121340911860386 0 0.0037176582727421379 -0.019357489004477507 0 0.0027756177583416362 -0.020112088347382828 0 0.0038788416727220656 -0.019121340911860386 0 0.0027900418336131161 -0.018834918897013421 0 0.0030247454021663268 -0.019817419088608811 0 0.0056815961755263232 -0.019240085396995087 0 0.0050569015023744753 -0.018834679142084587 0 0.0050822899766228419 -0.018643682557244582 0 0.0039256107004175316 -0.023618333208811286 0 0.0048410561050070723 -0.022218573398343159 0 0.0049867128313627572 -0.020827729602178303 0 0.0048410561050070723 -0.022218573398343159 0 0.0050569015023744753 -0.018834679142084587 0 0.0050703627379157963 -0.018615100661410113 0 0.0046637486549776378 -0.018682350552342269 0 0.0050569015023744753 -0.018834679142084587 0 0.0046637486549776378 -0.018682350552342269 0 0.004681025523376456 -0.019517165583311881 0 0.0040411744124714067 -0.01846281579960446 0 0.0038788416727220656 -0.019121340911860386 0 0.0046637486549776378 -0.018682350552342269 0 0.0042668572357897512 -0.017764126099928289 0 0.0040411744124714067 -0.01846281579960446 0 0.0046637486549776378 -0.018682350552342269 0 0.0042668572357897512 -0.017764126099928289 0 0.0050703627379157963 -0.018615100661410113 0 0.0046637486549776378 -0.018682350552342269 0 0.0037176582727421379 -0.019357489004477507 0 0.0046128296708267463 -0.018716839144702777 0 0.0035136093272104298 -0.019605863166297303 0 0.0046637486549776378 -0.018682350552342269 0 0.004681025523376456 -0.019517165583311881 0 0.0035136093272104298 -0.019605863166297303 0 0.004681025523376456 -0.019517165583311881 0 0.0047445743262321625 -0.020351627309179218 0 0.005632775825109888 -0.01993600351586677 0 0.0051631103631429535 -0.019581249119426058 0 0.0047445743262321625 -0.020351627309179218 0 0.0050569015023744753 -0.018834679142084587 0 0.004681025523376456 -0.019517165583311881 0 0.0051631103631429535 -0.019581249119426058 0 0.004681025523376456 -0.019517165583311881 0 0.0051631103631429535 -0.019581249119426058 0 0.0047445743262321625 -0.020351627309179218 0 0.0056815961755263232 -0.019240085396995087 0 0.0050569015023744753 -0.018834679142084587 0 0.0051631103631429535 -0.019581249119426058 0 0.005632775825109888 -0.01993600351586677 0 0.0056844799671234222 -0.020649692093279583 0 0.0047445743262321625 -0.020351627309179218 0 0.0035136093272104298 -0.019605863166297303 0 0.0047445743262321625 -0.020351627309179218 0 0.0034029403065634557 -0.020585011928029497 0 0.0047445743262321625 -0.020351627309179218 0 0.0034029403065634557 -0.020585011928029497 0 0.0037323318266318023 -0.021553831556722369 0 0.0047445743262321625 -0.020351627309179218 0 0.0037323318266318023 -0.021553831556722369 0 0.0049010097770079758 -0.021673591156834999 0 0.0056844799671234222 -0.020649692093279583 0 0.0047445743262321625 -0.020351627309179218 0 0.0049010097770079758 -0.021673591156834999 0 0.0025337423917735397 -0.020393961061927056 0 0.0034029403065634557 -0.020585011928029497 0 0.002615502598769318 -0.021398644267478676 0 0.0035136093272104298 -0.019605863166297303 0 0.0025337423917735397 -0.020393961061927056 0 0.0034029403065634557 -0.020585011928029497 0 0.0034029403065634557 -0.020585011928029497 0 0.0037323318266318023 -0.021553831556722369 0 0.002615502598769318 -0.021398644267478676 0 0.002615502598769318 -0.021398644267478676 0 0.003043672550000999 -0.022243422937258613 0 0.0018999283253900744 -0.022221553968421164 0 0.0037323318266318023 -0.021553831556722369 0 0.003043672550000999 -0.022243422937258613 0 0.0039649400554566316 -0.022927340842313577 0 0.0037323318266318023 -0.021553831556722369 0 0.002615502598769318 -0.021398644267478676 0 0.003043672550000999 -0.022243422937258613 0 0.00047131445339550925 -0.024585193631504323 0 0.00095642248362998498 -0.024672053712005249 0 0.003043672550000999 -0.022243422937258613 0 0.0026744358011623762 -0.023103863237695872 0 0.0039649400554566316 -0.022927340842313577 0 0.003043672550000999 -0.022243422937258613 0 0.0026744358011623762 -0.023103863237695872 0 0.0018999283253900744 -0.022221553968421164 0 0.0037323318266318023 -0.021553831556722369 0 0.0049010097770079758 -0.021673591156834999 0 0.0039649400554566316 -0.022927340842313577 0 0.0019103222345018744 -0.024490767721236234 0 0.00095642248362998498 -0.024672053712005249 0 0.0053146282691302641 -0.022741128035990554 0 0.0049010097770079758 -0.021673591156834999 0 0.0039649400554566316 -0.022927340842313577 0 -0.0018789408176073021 -0.026378039457668583 0 -0.0019637411277819137 -0.026417682661346715 0 -0.001997182764556329 -0.026652298098597794 0 -0.0018789408176073021 -0.026378039457668583 0 -0.0019964253527664862 -0.026932157242696764 0 -0.001997182764556329 -0.026652298098597794 0 -0.0019637411277819137 -0.026417682661346715 0 -0.001997182764556329 -0.026652298098597794 0 -0.0018835499135892839 -0.02627481287600316 0 -0.001997182764556329 -0.026652298098597794 0 -0.0018835499135892839 -0.02627481287600316 0 -0.0019447364838217748 -0.026558357402148659 0 -0.001997182764556329 -0.026652298098597794 0 -0.0020218108860634858 -0.026885211341129613 0 -0.0019447364838217748 -0.026558357402148659 0 -0.0019964253527664862 -0.026932157242696764 0 -0.001997182764556329 -0.026652298098597794 0 -0.0020218108860634858 -0.026885211341129613 0 -0.0017123396897638431 -0.026080377129716985 0 -0.0018835499135892839 -0.02627481287600316 0 -0.0016158318933019208 -0.025676372491437085 0 -0.0017123396897638431 -0.026080377129716985 0 -0.0019637411277819137 -0.026417682661346715 0 -0.0018835499135892839 -0.02627481287600316 0 -0.0018835499135892839 -0.02627481287600316 0 -0.0018700862303759223 -0.026307408717310972 0 -0.0019447364838217748 -0.026558357402148659 0 -0.0018835499135892839 -0.02627481287600316 0 -0.0016158318933019208 -0.025676372491437085 0 -0.0018700862303759223 -0.026307408717310972 0 -0.0012415864675981952 -0.024044186947430657 0 -0.00090360615925676841 -0.024078117302282914 0 -0.00082917925328714005 -0.024513646551176081 0 -0.00090360615925676841 -0.024078117302282914 0 -0.00052795816351575121 -0.023858160367181153 0 -0.00094153565029268923 -0.023875585838716532 0 -0.0012415864675981952 -0.024044186947430657 0 -0.00090360615925676841 -0.024078117302282914 0 -0.00094153565029268923 -0.023875585838716532 0 -0.0013302639670876811 -0.02493233841529718 0 -0.00084849797822305207 -0.024608029503145699 0 -0.0016158318933019208 -0.025676372491437085 0 -0.00082917925328714005 -0.024513646551176081 0 -0.0012333209427575886 -0.025284422805830181 0 0.00047131445339550925 -0.024585193631504323 0 3.849885665179074e-05 -0.024295857703586839 0 -0.0017123396897638431 -0.026080377129716985 0 -0.0016158318933019208 -0.025676372491437085 0 -0.0012333209427575886 -0.025284422805830181 0 0.0026744358011623762 -0.023103863237695872 0 0.0014332196050110407 -0.023358483396050064 0 0.0018999283253900744 -0.022221553968421164 0 0.0014332196050110407 -0.023358483396050064 0 0.0011440253228487015 -0.022509557305150283 0 0.0018999283253900744 -0.022221553968421164 0 0.0014332196050110407 -0.023358483396050064 0 0.0011440253228487015 -0.022509557305150283 0 0.00055078130013616947 -0.022761096135608144 0 0.0015949132913916652 -0.021112952643109136 0 0.0018999283253900744 -0.022221553968421164 0 0.00068102151956792414 -0.021726878463424779 0 0.0011440253228487015 -0.022509557305150283 0 0.0018999283253900744 -0.022221553968421164 0 0.00068102151956792414 -0.021726878463424779 0 -0.00066539036315384876 -0.02148339144818864 0 0.00068102151956792414 -0.021726878463424779 0 -0.00039553028492867647 -0.022474761687098291 0 0.00068102151956792414 -0.021726878463424779 0 0.00055078130013616947 -0.022761096135608144 0 -0.00039553028492867647 -0.022474761687098291 0 0.0011440253228487015 -0.022509557305150283 0 0.00068102151956792414 -0.021726878463424779 0 0.00055078130013616947 -0.022761096135608144 0 0.00055078130013616947 -0.022761096135608144 0 -0.00039553028492867647 -0.022474761687098291 0 -0.00024462939531466344 -0.023771328327399754 0 -0.00073742842543427531 -0.023171901274194783 0 -0.00039553028492867647 -0.022474761687098291 0 -0.00024462939531466344 -0.023771328327399754 0 -0.00073742842543427531 -0.023171901274194783 0 -0.00024462939531466344 -0.023771328327399754 0 -0.00057235208295936912 -0.023610148173488162 0 0.0014332196050110407 -0.023358483396050064 0 0.00055078130013616947 -0.022761096135608144 0 -0.00024462939531466344 -0.023771328327399754 0 -0.00082917925328714005 -0.024513646551176081 0 -0.0012333209427575886 -0.025284422805830181 0 -0.00024462939531466344 -0.023771328327399754 0 -0.00082917925328714005 -0.024513646551176081 0 -0.00024462939531466344 -0.023771328327399754 0 -0.00052795816351575121 -0.023858160367181153 0 3.849885665179074e-05 -0.024295857703586839 0 -0.00028849550257169948 -0.02388496745604702 0 -0.00090360615925676841 -0.024078117302282914 0 -0.00082917925328714005 -0.024513646551176081 0 -0.00052795816351575121 -0.023858160367181153 0 -0.00052795816351575121 -0.023858160367181153 0 -0.00057235208295936912 -0.023610148173488162 0 -0.00060519945740679533 -0.023765543696695857 0 -0.00024462939531466344 -0.023771328327399754 0 -0.00052795816351575121 -0.023858160367181153 0 -0.00057235208295936912 -0.023610148173488162 0 -0.00052795816351575121 -0.023858160367181153 0 -0.00060519945740679533 -0.023765543696695857 0 -0.00056669898843446896 -0.02376654253143198 0 -0.00060519945740679533 -0.023765543696695857 0 -0.00056669898843446896 -0.02376654253143198 0 -0.000716705509040404 -0.023797758953387881 0 -0.0010659264484255177 -0.024381762913344106 0 -0.00071674550882697705 -0.023625118697967688 0 -0.00052795816351575121 -0.023858160367181153 0 -0.00056669898843446896 -0.02376654253143198 0 -0.00094153565029268923 -0.023875585838716532 0 -0.00069746727131732821 -0.02365227766806231 0 -0.0007233184741976238 -0.023393890272443409 0 -0.00091927084854237918 -0.023645597865905227 0 -0.00056669898843446896 -0.02376654253143198 0 -0.00068963221364363493 -0.02384192414544652 0 -0.00069822647868497483 -0.02390922781699693 0 -0.0010659264484255177 -0.024381762913344106 0 0.00068396169651426778 -0.020161743956367786 0 -0.00056669898843446896 -0.02376654253143198 0 -0.000716705509040404 -0.023797758953387881 0 -0.00068963221364363493 -0.02384192414544652 0 -0.0007233184741976238 -0.023393890272443409 0 -0.00062703832283549847 -0.023080165426834713 0 -0.00038368525412865132 -0.023377900853997956 0 -0.00069746727131732821 -0.02365227766806231 0 -0.0007233184741976238 -0.023393890272443409 0 -0.00038368525412865132 -0.023377900853997956 0 -0.0007233184741976238 -0.023393890272443409 0 -0.00062703832283549847 -0.023080165426834713 0 -0.00092273228390241113 -0.023223210528074825 0 0.0010274878819346112 -0.014297428209263361 0 0.0026252715802180192 -0.016437621873467749 0 0.0027114593848243337 -0.014541430507882805 0 0.00012738556470736004 -0.017992694080095538 0 0.00068396169651426778 -0.020161743956367786 0 -0.00092273228390241113 -0.023223210528074825 0 -0.0013764260315612077 -0.023269960849281526 0 -0.0011235444144864436 -0.023037253470910641 0 -0.00092273228390241113 -0.023223210528074825 0 -0.0010760076933882515 -0.023482023360031939 0 -0.0013764260315612077 -0.023269960849281526 0 -0.00084175148215889437 -0.027608745716147215 0 -0.0010643266177922791 -0.028485477633645413 0 -0.0007233184741976238 -0.023393890272443409 0 -0.00092273228390241113 -0.023223210528074825 0 -0.0010760076933882515 -0.023482023360031939 0 -0.0010760076933882515 -0.023482023360031939 0 -0.0013665927345129464 -0.023572239067763793 0 -0.0013764260315612077 -0.023269960849281526 0 -0.0010760076933882515 -0.023482023360031939 0 -0.0012017708124321882 -0.023742070004661286 0 -0.0013665927345129464 -0.023572239067763793 0 -0.0010760076933882515 -0.023482023360031939 0 -0.00091927084854237918 -0.023645597865905227 0 -0.0012017708124321882 -0.023742070004661286 0 -0.0007233184741976238 -0.023393890272443409 0 -0.0010760076933882515 -0.023482023360031939 0 -0.00091927084854237918 -0.023645597865905227 0 -0.00091927084854237918 -0.023645597865905227 0 -0.00094153565029268923 -0.023875585838716532 0 -0.0012017708124321882 -0.023742070004661286 0 -0.00069746727131732821 -0.02365227766806231 0 -0.00091927084854237918 -0.023645597865905227 0 -0.00094153565029268923 -0.023875585838716532 0 -0.0012415864675981952 -0.024044186947430657 0 -0.00094153565029268923 -0.023875585838716532 0 -0.0012017708124321882 -0.023742070004661286 0 -0.0012415864675981952 -0.024044186947430657 0 -0.0012017708124321882 -0.023742070004661286 0 -0.0015493245789935397 -0.023867318987765583 0 -0.0013302639670876811 -0.02493233841529718 0 -0.0017516601976372099 -0.024681667354428807 0 -0.0015493245789935397 -0.023867318987765583 0 -0.0013665927345129464 -0.023572239067763793 0 -0.0016258779670233685 -0.023496198320117057 0 -0.0015493245789935397 -0.023867318987765583 0 -0.0018729467747826741 -0.023719290745801189 0 -0.0016258779670233685 -0.023496198320117057 0 -0.0012017708124321882 -0.023742070004661286 0 -0.0015493245789935397 -0.023867318987765583 0 -0.0013665927345129464 -0.023572239067763793 0 -0.0020218108860634858 -0.026885211341129613 0 -0.0019447364838217748 -0.026558357402148659 0 -0.0019658435975551361 -0.026627293505451739 0 -0.0017516601976372099 -0.024681667354428807 0 -0.0021420201907416401 -0.027757347811635837 0 -0.0018700862303759223 -0.026307408717310972 0 -0.0019447364838217748 -0.026558357402148659 0 -0.0019658435975551361 -0.026627293505451739 0 -0.0021420201907416401 -0.027757347811635837 0 -0.00088213795567796945 -0.027774517337163886 0 -0.0039388956767735508 -0.028989398988959927 0 -0.0054773645636921955 -0.030217507392621235 0 -0.0034419778946975601 -0.031519303065287975 0 -0.0021420201907416401 -0.027757347811635837 0 -0.0017950826517346844 -0.032188215274277766 0 -0.0031931977058934462 -0.02811928434341409 0 -0.0021420201907416401 -0.027757347811635837 0 -0.0003482149664370548 -0.031983098047346989 0 -0.00033107619036363623 -0.032166218903047127 0 -0.00022173008479635742 -0.032082065091120097 0 -0.00033107619036363623 -0.032166218903047127 0 -0.00023571813955636611 -0.032218596465853004 0 -0.00022173008479635742 -0.032082065091120097 0 -0.0003482149664370548 -0.031983098047346989 0 -0.00033107619036363623 -0.032166218903047127 0 -0.00043766052031023823 -0.032098098225592536 0 -0.00033107619036363623 -0.032166218903047127 0 -0.0004352336040388569 -0.032241462512237126 0 -0.00035113463689835742 -0.032273473094488095 0 -0.00033107619036363623 -0.032166218903047127 0 -0.00023571813955636611 -0.032218596465853004 0 -0.00035113463689835742 -0.032273473094488095 0 -0.0013665927345129464 -0.023572239067763793 0 -0.0016258779670233685 -0.023496198320117057 0 -0.0013764260315612077 -0.023269960849281526 0 -0.00088213795567796945 -0.027774517337163886 0 -0.00084175148215889437 -0.027608745716147215 0 -0.00033107619036363623 -0.032166218903047127 0 -0.00043766052031023823 -0.032098098225592536 0 -0.0004352336040388569 -0.032241462512237126 0 -0.00043766052031023823 -0.032098098225592536 0 -0.0004352336040388569 -0.032241462512237126 0 -0.0004595389362053274 -0.032206880916576211 0 -0.0004352336040388569 -0.032241462512237126 0 -0.0004595389362053274 -0.032206880916576211 0 -0.00043904482851325516 -0.032263161352979228 0 -0.0004352336040388569 -0.032241462512237126 0 -0.00043904482851325516 -0.032263161352979228 0 -0.00045306808728085159 -0.032412111169612422 0 -0.0004352336040388569 -0.032241462512237126 0 -0.00045306808728085159 -0.032412111169612422 0 -0.00035113463689835742 -0.032273473094488095 0 -0.00045306808728085159 -0.032412111169612422 0 -0.00039784059703724381 -0.032184134515172179 0 -0.00051888010505775708 -0.032214145050667282 0 -0.00043904482851325516 -0.032263161352979228 0 -0.00039784059703724381 -0.032184134515172179 0 -0.00037512967777890411 -0.032162163774576952 0 -0.00043904482851325516 -0.032263161352979228 0 -0.00045306808728085159 -0.032412111169612422 0 -0.00039784059703724381 -0.032184134515172179 0 -0.00023571813955636611 -0.032218596465853004 0 -0.00027895820695109092 -0.032328807584806982 0 -0.00035113463689835742 -0.032273473094488095 0 -0.00048049933450526139 -0.032452051680941077 0 -0.00058801859594086528 -0.032630998790413153 0 -0.00045306808728085159 -0.032412111169612422 0 -0.00027895820695109092 -0.032328807584806982 0 -0.00035113463689835742 -0.032273473094488095 0 -0.00045306808728085159 -0.032412111169612422 0 -0.00088839628006311556 -0.032940708884040257 0 -0.00068505162058072656 -0.032522267633078146 0 -0.00045306808728085159 -0.032412111169612422 0 -0.00068505162058072656 -0.032522267633078146 0 -0.00051888010505775708 -0.032214145050667282 0 -0.00088839628006311556 -0.032940708884040257 0 -0.00068505162058072656 -0.032522267633078146 0 -0.00083485169880320655 -0.032756238314097519 0 -0.00068505162058072656 -0.032522267633078146 0 -0.00083485169880320655 -0.032756238314097519 0 -0.0008286297698679836 -0.032484347169338949 0 -0.00083485169880320655 -0.032756238314097519 0 -0.00099348036210864942 -0.032652571467951919 0 -0.00094284732797366929 -0.033042007534439269 0 -0.00083485169880320655 -0.032756238314097519 0 -0.00099348036210864942 -0.032652571467951919 0 -0.0008286297698679836 -0.032484347169338949 0 -0.00088839628006311556 -0.032940708884040257 0 -0.00083485169880320655 -0.032756238314097519 0 -0.00094284732797366929 -0.033042007534439269 0 -0.0009377139206824777 -0.03228289804289286 0 -0.00072725839684538158 -0.032294273997955418 0 -0.00071013815546733694 -0.031988814887110369 0 -0.00099348036210864942 -0.032652571467951919 0 -0.0009377139206824777 -0.03228289804289286 0 -0.0013348198208695521 -0.032544883645977032 0 -0.00099348036210864942 -0.032652571467951919 0 -0.0009377139206824777 -0.03228289804289286 0 -0.0008286297698679836 -0.032484347169338949 0 -0.0009377139206824777 -0.03228289804289286 0 -0.0008286297698679836 -0.032484347169338949 0 -0.00072725839684538158 -0.032294273997955418 0 -0.00068505162058072656 -0.032522267633078146 0 -0.00072725839684538158 -0.032294273997955418 0 -0.00051888010505775708 -0.032214145050667282 0 -0.00072725839684538158 -0.032294273997955418 0 -0.00071013815546733694 -0.031988814887110369 0 -0.00051888010505775708 -0.032214145050667282 0 -0.00068505162058072656 -0.032522267633078146 0 -0.0008286297698679836 -0.032484347169338949 0 -0.00072725839684538158 -0.032294273997955418 0 -0.00071013815546733694 -0.031988814887110369 0 -0.00051888010505775708 -0.032214145050667282 0 -0.00051838643334941356 -0.031935670017545568 0 -0.00050433625933595102 -0.031745533785350534 0 -0.00037867162299712206 -0.032053694674439401 0 -0.0009377139206824777 -0.03228289804289286 0 -0.00071013815546733694 -0.031988814887110369 0 -0.001157780045451598 -0.031988893496976409 0 -0.00038969626360604176 -0.031595632512041838 0 -0.001157780045451598 -0.031988893496976409 0 -0.0011780070688759191 -0.0311842889597484 0 -0.00050433625933595102 -0.031745533785350534 0 -0.0011451504929560741 -0.03199634661430039 0 -0.00039784059703724381 -0.032184134515172179 0 -0.00042408705292322518 -0.032055914269935946 0 -0.00033659614028381537 -0.031999697582895892 0 -0.00039784059703724381 -0.032184134515172179 0 -0.00051888010505775708 -0.032214145050667282 0 -0.00042408705292322518 -0.032055914269935946 0 -0.00051888010505775708 -0.032214145050667282 0 -0.00042408705292322518 -0.032055914269935946 0 -0.00051838643334941356 -0.031935670017545568 0 -0.00042408705292322518 -0.032055914269935946 0 -0.00038678004100505832 -0.031850473189822336 0 -0.00051838643334941356 -0.031935670017545568 0 -0.00042408705292322518 -0.032055914269935946 0 -0.00033659614028381537 -0.031999697582895892 0 -0.00038678004100505832 -0.031850473189822336 0 -0.00059476826341502294 -0.024580920119873458 0 1.2723992574521638e-05 -0.024316353305811327 0 -0.00059476826341502294 -0.024580920119873458 0 -0.0003045433239490334 -0.025144528864720343 0 -0.00039784059703724381 -0.032184134515172179 0 -0.00033659614028381537 -0.031999697582895892 0 -0.0003312626445286102 -0.032072574873628128 0 -0.00078278665067700029 -0.017146912182105317 0 -0.00092174875782253889 -0.017141912729726174 0 -0.00089244236339991912 -0.017007216183349983 0 -0.00078278665067700029 -0.017146912182105317 0 -0.00085436514847994313 -0.017287733560117924 0 -0.00092174875782253889 -0.017141912729726174 0 -0.0006606800482998502 -0.017312648375835404 0 -0.00078278665067700029 -0.017146912182105317 0 -0.00085436514847994313 -0.017287733560117924 0 -0.00085436514847994313 -0.017287733560117924 0 -0.0010194948837094404 -0.017217241999735369 0 -0.00097142511052599151 -0.01736106595160021 0 -0.00085436514847994313 -0.017287733560117924 0 -0.0010194948837094404 -0.017217241999735369 0 -0.00092174875782253889 -0.017141912729726174 0 -0.0010194948837094404 -0.017217241999735369 0 -0.0011407369430424109 -0.017176776063554947 0 -0.0010290745818517797 -0.017042284937852075 0 -0.0010194948837094404 -0.017217241999735369 0 -0.0011407369430424109 -0.017176776063554947 0 -0.0011834320864284637 -0.017305165375619481 0 -0.0011407369430424109 -0.017176776063554947 0 -0.0011834320864284637 -0.017305165375619481 0 -0.0012567064197143269 -0.017185298298565518 0 -0.0011407369430424109 -0.017176776063554947 0 -0.0010290745818517797 -0.017042284937852075 0 -0.0012042491850300506 -0.017084121427717733 0 0.00048889606991585712 -0.01314560001535659 0 0.00057376403704832268 -0.013697001714403193 0 0.0011010450172210555 -0.010830911324823746 0 0.0022667510440368861 -0.010730101967269584 0 0.0026667597111478072 -0.0097763110574217386 0 -0.0010194948837094404 -0.017217241999735369 0 -0.0010290745818517797 -0.017042284937852075 0 -0.00092174875782253889 -0.017141912729726174 0 -0.0010290745818517797 -0.017042284937852075 0 -0.00092174875782253889 -0.017141912729726174 0 -0.00089244236339991912 -0.017007216183349983 0 0.0011010450172210555 -0.010830911324823746 0 -0.00057570176722305947 -0.012182832504593104 0 0.0011558770021449975 -0.012278392852146687 0 0.00048889606991585712 -0.01314560001535659 0 -0.00085069770094643878 -0.02114611277947297 0 0.0022667510440368861 -0.010730101967269584 0 0.0020473945742918399 -0.011561286982693866 0 0.0026612749486801413 -0.011165452823971201 0 0.0011010450172210555 -0.010830911324823746 0 0.0022667510440368861 -0.010730101967269584 0 0.0020473945742918399 -0.011561286982693866 0 0.0011010450172210555 -0.010830911324823746 0 0.0020473945742918399 -0.011561286982693866 0 0.0011558770021449975 -0.012278392852146687 0 0.0020473945742918399 -0.011561286982693866 0 0.0011558770021449975 -0.012278392852146687 0 0.0023240964505418221 -0.012855737439417569 0 0.0010274878819346112 -0.014297428209263361 0 0.0023240964505418221 -0.012855737439417569 0 0.0027114593848243337 -0.014541430507882805 0 0.0010274878819346112 -0.014297428209263361 0 0.0011558770021449975 -0.012278392852146687 0 0.0023240964505418221 -0.012855737439417569 0 -0.00062703832283549847 -0.023080165426834713 0 -0.00092273228390241113 -0.023223210528074825 0 -0.00085994983924471673 -0.022793301502090593 0 0.0010274878819346112 -0.014297428209263361 0 -0.00057570176722305947 -0.012182832504593104 0 0.0011558770021449975 -0.012278392852146687 0 0.00012738556470736004 -0.017992694080095538 0 -0.00085069770094643878 -0.02114611277947297 0 -0.00030364240070509483 -0.032079747186625096 0 -0.00038619890217072824 -0.03220962757029807 0 -0.00037512967777890411 -0.032162163774576952 0 -0.00092273228390241113 -0.023223210528074825 0 -0.00085994983924471673 -0.022793301502090593 0 -0.0011235444144864436 -0.023037253470910641 0 -0.00085069770094643878 -0.02114611277947297 0 -0.0010643266177922791 -0.028485477633645413 0 -0.0004595389362053274 -0.032206880916576211 0 -0.00043904482851325516 -0.032263161352979228 0 -0.00038619890217072824 -0.03220962757029807 0 -0.00043904482851325516 -0.032263161352979228 0 -0.00038619890217072824 -0.03220962757029807 0 -0.00037512967777890411 -0.032162163774576952 0 -0.00039784059703724381 -0.032184134515172179 0 -0.0003312626445286102 -0.032072574873628128 0 -0.00037512967777890411 -0.032162163774576952 0 -0.0003045433239490334 -0.025144528864720343 0 -0.00085069770094643878 -0.02114611277947297 0 -0.0003312626445286102 -0.032072574873628128 0 -0.00030364240070509483 -0.032079747186625096 0 -0.00037512967777890411 -0.032162163774576952 0 9.9118411667067672e-05 -0.034722334334139057 0 6.326511788642643e-08 -0.03499973989896845 0 -2.1473386544435792e-09 -0.034999177554782185 0 9.9118411667067672e-05 -0.034722334334139057 0 0.00032147936060332021 -0.034513271145237806 0 0.0003683814125478316 -0.034347283974082855 0 9.9118411667067672e-05 -0.034722334334139057 0 0.0003683814125478316 -0.034347283974082855 0 0.00019044639033242831 -0.034431000056584636 0 9.4396299966494036e-05 -0.034821437602115209 0 0.00018137053815485383 -0.03488515963521948 0 0.00032147936060332021 -0.034513271145237806 0 9.9118411667067672e-05 -0.034722334334139057 0 9.4396299966494036e-05 -0.034821437602115209 0 0.00032147936060332021 -0.034513271145237806 0 9.9118411667067672e-05 -0.034722334334139057 0 9.4396299966494036e-05 -0.034821437602115209 0 6.326511788642643e-08 -0.03499973989896845 0 9.4396299966494036e-05 -0.034821437602115209 0 6.326511788642643e-08 -0.03499973989896845 0 9.3375689425000656e-09 -0.034999881896252118 0 6.4954538701158647e-08 -0.035000003424027315 0 9.3375689425000656e-09 -0.034999881896252118 0 7.0511678397013549e-05 -0.034972416705978442 0 9.3375689425000656e-09 -0.034999881896252118 0 7.0511678397013549e-05 -0.034972416705978442 0 0.00018137053815485383 -0.03488515963521948 0 0.00013437235310540549 -0.03499345572913698 0 7.0511678397013549e-05 -0.034972416705978442 0 0.00018137053815485383 -0.03488515963521948 0 9.4396299966494036e-05 -0.034821437602115209 0 9.3375689425000656e-09 -0.034999881896252118 0 0.00018137053815485383 -0.03488515963521948 0 0.00018137053815485383 -0.03488515963521948 0 0.0006374925751583885 -0.0347534111564054 0 0.00032147936060332021 -0.034513271145237806 0 0.00035666685934538549 -0.034972248868858795 0 0.00013437235310540549 -0.03499345572913698 0 0.00018137053815485383 -0.03488515963521948 0 0.00035666685934538549 -0.034972248868858795 0 0.00018137053815485383 -0.03488515963521948 0 0.0006374925751583885 -0.0347534111564054 0 0.0026074287216586271 -0.02827919325108804 0 0.0022059887946174451 -0.030630165340351664 0 0.0010586516045771584 -0.028811978892098741 0 0.0014360435659971854 -0.031740987061044688 0 0.0013997792382650007 -0.032668949287371442 0 0.0006374925751583885 -0.0347534111564054 0 0.00062474454829299488 -0.03426617585721168 0 0.00032147936060332021 -0.034513271145237806 0 0.0006374925751583885 -0.0347534111564054 0 0.00062474454829299488 -0.03426617585721168 0 0.0010390585252687645 -0.033682966595158535 0 0.00032147936060332021 -0.034513271145237806 0 0.0003683814125478316 -0.034347283974082855 0 0.00060891072748204633 -0.034073799415933255 0 0.00062474454829299488 -0.03426617585721168 0 0.00060891072748204633 -0.034073799415933255 0 0.0010390585252687645 -0.033682966595158535 0 0.00062474454829299488 -0.03426617585721168 0 0.00032147936060332021 -0.034513271145237806 0 0.00060891072748204633 -0.034073799415933255 0 0.00060891072748204633 -0.034073799415933255 0 0.0010390585252687645 -0.033682966595158535 0 0.00077443272283570202 -0.033896511392482162 0 0.00046277925651592457 -0.033559540995700438 0 0.0010390585252687645 -0.033682966595158535 0 -9.9068973061619786e-05 -0.032504630286967963 0 0.00046277925651592457 -0.033559540995700438 0 0.0010390585252687645 -0.033682966595158535 0 0.00071148918974542016 -0.033865497592408575 0 0.0010390585252687645 -0.033682966595158535 0 0.00071148918974542016 -0.033865497592408575 0 0.00077443272283570202 -0.033896511392482162 0 0.00046277925651592457 -0.033559540995700438 0 0.00071148918974542016 -0.033865497592408575 0 0.00040241529217068352 -0.03392451045261341 0 0.0001942025616854345 -0.033997993351350023 0 -0.00010059872495013352 -0.033373317572082332 0 -0.0016086618894115071 -0.032806889425511028 0 -0.00010059872495013352 -0.033373317572082332 0 -9.9068973061619786e-05 -0.032504630286967963 0 -0.0016086618894115071 -0.032806889425511028 0 0.00018498464827851772 -0.033107925028139563 0 -0.00088487059956602547 -0.032438999878937627 0 0.00018755620709765483 -0.033139599066835543 0 0.00018498464827851772 -0.033107925028139563 0 0.00040241529217068352 -0.03392451045261341 0 0.0001942025616854345 -0.033997993351350023 0 -0.00010059872495013352 -0.033373317572082332 0 0.00046277925651592457 -0.033559540995700438 0 -0.00010059872495013352 -0.033373317572082332 0 -9.9068973061619786e-05 -0.032504630286967963 0 0.00046277925651592457 -0.033559540995700438 0 0.00040241529217068352 -0.03392451045261341 0 -0.00010059872495013352 -0.033373317572082332 0 -9.9068973061619786e-05 -0.032504630286967963 0 0.00046488590682098929 -0.030978332484155872 0 -0.0010628636352730814 -0.031105553950920229 0 0.0022059887946174451 -0.030630165340351664 0 0.0010390585252687645 -0.033682966595158535 0 0.00046488590682098929 -0.030978332484155872 0 0.0010390585252687645 -0.033682966595158535 0 -9.9068973061619786e-05 -0.032504630286967963 0 0.00046488590682098929 -0.030978332484155872 0 0.0013997792382650007 -0.032668949287371442 0 0.001071086489730677 -0.033635320199780806 0 0.0022059887946174451 -0.030630165340351664 0 0.0010586516045771584 -0.028811978892098741 0 0.00046488590682098929 -0.030978332484155872 0 -0.00063184026450813159 -0.027760652281196417 0 0.0010586516045771584 -0.028811978892098741 0 -0.00025155088237781455 -0.02950250077759 0 0.0010586516045771584 -0.028811978892098741 0 -0.00025155088237781455 -0.02950250077759 0 0.00046488590682098929 -0.030978332484155872 0 -0.00025155088237781455 -0.02950250077759 0 0.00046488590682098929 -0.030978332484155872 0 -0.0010628636352730814 -0.031105553950920229 0 -0.00025155088237781455 -0.02950250077759 0 -0.0010628636352730814 -0.031105553950920229 0 -0.0018587455099277361 -0.029525377255579594 0 -0.002064679943563305 -0.027544548568453078 0 -0.00063184026450813159 -0.027760652281196417 0 -0.0018587455099277361 -0.029525377255579594 0 -0.00063184026450813159 -0.027760652281196417 0 -0.00025155088237781455 -0.02950250077759 0 -0.0018587455099277361 -0.029525377255579594 0 -0.002064679943563305 -0.027544548568453078 0 -0.0039388956767735508 -0.028989398988959927 0 -0.0018587455099277361 -0.029525377255579594 0 -0.0020660034144299303 -0.027451546561931644 0 -0.0031931977058934462 -0.02811928434341409 0 -0.0010628636352730814 -0.031105553950920229 0 -0.0018587455099277361 -0.029525377255579594 0 -0.0034419778946975601 -0.031519303065287975 0 -0.0039388956767735508 -0.028989398988959927 0 -0.0018587455099277361 -0.029525377255579594 0 -0.0034419778946975601 -0.031519303065287975 0 -0.00023571813955636611 -0.032218596465853004 0 -0.00022173008479635742 -0.032082065091120097 0 -0.00010122342575843745 -0.032172354980583018 0 -0.0017950826517346844 -0.032188215274277766 0 -0.00088487059956602547 -0.032438999878937627 0 -9.9068973061619786e-05 -0.032504630286967963 0 -0.0010628636352730814 -0.031105553950920229 0 -0.0016086618894115071 -0.032806889425511028 0 -0.0010628636352730814 -0.031105553950920229 0 -0.0034419778946975601 -0.031519303065287975 0 -0.0016086618894115071 -0.032806889425511028 0 2.0528724511099133e-05 -0.032255519715224473 0 -0.00010122342575843745 -0.032172354980583018 0 -0.00013527174125816226 -0.032285199989911979 0 -0.00023571813955636611 -0.032218596465853004 0 -0.00010122342575843745 -0.032172354980583018 0 -0.00013527174125816226 -0.032285199989911979 0 -0.00088839628006311556 -0.032940708884040257 0 -0.00094284732797366929 -0.033042007534439269 0 -0.00053164303694551288 -0.033054949135909305 0 -0.00058801859594086528 -0.032630998790413153 0 -0.00034766152023700422 -0.03261798868628088 0 -0.00023571813955636611 -0.032218596465853004 0 -0.00027895820695109092 -0.032328807584806982 0 -0.00013527174125816226 -0.032285199989911979 0 -0.00053164303694551288 -0.033054949135909305 0 -7.4178668058559217e-05 -0.033474095845602403 0 3.2110795810420013e-05 -0.033310598908864349 0 0.00018498464827851772 -0.033107925028139563 0 -0.00034766152023700422 -0.03261798868628088 0 -0.00053164303694551288 -0.033054949135909305 0 -0.00049872038336706099 -0.033352917693808201 0 -7.4178668058559217e-05 -0.033474095845602403 0 -0.00024021571077390203 -0.033682057923611522 0 -0.00049872038336706099 -0.033352917693808201 0 -7.4178668058559217e-05 -0.033474095845602403 0 -0.00024021571077390203 -0.033682057923611522 0 -0.00049872038336706099 -0.033352917693808201 0 -0.0007313250797061577 -0.033642143349363017 0 -0.00094284732797366929 -0.033042007534439269 0 -0.00049872038336706099 -0.033352917693808201 0 -0.0007313250797061577 -0.033642143349363017 0 -0.00094284732797366929 -0.033042007534439269 0 -0.00053164303694551288 -0.033054949135909305 0 -0.00049872038336706099 -0.033352917693808201 0 -0.00096747588255150852 -0.033077285263037028 0 -0.001048728474852687 -0.032917716632197613 0 -0.00099348036210864942 -0.032652571467951919 0 -0.00094284732797366929 -0.033042007534439269 0 -0.0014970827043177001 -0.032465415556805169 0 -0.0013348198208695521 -0.032544883645977032 0 -0.001157780045451598 -0.031988893496976409 0 -0.0019192566545615521 -0.031875400986529766 0 -0.0011900301064042302 -0.032697347733448408 0 -0.001048728474852687 -0.032917716632197613 0 -0.0009377139206824777 -0.03228289804289286 0 -0.0013348198208695521 -0.032544883645977032 0 -0.001157780045451598 -0.031988893496976409 0 -0.001048728474852687 -0.032917716632197613 0 -0.0013077610164355007 -0.032330927688744342 0 -0.0013077610164355007 -0.032330927688744342 0 -0.0011508277557977526 -0.031028184006372497 0 -0.001157780045451598 -0.031988893496976409 0 -0.0019192566545615521 -0.031875400986529766 0 -0.0011780070688759191 -0.0311842889597484 0 -0.0008026767316566284 -0.032949592560738317 0 -0.00075528831284102501 -0.032918665018630805 0 -0.00073152732687528329 -0.032977448576396923 0 -0.0013077610164355007 -0.032330927688744342 0 -0.00032767031238922144 -0.033519987280747024 0 -0.0010275135507726814 -0.03287464991896176 0 -0.00089377056011569352 -0.033047178231676445 0 -0.00078930680506208496 -0.032967220819050194 0 -0.00024021571077390203 -0.033682057923611522 0 -0.0007313250797061577 -0.033642143349363017 0 -8.2763695093350954e-05 -0.0340582136198882 0 -0.001048728474852687 -0.032917716632197613 0 -0.00032767031238922144 -0.033519987280747024 0 -0.00032767031238922144 -0.033519987280747024 0 0.00049785782657056849 -0.033993484489867443 0 -0.00024021571077390203 -0.033682057923611522 0 -8.2763695093350954e-05 -0.0340582136198882 0 0.00042885989563660575 -0.033882078667233743 0 0.00023077789692190325 -0.034041187457492177 0 0.00043617412098934279 -0.034009844279743726 0 0.00042885989563660575 -0.033882078667233743 0 0.00023077789692190325 -0.034041187457492177 0 0.0004521002786642156 -0.034114410188058907 0 0.00043617412098934279 -0.034009844279743726 0 -0.00073152732687528329 -0.032977448576396923 0 -0.00066705137209796268 -0.032957709898140342 0 -0.00070303831639620905 -0.033018190692630484 0 -0.0008026767316566284 -0.032949592560738317 0 -0.00073152732687528329 -0.032977448576396923 0 -0.00072992930427769097 -0.033042051976887664 0 -0.00075528831284102501 -0.032918665018630805 0 -0.00073152732687528329 -0.032977448576396923 0 -0.00066705137209796268 -0.032957709898140342 0 -0.00032767031238922144 -0.033519987280747024 0 -0.00013451918312170594 -0.033811971020115968 0 0.0002511827656003878 -0.03485476120810773 0 0.00023314210896556008 -0.03486578121429295 0 0.00024785675922172739 -0.034775869005236423 0 0.00023314210896556008 -0.03486578121429295 0 0.00016720139819609625 -0.034850659425761529 0 0.00024785675922172739 -0.034775869005236423 0 -0.00066709898375601976 -0.032971355521907261 0 -0.00066705137209796268 -0.032957709898140342 0 -0.00070303831639620905 -0.033018190692630484 0 -0.00012293650002056166 -0.034040153977368579 0 -0.00013451918312170594 -0.033811971020115968 0 0.0004521002786642156 -0.034114410188058907 0 0.00049347825641975175 -0.034116067940394922 0 0.00048268059344452744 -0.034063369782933325 0 -0.00013451918312170594 -0.033811971020115968 0 0.00020415323967874882 -0.034292199877072008 0 2.2868972962413808e-05 -0.034071596487952611 0 2.5764812325456642e-05 -0.034156936813350101 0 -7.0496980539540321e-05 -0.034119747717330368 0 -0.00012293650002056166 -0.034040153977368579 0 0.00020415323967874882 -0.034292199877072008 0 0.00048268059344452744 -0.034063369782933325 0 0.00043617412098934279 -0.034009844279743726 0 0.00054147835091252199 -0.03402207323241737 0 0.00049347825641975175 -0.034116067940394922 0 0.00048268059344452744 -0.034063369782933325 0 0.00054147835091252199 -0.03402207323241737 0 0.0004521002786642156 -0.034114410188058907 0 0.00048268059344452744 -0.034063369782933325 0 0.00043617412098934279 -0.034009844279743726 0 0.00043617412098934279 -0.034009844279743726 0 0.00042885989563660575 -0.033882078667233743 0 0.00054147835091252199 -0.03402207323241737 0 0.00042885989563660575 -0.033882078667233743 0 0.00069325268998912258 -0.033872948117616535 0 0.00060978545199546889 -0.034000121872771162 0 0.00042885989563660575 -0.033882078667233743 0 0.00060978545199546889 -0.034000121872771162 0 0.00054147835091252199 -0.03402207323241737 0 0.00042885989563660575 -0.033882078667233743 0 0.00029558278494905613 -0.033586073171676584 0 0.00069325268998912258 -0.033872948117616535 0 0.00042885989563660575 -0.033882078667233743 0 -7.4178668058559217e-05 -0.033474095845602403 0 0.00029558278494905613 -0.033586073171676584 0 -0.00024021571077390203 -0.033682057923611522 0 0.00042885989563660575 -0.033882078667233743 0 -7.4178668058559217e-05 -0.033474095845602403 0 0.00019150303008940461 -0.033080321847792873 0 -0.00053164303694551288 -0.033054949135909305 0 3.2110795810420013e-05 -0.033310598908864349 0 0.00029558278494905613 -0.033586073171676584 0 3.2110795810420013e-05 -0.033310598908864349 0 0.00031095900968559822 -0.033456269306690219 0 -7.4178668058559217e-05 -0.033474095845602403 0 0.00029558278494905613 -0.033586073171676584 0 3.2110795810420013e-05 -0.033310598908864349 0 0.00019150303008940461 -0.033080321847792873 0 3.2110795810420013e-05 -0.033310598908864349 0 0.00031095900968559822 -0.033456269306690219 0 0.00071148918974542016 -0.033865497592408575 0 0.00040241529217068352 -0.03392451045261341 0 0.00069325268998912258 -0.033872948117616535 0 0.00029558278494905613 -0.033586073171676584 0 0.00031095900968559822 -0.033456269306690219 0 0.00069325268998912258 -0.033872948117616535 0 0.00018498464827851772 -0.033107925028139563 0 0.00071215706430085342 -0.033936663333304959 0 0.00040241529217068352 -0.03392451045261341 0 0.00037971963415333861 -0.033937321755638801 0 0.00069325268998912258 -0.033872948117616535 0 0.00019150303008940461 -0.033080321847792873 0 0.00031095900968559822 -0.033456269306690219 0 0.00069325268998912258 -0.033872948117616535 0 0.00071148918974542016 -0.033865497592408575 0 0.00077443272283570202 -0.033896511392482162 0 0.00069325268998912258 -0.033872948117616535 0 0.00060891072748204633 -0.034073799415933255 0 0.00069325268998912258 -0.033872948117616535 0 0.00056438100716826498 -0.034097592099344654 0 0.00069325268998912258 -0.033872948117616535 0 0.00056438100716826498 -0.034097592099344654 0 0.00060978545199546889 -0.034000121872771162 0 0.00060891072748204633 -0.034073799415933255 0 0.00077443272283570202 -0.033896511392482162 0 0.00069325268998912258 -0.033872948117616535 0 0.00056438100716826498 -0.034097592099344654 0 0.00052320927708043527 -0.034155102453208436 0 0.00032638872974005386 -0.034620343026797583 0 0.0003683814125478316 -0.034347283974082855 0 0.00056438100716826498 -0.034097592099344654 0 0.00019044639033242831 -0.034431000056584636 0 0.0003683814125478316 -0.034347283974082855 0 0.00060891072748204633 -0.034073799415933255 0 0.00056438100716826498 -0.034097592099344654 0 0.00053164316819075466 -0.034187401510286472 0 0.00026788255871166758 -0.034522716064092344 0 0.00056438100716826498 -0.034097592099344654 0 0.00052320927708043527 -0.034155102453208436 0 0.00060978545199546889 -0.034000121872771162 0 0.00052320927708043527 -0.034155102453208436 0 0.00060978545199546889 -0.034000121872771162 0 0.00059031970647722574 -0.034015856334003607 0 0.00049347825641975175 -0.034116067940394922 0 0.00054147835091252199 -0.03402207323241737 0 0.00059031970647722574 -0.034015856334003607 0 0.00060978545199546889 -0.034000121872771162 0 0.00054147835091252199 -0.03402207323241737 0 0.00059031970647722574 -0.034015856334003607 0 0.00024851727978549736 -0.034880077199379259 0 0.00016720139819609625 -0.034850659425761529 0 0.00013418943829610603 -0.034898899452798671 0 0.00020415323967874882 -0.034292199877072008 0 0.00037662957030171174 -0.034510254894555698 0 0.00024851727978549736 -0.034880077199379259 0 0.00013418943829610603 -0.034898899452798671 0 0.00012961146760373854 -0.034949733912151462 0 0.00014230821845714832 -0.034842160318643768 0 0.00016720139819609625 -0.034850659425761529 0 0.00013418943829610603 -0.034898899452798671 0 0.00020415323967874882 -0.034292199877072008 0 0.00025644855590131326 -0.034856279845102436 0 0.00013418943829610603 -0.034898899452798671 0 0.00012961146760373854 -0.034949733912151462 0 4.2140620304317561e-05 -0.034925517697628868 0 8.2923212032090499e-05 -0.034890382080111845 0 0.00013418943829610603 -0.034898899452798671 0 4.2140620304317561e-05 -0.034925517697628868 0 -0.00011403524327163602 -0.03427110532179875 0 -0.00013856956498125786 -0.034284642127365164 0 -0.00012494469261960727 -0.034265338713572686 0 0.00014230821845714832 -0.034842160318643768 0 8.2923212032090499e-05 -0.034890382080111845 0 0.00013418943829610603 -0.034898899452798671 0 5.3908528787827096e-05 -0.034642896234400811 0 -6.7947011983946352e-05 -0.034709895266891874 0 0.00052320927708043527 -0.034155102453208436 0 0.00059031970647722574 -0.034015856334003607 0 0.0003285582673809962 -0.034240187383505358 0 0.00037662957030171174 -0.034510254894555698 0 0.00020549503658467033 -0.034625671465528321 0 0.00012961146760373854 -0.034949733912151462 0 4.2140620304317561e-05 -0.034925517697628868 0 3.6941302750089888e-05 -0.034999444638727305 0 -6.7947011983946352e-05 -0.034709895266891874 0 1.2138643460737643e-05 -0.034928157004055709 0 -1.5528529736239786e-06 -0.035000968890383601 0 -1.0320237100710274e-06 -0.034997805574956832 0 3.3761412424950303e-06 -0.034990248711241387 0 2.5819379505749988e-05 -0.035011736957077676 0 -1.5528529736239786e-06 -0.035000968890383601 0 3.3761412424950303e-06 -0.034990248711241387 0 -1.5528529736239786e-06 -0.035000968890383601 0 -1.0320237100710274e-06 -0.034997805574956832 0 -2.3237648796906982e-09 -0.035000000542791052 0 -1.0320237100710274e-06 -0.034997805574956832 0 -2.3237648796906982e-09 -0.035000000542791052 0 -1.4302648952396704e-10 -0.034999993151020266 0 1.2138643460737643e-05 -0.034928157004055709 0 1.1307907224201073e-08 -0.035000002340769484 0 4.2140620304317561e-05 -0.034925517697628868 0 -2.4370047621380797e-08 -0.034999869815969795 0 3.6941302750089888e-05 -0.034999444638727305 0 -1.28221336916704e-07 -0.034998648566725146 0 0.0003285582673809962 -0.034240187383505358 0 0.00032638872974005386 -0.034620343026797583 0 1.0251759129571228e-07 -0.034999825349700274 0 0.00020549503658467033 -0.034625671465528321 0 -2.4370047621380797e-08 -0.034999869815969795 0 2.7756524722494956e-08 -0.0350000903833367 0 3.6941302750089888e-05 -0.034999444638727305 0 0.00052320927708043527 -0.034155102453208436 0 0.0003285582673809962 -0.034240187383505358 0 0.00032638872974005386 -0.034620343026797583 0 9.9118411667067672e-05 -0.034722334334139057 0 0.00019044639033242831 -0.034431000056584636 0 -2.1473386544435792e-09 -0.034999177554782185 0 -1.28221336916704e-07 -0.034998648566725146 0 0.00032638872974005386 -0.034620343026797583 0 1.4387527185237252e-07 -0.035000724835595513 0 0.00026788255871166758 -0.034522716064092344 0 8.3555356526514744e-08 -0.034999799918463241 0 2.8117358451303699e-05 -0.034861939517875105 0 3.6927854349718005e-08 -0.035000081967837667 0 -4.9526469431329629e-07 -0.034999194625891593 0 4.9636355341278025e-10 -0.03499999929171687 0 -5.4230183306143656e-10 -0.034999999278757257 0 -2.4168090125267366e-05 -0.034913466073715781 0 -2.055285957559291e-06 -0.034928450637428263 0 -5.3936216063800028e-06 -0.034999260041756838 0 -9.3736218865318052e-05 -0.034365146146317568 0 2.8117358451303699e-05 -0.034861939517875105 0 -7.7489160833785031e-06 -0.034623513161112632 0 -2.5413716562887746e-05 -0.034793642672236613 0 1.1930470424020179e-05 -0.034819940891431062 0 -7.7489160833785031e-06 -0.034623513161112632 0 -5.5995283239972643e-05 -0.034593560242482987 0 -2.5413716562887746e-05 -0.034793642672236613 0 2.8117358451303699e-05 -0.034861939517875105 0 -2.2080164333672886e-05 -0.034880511459078653 0 -9.3736218865318052e-05 -0.034365146146317568 0 -6.1433245961749672e-05 -0.034520997967939789 0 -4.9526469431329629e-07 -0.034999194625891593 0 4.9636355341278025e-10 -0.03499999929171687 0 -1.1375745512200423e-06 -0.034998445730359894 0 4.9636355341278025e-10 -0.03499999929171687 0 3.2980638141630596e-07 -0.034996998229583291 0 -1.1375745512200423e-06 -0.034998445730359894 0 4.9636355341278025e-10 -0.03499999929171687 0 -1.4302648952396704e-10 -0.034999993151020266 0 3.2980638141630596e-07 -0.034996998229583291 0 -1.0320237100710274e-06 -0.034997805574956832 0 -1.4302648952396704e-10 -0.034999993151020266 0 3.2980638141630596e-07 -0.034996998229583291 0 3.3761412424950303e-06 -0.034990248711241387 0 -2.5413716562887746e-05 -0.034793642672236613 0 1.1930470424020179e-05 -0.034819940891431062 0 3.3761412424950303e-06 -0.034990248711241387 0 9.925873786858161e-07 -0.034995126803105084 0 -1.1375745512200423e-06 -0.034998445730359894 0 9.925873786858161e-07 -0.034995126803105084 0 3.2980638141630596e-07 -0.034996998229583291 0 -1.1375745512200423e-06 -0.034998445730359894 0 5.4284996275240841e-06 -0.034993740792999745 0 -2.2080164333672886e-05 -0.034880511459078653 0 -1.0320237100710274e-06 -0.034997805574956832 0 3.3761412424950303e-06 -0.034990248711241387 0 9.925873786858161e-07 -0.034995126803105084 0 -1.0320237100710274e-06 -0.034997805574956832 0 9.925873786858161e-07 -0.034995126803105084 0 3.2980638141630596e-07 -0.034996998229583291 0 -0.00014182327378576146 -0.034231106670989678 0 -0.00012625715052792382 -0.034221890807616361 0 -0.00013187908544709699 -0.03421223309923848 0 -0.00012625715052792382 -0.034221890807616361 0 -0.00012417897011326651 -0.034236703508485504 0 -0.00010750870906713034 -0.034226752205067941 0 -0.00014182327378576146 -0.034231106670989678 0 -0.00012625715052792382 -0.034221890807616361 0 -0.00012417897011326651 -0.034236703508485504 0 -0.00014182327378576146 -0.034231106670989678 0 -0.00012417897011326651 -0.034236703508485504 0 -0.00013023297966563126 -0.03425477871206218 0 2.5819379505749988e-05 -0.035011736957077676 0 3.3761412424950303e-06 -0.034990248711241387 0 1.1930470424020179e-05 -0.034819940891431062 0 -6.7947011983946352e-05 -0.034709895266891874 0 -6.1433245961749672e-05 -0.034520997967939789 0 -0.00013856956498125786 -0.034284642127365164 0 -0.00014182327378576146 -0.034231106670989678 0 -0.00013023297966563126 -0.03425477871206218 0 -0.00012417897011326651 -0.034236703508485504 0 -0.00011700446535573636 -0.034252021526458579 0 -0.0001119468005732671 -0.034237576305441934 0 -0.00012417897011326651 -0.034236703508485504 0 -0.00013023297966563126 -0.03425477871206218 0 -0.00011700446535573636 -0.034252021526458579 0 -0.00013023297966563126 -0.03425477871206218 0 -0.00011700446535573636 -0.034252021526458579 0 -0.00012494469261960727 -0.034265338713572686 0 -0.00011403524327163602 -0.03427110532179875 0 -0.00011700446535573636 -0.034252021526458579 0 -0.00012494469261960727 -0.034265338713572686 0 -0.00013856956498125786 -0.034284642127365164 0 -0.00013023297966563126 -0.03425477871206218 0 -0.00012494469261960727 -0.034265338713572686 0 5.3908528787827096e-05 -0.034642896234400811 0 -0.00017049249992056882 -0.033842710639300798 0 -0.00011403524327163602 -0.03427110532179875 0 -0.00010092027262841925 -0.034242218275855094 0 -7.6776828327429188e-05 -0.034245819829708271 0 0.00014230821845714832 -0.034842160318643768 0 0.00016720139819609625 -0.034850659425761529 0 0.00024785675922172739 -0.034775869005236423 0 -0.00011403524327163602 -0.03427110532179875 0 -0.00011700446535573636 -0.034252021526458579 0 -0.00010092027262841925 -0.034242218275855094 0 -0.00011700446535573636 -0.034252021526458579 0 -0.00010092027262841925 -0.034242218275855094 0 -0.0001119468005732671 -0.034237576305441934 0 -0.00010092027262841925 -0.034242218275855094 0 -0.00010750870906713034 -0.034226752205067941 0 -7.8853508461995895e-05 -0.034221879444852207 0 -0.00010750870906713034 -0.034226752205067941 0 -0.00011328668530444978 -0.034206410668826882 0 -7.8853508461995895e-05 -0.034221879444852207 0 -0.00010188043915755947 -0.033960978660346856 0 -0.00020983591140304945 -0.033405598574931597 0 -0.00010092027262841925 -0.034242218275855094 0 -0.00010750870906713034 -0.034226752205067941 0 -0.0001119468005732671 -0.034237576305441934 0 -0.00012417897011326651 -0.034236703508485504 0 -0.00010750870906713034 -0.034226752205067941 0 -0.0001119468005732671 -0.034237576305441934 0 -0.00012625715052792382 -0.034221890807616361 0 -0.00010750870906713034 -0.034226752205067941 0 -0.00011328668530444978 -0.034206410668826882 0 -0.00012539292874039643 -0.033678751745298399 0 -0.00017531302345929562 -0.03383385503511039 0 -0.00030913172952160933 -0.033787165288315872 0 -9.3736218865318052e-05 -0.034365146146317568 0 -0.00010188043915755947 -0.033960978660346856 0 -0.00014385319350157036 -0.034190206465952507 0 -0.00011328668530444978 -0.034206410668826882 0 -0.00013187908544709699 -0.03421223309923848 0 -0.00014385319350157036 -0.034190206465952507 0 -0.00014182327378576146 -0.034231106670989678 0 -0.00013187908544709699 -0.03421223309923848 0 -0.00012625715052792382 -0.034221890807616361 0 -0.00011328668530444978 -0.034206410668826882 0 -0.00013187908544709699 -0.03421223309923848 0 6.6279053380564936e-05 -0.033800613999416446 0 -6.6342271840670928e-05 -0.033838244027777603 0 8.0730436590836315e-07 -0.03394151294358709 0 6.6279053380564936e-05 -0.033800613999416446 0 -0.00012539292874039643 -0.033678751745298399 0 -6.6342271840670928e-05 -0.033838244027777603 0 -6.6342271840670928e-05 -0.033838244027777603 0 -9.9634283939792931e-05 -0.033945950356562365 0 8.0730436590836315e-07 -0.03394151294358709 0 -6.6342271840670928e-05 -0.033838244027777603 0 -0.00017531302345929562 -0.03383385503511039 0 -9.9634283939792931e-05 -0.033945950356562365 0 -0.00012539292874039643 -0.033678751745298399 0 -6.6342271840670928e-05 -0.033838244027777603 0 -0.00017531302345929562 -0.03383385503511039 0 -0.00017531302345929562 -0.03383385503511039 0 -0.00030913172952160933 -0.033787165288315872 0 -0.00029898544223869308 -0.03402028998856034 0 -0.00024720615571226495 -0.033068972336533838 0 -0.00053363298687795905 -0.033293267755833661 0 -0.00024235460599646705 -0.033615220685104162 0 -0.00024720615571226495 -0.033068972336533838 0 -0.00053363298687795905 -0.033293267755833661 0 -0.00040760485694089357 -0.032868001932273912 0 -0.00028918454911334968 -0.033349577215976013 0 -0.00027322062145839323 -0.033838346013589385 0 -0.00053363298687795905 -0.033293267755833661 0 -0.00068271836326893893 -0.032975776590151488 0 -0.00096310812102288459 -0.033334389353827161 0 -0.00053363298687795905 -0.033293267755833661 0 -0.00068271836326893893 -0.032975776590151488 0 -0.00040760485694089357 -0.032868001932273912 0 -0.00068271836326893893 -0.032975776590151488 0 -0.00040760485694089357 -0.032868001932273912 0 -0.00066699572408932125 -0.032706749981652287 0 -0.00040760485694089357 -0.032868001932273912 0 -0.00038146537457121865 -0.032617490777291439 0 -0.00066699572408932125 -0.032706749981652287 0 -0.00024720615571226495 -0.033068972336533838 0 -0.00040760485694089357 -0.032868001932273912 0 -0.00026875370847394172 -0.032552584274827309 0 -0.00028918454911334968 -0.033349577215976013 0 -0.00020983591140304945 -0.033405598574931597 0 -0.00012539292874039643 -0.033678751745298399 0 -0.00030913172952160933 -0.033787165288315872 0 -0.00031649131835177654 -0.033555279029302325 0 -0.00040760485694089357 -0.032868001932273912 0 -0.00038146537457121865 -0.032617490777291439 0 -0.00026875370847394172 -0.032552584274827309 0 -0.00038146537457121865 -0.032617490777291439 0 -0.00026875370847394172 -0.032552584274827309 0 -0.00055360414827823243 -0.032398405091014763 0 -0.00020983591140304945 -0.033405598574931597 0 -0.00085996366596727931 -0.032295640912949251 0 -0.00020983591140304945 -0.033405598574931597 0 -0.00017049249992056882 -0.033842710639300798 0 -0.00032447973540364626 -0.033272718914289082 0 -0.00033246461438489705 -0.033053318148069 0 -0.0005538726664714251 -0.03314445618783541 0 -0.00012293650002056166 -0.034040153977368579 0 -0.00017049249992056882 -0.033842710639300798 0 -0.00010092027262841925 -0.034242218275855094 0 -7.8853508461995895e-05 -0.034221879444852207 0 -7.6776828327429188e-05 -0.034245819829708271 0 -0.00066709898375601976 -0.032971355521907261 0 -0.00066620004456317068 -0.033034246706907126 0 -0.00070303831639620905 -0.033018190692630484 0 -0.00017049249992056882 -0.033842710639300798 0 -0.00085996366596727931 -0.032295640912949251 0 -0.00073152732687528329 -0.032977448576396923 0 -0.00070303831639620905 -0.033018190692630484 0 -0.00072992930427769097 -0.033042051976887664 0 -0.00066620004456317068 -0.033034246706907126 0 -0.00070303831639620905 -0.033018190692630484 0 -0.00072302190569462543 -0.033050511041957054 0 -0.00070303831639620905 -0.033018190692630484 0 -0.00072302190569462543 -0.033050511041957054 0 -0.00072992930427769097 -0.033042051976887664 0 -0.00085996366596727931 -0.032295640912949251 0 -0.001462816654113532 -0.031702988581794267 0 -0.001462816654113532 -0.031702988581794267 0 -0.0022048689359379509 -0.030885453073261647 0 -0.0022702885573072243 -0.030711618875204991 0 -0.0022209322877917072 -0.030775997599895605 0 -0.0015691627256362308 -0.030367865400907596 0 -0.00038146537457121865 -0.032617490777291439 0 -0.0005514776796523319 -0.032395304705093352 0 -0.00066699572408932125 -0.032706749981652287 0 -0.00038928181661239132 -0.032653731451445067 0 -0.00085996366596727931 -0.032295640912949251 0 -0.00085996366596727931 -0.032295640912949251 0 -0.0012654497668525223 -0.03132714828383254 0 -0.0005514776796523319 -0.032395304705093352 0 -0.00066699572408932125 -0.032706749981652287 0 -0.00099689564898478391 -0.032587584882474784 0 -0.0016619127976095134 -0.031515356092172195 0 -0.0022175307394126389 -0.030773633445737227 0 -0.0018882856497359887 -0.03098279739391575 0 -0.0022209322877917072 -0.030775997599895605 0 -0.0015691627256362308 -0.030367865400907596 0 -0.0018882856497359887 -0.03098279739391575 0 -0.0016619127976095134 -0.031515356092172195 0 -0.0018882856497359887 -0.03098279739391575 0 -0.0014700797529819806 -0.030820480725404054 0 -0.0013077610164355007 -0.032330927688744342 0 -0.001462816654113532 -0.031702988581794267 0 -0.0015691627256362308 -0.030367865400907596 0 -0.0018882856497359887 -0.03098279739391575 0 -0.0014700797529819806 -0.030820480725404054 0 -0.0010580262964814226 -0.031025085491663013 0 -0.0014700797529819806 -0.030820480725404054 0 -0.00094691780266500719 -0.030511028060850726 0 -0.0016619127976095134 -0.031515356092172195 0 -0.0010580262964814226 -0.031025085491663013 0 -0.0014700797529819806 -0.030820480725404054 0 -0.0012654497668525223 -0.03132714828383254 0 -0.0015074096534690986 -0.031889941008786497 0 -0.0015691627256362308 -0.030367865400907596 0 -0.0014700797529819806 -0.030820480725404054 0 -0.00094691780266500719 -0.030511028060850726 0 -0.0015691627256362308 -0.030367865400907596 0 -0.00094691780266500719 -0.030511028060850726 0 -0.00083150259315957367 -0.029973630943087609 0 -0.00099689564898478391 -0.032587584882474784 0 -0.00098830532262677738 -0.032925543520207309 0 -0.0014261122329345601 -0.032762901632501722 0 -0.00098830532262677738 -0.032925543520207309 0 -0.0013122213398546764 -0.033111608563194478 0 -0.0014261122329345601 -0.032762901632501722 0 -0.00066699572408932125 -0.032706749981652287 0 -0.00099689564898478391 -0.032587584882474784 0 -0.00098830532262677738 -0.032925543520207309 0 -0.00068271836326893893 -0.032975776590151488 0 -0.00066699572408932125 -0.032706749981652287 0 -0.00098830532262677738 -0.032925543520207309 0 -0.00068271836326893893 -0.032975776590151488 0 -0.00098830532262677738 -0.032925543520207309 0 -0.00096310812102288459 -0.033334389353827161 0 -0.00098830532262677738 -0.032925543520207309 0 -0.0013122213398546764 -0.033111608563194478 0 -0.00096310812102288459 -0.033334389353827161 0 -0.0013122213398546764 -0.033111608563194478 0 -0.00096310812102288459 -0.033334389353827161 0 -0.0015285686789195121 -0.033420520475055782 0 -0.00096310812102288459 -0.033334389353827161 0 -0.0011861996504551223 -0.03393691669877457 0 -0.0015285686789195121 -0.033420520475055782 0 -0.00096310812102288459 -0.033334389353827161 0 -0.0011861996504551223 -0.03393691669877457 0 -0.00065065899859703571 -0.033917950292821714 0 0.0020829915383473304 -0.028485290853285442 0 0.0020559781370743514 -0.028884200912460301 0 0.0019598790504861399 -0.028607744614116901 0 0.0020829915383473304 -0.028485290853285442 0 0.0020559781370743514 -0.028884200912460301 0 0.0023183341492126518 -0.028840338690971707 0 0.00040917841691137359 -0.031085328015644002 0 0.00075734110944648109 -0.031643505792673811 0 -0.0011861996504551223 -0.03393691669877457 0 -0.00082711344470266877 -0.034404805100468436 0 -0.00065065899859703571 -0.033917950292821714 0 -0.00082711344470266877 -0.034404805100468436 0 -0.00046963263755079064 -0.034443940833392472 0 -0.00065065899859703571 -0.033917950292821714 0 -0.00046963263755079064 -0.034443940833392472 0 -0.00029905047907890212 -0.034201234509071442 0 -0.00065065899859703571 -0.033917950292821714 0 -0.00046963263755079064 -0.034443940833392472 0 -0.00029905047907890212 -0.034201234509071442 0 -0.00023558272148686672 -0.034427011039270337 0 -0.00024667000026162725 -0.034640807016143853 0 -0.00046963263755079064 -0.034443940833392472 0 -0.00023558272148686672 -0.034427011039270337 0 -0.00029187104706003932 -0.034167266274233096 0 -0.00027322062145839323 -0.033838346013589385 0 -0.00029905047907890212 -0.034201234509071442 0 -0.00029898544223869308 -0.03402028998856034 0 -0.00016595523191460719 -0.034055892210369039 0 -0.00029905047907890212 -0.034201234509071442 0 -0.00065065899859703571 -0.033917950292821714 0 -0.00024235460599646705 -0.033615220685104162 0 -0.00053363298687795905 -0.033293267755833661 0 -0.00096310812102288459 -0.033334389353827161 0 -0.00065065899859703571 -0.033917950292821714 0 -0.00053363298687795905 -0.033293267755833661 0 -0.00065065899859703571 -0.033917950292821714 0 -0.00024235460599646705 -0.033615220685104162 0 -0.00017531302345929562 -0.03383385503511039 0 -0.00029898544223869308 -0.03402028998856034 0 -9.9634283939792931e-05 -0.033945950356562365 0 -0.00029898544223869308 -0.03402028998856034 0 -9.9634283939792931e-05 -0.033945950356562365 0 -0.00016595523191460719 -0.034055892210369039 0 8.0730436590836315e-07 -0.03394151294358709 0 -3.7837063342308406e-05 -0.034059268441060706 0 0.0001076680639936194 -0.034056567834221362 0 -9.9634283939792931e-05 -0.033945950356562365 0 -3.7837063342308406e-05 -0.034059268441060706 0 -0.00016595523191460719 -0.034055892210369039 0 -9.9634283939792931e-05 -0.033945950356562365 0 8.0730436590836315e-07 -0.03394151294358709 0 -3.7837063342308406e-05 -0.034059268441060706 0 -3.7837063342308406e-05 -0.034059268441060706 0 -0.00010693121111060879 -0.034172079488324431 0 -0.00016595523191460719 -0.034055892210369039 0 -3.7837063342308406e-05 -0.034059268441060706 0 1.390162553010698e-05 -0.034195655265500099 0 0.0001076680639936194 -0.034056567834221362 0 -3.7837063342308406e-05 -0.034059268441060706 0 1.390162553010698e-05 -0.034195655265500099 0 -0.00010693121111060879 -0.034172079488324431 0 -0.00029905047907890212 -0.034201234509071442 0 -0.00010693121111060879 -0.034172079488324431 0 -0.00016595523191460719 -0.034055892210369039 0 -0.00029905047907890212 -0.034201234509071442 0 -0.00023558272148686672 -0.034427011039270337 0 -9.6991461369089343e-05 -0.034346052562907507 0 -0.00029905047907890212 -0.034201234509071442 0 -0.00010693121111060879 -0.034172079488324431 0 -9.6991461369089343e-05 -0.034346052562907507 0 -0.00024667000026162725 -0.034640807016143853 0 -0.00023558272148686672 -0.034427011039270337 0 -0.00011950867434436065 -0.034508807461091549 0 -0.00023558272148686672 -0.034427011039270337 0 -0.00011950867434436065 -0.034508807461091549 0 -9.6991461369089343e-05 -0.034346052562907507 0 1.8731189539975426e-06 -0.034549890624034622 0 -9.6991461369089343e-05 -0.034346052562907507 0 0.00015866581745996232 -0.03437893688515397 0 -3.8302246577760407e-05 -0.034704024374309674 0 1.8731189539975426e-06 -0.034549890624034622 0 -0.00011950867434436065 -0.034508807461091549 0 1.8731189539975426e-06 -0.034549890624034622 0 -0.00011950867434436065 -0.034508807461091549 0 -9.6991461369089343e-05 -0.034346052562907507 0 1.390162553010698e-05 -0.034195655265500099 0 -9.6991461369089343e-05 -0.034346052562907507 0 0.00015866581745996232 -0.03437893688515397 0 1.390162553010698e-05 -0.034195655265500099 0 -0.00010693121111060879 -0.034172079488324431 0 -9.6991461369089343e-05 -0.034346052562907507 0 8.8266848481904689e-05 -0.034848240120815964 0 8.6048071428164829e-05 -0.034694342421743955 0 1.6908212242435112e-05 -0.034958037542304463 0 8.4099127979567071e-05 -0.034867186339756773 0 2.8281202995180797e-05 -0.035014206184490512 0 8.4099127979567071e-05 -0.034867186339756773 0 1.8731189539975426e-06 -0.034549890624034622 0 0.00015866581745996232 -0.03437893688515397 0 1.6908212242435112e-05 -0.034958037542304463 0 2.8281202995180797e-05 -0.035014206184490512 0 -7.8259776429651568e-09 -0.034999998244468734 0 2.8281202995180797e-05 -0.035014206184490512 0 -7.8259776429651568e-09 -0.034999998244468734 0 1.6073675635029271e-08 -0.035000020543187994 0 2.8281202995180797e-05 -0.035014206184490512 0 1.6073675635029271e-08 -0.035000020543187994 0 9.5432891656517353e-06 -0.035002794628186111 0 1.6073675635029271e-08 -0.035000020543187994 0 9.5432891656517353e-06 -0.035002794628186111 0 3.5358389118600049e-09 -0.034999978592339415 0 1.390162553010698e-05 -0.034195655265500099 0 0.00015866581745996232 -0.03437893688515397 0 0.0001076680639936194 -0.034056567834221362 0 8.6048071428164829e-05 -0.034694342421743955 0 6.8545949467028412e-05 -0.034527242903677272 0 2.8281202995180797e-05 -0.035014206184490512 0 9.5432891656517353e-06 -0.035002794628186111 0 -5.3936216063800028e-06 -0.034999260041756838 0 9.5432891656517353e-06 -0.035002794628186111 0 -5.3936216063800028e-06 -0.034999260041756838 0 7.7339597644118818e-06 -0.034992203806792133 0 -2.055285957559291e-06 -0.034928450637428263 0 -5.3936216063800028e-06 -0.034999260041756838 0 7.7339597644118818e-06 -0.034992203806792133 0 6.6279053380564936e-05 -0.033800613999416446 0 8.0730436590836315e-07 -0.03394151294358709 0 0.0001076680639936194 -0.034056567834221362 0 2.8117358451303699e-05 -0.034861939517875105 0 9.5488673560674068e-06 -0.035026336830415103 0 -9.3736218865318052e-05 -0.034365146146317568 0 6.8545949467028412e-05 -0.034527242903677272 0 9.5432891656517353e-06 -0.035002794628186111 0 7.7339597644118818e-06 -0.034992203806792133 0 3.5358389118600049e-09 -0.034999978592339415 0 9.4336583169986832e-06 -0.035001546899698747 0 7.7339597644118818e-06 -0.034992203806792133 0 3.5358389118600049e-09 -0.034999978592339415 0 -0.00063801601474148856 -0.01801003285028159 0 -0.00047900984833658123 -0.018010545488797117 0 -0.00062509052431733219 -0.017737706317181537 0 -0.00063801601474148856 -0.01801003285028159 0 -0.00047900984833658123 -0.018010545488797117 0 -0.00039338146267740306 -0.01824128526959997 0 -0.00063801601474148856 -0.01801003285028159 0 -0.00039338146267740306 -0.01824128526959997 0 -0.00064827115910512292 -0.018283106768294755 0 -0.00063801601474148856 -0.01801003285028159 0 -0.00087864156531887894 -0.017961606092090007 0 -0.00064827115910512292 -0.018283106768294755 0 -0.0011323663947153146 -0.01792741681550418 0 -0.00087864156531887894 -0.017961606092090007 0 -0.00096442711557184226 -0.018169040450744862 0 -0.00087864156531887894 -0.017961606092090007 0 -0.00064827115910512292 -0.018283106768294755 0 -0.00096442711557184226 -0.018169040450744862 0 -0.00087864156531887894 -0.017961606092090007 0 -0.00090835954825702232 -0.017732522921551374 0 -0.0012300605694670855 -0.017682329628460895 0 -0.0011323663947153146 -0.01792741681550418 0 -0.00087864156531887894 -0.017961606092090007 0 -0.0012300605694670855 -0.017682329628460895 0 -0.00063801601474148856 -0.01801003285028159 0 -0.00087864156531887894 -0.017961606092090007 0 -0.00090835954825702232 -0.017732522921551374 0 -0.00098766670450967076 -0.017511060551644315 0 -0.00097142511052599151 -0.01736106595160021 0 -0.00076261421209841674 -0.017495189841159303 0 -0.00098766670450967076 -0.017511060551644315 0 -0.0011834320864284637 -0.017305165375619481 0 -0.0012721374826747409 -0.01740864750365188 0 -0.00098766670450967076 -0.017511060551644315 0 -0.0012582691948394818 -0.01755310722434588 0 -0.0012721374826747409 -0.01740864750365188 0 -0.0010134194045094082 -0.01772317946004871 0 -0.0012452111347798331 -0.01759238808100454 0 -0.0010194948837094404 -0.017217241999735369 0 -0.0011834320864284637 -0.017305165375619481 0 -0.00097142511052599151 -0.01736106595160021 0 -0.00098766670450967076 -0.017511060551644315 0 -0.0011834320864284637 -0.017305165375619481 0 -0.00097142511052599151 -0.01736106595160021 0 -0.0006606800482998502 -0.017312648375835404 0 -0.00085436514847994313 -0.017287733560117924 0 -0.00076261421209841674 -0.017495189841159303 0 -0.00085436514847994313 -0.017287733560117924 0 -0.00097142511052599151 -0.01736106595160021 0 -0.00076261421209841674 -0.017495189841159303 0 -0.00063801601474148856 -0.01801003285028159 0 -0.00090835954825702232 -0.017732522921551374 0 -0.00062509052431733219 -0.017737706317181537 0 -0.0010134194045094082 -0.01772317946004871 0 -0.00053395479436005083 -0.016825505191758496 0 -0.00047900984833658123 -0.018010545488797117 0 -0.00062509052431733219 -0.017737706317181537 0 -0.0003722475171015631 -0.017881573871148967 0 -0.00062509052431733219 -0.017737706317181537 0 -0.00031775966923298736 -0.01768252013126597 0 -0.0003722475171015631 -0.017881573871148967 0 -0.00053395479436005083 -0.016825505191758496 0 1.2723992574521638e-05 -0.024316353305811327 0 -0.0006606800482998502 -0.017312648375835404 0 -0.00076261421209841674 -0.017495189841159303 0 -0.00054165244542322543 -0.017495243679433118 0 0.00033167540120189281 -0.031220991679463368 0 0.00052160715103656617 -0.030204841102528919 0 -0.00016564711155118327 -0.03102374756965522 0 1.2723992574521638e-05 -0.024316353305811327 0 -0.00037867162299712206 -0.032053694674439401 0 0.0010354879820933635 -0.030880610528102443 0 0.00033167540120189281 -0.031220991679463368 0 0.00052160715103656617 -0.030204841102528919 0 1.2723992574521638e-05 -0.024316353305811327 0 4.6460865406026949e-05 -0.023522377798473427 0 -0.00031775966923298736 -0.01768252013126597 0 -8.3161829440162453e-05 -0.017927592354229808 0 -0.0003722475171015631 -0.017881573871148967 0 -0.0010580262964814226 -0.031025085491663013 0 -0.00041154175776517474 -0.030503381050023405 0 -0.00094691780266500719 -0.030511028060850726 0 -0.00038969626360604176 -0.031595632512041838 0 -0.0011780070688759191 -0.0311842889597484 0 -0.00016564711155118327 -0.03102374756965522 0 -0.0011508277557977526 -0.031028184006372497 0 -0.00044556127879173386 -0.03055760089415379 0 -0.0011780070688759191 -0.0311842889597484 0 -0.00016564711155118327 -0.03102374756965522 0 -0.00041154175776517474 -0.030503381050023405 0 -0.00038969626360604176 -0.031595632512041838 0 0.00033167540120189281 -0.031220991679463368 0 -0.00016564711155118327 -0.03102374756965522 0 0.00052160715103656617 -0.030204841102528919 0 -0.00041154175776517474 -0.030503381050023405 0 4.5646304922255094e-06 -0.029541303525174457 0 0.00052160715103656617 -0.030204841102528919 0 -0.00016564711155118327 -0.03102374756965522 0 -0.00041154175776517474 -0.030503381050023405 0 -0.00041154175776517474 -0.030503381050023405 0 -0.00094691780266500719 -0.030511028060850726 0 -0.00083150259315957367 -0.029973630943087609 0 -0.0013122213398546764 -0.033111608563194478 0 -0.0014261122329345601 -0.032762901632501722 0 -0.0018455380022368911 -0.032909773395632738 0 -0.00041154175776517474 -0.030503381050023405 0 -0.00083150259315957367 -0.029973630943087609 0 4.5646304922255094e-06 -0.029541303525174457 0 -0.0015074096534690986 -0.031889941008786497 0 0.00028935889098656358 -0.027440293229017212 0 0.00028935889098656358 -0.027440293229017212 0 0.00033929563830733113 -0.031524668811304002 0 0.0019781047356612672 -0.028261598697589936 0 0.0020220457271651051 -0.028386265030413721 0 0.0019761046479285912 -0.028334861317237621 0 -0.0013122213398546764 -0.033111608563194478 0 -0.0018455380022368911 -0.032909773395632738 0 -0.0015285686789195121 -0.033420520475055782 0 -0.00047900984833658123 -0.018010545488797117 0 -0.0003722475171015631 -0.017881573871148967 0 -0.00034288294479143159 -0.018137314187083753 0 -8.3161829440162453e-05 -0.017927592354229808 0 -0.0003722475171015631 -0.017881573871148967 0 -0.00034288294479143159 -0.018137314187083753 0 -0.00047900984833658123 -0.018010545488797117 0 -0.00034288294479143159 -0.018137314187083753 0 -0.00039338146267740306 -0.01824128526959997 0 -0.00034288294479143159 -0.018137314187083753 0 -6.1052663980193023e-05 -0.018205455712360513 0 -7.1366250122079536e-05 -0.018444836831495615 0 -8.3161829440162453e-05 -0.017927592354229808 0 0.00024251653255372309 -0.018333958011367002 0 -6.1052663980193023e-05 -0.018205455712360513 0 4.6460865406026949e-05 -0.023522377798473427 0 0.00028935889098656358 -0.027440293229017212 0 -8.3161829440162453e-05 -0.017927592354229808 0 -0.00034288294479143159 -0.018137314187083753 0 -6.1052663980193023e-05 -0.018205455712360513 0 0.00024251653255372309 -0.018333958011367002 0 -6.1052663980193023e-05 -0.018205455712360513 0 -7.1366250122079536e-05 -0.018444836831495615 0 0.0019781047356612672 -0.028261598697589936 0 0.0019394718572655774 -0.02826983644885574 0 0.0019761046479285912 -0.028334861317237621 0 0.0019394718572655774 -0.02826983644885574 0 0.0019485249827145541 -0.028349618703386644 0 0.0019761046479285912 -0.028334861317237621 0 0.00028935889098656358 -0.027440293229017212 0 0.0013255237836320892 -0.023212021120051093 0 0.0013255237836320892 -0.023212021120051093 0 -0.00038536896886272901 -0.021522659892748226 0 -0.00034288294479143159 -0.018137314187083753 0 -7.1366250122079536e-05 -0.018444836831495615 0 -0.00047363381501141057 -0.018639012072497393 0 -0.00012287008314248936 -0.017233856179156952 0 -0.00038536896886272901 -0.021522659892748226 0 0.0019394718572655774 -0.02826983644885574 0 0.0018996458464405289 -0.028271011703867501 0 0.0019485249827145541 -0.028349618703386644 0 0.0018996458464405289 -0.028271011703867501 0 0.0019485249827145541 -0.028349618703386644 0 0.0019148879274736704 -0.028355920382066038 0 -0.00038536896886272901 -0.021522659892748226 0 0.00047499563043373422 -0.024996175999551014 0 0.0019485249827145541 -0.028349618703386644 0 0.0019791170686610719 -0.028434855466406724 0 0.0019761046479285912 -0.028334861317237621 0 0.0019791170686610719 -0.028434855466406724 0 0.00198122797354472 -0.028448216872019653 0 0.0019148879274736704 -0.028355920382066038 0 0.0019485249827145541 -0.028349618703386644 0 0.0019791170686610719 -0.028434855466406724 0 0.0019148879274736704 -0.028355920382066038 0 0.0019791170686610719 -0.028434855466406724 0 0.0020220457271651051 -0.028386265030413721 0 0.0019761046479285912 -0.028334861317237621 0 0.0019791170686610719 -0.028434855466406724 0 0.0020220457271651051 -0.028386265030413721 0 0.0020000716375480412 -0.028474739981409862 0 0.00040917841691137359 -0.031085328015644002 0 0.00033929563830733113 -0.031524668811304002 0 0.0020829915383473304 -0.028485290853285442 0 0.0020220457271651051 -0.028386265030413721 0 0.0020000716375480412 -0.028474739981409862 0 0.0020829915383473304 -0.028485290853285442 0 0.0020000716375480412 -0.028474739981409862 0 0.0019598790504861399 -0.028607744614116901 0 0.0019791170686610719 -0.028434855466406724 0 0.0020000716375480412 -0.028474739981409862 0 0.0019990598852274491 -0.0285143317394474 0 0.0020000716375480412 -0.028474739981409862 0 0.0019990598852274491 -0.0285143317394474 0 0.0019598790504861399 -0.028607744614116901 0 0.0020344575652598003 -0.028511469422681054 0 0.0019990598852274491 -0.0285143317394474 0 0.0020246847755359511 -0.028487056839177183 0 0.0020344575652598003 -0.028511469422681054 0 0.0019990598852274491 -0.0285143317394474 0 0.0019598790504861399 -0.028607744614116901 0 0.0019790019185849665 -0.028881357987408131 0 0.0019557329585916843 -0.028639960780501201 0 0.0018016082390264084 -0.029228049923927343 0 0.0020559781370743514 -0.028884200912460301 0 0.0019598790504861399 -0.028607744614116901 0 0.00198122797354472 -0.028448216872019653 0 0.0019511226483947643 -0.028405173449280584 0 0.0019148879274736704 -0.028355920382066038 0 0.00198122797354472 -0.028448216872019653 0 0.0020020251610781488 -0.028447528980727322 0 0.0019511226483947643 -0.028405173449280584 0 0.0019791170686610719 -0.028434855466406724 0 0.0019990598852274491 -0.0285143317394474 0 0.00198122797354472 -0.028448216872019653 0 0.0019990598852274491 -0.0285143317394474 0 0.00198122797354472 -0.028448216872019653 0 0.0020246847755359511 -0.028487056839177183 0 0.00198122797354472 -0.028448216872019653 0 0.0020246847755359511 -0.028487056839177183 0 0.0020020251610781488 -0.028447528980727322 0 -0.00077568459790521591 -0.01999583976797167 0 -0.00077002828461824723 -0.020088454583465552 0 -0.00086310042262902043 -0.020185621127203082 0 0.00041194778001153574 -0.023328497972725536 0 0.00055370924190007462 -0.024354726687441514 0 0.0020020251610781488 -0.028447528980727322 0 0.0019856190647401508 -0.028421481275223624 0 0.0019511226483947643 -0.028405173449280584 0 0.00041194778001153574 -0.023328497972725536 0 -0.0010001155109164365 -0.019043933787193986 0 -0.00047073786580869025 -0.019468049107691406 0 -0.00060565170863051269 -0.019861859603223862 0 -0.00036807242114341322 -0.02005410196754857 0 -0.00088119736682295516 -0.019773026568102724 0 -0.00077002828461824723 -0.020088454583465552 0 -0.00060565170863051269 -0.019861859603223862 0 -0.00067300325390754834 -0.01962881610668623 0 -0.00088119736682295516 -0.019773026568102724 0 -0.00060565170863051269 -0.019861859603223862 0 -0.00077002828461824723 -0.020088454583465552 0 -0.00060565170863051269 -0.019861859603223862 0 -0.00058855934721148472 -0.020152339091679631 0 -0.00060565170863051269 -0.019861859603223862 0 -0.00058855934721148472 -0.020152339091679631 0 -0.00036807242114341322 -0.02005410196754857 0 -0.00077002828461824723 -0.020088454583465552 0 -0.00058855934721148472 -0.020152339091679631 0 -0.00074246463423510267 -0.020213956713887184 0 -0.00074246463423510267 -0.020213956713887184 0 -0.00078731055181680194 -0.020349298894769784 0 -0.0006525614612133304 -0.020340521731124894 0 -0.00058855934721148472 -0.020152339091679631 0 -0.00074246463423510267 -0.020213956713887184 0 -0.0006525614612133304 -0.020340521731124894 0 -0.00058855934721148472 -0.020152339091679631 0 -0.0006525614612133304 -0.020340521731124894 0 -0.00045639890184485715 -0.020359424975029992 0 -0.00077002828461824723 -0.020088454583465552 0 -0.00086310042262902043 -0.020185621127203082 0 -0.00074246463423510267 -0.020213956713887184 0 -0.00086310042262902043 -0.020185621127203082 0 -0.00074246463423510267 -0.020213956713887184 0 -0.00078731055181680194 -0.020349298894769784 0 -0.00086310042262902043 -0.020185621127203082 0 -0.00094915212536251495 -0.020537565411442658 0 -0.00078731055181680194 -0.020349298894769784 0 0.00055370924190007462 -0.024354726687441514 0 0.00047499563043373422 -0.024996175999551014 0 -0.00094915212536251495 -0.020537565411442658 0 -0.00078731055181680194 -0.020349298894769784 0 -0.00072993350058648838 -0.020486822765489653 0 -0.00078731055181680194 -0.020349298894769784 0 -0.0006525614612133304 -0.020340521731124894 0 -0.00072993350058648838 -0.020486822765489653 0 -0.0006525614612133304 -0.020340521731124894 0 -0.00057661930853641235 -0.020537434983450398 0 -0.00045639890184485715 -0.020359424975029992 0 -0.0006525614612133304 -0.020340521731124894 0 -0.00057661930853641235 -0.020537434983450398 0 -0.00072993350058648838 -0.020486822765489653 0 -0.00057661930853641235 -0.020537434983450398 0 -0.00066990960358885685 -0.020693511814809211 0 -0.00032334675925205691 -0.020496257936416483 0 -0.00057661930853641235 -0.020537434983450398 0 -0.00072993350058648838 -0.020486822765489653 0 -0.00066990960358885685 -0.020693511814809211 0 -0.00062318435453294926 -0.019352395621038326 0 -0.00093876572591291348 -0.01859271866037996 0 -0.00094915212536251495 -0.020537565411442658 0 -0.00072993350058648838 -0.020486822765489653 0 -0.00066990960358885685 -0.020693511814809211 0 -0.0010222452844410226 -0.02087547264662222 0 -0.00094915212536251495 -0.020537565411442658 0 -0.00066990960358885685 -0.020693511814809211 0 -0.00038536896886272901 -0.021522659892748226 0 -0.00062318435453294926 -0.019352395621038326 0 -0.00096463401565519493 -0.018349979674369857 0 -0.0014392152021756406 -0.017447016906927199 0 -0.0011323663947153146 -0.01792741681550418 0 -0.00096442711557184226 -0.018169040450744862 0 -0.0010288427342765838 -0.018410550213718582 0 -0.0011323663947153146 -0.01792741681550418 0 -0.001215262492576158 -0.018143751739392772 0 -0.00099950049414616513 -0.018291643930888477 0 -0.001215262492576158 -0.018143751739392772 0 -0.00099950049414616513 -0.018291643930888477 0 -0.0013970314373358925 -0.018371040588481088 0 -0.00064827115910512292 -0.018283106768294755 0 -0.00096442711557184226 -0.018169040450744862 0 -0.00095715758035060019 -0.018401791541095953 0 -0.00096442711557184226 -0.018169040450744862 0 -0.00095715758035060019 -0.018401791541095953 0 -0.0010288427342765838 -0.018410550213718582 0 -0.00057661930853641235 -0.020537434983450398 0 -0.00033017678970432651 -0.02049938693667025 0 -0.00045639890184485715 -0.020359424975029992 0 -0.00027546551464126593 -0.020471250386623334 0 -0.00033017678970432651 -0.02049938693667025 0 -0.00045639890184485715 -0.020359424975029992 0 -0.0013732927859193332 -0.017254529073207486 0 -0.00093876572591291348 -0.01859271866037996 0 -0.00027546551464126593 -0.020471250386623334 0 -0.00045639890184485715 -0.020359424975029992 0 -0.00036807242114341322 -0.02005410196754857 0 -0.0013232915711813439 -0.018125266874234033 0 -0.0010822256619235147 -0.018022602372728094 0 -0.0013517957143883231 -0.018032748238669367 0 -0.00093876572591291348 -0.01859271866037996 0 -0.0014392152021756406 -0.017447016906927199 0 -0.00037671574945575788 -0.02049904125196195 0 -0.00093876572591291348 -0.01859271866037996 0 -0.0014392152021756406 -0.017447016906927199 0 -0.0016925851385751714 -0.014886099176084465 0 -0.0015182212482209914 -0.011613821328786663 0 -0.0018774842372480728 -0.0118060597044471 0 -0.0022144602180187035 -0.011625641229966352 0 -0.0015055987480940625 -0.011652754955257616 0 -0.0018774842372480728 -0.0118060597044471 0 -0.0018894753851740776 -0.012152498031242449 0 -0.0015055987480940625 -0.011652754955257616 0 -0.0015182212482209914 -0.011613821328786663 0 -0.0018774842372480728 -0.0118060597044471 0 -0.0013732927859193332 -0.017254529073207486 0 -0.0014392152021756406 -0.017447016906927199 0 -0.0015055987480940625 -0.011652754955257616 0 -0.0018894753851740776 -0.012152498031242449 0 -0.001209026755943566 -0.012357370333025079 0 -0.00058855934721148472 -0.020152339091679631 0 -0.00045639890184485715 -0.020359424975029992 0 -0.00036807242114341322 -0.02005410196754857 0 -0.0013732927859193332 -0.017254529073207486 0 -0.00072674612569533067 -0.016006457573791707 0 -0.00068656460583087133 -0.016145848485957005 0 -0.00072674612569533067 -0.016006457573791707 0 -0.00078736099834263585 -0.013192586260248442 0 -0.001848985086220614 -0.012896358246283711 0 -0.001209026755943566 -0.012357370333025079 0 -0.001848985086220614 -0.012896358246283711 0 -0.0018894753851740776 -0.012152498031242449 0 -0.001209026755943566 -0.012357370333025079 0 -0.001848985086220614 -0.012896358246283711 0 -0.0018894753851740776 -0.012152498031242449 0 -0.002340142431866359 -0.012481503704070645 0 -0.001848985086220614 -0.012896358246283711 0 -0.0027799038845275231 -0.012920663636404235 0 -0.002340142431866359 -0.012481503704070645 0 -0.0031362890245178725 -0.012790013050913903 0 -0.0034706552207186573 -0.011771856206189207 0 -0.0027799038845275231 -0.012920663636404235 0 -0.002340142431866359 -0.012481503704070645 0 -0.0027966555452461571 -0.01228197970924914 0 -0.0027966555452461571 -0.01228197970924914 0 -0.0028836508286260369 -0.011665647090925144 0 -0.0024397739270514544 -0.011966980901608741 0 -0.002340142431866359 -0.012481503704070645 0 -0.0027966555452461571 -0.01228197970924914 0 -0.0024397739270514544 -0.011966980901608741 0 -0.0018774842372480728 -0.0118060597044471 0 -0.0018894753851740776 -0.012152498031242449 0 -0.0024397739270514544 -0.011966980901608741 0 -0.0018894753851740776 -0.012152498031242449 0 -0.002340142431866359 -0.012481503704070645 0 -0.0024397739270514544 -0.011966980901608741 0 -0.0042028507725594367 -0.012561190028271912 0 -0.0043479177271926071 -0.012208071883732215 0 -0.0040245455622577933 -0.012224364566968147 0 -0.0043479177271926071 -0.012208071883732215 0 -0.0040245455622577933 -0.012224364566968147 0 -0.0042111732908517554 -0.012049976660263697 0 -0.0035591529711004222 -0.012368062345631602 0 -0.0039385524620312229 -0.012063440463380483 0 -0.0040245455622577933 -0.012224364566968147 0 -0.0039385524620312229 -0.012063440463380483 0 -0.0040245455622577933 -0.012224364566968147 0 -0.0042111732908517554 -0.012049976660263697 0 -0.0039385524620312229 -0.012063440463380483 0 -0.0041186765532380048 -0.012013048373662677 0 -0.0041157920218275511 -0.011956511213301527 0 -0.0039385524620312229 -0.012063440463380483 0 -0.0041186765532380048 -0.012013048373662677 0 -0.0042111732908517554 -0.012049976660263697 0 -0.0034706552207186573 -0.011771856206189207 0 -0.0028131402581792792 -0.013673669120811595 0 -0.0043479177271926071 -0.012208071883732215 0 -0.0042111732908517554 -0.012049976660263697 0 -0.00437735513991075 -0.012047145262724301 0 -0.0042111732908517554 -0.012049976660263697 0 -0.0043319248179625883 -0.012007439944030866 0 -0.00437735513991075 -0.012047145262724301 0 -0.0041186765532380048 -0.012013048373662677 0 -0.0042111732908517554 -0.012049976660263697 0 -0.0042295445273661447 -0.012004664479139535 0 -0.0042111732908517554 -0.012049976660263697 0 -0.0042295445273661447 -0.012004664479139535 0 -0.0043319248179625883 -0.012007439944030866 0 -0.0042519390185235201 -0.012011876815686355 0 -0.0042582507591927702 -0.012042748378441685 0 -0.0043319248179625883 -0.012007439944030866 0 -0.0042519390185235201 -0.012011876815686355 0 -0.0042295445273661447 -0.012004664479139535 0 -0.0043319248179625883 -0.012007439944030866 0 -0.0042519390185235201 -0.012011876815686355 0 -0.0042295445273661447 -0.012004664479139535 0 -0.0042023315151568132 -0.011980553008270563 0 -0.0042023315151568132 -0.011980553008270563 0 -0.0042901980020919094 -0.011980221069546437 0 -0.0042407536557615352 -0.012025145753227549 0 -0.0041186765532380048 -0.012013048373662677 0 -0.0042023315151568132 -0.011980553008270563 0 -0.0041157920218275511 -0.011956511213301527 0 -0.0042330638748862325 -0.012761170824741068 0 -0.0028131402581792792 -0.013673669120811595 0 -0.0041186765532380048 -0.012013048373662677 0 -0.0042295445273661447 -0.012004664479139535 0 -0.0042023315151568132 -0.011980553008270563 0 -0.0028131402581792792 -0.013673669120811595 0 -0.0034442918934288317 -0.015226266252798435 0 -0.0019761473881505305 -0.018525154235780647 0 -0.0018804654250717655 -0.018030951816016716 0 -0.0021102092578170659 -0.017971804576661841 0 -0.0019761473881505305 -0.018525154235780647 0 -0.0021102092578170659 -0.017971804576661841 0 -0.0025708008130812554 -0.017729985828358039 0 -0.0042901980020919094 -0.011980221069546437 0 -0.0042680733712671332 -0.012089046214323862 0 -0.0043060264931165443 -0.012222159880389103 0 -0.0042680733712671332 -0.012089046214323862 0 -0.0042292243823303282 -0.012040455542581608 0 -0.0042364803041308376 -0.012098177564767944 0 -0.0042680733712671332 -0.012089046214323862 0 -0.0042364803041308376 -0.012098177564767944 0 -0.0042623246379880344 -0.012147663184731981 0 -0.0042901980020919094 -0.011980221069546437 0 -0.0042680733712671332 -0.012089046214323862 0 -0.0042407536557615352 -0.012025145753227549 0 -0.0042680733712671332 -0.012089046214323862 0 -0.0042407536557615352 -0.012025145753227549 0 -0.0042292243823303282 -0.012040455542581608 0 -0.0042023315151568132 -0.011980553008270563 0 -0.0042407536557615352 -0.012025145753227549 0 -0.0042292243823303282 -0.012040455542581608 0 -0.0042519390185235201 -0.012011876815686355 0 -0.0042023315151568132 -0.011980553008270563 0 -0.0042292243823303282 -0.012040455542581608 0 -0.0042364803041308376 -0.012098177564767944 0 -0.0042235310717344508 -0.012086850791434635 0 -0.004218691235176807 -0.012148016892499541 0 -0.0042292243823303282 -0.012040455542581608 0 -0.0042364803041308376 -0.012098177564767944 0 -0.0042235310717344508 -0.012086850791434635 0 -0.0042292243823303282 -0.012040455542581608 0 -0.0042235310717344508 -0.012086850791434635 0 -0.0042582507591927702 -0.012042748378441685 0 -0.0042235310717344508 -0.012086850791434635 0 -0.0042582507591927702 -0.012042748378441685 0 -0.0042313122896681142 -0.012087572709872048 0 -0.0042519390185235201 -0.012011876815686355 0 -0.0042292243823303282 -0.012040455542581608 0 -0.0042582507591927702 -0.012042748378441685 0 -0.0018774842372480728 -0.0118060597044471 0 -0.0022144602180187035 -0.011625641229966352 0 -0.0024397739270514544 -0.011966980901608741 0 -0.0028131402581792792 -0.013673669120811595 0 -0.0016925851385751714 -0.014886099176084465 0 -0.0028836508286260369 -0.011665647090925144 0 -0.0022144602180187035 -0.011625641229966352 0 -0.0024397739270514544 -0.011966980901608741 0 -0.0019761473881505305 -0.018525154235780647 0 -0.0018804654250717655 -0.018030951816016716 0 -0.0016441294932845597 -0.018156827642259506 0 -0.0019761473881505305 -0.018525154235780647 0 -0.0013970314373358925 -0.018371040588481088 0 -0.0016441294932845597 -0.018156827642259506 0 -0.0018804654250717655 -0.018030951816016716 0 -0.0016441294932845597 -0.018156827642259506 0 -0.0016379988384970891 -0.017805520873355855 0 -0.001215262492576158 -0.018143751739392772 0 -0.0013970314373358925 -0.018371040588481088 0 -0.0013758506139637048 -0.018015583044993209 0 -0.0013970314373358925 -0.018371040588481088 0 -0.0016441294932845597 -0.018156827642259506 0 -0.0013758506139637048 -0.018015583044993209 0 -0.0011323663947153146 -0.01792741681550418 0 -0.0013758506139637048 -0.018015583044993209 0 -0.0013774950948373826 -0.017789654491078395 0 -0.0011323663947153146 -0.01792741681550418 0 -0.001215262492576158 -0.018143751739392772 0 -0.0013758506139637048 -0.018015583044993209 0 -0.0013758506139637048 -0.018015583044993209 0 -0.0013774950948373826 -0.017789654491078395 0 -0.0016379988384970891 -0.017805520873355855 0 -0.0011323663947153146 -0.01792741681550418 0 -0.0013774950948373826 -0.017789654491078395 0 -0.0012300605694670855 -0.017682329628460895 0 -0.0013774950948373826 -0.017789654491078395 0 -0.0012300605694670855 -0.017682329628460895 0 -0.0016558902125813437 -0.017531420789825294 0 -0.0012452111347798331 -0.01759238808100454 0 -0.0016313920884410747 -0.01757465573221962 0 -0.0012582691948394818 -0.01755310722434588 0 -0.0016558902125813437 -0.017531420789825294 0 -0.0014346734936161048 -0.017438156804255232 0 -0.0017705752031682051 -0.017515357484460758 0 -0.0019152910768885833 -0.017455065155235632 0 -0.0015697428643081045 -0.017395608212751656 0 -0.0016558902125813437 -0.017531420789825294 0 -0.0014346734936161048 -0.017438156804255232 0 -0.0015697428643081045 -0.017395608212751656 0 -0.0016558902125813437 -0.017531420789825294 0 -0.0017705752031682051 -0.017515357484460758 0 -0.0015697428643081045 -0.017395608212751656 0 -0.0017705752031682051 -0.017515357484460758 0 -0.0016379988384970891 -0.017805520873355855 0 -0.0018987173061249412 -0.017744859318345747 0 -0.0016558902125813437 -0.017531420789825294 0 -0.0017705752031682051 -0.017515357484460758 0 -0.0016379988384970891 -0.017805520873355855 0 -0.0013774950948373826 -0.017789654491078395 0 -0.0016558902125813437 -0.017531420789825294 0 -0.0016379988384970891 -0.017805520873355855 0 -0.0016441294932845597 -0.018156827642259506 0 -0.0013758506139637048 -0.018015583044993209 0 -0.0016379988384970891 -0.017805520873355855 0 -0.0018804654250717655 -0.018030951816016716 0 -0.0016379988384970891 -0.017805520873355855 0 -0.0018987173061249412 -0.017744859318345747 0 -0.0018804654250717655 -0.018030951816016716 0 -0.0018987173061249412 -0.017744859318345747 0 -0.0021102092578170659 -0.017971804576661841 0 -0.0021102092578170659 -0.017971804576661841 0 -0.0021057578781800445 -0.017746676649066106 0 -0.0025708008130812554 -0.017729985828358039 0 -0.0018987173061249412 -0.017744859318345747 0 -0.0021057578781800445 -0.017746676649066106 0 -0.0019152910768885833 -0.017455065155235632 0 -0.0018987173061249412 -0.017744859318345747 0 -0.0021102092578170659 -0.017971804576661841 0 -0.0021057578781800445 -0.017746676649066106 0 -0.0042680733712671332 -0.012089046214323862 0 -0.0042623246379880344 -0.012147663184731981 0 -0.0043060264931165443 -0.012222159880389103 0 -0.0042364803041308376 -0.012098177564767944 0 -0.0042623246379880344 -0.012147663184731981 0 -0.004218691235176807 -0.012148016892499541 0 -0.0042623246379880344 -0.012147663184731981 0 -0.0042519367559884572 -0.012178840107068109 0 -0.004218691235176807 -0.012148016892499541 0 -0.0042519367559884572 -0.012178840107068109 0 -0.0043060264931165443 -0.012222159880389103 0 -0.0042233879128009541 -0.012198056100963335 0 -0.0042519367559884572 -0.012178840107068109 0 -0.0042233879128009541 -0.012198056100963335 0 -0.004218691235176807 -0.012148016892499541 0 -0.0042623246379880344 -0.012147663184731981 0 -0.0042519367559884572 -0.012178840107068109 0 -0.0043060264931165443 -0.012222159880389103 0 -0.0043060264931165443 -0.012222159880389103 0 -0.0042233879128009541 -0.012198056100963335 0 -0.0041725939161286864 -0.012254200862274151 0 -0.0017705752031682051 -0.017515357484460758 0 -0.0018987173061249412 -0.017744859318345747 0 -0.0019152910768885833 -0.017455065155235632 0 -0.0021057578781800445 -0.017746676649066106 0 -0.0025708008130812554 -0.017729985828358039 0 -0.0019152910768885833 -0.017455065155235632 0 -0.0042235310717344508 -0.012086850791434635 0 -0.0041914406251220135 -0.012151620594389295 0 -0.0042313122896681142 -0.012087572709872048 0 -0.0041914406251220135 -0.012151620594389295 0 -0.004218691235176807 -0.012148016892499541 0 -0.0041907730523764045 -0.012192188869591574 0 -0.0042235310717344508 -0.012086850791434635 0 -0.0041914406251220135 -0.012151620594389295 0 -0.004218691235176807 -0.012148016892499541 0 -0.0042233879128009541 -0.012198056100963335 0 -0.004218691235176807 -0.012148016892499541 0 -0.0041907730523764045 -0.012192188869591574 0 -0.0042233879128009541 -0.012198056100963335 0 -0.0041725939161286864 -0.012254200862274151 0 -0.0041907730523764045 -0.012192188869591574 0 -0.0041725939161286864 -0.012254200862274151 0 -0.0041646687562714247 -0.01221228307182024 0 -0.0041352682773390676 -0.012277589467539001 0 -0.0041725939161286864 -0.012254200862274151 0 -0.0041907730523764045 -0.012192188869591574 0 -0.0041646687562714247 -0.01221228307182024 0 -0.0041914406251220135 -0.012151620594389295 0 -0.0041646687562714247 -0.01221228307182024 0 -0.0041541118508010202 -0.012209213820859117 0 -0.0041914406251220135 -0.012151620594389295 0 -0.0041541118508010202 -0.012209213820859117 0 -0.0041962868466799714 -0.012138306503756191 0 -0.0041914406251220135 -0.012151620594389295 0 -0.0041907730523764045 -0.012192188869591574 0 -0.0041646687562714247 -0.01221228307182024 0 -0.0041431292423297419 -0.012272004988370222 0 -0.0041541118508010202 -0.012209213820859117 0 -0.0041116315827453053 -0.012196057993814914 0 -0.0041431292423297419 -0.012272004988370222 0 -0.0041541118508010202 -0.012209213820859117 0 -0.0041352682773390676 -0.012277589467539001 0 -0.0041646687562714247 -0.01221228307182024 0 -0.0041541118508010202 -0.012209213820859117 0 -0.0041352682773390676 -0.012277589467539001 0 -0.0041725939161286864 -0.012254200862274151 0 -0.0041352682773390676 -0.012277589467539001 0 -0.0040651357610734734 -0.012353485436019919 0 -0.0041431292423297419 -0.012272004988370222 0 -0.0041352682773390676 -0.012277589467539001 0 -0.0040651357610734734 -0.012353485436019919 0 -0.0041431292423297419 -0.012272004988370222 0 -0.0040651357610734734 -0.012353485436019919 0 -0.0041422903410778585 -0.012356662172440112 0 -0.0040651357610734734 -0.012353485436019919 0 -0.0040514580079837785 -0.012396427634539676 0 -0.0037650640952118313 -0.012435800348587501 0 -0.0040651357610734734 -0.012353485436019919 0 -0.0040514580079837785 -0.012396427634539676 0 -0.0041422903410778585 -0.012356662172440112 0 -0.0040514580079837785 -0.012396427634539676 0 -0.0041422903410778585 -0.012356662172440112 0 -0.0042378458685446985 -0.012390542480202639 0 -0.0041431292423297419 -0.012272004988370222 0 -0.0041422903410778585 -0.012356662172440112 0 -0.0041116315827453053 -0.012196057993814914 0 -0.0042112781407595357 -0.012427846430873522 0 -0.0040114671766837938 -0.012132635612473505 0 -0.0041422903410778585 -0.012356662172440112 0 -0.0042378458685446985 -0.012390542480202639 0 -0.0041116315827453053 -0.012196057993814914 0 -0.0019152910768885833 -0.017455065155235632 0 -0.0037650640952118313 -0.012435800348587501 0 -0.0009377488505857704 -0.012304982443697614 0 -0.0034442918934288317 -0.015226266252798435 0 -0.0037749851768573137 -0.012394903789132793 0 -0.0043060264931165443 -0.012222159880389103 0 -0.0040651357610734734 -0.012353485436019919 0 -0.0037650640952118313 -0.012435800348587501 0 -0.001823818057139897 -0.017231276306399399 0 -0.0014855825844598623 -0.015184232804767177 0 -0.0025708008130812554 -0.017729985828358039 0 -0.0019152910768885833 -0.017455065155235632 0 -0.0037650640952118313 -0.012435800348587501 0 -0.0043060264931165443 -0.012222159880389103 0 -0.0041725939161286864 -0.012254200862274151 0 -0.0040651357610734734 -0.012353485436019919 0 -0.0038820041297353701 -0.011340202684912936 0 -0.0017901786970214667 -0.0097237280421051259 0 -0.0009377488505857704 -0.012304982443697614 0 -0.0037650640952118313 -0.012435800348587501 0 -0.0038820041297353701 -0.011340202684912936 0 -0.0009377488505857704 -0.012304982443697614 0 -0.00061630034337572669 -0.010738858560723872 0 -0.00033030690426172636 -0.01097910116550454 0 -0.0033767829107913126 -0.011614224858919889 0 -0.0037574745000769467 -0.011971967227929288 0 -0.0040719603464835453 -0.012096622266999733 0 0.0037164596996335396 -0.0094162131916872022 0 0.0030858630024829274 -0.0094603831345894188 0 0.0027951747654482765 -0.010149393960897238 0 -0.0037650640952118313 -0.012435800348587501 0 -0.0038820041297353701 -0.011340202684912936 0 -0.0042378458685446985 -0.012390542480202639 0 -0.0040514580079837785 -0.012396427634539676 0 -0.0037650640952118313 -0.012435800348587501 0 -0.0042378458685446985 -0.012390542480202639 0 -0.00061630034337572669 -0.010738858560723872 0 -0.0042112781407595357 -0.012427846430873522 0 0.0030858630024829274 -0.0094603831345894188 0 0.0033941050718647742 -0.0088739003939942544 0 0.0028575653779324625 -0.0092540454380741922 0 0.0037164596996335396 -0.0094162131916872022 0 0.0030858630024829274 -0.0094603831345894188 0 0.0033941050718647742 -0.0088739003939942544 0 0.0037164596996335396 -0.0094162131916872022 0 0.0033941050718647742 -0.0088739003939942544 0 0.0043531849683233941 -0.0086697856258670745 0 0.0033941050718647742 -0.0088739003939942544 0 0.0043531849683233941 -0.0086697856258670745 0 0.0038455549174372149 -0.0083147934654535169 0 0.0003041483694109857 -0.010974186784472607 0 0.0011400515784977269 -0.01033371392042505 0 0.0012283052964022435 -0.010021681066139843 0 -0.00061630034337572669 -0.010738858560723872 0 0.0031482484941802906 -0.0090402480586297112 0 -0.00061630034337572669 -0.010738858560723872 0 -0.00020935392864239046 -0.010004596615975822 0 0.0011400515784977269 -0.01033371392042505 0 0.0012283052964022435 -0.010021681066139843 0 0.0019587227706544474 -0.0096962112177955764 0 -0.0014855825844598623 -0.015184232804767177 0 0.00067483882908744624 -0.011679330521908863 0 -0.00020935392864239046 -0.010004596615975822 0 0.00067483882908744624 -0.011679330521908863 0 -0.0017901786970214667 -0.0097237280421051259 0 -0.0009377488505857704 -0.012304982443697614 0 6.1250396358286305e-05 -0.0082809985349653753 0 -0.0013839845055284158 -0.017311441547934677 0 -0.0015697428643081045 -0.017395608212751656 0 -0.0014006547885569915 -0.0171431253898972 0 -0.0011834320864284637 -0.017305165375619481 0 -0.0013839845055284158 -0.017311441547934677 0 -0.0012721374826747409 -0.01740864750365188 0 -0.0011834320864284637 -0.017305165375619481 0 -0.0013200349626458969 -0.017232164135928603 0 -0.0013839845055284158 -0.017311441547934677 0 -0.0013200349626458969 -0.017232164135928603 0 -0.0013839845055284158 -0.017311441547934677 0 -0.0014006547885569915 -0.0171431253898972 0 -0.0011834320864284637 -0.017305165375619481 0 -0.0013200349626458969 -0.017232164135928603 0 -0.0012567064197143269 -0.017185298298565518 0 -0.0013839845055284158 -0.017311441547934677 0 -0.0012721374826747409 -0.01740864750365188 0 -0.0014346734936161048 -0.017438156804255232 0 -0.0012582691948394818 -0.01755310722434588 0 -0.0012721374826747409 -0.01740864750365188 0 -0.0014346734936161048 -0.017438156804255232 0 -0.0013839845055284158 -0.017311441547934677 0 -0.0014346734936161048 -0.017438156804255232 0 -0.0015697428643081045 -0.017395608212751656 0 0.0010733995823547031 -0.0095925618891384377 0 0.00071383736208837517 -0.0094001916443136879 0 0.0010946914273240115 -0.0091288645276844868 0 0.0010733995823547031 -0.0095925618891384377 0 0.0014711412292054617 -0.0094048414907577389 0 0.0010946914273240115 -0.0091288645276844868 0 0.0010733995823547031 -0.0095925618891384377 0 0.0014711412292054617 -0.0094048414907577389 0 0.0016049007659702825 -0.0099121633514946007 0 0.0010733995823547031 -0.0095925618891384377 0 0.0016049007659702825 -0.0099121633514946007 0 0.0010277011952521365 -0.01008506302482181 0 0.0010733995823547031 -0.0095925618891384377 0 0.00051855699582921172 -0.0096260484519936022 0 0.0010277011952521365 -0.01008506302482181 0 -0.00010585920883690335 -0.009546846886120083 0 4.2162543286969314e-05 -0.010283880492497198 0 -0.0011472219294040198 -0.010226506286809463 0 -0.0010671499028285661 -0.010304310002946253 0 -0.0011508538523094557 -0.010347839411403372 0 -0.00010585920883690335 -0.009546846886120083 0 -0.00064066731727662428 -0.0097750290536309896 0 0.0010733995823547031 -0.0095925618891384377 0 0.00051855699582921172 -0.0096260484519936022 0 0.00071383736208837517 -0.0094001916443136879 0 -0.00010585920883690335 -0.009546846886120083 0 0.00030445920407630689 -0.0093303064944102992 0 0.00053104811076080201 -0.0096112054828036506 0 0.00055893125048597791 -0.0089433173164421998 0 -0.00036159351551593805 -0.0087950382114480898 0 0.00053104811076080201 -0.0096112054828036506 0 0.00071383736208837517 -0.0094001916443136879 0 0.00055893125048597791 -0.0089433173164421998 0 0.00071383736208837517 -0.0094001916443136879 0 0.00055893125048597791 -0.0089433173164421998 0 0.0010946914273240115 -0.0091288645276844868 0 0.00055893125048597791 -0.0089433173164421998 0 -0.00036159351551593805 -0.0087950382114480898 0 0.00029321981669123618 -0.0082134665799366551 0 0.00055893125048597791 -0.0089433173164421998 0 0.0010946914273240115 -0.0091288645276844868 0 0.0010759536427266095 -0.0085507008461484634 0 0.0014711412292054617 -0.0094048414907577389 0 0.0010946914273240115 -0.0091288645276844868 0 0.001579284984837495 -0.0089622960362040049 0 0.001579284984837495 -0.0089622960362040049 0 0.0017109963063781483 -0.0084476344103472049 0 0.0010759536427266095 -0.0085507008461484634 0 0.0010946914273240115 -0.0091288645276844868 0 0.001579284984837495 -0.0089622960362040049 0 0.0010759536427266095 -0.0085507008461484634 0 0.001579284984837495 -0.0089622960362040049 0 0.0020728301633150051 -0.0089225729900861347 0 0.0017109963063781483 -0.0084476344103472049 0 0.0020728301633150051 -0.0089225729900861347 0 0.0019309105181197698 -0.009359815434419317 0 0.0023886249882718478 -0.0092197398229791703 0 0.0014711412292054617 -0.0094048414907577389 0 0.001579284984837495 -0.0089622960362040049 0 0.0019309105181197698 -0.009359815434419317 0 0.001579284984837495 -0.0089622960362040049 0 0.0020728301633150051 -0.0089225729900861347 0 0.0019309105181197698 -0.009359815434419317 0 0.0033941050718647742 -0.0088739003939942544 0 0.0028575653779324625 -0.0092540454380741922 0 0.002635846006719871 -0.0085876001746545503 0 0.0020728301633150051 -0.0089225729900861347 0 0.0023886249882718478 -0.0092197398229791703 0 0.002635846006719871 -0.0085876001746545503 0 0.0023886249882718478 -0.0092197398229791703 0 0.0028575653779324625 -0.0092540454380741922 0 0.0026656589069394554 -0.0096079062139874261 0 0.0023886249882718478 -0.0092197398229791703 0 0.0028575653779324625 -0.0092540454380741922 0 0.002635846006719871 -0.0085876001746545503 0 0.0030858630024829274 -0.0094603831345894188 0 0.0028575653779324625 -0.0092540454380741922 0 0.0026656589069394554 -0.0096079062139874261 0 0.0023886249882718478 -0.0092197398229791703 0 0.0026656589069394554 -0.0096079062139874261 0 0.0021882376047791959 -0.0097610680248789543 0 0.0024151645801559537 -0.0099663014283658813 0 0.0021882376047791959 -0.0097610680248789543 0 0.002009539115752051 -0.010350975882278879 0 0.0026656589069394554 -0.0096079062139874261 0 0.0024151645801559537 -0.0099663014283658813 0 0.0021882376047791959 -0.0097610680248789543 0 0.0030858630024829274 -0.0094603831345894188 0 0.0026656589069394554 -0.0096079062139874261 0 0.0027951747654482765 -0.010149393960897238 0 0.0026656589069394554 -0.0096079062139874261 0 0.0024151645801559537 -0.0099663014283658813 0 0.0027951747654482765 -0.010149393960897238 0 0.0014711412292054617 -0.0094048414907577389 0 0.0019309105181197698 -0.009359815434419317 0 0.0016049007659702825 -0.0099121633514946007 0 0.0019309105181197698 -0.009359815434419317 0 0.0021882376047791959 -0.0097610680248789543 0 0.0016049007659702825 -0.0099121633514946007 0 0.0019309105181197698 -0.009359815434419317 0 0.0023886249882718478 -0.0092197398229791703 0 0.0021882376047791959 -0.0097610680248789543 0 0.0021882376047791959 -0.0097610680248789543 0 0.0016049007659702825 -0.0099121633514946007 0 0.002009539115752051 -0.010350975882278879 0 0.0016049007659702825 -0.0099121633514946007 0 0.002009539115752051 -0.010350975882278879 0 0.0015257086788797681 -0.01053767544643886 0 0.002009539115752051 -0.010350975882278879 0 0.0014210334725087276 -0.010580066336030269 0 0.0018165100647513639 -0.010907952441560554 0 0.0022225633482520261 -0.010060185886797969 0 -0.00086680842866684383 -0.010808675666455606 0 -0.00086680842866684383 -0.010808675666455606 0 -0.002088229941280217 -0.011718583252929016 0 0.002009539115752051 -0.010350975882278879 0 0.0027951747654482765 -0.010149393960897238 0 0.0018165100647513639 -0.010907952441560554 0 -0.00033030690426172636 -0.01097910116550454 0 -0.002088229941280217 -0.011718583252929016 0 -0.0040719603464835453 -0.012096622266999733 0 -0.004170836623596675 -0.012178336757839199 0 -0.0042158056505243882 -0.012181158319228821 0 0.0024151645801559537 -0.0099663014283658813 0 0.002009539115752051 -0.010350975882278879 0 0.0027951747654482765 -0.010149393960897238 0 -0.0037574745000769467 -0.011971967227929288 0 -0.0040719603464835453 -0.012096622266999733 0 -0.0041116315827453053 -0.012196057993814914 0 -0.0040719603464835453 -0.012096622266999733 0 -0.004170836623596675 -0.012178336757839199 0 -0.0041116315827453053 -0.012196057993814914 0 -0.004170836623596675 -0.012178336757839199 0 -0.0041116315827453053 -0.012196057993814914 0 -0.0041649296938035697 -0.012177937229104095 0 -0.0041541118508010202 -0.012209213820859117 0 -0.0041116315827453053 -0.012196057993814914 0 -0.0041649296938035697 -0.012177937229104095 0 -0.0041541118508010202 -0.012209213820859117 0 -0.0041649296938035697 -0.012177937229104095 0 -0.0041962868466799714 -0.012138306503756191 0 -0.0041649296938035697 -0.012177937229104095 0 -0.0041962868466799714 -0.012138306503756191 0 -0.0041945968148663308 -0.012145230607944858 0 -0.0041962868466799714 -0.012138306503756191 0 -0.0041945968148663308 -0.012145230607944858 0 -0.0042431201751907451 -0.012087318172724938 0 -0.004170836623596675 -0.012178336757839199 0 -0.0041945968148663308 -0.012145230607944858 0 -0.0042431201751907451 -0.012087318172724938 0 -0.004170836623596675 -0.012178336757839199 0 -0.0041649296938035697 -0.012177937229104095 0 -0.0041945968148663308 -0.012145230607944858 0 -0.0041914406251220135 -0.012151620594389295 0 -0.0041962868466799714 -0.012138306503756191 0 -0.0042313122896681142 -0.012087572709872048 0 -0.0041962868466799714 -0.012138306503756191 0 -0.0042431201751907451 -0.012087318172724938 0 -0.0042313122896681142 -0.012087572709872048 0 -0.0044142994747474584 -0.011967331561937727 0 -0.0044131201492550029 -0.012013683736722052 0 -0.0043790106875324078 -0.011994698448252704 0 -0.0044131201492550029 -0.012013683736722052 0 -0.0043623849295384267 -0.011960660142924065 0 -0.0043646225401297008 -0.01204883329021866 0 -0.0034874470034163612 -0.012357230162766891 0 -0.002088229941280217 -0.011718583252929016 0 -0.0042403695301403092 -0.011588020391099537 0 -0.002088229941280217 -0.011718583252929016 0 -0.0042431201751907451 -0.012087318172724938 0 -0.0043623849295384267 -0.011960660142924065 0 -0.0043646225401297008 -0.01204883329021866 0 -0.004170836623596675 -0.012178336757839199 0 -0.0042431201751907451 -0.012087318172724938 0 -0.0042158056505243882 -0.012181158319228821 0 -0.0042431201751907451 -0.012087318172724938 0 -0.0043646225401297008 -0.01204883329021866 0 -0.0044092726793854096 -0.012051345794119784 0 -0.0044131201492550029 -0.012013683736722052 0 -0.0043646225401297008 -0.01204883329021866 0 -0.004442511878838107 -0.012049890304564635 0 -0.0043646225401297008 -0.01204883329021866 0 -0.004442511878838107 -0.012049890304564635 0 -0.0044092726793854096 -0.012051345794119784 0 -0.0044142994747474584 -0.011967331561937727 0 -0.0044131201492550029 -0.012013683736722052 0 -0.0045061064002199598 -0.012044007541135937 0 -0.0044131201492550029 -0.012013683736722052 0 -0.0044855128715722134 -0.012055160806859906 0 -0.0045061064002199598 -0.012044007541135937 0 -0.0044131201492550029 -0.012013683736722052 0 -0.004442511878838107 -0.012049890304564635 0 -0.0044855128715722134 -0.012055160806859906 0 -0.0044855128715722134 -0.012055160806859906 0 -0.0045061064002199598 -0.012044007541135937 0 -0.0045180683911460948 -0.012097719842950088 0 -0.00086680842866684383 -0.010808675666455606 0 -0.0029631047097858671 -0.0113512620843622 0 -0.00098602822228951699 -0.010380694205587387 0 -0.0011037153769993407 -0.010426017568267505 0 -0.0010671499028285661 -0.010304310002946253 0 -0.0011037153769993407 -0.010426017568267505 0 -0.0010671499028285661 -0.010304310002946253 0 -0.0011508538523094557 -0.010347839411403372 0 -0.00086680842866684383 -0.010808675666455606 0 4.2162543286969314e-05 -0.010283880492497198 0 0.0016049007659702825 -0.0099121633514946007 0 0.0015257086788797681 -0.01053767544643886 0 0.0010277011952521365 -0.01008506302482181 0 -0.0011037153769993407 -0.010426017568267505 0 -0.0011508538523094557 -0.010347839411403372 0 -0.0012157242638649235 -0.010428025012476172 0 -0.0011472219294040198 -0.010226506286809463 0 -0.0011508538523094557 -0.010347839411403372 0 -0.001239874532492089 -0.010331831455831299 0 -0.0011508538523094557 -0.010347839411403372 0 -0.0012157242638649235 -0.010428025012476172 0 -0.001239874532492089 -0.010331831455831299 0 -0.0045061064002199598 -0.012044007541135937 0 -0.0045180683911460948 -0.012097719842950088 0 -0.0044312670004976028 -0.012195573621391252 0 -0.0029631047097858671 -0.0113512620843622 0 -0.0036498431870776215 -0.011685779777901723 0 -0.0026730756721825817 -0.011089161310264039 0 -0.0026323146589359312 -0.011088793679481632 0 -0.0026160637605949317 -0.011072067090251417 0 -0.0029631047097858671 -0.0113512620843622 0 -0.001875862776620786 -0.010751328908072462 0 -0.0045180683911460948 -0.012097719842950088 0 -0.00452629269085629 -0.012050430062390493 0 -0.0046032498446390334 -0.012001098055273711 0 -0.0045180683911460948 -0.012097719842950088 0 -0.0046032498446390334 -0.012001098055273711 0 -0.0044029060992103984 -0.01206907423563504 0 -0.00452629269085629 -0.012050430062390493 0 -0.0045345057733253676 -0.012022108735388301 0 -0.0044092726793854096 -0.012051345794119784 0 -0.00452629269085629 -0.012050430062390493 0 -0.0045345057733253676 -0.012022108735388301 0 -0.0046032498446390334 -0.012001098055273711 0 -0.0044855128715722134 -0.012055160806859906 0 -0.0045180683911460948 -0.012097719842950088 0 -0.00452629269085629 -0.012050430062390493 0 -0.004442511878838107 -0.012049890304564635 0 -0.0044855128715722134 -0.012055160806859906 0 -0.00452629269085629 -0.012050430062390493 0 -0.0045345057733253676 -0.012022108735388301 0 -0.0046032498446390334 -0.012001098055273711 0 -0.0046262116868421082 -0.01197467393001066 0 -0.0042582507591927702 -0.012042748378441685 0 -0.00431869900984289 -0.012045437041426094 0 -0.0043319248179625883 -0.012007439944030866 0 -0.0042582507591927702 -0.012042748378441685 0 -0.0042313122896681142 -0.012087572709872048 0 -0.00431869900984289 -0.012045437041426094 0 -0.0042431201751907451 -0.012087318172724938 0 -0.0042313122896681142 -0.012087572709872048 0 -0.00431869900984289 -0.012045437041426094 0 -0.004442511878838107 -0.012049890304564635 0 -0.00452629269085629 -0.012050430062390493 0 -0.0044092726793854096 -0.012051345794119784 0 -0.00431869900984289 -0.012045437041426094 0 -0.0044092726793854096 -0.012051345794119784 0 -0.004448018165258482 -0.012019248778996407 0 -0.0042431201751907451 -0.012087318172724938 0 -0.00431869900984289 -0.012045437041426094 0 -0.0044092726793854096 -0.012051345794119784 0 -0.0045345057733253676 -0.012022108735388301 0 -0.0044092726793854096 -0.012051345794119784 0 -0.004448018165258482 -0.012019248778996407 0 -0.0045345057733253676 -0.012022108735388301 0 -0.004448018165258482 -0.012019248778996407 0 -0.0046262116868421082 -0.01197467393001066 0 -0.004448018165258482 -0.012019248778996407 0 -0.0044788384376497114 -0.012012791059255649 0 -0.0046262116868421082 -0.01197467393001066 0 -0.00431869900984289 -0.012045437041426094 0 -0.004448018165258482 -0.012019248778996407 0 -0.0043319248179625883 -0.012007439944030866 0 -0.004448018165258482 -0.012019248778996407 0 -0.0043319248179625883 -0.012007439944030866 0 -0.0044788384376497114 -0.012012791059255649 0 -0.0043319248179625883 -0.012007439944030866 0 -0.00437735513991075 -0.012047145262724301 0 -0.0044788384376497114 -0.012012791059255649 0 -0.0043479177271926071 -0.012208071883732215 0 -0.00437735513991075 -0.012047145262724301 0 -0.0045317338174354592 -0.012056335362544399 0 -0.00437735513991075 -0.012047145262724301 0 -0.0045317338174354592 -0.012056335362544399 0 -0.0044788384376497114 -0.012012791059255649 0 -0.0045317338174354592 -0.012056335362544399 0 -0.0046262116868421082 -0.01197467393001066 0 -0.0047630210656154498 -0.01194082344142793 0 -0.0045317338174354592 -0.012056335362544399 0 -0.0044788384376497114 -0.012012791059255649 0 -0.0046262116868421082 -0.01197467393001066 0 -0.0045317338174354592 -0.012056335362544399 0 -0.0046405163304279401 -0.012157652917113756 0 -0.0047630210656154498 -0.01194082344142793 0 -0.0047442630568407893 -0.012327862169334142 0 -0.0046405163304279401 -0.012157652917113756 0 -0.0047630210656154498 -0.01194082344142793 0 -0.0045437675872362525 -0.012314639578610401 0 -0.0045317338174354592 -0.012056335362544399 0 -0.0046405163304279401 -0.012157652917113756 0 -0.0045437675872362525 -0.012314639578610401 0 -0.0043479177271926071 -0.012208071883732215 0 -0.0045317338174354592 -0.012056335362544399 0 -0.0046032498446390334 -0.012001098055273711 0 -0.0047677730043684911 -0.011868671865529786 0 -0.00450901677638258 -0.011863510723569819 0 -0.0046032498446390334 -0.012001098055273711 0 -0.0047677730043684911 -0.011868671865529786 0 -0.0046262116868421082 -0.01197467393001066 0 -0.0047677730043684911 -0.011868671865529786 0 -0.0046262116868421082 -0.01197467393001066 0 -0.0047630210656154498 -0.01194082344142793 0 -0.0047442630568407893 -0.012327862169334142 0 -0.0047630210656154498 -0.01194082344142793 0 -0.0050976388136250153 -0.011825712538626373 0 -0.0047677730043684911 -0.011868671865529786 0 -0.0050976388136250153 -0.011825712538626373 0 -0.0045632774454415475 -0.011615528487350299 0 -0.0047677730043684911 -0.011868671865529786 0 -0.0047630210656154498 -0.01194082344142793 0 -0.0050976388136250153 -0.011825712538626373 0 -0.0044644702653659296 -0.011002727495944229 0 -0.0050976388136250153 -0.011825712538626373 0 -0.0045632774454415475 -0.011615528487350299 0 -0.0047677730043684911 -0.011868671865529786 0 -0.0045632774454415475 -0.011615528487350299 0 -0.00450901677638258 -0.011863510723569819 0 -0.0045632774454415475 -0.011615528487350299 0 -0.00450901677638258 -0.011863510723569819 0 -0.0041589792401181495 -0.011639380855373211 0 -0.00450901677638258 -0.011863510723569819 0 -0.0041589792401181495 -0.011639380855373211 0 -0.004238527069981627 -0.01190191380831925 0 -0.0041589792401181495 -0.011639380855373211 0 -0.0039328272760435464 -0.011870380818219464 0 -0.004238527069981627 -0.01190191380831925 0 -0.0044644702653659296 -0.011002727495944229 0 -0.0045632774454415475 -0.011615528487350299 0 -0.0038876166295638429 -0.011109920035431563 0 -0.0045632774454415475 -0.011615528487350299 0 -0.0041589792401181495 -0.011639380855373211 0 -0.0038876166295638429 -0.011109920035431563 0 -0.0038876166295638429 -0.011109920035431563 0 -0.0033942074741673818 -0.010776984809281019 0 -0.0033064283090884225 -0.011075380859552085 0 -0.0038876166295638429 -0.011109920035431563 0 -0.0033064283090884225 -0.011075380859552085 0 -0.0036511857595072274 -0.01155658212503633 0 -0.0033942074741673818 -0.010776984809281019 0 -0.0033064283090884225 -0.011075380859552085 0 -0.0027605544418404745 -0.010604482965288493 0 -0.0033064283090884225 -0.011075380859552085 0 -0.0027605544418404745 -0.010604482965288493 0 -0.0027762692813879204 -0.010984912338667024 0 -0.0033064283090884225 -0.011075380859552085 0 -0.0031658914495698784 -0.011498123055326836 0 -0.0027762692813879204 -0.010984912338667024 0 -0.0033064283090884225 -0.011075380859552085 0 -0.0031658914495698784 -0.011498123055326836 0 -0.0036511857595072274 -0.01155658212503633 0 -0.0031658914495698784 -0.011498123055326836 0 -0.0036511857595072274 -0.01155658212503633 0 -0.0034501906809852809 -0.011704135736083206 0 -0.0041589792401181495 -0.011639380855373211 0 -0.0038876166295638429 -0.011109920035431563 0 -0.0036511857595072274 -0.01155658212503633 0 -0.0041589792401181495 -0.011639380855373211 0 -0.0036511857595072274 -0.01155658212503633 0 -0.0039328272760435464 -0.011870380818219464 0 -0.0036511857595072274 -0.01155658212503633 0 -0.0036562309627680184 -0.011790422187261606 0 -0.0034501906809852809 -0.011704135736083206 0 -0.0039328272760435464 -0.011870380818219464 0 -0.0036562309627680184 -0.011790422187261606 0 -0.0037388029235203056 -0.011973120150496988 0 -0.0036511857595072274 -0.01155658212503633 0 -0.0039328272760435464 -0.011870380818219464 0 -0.0036562309627680184 -0.011790422187261606 0 -0.0036562309627680184 -0.011790422187261606 0 -0.0034850718664365394 -0.011884645443168128 0 -0.0034501906809852809 -0.011704135736083206 0 -0.0036562309627680184 -0.011790422187261606 0 -0.0034850718664365394 -0.011884645443168128 0 -0.0037388029235203056 -0.011973120150496988 0 -0.0034850718664365394 -0.011884645443168128 0 -0.0035526555119241294 -0.012068025332174766 0 -0.0037388029235203056 -0.011973120150496988 0 -0.0035526555119241294 -0.012068025332174766 0 -0.0037388029235203056 -0.011973120150496988 0 -0.0037858853302063767 -0.012164876930901798 0 -0.0039320413746837405 -0.012053376163088436 0 -0.0037388029235203056 -0.011973120150496988 0 -0.0037858853302063767 -0.012164876930901798 0 -0.0039328272760435464 -0.011870380818219464 0 -0.0039320413746837405 -0.012053376163088436 0 -0.0037388029235203056 -0.011973120150496988 0 -0.002122753207663169 -0.010895576181431695 0 -0.0019213217747040482 -0.010515601515644818 0 -0.00099889198485246479 -0.0096399643786920074 0 -0.0010030566836425143 -0.0096315552630246125 0 -0.0010725113145598738 -0.0096531769648203012 0 -0.0035526555119241294 -0.012068025332174766 0 -0.0030384389145659504 -0.011996260038648824 0 -0.003693078514078471 -0.012328641160089956 0 -0.0031658914495698784 -0.011498123055326836 0 -0.0032563951298048002 -0.011790849536882475 0 -0.0030384389145659504 -0.011996260038648824 0 -0.0034850718664365394 -0.011884645443168128 0 -0.0032563951298048002 -0.011790849536882475 0 -0.0030384389145659504 -0.011996260038648824 0 -0.0031658914495698784 -0.011498123055326836 0 -0.0032563951298048002 -0.011790849536882475 0 -0.0034501906809852809 -0.011704135736083206 0 -0.0034850718664365394 -0.011884645443168128 0 -0.0032563951298048002 -0.011790849536882475 0 -0.0034501906809852809 -0.011704135736083206 0 -0.0034850718664365394 -0.011884645443168128 0 -0.0035526555119241294 -0.012068025332174766 0 -0.0030384389145659504 -0.011996260038648824 0 -0.0010030566836425143 -0.0096315552630246125 0 -0.00098021120100470196 -0.0095718584345711195 0 -0.00094758278825034681 -0.0095702122057541011 0 -0.00062402195132764675 -0.0094334849494540993 0 -0.0019213217747040482 -0.010515601515644818 0 -0.0010030566836425143 -0.0096315552630246125 0 -0.00098021120100470196 -0.0095718584345711195 0 -0.0010488415528365608 -0.0095574130128652564 0 -0.00098021120100470196 -0.0095718584345711195 0 -0.00095815433753130956 -0.0095457769360033518 0 -0.00098566452200376229 -0.009533114622337786 0 -0.00098021120100470196 -0.0095718584345711195 0 -0.0010488415528365608 -0.0095574130128652564 0 -0.00098566452200376229 -0.009533114622337786 0 -0.00094758278825034681 -0.0095702122057541011 0 -0.00094426191023634664 -0.0095460604629982373 0 -0.00094912837374666625 -0.009546627267388667 0 -0.0019213217747040482 -0.010515601515644818 0 -0.0018351438257050777 -0.010392979036273498 0 -0.0037858853302063767 -0.012164876930901798 0 -0.003693078514078471 -0.012328641160089956 0 -0.0040241108200550976 -0.012452358994177562 0 -0.0039578007376858751 -0.012357910853570464 0 -0.0032656747361877636 -0.011629927296243877 0 -0.0039320413746837405 -0.012053376163088436 0 -0.0037858853302063767 -0.012164876930901798 0 -0.0040489288880195288 -0.01226281409029868 0 -0.0035526555119241294 -0.012068025332174766 0 -0.0037858853302063767 -0.012164876930901798 0 -0.003693078514078471 -0.012328641160089956 0 -0.00098021120100470196 -0.0095718584345711195 0 -0.00094758278825034681 -0.0095702122057541011 0 -0.00095815433753130956 -0.0095457769360033518 0 -0.00094758278825034681 -0.0095702122057541011 0 -0.00094912837374666625 -0.009546627267388667 0 -0.00095815433753130956 -0.0095457769360033518 0 -0.0019213217747040482 -0.010515601515644818 0 -0.0032656747361877636 -0.011629927296243877 0 -0.0032656747361877636 -0.011629927296243877 0 -0.0018351438257050777 -0.010392979036273498 0 -0.0040489288880195288 -0.01226281409029868 0 -0.0044029060992103984 -0.01206907423563504 0 -0.0041324166278047863 -0.01204668676163006 0 -0.0023153279170986898 -0.010812114867754978 0 -0.002257699878620293 -0.010780619666980287 0 -0.0022173161059536877 -0.010722987169123134 0 -0.0039320413746837405 -0.012053376163088436 0 -0.0040489288880195288 -0.01226281409029868 0 -0.0041324166278047863 -0.01204668676163006 0 -0.0045180683911460948 -0.012097719842950088 0 -0.0044029060992103984 -0.01206907423563504 0 -0.0044312670004976028 -0.012195573621391252 0 -0.0040489288880195288 -0.01226281409029868 0 -0.0044029060992103984 -0.01206907423563504 0 -0.0044312670004976028 -0.012195573621391252 0 -0.0046032498446390334 -0.012001098055273711 0 -0.00450901677638258 -0.011863510723569819 0 -0.0044029060992103984 -0.01206907423563504 0 -0.00450901677638258 -0.011863510723569819 0 -0.0044029060992103984 -0.01206907423563504 0 -0.004238527069981627 -0.01190191380831925 0 -0.0039328272760435464 -0.011870380818219464 0 -0.004238527069981627 -0.01190191380831925 0 -0.0041324166278047863 -0.01204668676163006 0 -0.0039328272760435464 -0.011870380818219464 0 -0.0039320413746837405 -0.012053376163088436 0 -0.0041324166278047863 -0.01204668676163006 0 -0.0044029060992103984 -0.01206907423563504 0 -0.004238527069981627 -0.01190191380831925 0 -0.0041324166278047863 -0.01204668676163006 0 -0.0010026076460227581 -0.0090891057758829951 0 -0.0010876826345228665 -0.0093111420134818299 0 -0.0012454783588991237 -0.0094708668627526364 0 -0.0012512219067719959 -0.0095446105310435948 0 -0.0010876826345228665 -0.0093111420134818299 0 -0.0012454783588991237 -0.0094708668627526364 0 -0.0012512219067719959 -0.0095446105310435948 0 -0.001133063551897749 -0.0095123470452324731 0 -0.0013225726072160838 -0.0098112675420616094 0 -0.0012512219067719959 -0.0095446105310435948 0 -0.0010876826345228665 -0.0093111420134818299 0 -0.001133063551897749 -0.0095123470452324731 0 -0.0010356324475804045 -0.0093528406725195967 0 -0.001133063551897749 -0.0095123470452324731 0 -0.001078672761747968 -0.0094626002695967562 0 -0.0010356324475804045 -0.0093528406725195967 0 -0.0010876826345228665 -0.0093111420134818299 0 -0.001133063551897749 -0.0095123470452324731 0 -0.0012006713346802388 -0.009559258292600974 0 -0.001133063551897749 -0.0095123470452324731 0 -0.001078672761747968 -0.0094626002695967562 0 -0.0012006713346802388 -0.009559258292600974 0 -0.001133063551897749 -0.0095123470452324731 0 -0.0013225726072160838 -0.0098112675420616094 0 -0.001447621501589567 -0.0097559391013445403 0 -0.0013225726072160838 -0.0098112675420616094 0 -0.0014448228548052922 -0.010133478637099852 0 -0.001447621501589567 -0.0097559391013445403 0 -0.0012006713346802388 -0.009559258292600974 0 -0.0013225726072160838 -0.0098112675420616094 0 -0.0013225726072160838 -0.0098112675420616094 0 -0.0014448228548052922 -0.010133478637099852 0 -0.0013171056150973503 -0.009676795623885074 0 -0.0012512219067719959 -0.0095446105310435948 0 -0.0013225726072160838 -0.0098112675420616094 0 -0.0013171056150973503 -0.009676795623885074 0 -0.0014448228548052922 -0.010133478637099852 0 -0.0010795758905397114 -0.0097905239988835754 0 -0.0013171056150973503 -0.009676795623885074 0 -0.0014448228548052922 -0.010133478637099852 0 -0.0022305071980312364 -0.010434545513973921 0 -0.002271963806565512 -0.011372881690181393 0 -0.001479503299020162 -0.010233462802408241 0 -0.0016837607790807373 -0.010546268545824772 0 -0.0019079128522035953 -0.0099528783078535153 0 -0.0014448228548052922 -0.010133478637099852 0 -0.0022305071980312364 -0.010434545513973921 0 -0.001447621501589567 -0.0097559391013445403 0 -0.0019079128522035953 -0.0099528783078535153 0 -0.0014448228548052922 -0.010133478637099852 0 -0.0024057983337610216 -0.010137887802534492 0 -0.0022305071980312364 -0.010434545513973921 0 -0.0027605544418404745 -0.010604482965288493 0 -0.0022305071980312364 -0.010434545513973921 0 -0.0027605544418404745 -0.010604482965288493 0 -0.0027762692813879204 -0.010984912338667024 0 -0.0022305071980312364 -0.010434545513973921 0 -0.002271963806565512 -0.011372881690181393 0 -0.0027762692813879204 -0.010984912338667024 0 -0.0031658914495698784 -0.011498123055326836 0 -0.002271963806565512 -0.011372881690181393 0 -0.0027762692813879204 -0.010984912338667024 0 -0.002122753207663169 -0.010895576181431695 0 -0.0016837607790807373 -0.010546268545824772 0 -0.00099889198485246479 -0.0096399643786920074 0 -0.0010795758905397114 -0.0097905239988835754 0 -0.0010712441261242394 -0.009646478092050402 0 -0.0031658914495698784 -0.011498123055326836 0 -0.0030384389145659504 -0.011996260038648824 0 -0.002271963806565512 -0.011372881690181393 0 -0.00099889198485246479 -0.0096399643786920074 0 -0.0010030566836425143 -0.0096315552630246125 0 -0.0010712441261242394 -0.009646478092050402 0 -0.0010712441261242394 -0.009646478092050402 0 -0.0010488415528365608 -0.0095574130128652564 0 -0.0011867094903771766 -0.0095693371541915994 0 -0.0010030566836425143 -0.0096315552630246125 0 -0.0010712441261242394 -0.009646478092050402 0 -0.0010488415528365608 -0.0095574130128652564 0 -0.0010488415528365608 -0.0095574130128652564 0 -0.0011867094903771766 -0.0095693371541915994 0 -0.0011827955363028723 -0.009493238807990613 0 -0.0011867094903771766 -0.0095693371541915994 0 -0.0012794997769996581 -0.0095504747781226113 0 -0.0011827955363028723 -0.009493238807990613 0 -0.0010795758905397114 -0.0097905239988835754 0 -0.0010712441261242394 -0.009646478092050402 0 -0.0013171056150973503 -0.009676795623885074 0 -0.0010712441261242394 -0.009646478092050402 0 -0.0011867094903771766 -0.0095693371541915994 0 -0.0013171056150973503 -0.009676795623885074 0 -0.0012512219067719959 -0.0095446105310435948 0 -0.0013171056150973503 -0.009676795623885074 0 -0.0012454783588991237 -0.0094708668627526364 0 -0.0013171056150973503 -0.009676795623885074 0 -0.0012794997769996581 -0.0095504747781226113 0 -0.0012454783588991237 -0.0094708668627526364 0 -0.0011867094903771766 -0.0095693371541915994 0 -0.0013171056150973503 -0.009676795623885074 0 -0.0012794997769996581 -0.0095504747781226113 0 -0.0005444173435825185 -0.0085456306854890581 0 -0.00039148744374308426 -0.0082391613090606417 0 -0.0011372120130550649 -0.0095618822074375661 0 -0.0012794997769996581 -0.0095504747781226113 0 -0.0012856349885071116 -0.0094954942708516121 0 -0.0011372120130550649 -0.0095618822074375661 0 -0.0012794997769996581 -0.0095504747781226113 0 -0.0012454783588991237 -0.0094708668627526364 0 -0.0010026076460227581 -0.0090891057758829951 0 -0.0011372120130550649 -0.0095618822074375661 0 -0.0012454783588991237 -0.0094708668627526364 0 9.5324509846676702e-05 -0.0075424700592915889 0 -0.00030171626977594913 -0.0068382904786405295 0 0.00048286451404962703 -0.0069838581886302745 0 -0.00030171626977594913 -0.0068382904786405295 0 0.00015010469302575438 -0.0065427881044356415 0 0.00048286451404962703 -0.0069838581886302745 0 -0.0012794997769996581 -0.0095504747781226113 0 -0.0012856349885071116 -0.0094954942708516121 0 -0.0011827955363028723 -0.009493238807990613 0 -0.00039148744374308426 -0.0082391613090606417 0 -0.00017050301634371901 -0.0078822244809267552 0 0.00048286451404962703 -0.0069838581886302745 0 0.0004964113689630308 -0.0065235017206402863 0 0.00085386558043684647 -0.0065077211885116578 0 0.00015010469302575438 -0.0065427881044356415 0 0.00048286451404962703 -0.0069838581886302745 0 0.0004964113689630308 -0.0065235017206402863 0 -0.0012856349885071116 -0.0094954942708516121 0 -0.0011827626327036939 -0.0092486906196026387 0 -0.0011827955363028723 -0.009493238807990613 0 -0.0011827626327036939 -0.0092486906196026387 0 -0.0011827955363028723 -0.009493238807990613 0 -0.0010256694512925195 -0.0094640658179871041 0 -0.0010488415528365608 -0.0095574130128652564 0 -0.0011827955363028723 -0.009493238807990613 0 -0.0010256694512925195 -0.0094640658179871041 0 -0.0010488415528365608 -0.0095574130128652564 0 -0.0010256694512925195 -0.0094640658179871041 0 -0.00098566452200376229 -0.009533114622337786 0 -0.0011827626327036939 -0.0092486906196026387 0 -0.0010256694512925195 -0.0094640658179871041 0 -0.00097152382240295397 -0.0092181504666112579 0 -0.0011827626327036939 -0.0092486906196026387 0 -0.00097152382240295397 -0.0092181504666112579 0 -0.00093144960796497252 -0.0089300137039158706 0 -0.00017050301634371901 -0.0078822244809267552 0 0.0002109829760150658 -0.007505399944294896 0 0.0012519045196073381 -0.0060840140035311125 0 0.00076658393230099686 -0.006001896621131461 0 0.001055272552653723 -0.0057430699072178858 0 0.0012519045196073381 -0.0060840140035311125 0 0.0013154703638654874 -0.0057261777209540203 0 0.001055272552653723 -0.0057430699072178858 0 0.0004964113689630308 -0.0065235017206402863 0 0.00085386558043684647 -0.0065077211885116578 0 0.00076658393230099686 -0.006001896621131461 0 0.00085386558043684647 -0.0065077211885116578 0 0.0012519045196073381 -0.0060840140035311125 0 0.00076658393230099686 -0.006001896621131461 0 0.0004964113689630308 -0.0065235017206402863 0 0.00076658393230099686 -0.006001896621131461 0 0.00026798437049948843 -0.006112726821020772 0 0.00076658393230099686 -0.006001896621131461 0 0.00026798437049948843 -0.006112726821020772 0 0.00027775353148749973 -0.0054688381492633571 0 -0.00012780134893919829 -0.0057928492273022934 0 0.00026798437049948843 -0.006112726821020772 0 0.00027775353148749973 -0.0054688381492633571 0 0.00015010469302575438 -0.0065427881044356415 0 0.0004964113689630308 -0.0065235017206402863 0 0.00026798437049948843 -0.006112726821020772 0 -0.00020590510585534656 -0.0062816572201964908 0 0.00015010469302575438 -0.0065427881044356415 0 0.00026798437049948843 -0.006112726821020772 0 -0.00045631751482284731 -0.0092809381427825886 0 -0.00026460548051637306 -0.009194292769595323 0 -0.00023253500056353793 -0.0094375385251385894 0 -0.00045631751482284731 -0.0092809381427825886 0 -0.00023253500056353793 -0.0094375385251385894 0 -0.00062015699657374439 -0.0094550902156619581 0 -0.00045631751482284731 -0.0092809381427825886 0 -0.00026460548051637306 -0.009194292769595323 0 -0.00045534381607003954 -0.0090753673203677939 0 -0.00026460548051637306 -0.009194292769595323 0 -5.380831267593191e-05 -0.0092331661909459007 0 -0.00023253500056353793 -0.0094375385251385894 0 -0.0012157242638649235 -0.010428025012476172 0 -0.001239874532492089 -0.010331831455831299 0 -0.0013253839743546944 -0.010431173132809113 0 -0.00064066731727662428 -0.0097750290536309896 0 -0.0012129026737646813 -0.010062528563285635 0 -0.001875862776620786 -0.010751328908072462 0 -0.0012129026737646813 -0.010062528563285635 0 -0.0026323146589359312 -0.011088793679481632 0 -0.0026023057015787262 -0.011079702254052798 0 -0.0026160637605949317 -0.011072067090251417 0 -0.0026023057015787262 -0.011079702254052798 0 -0.0026160637605949317 -0.011072067090251417 0 -0.0026033465816531886 -0.011075535889193766 0 -0.0012129026737646813 -0.010062528563285635 0 -0.00064031516404198998 -0.0094120277779276007 0 -0.00094400911589392065 -0.0095481167985414228 0 -0.00094426191023634664 -0.0095460604629982373 0 -0.00094946042627112404 -0.0095277413644728887 0 -0.0032656747361877636 -0.011629927296243877 0 -0.0036498431870776215 -0.011685779777901723 0 -0.0026023057015787262 -0.011079702254052798 0 -0.0026030720764947555 -0.011074693831998585 0 -0.0026033465816531886 -0.011075535889193766 0 -0.0026004718946803268 -0.011078562337418189 0 -0.0026160637605949317 -0.011072067090251417 0 -0.0026029227673618851 -0.011076114632864753 0 -0.0026160637605949317 -0.011072067090251417 0 -0.0026029227673618851 -0.011076114632864753 0 -0.0026033465816531886 -0.011075535889193766 0 -0.0018351438257050777 -0.010392979036273498 0 -0.0019439979072759144 -0.010476557731551881 0 -0.0012129026737646813 -0.010062528563285635 0 -0.0018351438257050777 -0.010392979036273498 0 -0.00094426191023634664 -0.0095460604629982373 0 -0.00094912837374666625 -0.009546627267388667 0 -0.00094946042627112404 -0.0095277413644728887 0 -0.00094912837374666625 -0.009546627267388667 0 -0.00095815433753130956 -0.0095457769360033518 0 -0.00094946042627112404 -0.0095277413644728887 0 -0.0010796127999523663 -0.009491733177035928 0 -0.00064031516404198998 -0.0094120277779276007 0 -0.0010256694512925195 -0.0094640658179871041 0 -0.00094946042627112404 -0.0095277413644728887 0 -0.00098566452200376229 -0.009533114622337786 0 -0.00095815433753130956 -0.0095457769360033518 0 -0.00094946042627112404 -0.0095277413644728887 0 -0.00098566452200376229 -0.009533114622337786 0 -0.0010256694512925195 -0.0094640658179871041 0 -0.00097152382240295397 -0.0092181504666112579 0 -0.00072362979282624296 -0.0091957575389494464 0 -0.0010256694512925195 -0.0094640658179871041 0 -0.00062015699657374439 -0.0094550902156619581 0 -0.00072362979282624296 -0.0091957575389494464 0 -0.00045631751482284731 -0.0092809381427825886 0 -0.00072362979282624296 -0.0091957575389494464 0 -0.00045534381607003954 -0.0090753673203677939 0 -0.00045631751482284731 -0.0092809381427825886 0 -0.00062015699657374439 -0.0094550902156619581 0 -0.00072362979282624296 -0.0091957575389494464 0 -0.00072362979282624296 -0.0091957575389494464 0 -0.0006255893097628527 -0.0088824343887388343 0 -0.00045534381607003954 -0.0090753673203677939 0 -0.00093144960796497252 -0.0089300137039158706 0 -0.00072362979282624296 -0.0091957575389494464 0 -0.0006255893097628527 -0.0088824343887388343 0 -0.00097152382240295397 -0.0092181504666112579 0 -0.00093144960796497252 -0.0089300137039158706 0 -0.00072362979282624296 -0.0091957575389494464 0 0.0002109829760150658 -0.007505399944294896 0 0.00023747046685135441 -0.0071039904517382728 0 0.0012519045196073381 -0.0060840140035311125 0 0.0016561985256091974 -0.0056926764627871088 0 0.0013154703638654874 -0.0057261777209540203 0 -0.00093144960796497252 -0.0089300137039158706 0 -0.0006255893097628527 -0.0088824343887388343 0 -0.00062916716595201334 -0.0086255785915360234 0 -0.0006255893097628527 -0.0088824343887388343 0 -0.00058030162197696242 -0.0086560606755023053 0 -0.00062916716595201334 -0.0086255785915360234 0 -0.0006255893097628527 -0.0088824343887388343 0 -0.00043367371310332642 -0.0088089449450294947 0 -0.00045534381607003954 -0.0090753673203677939 0 -0.0006255893097628527 -0.0088824343887388343 0 -0.00043367371310332642 -0.0088089449450294947 0 -0.00058030162197696242 -0.0086560606755023053 0 -0.00043367371310332642 -0.0088089449450294947 0 -0.00029568468623728439 -0.0089794486533993842 0 -0.0001732373426258974 -0.0087570013074229468 0 -0.00043367371310332642 -0.0088089449450294947 0 -0.00029568468623728439 -0.0089794486533993842 0 -0.00045534381607003954 -0.0090753673203677939 0 -0.00026460548051637306 -0.009194292769595323 0 -0.00029568468623728439 -0.0089794486533993842 0 -0.00045534381607003954 -0.0090753673203677939 0 0.00012268564184209793 -0.0090296444074515272 0 -5.380831267593191e-05 -0.0092331661909459007 0 -0.00012972841291006897 -0.0090480987046347629 0 0.00012268564184209793 -0.0090296444074515272 0 -0.00012972841291006897 -0.0090480987046347629 0 -0.0001732373426258974 -0.0087570013074229468 0 -0.00026460548051637306 -0.009194292769595323 0 -0.00029568468623728439 -0.0089794486533993842 0 -0.00012972841291006897 -0.0090480987046347629 0 -0.00026460548051637306 -0.009194292769595323 0 -5.380831267593191e-05 -0.0092331661909459007 0 -0.00012972841291006897 -0.0090480987046347629 0 -0.00010585920883690335 -0.009546846886120083 0 -0.00026257404524010041 -0.0088447858091318873 0 -0.00029568468623728439 -0.0089794486533993842 0 -0.00012972841291006897 -0.0090480987046347629 0 -0.0001732373426258974 -0.0087570013074229468 0 -0.00036159351551593805 -0.0087950382114480898 0 -0.00050439264715480749 -0.0081173469047744126 0 0.00029321981669123618 -0.0082134665799366551 0 -0.00064203271060338685 -0.0073864071225349277 0 -0.00037277394327821115 -0.0071377957985858725 0 0.00022345543785673073 -0.0075243115580952138 0 -8.563071176282597e-05 -0.0072198856468986636 0 7.3171133029815646e-05 -0.008195896953365275 0 -0.00064203271060338685 -0.0073864071225349277 0 0.00029321981669123618 -0.0082134665799366551 0 0.00022345543785673073 -0.0075243115580952138 0 -0.00050439264715480749 -0.0081173469047744126 0 -0.00062004449954812979 -0.0074394985456086513 0 0.00029321981669123618 -0.0082134665799366551 0 -8.563071176282597e-05 -0.0072198856468986636 0 0.00096219891866540248 -0.0068189078201489816 0 -0.00050439264715480749 -0.0081173469047744126 0 -0.00062004449954812979 -0.0074394985456086513 0 -0.0012320431364409336 -0.008010775843453926 0 0.00024806807096310057 -0.0070278734186341764 0 0.00014535361685356817 -0.0071229891476189593 0 0.00020719004318184636 -0.0069910505929992282 0 -8.563071176282597e-05 -0.0072198856468986636 0 0.00069864848648632774 -0.0067580262223863432 0 -8.563071176282597e-05 -0.0072198856468986636 0 -0.00033397657954830511 -0.0075807836188965146 0 -0.00026257404524010041 -0.0088447858091318873 0 -0.00033397657954830511 -0.0075807836188965146 0 -0.00043367371310332642 -0.0088089449450294947 0 -0.0001732373426258974 -0.0087570013074229468 0 -0.00047147364605664414 -0.0084755592870399566 0 -0.00036159351551593805 -0.0087950382114480898 0 -0.00050439264715480749 -0.0081173469047744126 0 -0.0012320431364409336 -0.008010775843453926 0 -0.00058030162197696242 -0.0086560606755023053 0 -0.00062968531607443599 -0.0086249969272844257 0 -0.00047147364605664414 -0.0084755592870399566 0 -0.00043367371310332642 -0.0088089449450294947 0 -0.00058030162197696242 -0.0086560606755023053 0 -0.00047147364605664414 -0.0084755592870399566 0 0.00013073505267665841 -0.0073229118026385013 0 0.00023747046685135441 -0.0071039904517382728 0 0.00023550691208584605 -0.0066670717443326546 0 0.00024344740089132051 -0.0066598263776245876 0 0.0002338075305547941 -0.0066523775734504973 0 0.00023747046685135441 -0.0071039904517382728 0 -0.00033397657954830511 -0.0075807836188965146 0 0.00023550691208584605 -0.0066670717443326546 0 0.00022777227175432263 -0.0066482366155472417 0 0.00021642742987167468 -0.0066430895319143316 0 0.00023747046685135441 -0.0071039904517382728 0 0.00084105616907057608 -0.0058968479769838916 0 0.0016561985256091974 -0.0056926764627871088 0 0.0013154703638654874 -0.0057261777209540203 0 0.00117571738876069 -0.0053829044926835797 0 0.00023550691208584605 -0.0066670717443326546 0 0.00022777227175432263 -0.0066482366155472417 0 0.0002338075305547941 -0.0066523775734504973 0 0.00022155062815869264 -0.0066389159749084842 0 0.00022853584132465337 -0.0066347425225540355 0 0.00021343939151445776 -0.0066291306131582078 0 0.00022777227175432263 -0.0066482366155472417 0 0.00022155062815869264 -0.0066389159749084842 0 0.00021642742987167468 -0.0066430895319143316 0 0.00022777227175432263 -0.0066482366155472417 0 0.0002338075305547941 -0.0066523775734504973 0 0.00022853584132465337 -0.0066347425225540355 0 0.00022777227175432263 -0.0066482366155472417 0 0.00022155062815869264 -0.0066389159749084842 0 0.00022853584132465337 -0.0066347425225540355 0 0.00014535361685356817 -0.0071229891476189593 0 8.503894752789663e-06 -0.0069965564968227072 0 0.00020719004318184636 -0.0069910505929992282 0 -0.00033397657954830511 -0.0075807836188965146 0 0.00020457388438457872 -0.0065382457164960515 0 0.00024344740089132051 -0.0066598263776245876 0 0.0002338075305547941 -0.0066523775734504973 0 0.00022853584132465337 -0.0066347425225540355 0 0.00031775286273786566 -0.0062813956860726314 0 0.00054317268594367021 -0.0059915333207468504 0 0.00085560996404908515 -0.0062637570099120382 0 0.00020457388438457872 -0.0065382457164960515 0 0.00069864848648632774 -0.0067580262223863432 0 0.00073852718906450765 -0.0061147650460513904 0 0.00069864848648632774 -0.0067580262223863432 0 0.00020457388438457872 -0.0065382457164960515 0 5.7867818126657126e-05 -0.006458700140333588 0 0.00030233519733180854 -0.0062669738605423886 0 0.00015301158074738772 -0.0061358194400275828 0 -7.6516230070893788e-06 -0.0062727545742311827 0 0.00020457388438457872 -0.0065382457164960515 0 0.00012295750419201134 -0.0062190762439495234 0 0.00031775286273786566 -0.0062813956860726314 0 0.00027782995390761197 -0.0059903109358051881 0 0.00054317268594367021 -0.0059915333207468504 0 0.00015301158074738772 -0.0061358194400275828 0 0.00027782995390761197 -0.0059903109358051881 0 7.491939580653706e-05 -0.0059004977675042244 0 0.00031775286273786566 -0.0062813956860726314 0 0.00015301158074738772 -0.0061358194400275828 0 0.00027782995390761197 -0.0059903109358051881 0 0.00027782995390761197 -0.0059903109358051881 0 0.00023977775340790452 -0.0057220274215072919 0 0.00054317268594367021 -0.0059915333207468504 0 0.00026147710568867372 -0.0057510293301424598 0 0.00073852718906450765 -0.0061147650460513904 0 0.00027782995390761197 -0.0059903109358051881 0 0.00023977775340790452 -0.0057220274215072919 0 7.491939580653706e-05 -0.0059004977675042244 0 0.00023977775340790452 -0.0057220274215072919 0 7.491939580653706e-05 -0.0059004977675042244 0 8.8998850619891612e-05 -0.0055628124678277378 0 0.00084894997777683172 -0.0062611353533783623 0 0.0015852744090323332 -0.0059356216597778412 0 0.00094014525194887396 -0.0055495035442034617 0 0.00023977775340790452 -0.0057220274215072919 0 0.00084894997777683172 -0.0062611353533783623 0 0.00094014525194887396 -0.0055495035442034617 0 0.00084894997777683172 -0.0062611353533783623 0 0.0015852744090323332 -0.0059356216597778412 0 0.001619171040940501 -0.006376572138336708 0 0.0015852744090323332 -0.0059356216597778412 0 0.0021555841347073524 -0.0056686029003534194 0 0.0023004758084381369 -0.0062562978592818758 0 0.0015852744090323332 -0.0059356216597778412 0 0.001619171040940501 -0.006376572138336708 0 0.0023004758084381369 -0.0062562978592818758 0 0.0018275774824763327 -0.006709321997492879 0 0.001619171040940501 -0.006376572138336708 0 0.0023004758084381369 -0.0062562978592818758 0 0.00096219891866540248 -0.0068189078201489816 0 0.0023810014017343921 -0.0062131331697562716 0 0.00050313388704777281 -0.0069322883661542675 0 0.00058698624851064832 -0.006854375164216552 0 0.00042229398599578856 -0.0068628574448922576 0 0.0018275774824763327 -0.006709321997492879 0 0.0014249776087992595 -0.0067376651379044139 0 0.001619171040940501 -0.006376572138336708 0 0.00096219891866540248 -0.0068189078201489816 0 0.00069864848648632774 -0.0067580262223863432 0 0.00084894997777683172 -0.0062611353533783623 0 0.0014249776087992595 -0.0067376651379044139 0 0.001619171040940501 -0.006376572138336708 0 -0.0002074538809088715 -0.0052517626632543578 0 0.00013479725462447627 -0.0050692269458746117 0 0.00027775353148749973 -0.0054688381492633571 0 -0.00011048286491334219 -0.0049057996832530494 0 -0.0002074538809088715 -0.0052517626632543578 0 0.00013479725462447627 -0.0050692269458746117 0 -0.00012780134893919829 -0.0057928492273022934 0 -0.0002074538809088715 -0.0052517626632543578 0 0.00027775353148749973 -0.0054688381492633571 0 0.00076658393230099686 -0.006001896621131461 0 0.00027775353148749973 -0.0054688381492633571 0 0.00075417398852403771 -0.0055135190343789161 0 0.00040927797323384106 -0.0052945385091776606 0 0.00037772702970219986 -0.0054006703522626936 0 0.00013479725462447627 -0.0050692269458746117 0 0.00027775353148749973 -0.0054688381492633571 0 0.00062072320295378984 -0.0049806285304654831 0 0.00027775353148749973 -0.0054688381492633571 0 0.00075417398852403771 -0.0055135190343789161 0 0.00066205087058695752 -0.0050662814336644218 0 0.00075255567415375172 -0.0051196710425034453 0 0.00075417398852403771 -0.0055135190343789161 0 0.00117571738876069 -0.0053829044926835797 0 0.00075255567415375172 -0.0051196710425034453 0 0.00075417398852403771 -0.0055135190343789161 0 0.00066205087058695752 -0.0050662814336644218 0 0.0002435854598854796 -0.0059184118868302752 0 5.7867818126657126e-05 -0.006458700140333588 0 0.0002435854598854796 -0.0059184118868302752 0 0.00037772702970219986 -0.0054006703522626936 0 0.00076658393230099686 -0.006001896621131461 0 0.00075417398852403771 -0.0055135190343789161 0 0.001055272552653723 -0.0057430699072178858 0 0.0013154703638654874 -0.0057261777209540203 0 0.001055272552653723 -0.0057430699072178858 0 0.00117571738876069 -0.0053829044926835797 0 0.00075417398852403771 -0.0055135190343789161 0 0.001055272552653723 -0.0057430699072178858 0 0.00117571738876069 -0.0053829044926835797 0 0.0002435854598854796 -0.0059184118868302752 0 0.00084105616907057608 -0.0058968479769838916 0 0.00019720233485842739 -0.0066214791911998593 0 0.00021642742987167468 -0.0066430895319143316 0 0.00021343939151445776 -0.0066291306131582078 0 0.00022155062815869264 -0.0066389159749084842 0 0.00021642742987167468 -0.0066430895319143316 0 0.00021343939151445776 -0.0066291306131582078 0 0.00015301158074738772 -0.0061358194400275828 0 -7.6516230070893788e-06 -0.0062727545742311827 0 -2.0366862934722642e-05 -0.0060873958877755412 0 -7.6516230070893788e-06 -0.0062727545742311827 0 -2.0366862934722642e-05 -0.0060873958877755412 0 -0.00016819085976851707 -0.0061699664428593809 0 -2.0366862934722642e-05 -0.0060873958877755412 0 -0.00014328348080988932 -0.0059483638688875374 0 -0.00016819085976851707 -0.0061699664428593809 0 0.00015301158074738772 -0.0061358194400275828 0 -2.0366862934722642e-05 -0.0060873958877755412 0 7.491939580653706e-05 -0.0059004977675042244 0 0.00018755336145204418 -0.0053150784891288633 0 0.00048940204630433894 -0.0048995170776230937 0 0.00064064655173761158 -0.004596411830084004 0 0.00068875965922608068 -0.0043320429331152122 0 0.00086461500614333216 -0.004269659259860158 0 7.491939580653706e-05 -0.0059004977675042244 0 -0.00014328348080988932 -0.0059483638688875374 0 8.8998850619891612e-05 -0.0055628124678277378 0 -2.0366862934722642e-05 -0.0060873958877755412 0 7.491939580653706e-05 -0.0059004977675042244 0 -0.00014328348080988932 -0.0059483638688875374 0 0.00064064655173761158 -0.004596411830084004 0 0.00036461709709775157 -0.0046128676573830773 0 0.00034787079974264528 -0.0043726156828127237 0 0.00064064655173761158 -0.004596411830084004 0 0.00034787079974264528 -0.0043726156828127237 0 0.00052615366743518288 -0.0042275106774390522 0 0.00064064655173761158 -0.004596411830084004 0 0.00052615366743518288 -0.0042275106774390522 0 0.00068875965922608068 -0.0043320429331152122 0 0.00018755336145204418 -0.0053150784891288633 0 0.00037772702970219986 -0.0054006703522626936 0 0.00064064655173761158 -0.004596411830084004 0 0.00040650135065072344 -0.0048822953698749666 0 0.00036461709709775157 -0.0046128676573830773 0 -0.00014328348080988932 -0.0059483638688875374 0 -0.00016819085976851707 -0.0061699664428593809 0 -0.00037076033681146227 -0.0062412834961889426 0 -0.00030346338349416049 -0.0062805481273005143 0 -7.6516230070893788e-06 -0.0062727545742311827 0 -0.00016819085976851707 -0.0061699664428593809 0 -0.00030346338349416049 -0.0062805481273005143 0 -0.00016819085976851707 -0.0061699664428593809 0 -0.00037076033681146227 -0.0062412834961889426 0 0.00040650135065072344 -0.0048822953698749666 0 0.00036461709709775157 -0.0046128676573830773 0 0.00014291641643373592 -0.0047393566427249663 0 0.00013479725462447627 -0.0050692269458746117 0 0.00062072320295378984 -0.0049806285304654831 0 0.00014291641643373592 -0.0047393566427249663 0 0.00037772702970219986 -0.0054006703522626936 0 0.00016659352537697541 -0.0046747336852274142 0 0.00036461709709775157 -0.0046128676573830773 0 8.951747459214277e-05 -0.004431518988620417 0 0.00014291641643373592 -0.0047393566427249663 0 0.00036461709709775157 -0.0046128676573830773 0 8.951747459214277e-05 -0.004431518988620417 0 0.00034787079974264528 -0.0043726156828127237 0 -0.00016694210682485878 -0.0046214137211256379 0 8.951747459214277e-05 -0.004431518988620417 0 0.00014291641643373592 -0.0047393566427249663 0 -0.00022714834957227725 -0.004312853024222945 0 -0.00016694210682485878 -0.0046214137211256379 0 8.951747459214277e-05 -0.004431518988620417 0 -0.00016694210682485878 -0.0046214137211256379 0 -0.00011048286491334219 -0.0049057996832530494 0 0.00014291641643373592 -0.0047393566427249663 0 -0.00011048286491334219 -0.0049057996832530494 0 0.00013479725462447627 -0.0050692269458746117 0 0.00014291641643373592 -0.0047393566427249663 0 -9.2302082273093366e-05 -0.003779719696619493 0 0.00015764154342962666 -0.0039549906659895832 0 0.00012447511009182357 -0.0036848328210645704 0 -9.2302082273093366e-05 -0.003779719696619493 0 -5.0585373682285566e-05 -0.0041066163280588418 0 0.00015764154342962666 -0.0039549906659895832 0 -0.00037860117025986811 -0.0039627303388260629 0 -9.2302082273093366e-05 -0.003779719696619493 0 -5.0585373682285566e-05 -0.0041066163280588418 0 8.951747459214277e-05 -0.004431518988620417 0 -5.0585373682285566e-05 -0.0041066163280588418 0 0.00017106345399234179 -0.0041944973513136537 0 -0.00022714834957227725 -0.004312853024222945 0 8.951747459214277e-05 -0.004431518988620417 0 -5.0585373682285566e-05 -0.0041066163280588418 0 -0.00037860117025986811 -0.0039627303388260629 0 -0.00022714834957227725 -0.004312853024222945 0 -5.0585373682285566e-05 -0.0041066163280588418 0 -5.0585373682285566e-05 -0.0041066163280588418 0 0.00017106345399234179 -0.0041944973513136537 0 0.00015764154342962666 -0.0039549906659895832 0 8.951747459214277e-05 -0.004431518988620417 0 0.00017106345399234179 -0.0041944973513136537 0 0.00034787079974264528 -0.0043726156828127237 0 0.00017106345399234179 -0.0041944973513136537 0 0.00034787079974264528 -0.0043726156828127237 0 0.00035902887202196175 -0.0040908302900756381 0 0.00017106345399234179 -0.0041944973513136537 0 0.00035902887202196175 -0.0040908302900756381 0 0.00015764154342962666 -0.0039549906659895832 0 0.00035902887202196175 -0.0040908302900756381 0 0.00015764154342962666 -0.0039549906659895832 0 0.00034734141459113896 -0.0037991630540479162 0 0.00015764154342962666 -0.0039549906659895832 0 0.00034734141459113896 -0.0037991630540479162 0 0.00012447511009182357 -0.0036848328210645704 0 0.00034734141459113896 -0.0037991630540479162 0 0.00055222463402778788 -0.003980212775344355 0 0.00056542559646938261 -0.0036882281734852214 0 0.00035902887202196175 -0.0040908302900756381 0 0.00034734141459113896 -0.0037991630540479162 0 0.00055222463402778788 -0.003980212775344355 0 0.00035902887202196175 -0.0040908302900756381 0 0.00055222463402778788 -0.003980212775344355 0 0.00052615366743518288 -0.0042275106774390522 0 0.00034787079974264528 -0.0043726156828127237 0 0.00035902887202196175 -0.0040908302900756381 0 0.00052615366743518288 -0.0042275106774390522 0 0.00055222463402778788 -0.003980212775344355 0 0.00052615366743518288 -0.0042275106774390522 0 0.00075369009964180696 -0.0041133946664717556 0 0.00052615366743518288 -0.0042275106774390522 0 0.00068875965922608068 -0.0043320429331152122 0 0.00075369009964180696 -0.0041133946664717556 0 0.00068875965922608068 -0.0043320429331152122 0 0.00086461500614333216 -0.004269659259860158 0 0.00075369009964180696 -0.0041133946664717556 0 0.00055222463402778788 -0.003980212775344355 0 0.00078575679505137779 -0.0038841888039765383 0 0.00056542559646938261 -0.0036882281734852214 0 0.00055222463402778788 -0.003980212775344355 0 0.00075369009964180696 -0.0041133946664717556 0 0.00078575679505137779 -0.0038841888039765383 0 0.00078557059740136479 -0.0036687200494582442 0 0.00061646254764977744 -0.0033246192739288978 0 0.00056542559646938261 -0.0036882281734852214 0 0.00078575679505137779 -0.0038841888039765383 0 0.00078557059740136479 -0.0036687200494582442 0 0.00056542559646938261 -0.0036882281734852214 0 0.00090386884421135452 -0.0032378906020034464 0 0.00061646254764977744 -0.0033246192739288978 0 0.000958173345998219 -0.003579498975673306 0 0.00078557059740136479 -0.0036687200494582442 0 0.00061646254764977744 -0.0033246192739288978 0 0.000958173345998219 -0.003579498975673306 0 0.00061646254764977744 -0.0033246192739288978 0 0.00027674167978223988 -0.0034339319817058428 0 0.00027330567503902446 -0.0030935340767191803 0 0.00034734141459113896 -0.0037991630540479162 0 0.00056542559646938261 -0.0036882281734852214 0 0.00027674167978223988 -0.0034339319817058428 0 0.00061646254764977744 -0.0033246192739288978 0 0.00056542559646938261 -0.0036882281734852214 0 0.00027674167978223988 -0.0034339319817058428 0 0.00034734141459113896 -0.0037991630540479162 0 0.00027674167978223988 -0.0034339319817058428 0 0.00012447511009182357 -0.0036848328210645704 0 0.00027674167978223988 -0.0034339319817058428 0 0.00012447511009182357 -0.0036848328210645704 0 -8.3908894762197816e-05 -0.0034502005052564834 0 0.00027674167978223988 -0.0034339319817058428 0 -5.8654703467721023e-05 -0.003015370132154983 0 -8.3908894762197816e-05 -0.0034502005052564834 0 0.00027674167978223988 -0.0034339319817058428 0 0.00027330567503902446 -0.0030935340767191803 0 -5.8654703467721023e-05 -0.003015370132154983 0 -0.00035710049782382096 -0.0032112182169550469 0 -5.8654703467721023e-05 -0.003015370132154983 0 -8.3908894762197816e-05 -0.0034502005052564834 0 -0.0004750501220840097 -0.0035348972791990922 0 -9.2302082273093366e-05 -0.003779719696619493 0 -8.3908894762197816e-05 -0.0034502005052564834 0 -9.2302082273093366e-05 -0.003779719696619493 0 0.00012447511009182357 -0.0036848328210645704 0 -8.3908894762197816e-05 -0.0034502005052564834 0 0.0012263204804486589 -0.0049386079413119184 0 0.0018299233782060936 -0.0050703876657717225 0 0.001878726099522349 -0.0043562752952118755 0 0.0012263204804486589 -0.0049386079413119184 0 0.0018299233782060936 -0.0050703876657717225 0 0.0015434361179910096 -0.0054380477595669949 0 0.0018299233782060936 -0.0050703876657717225 0 0.0022099598581647732 -0.0049767734444721287 0 0.001878726099522349 -0.0043562752952118755 0 0.0015852744090323332 -0.0059356216597778412 0 0.0021555841347073524 -0.0056686029003534194 0 0.0015434361179910096 -0.0054380477595669949 0 0.0018299233782060936 -0.0050703876657717225 0 0.0021555841347073524 -0.0056686029003534194 0 0.0015434361179910096 -0.0054380477595669949 0 0.0018299233782060936 -0.0050703876657717225 0 0.0022099598581647732 -0.0049767734444721287 0 0.0021555841347073524 -0.0056686029003534194 0 0.0012263204804486589 -0.0049386079413119184 0 0.0015434361179910096 -0.0054380477595669949 0 0.00094014525194887396 -0.0055495035442034617 0 0.0015852744090323332 -0.0059356216597778412 0 0.0015434361179910096 -0.0054380477595669949 0 0.00094014525194887396 -0.0055495035442034617 0 0.00094014525194887396 -0.0055495035442034617 0 0.00048014214472236124 -0.0053796003869529792 0 0.00053181923215345163 -0.0048719617205353338 0 0.00086461500614333216 -0.004269659259860158 0 0.00075369009964180696 -0.0041133946664717556 0 0.0010471165781372458 -0.0040029112251305631 0 0.00023977775340790452 -0.0057220274215072919 0 0.00094014525194887396 -0.0055495035442034617 0 0.00048014214472236124 -0.0053796003869529792 0 0.00048940204630433894 -0.0048995170776230937 0 0.00080800479034673313 -0.0044368844357679325 0 8.8998850619891612e-05 -0.0055628124678277378 0 0.00048014214472236124 -0.0053796003869529792 0 0.00053181923215345163 -0.0048719617205353338 0 0.00023977775340790452 -0.0057220274215072919 0 8.8998850619891612e-05 -0.0055628124678277378 0 0.00048014214472236124 -0.0053796003869529792 0 0.00078575679505137779 -0.0038841888039765383 0 0.0010471165781372458 -0.0040029112251305631 0 0.00098491142588862752 -0.0038478933333092793 0 0.00075369009964180696 -0.0041133946664717556 0 0.00078575679505137779 -0.0038841888039765383 0 0.0010471165781372458 -0.0040029112251305631 0 0.0012263204804486589 -0.0049386079413119184 0 0.00053181923215345163 -0.0048719617205353338 0 0.0012088321767529644 -0.0040096887697923618 0 0.0012263204804486589 -0.0049386079413119184 0 0.00094014525194887396 -0.0055495035442034617 0 0.00053181923215345163 -0.0048719617205353338 0 0.00080800479034673313 -0.0044368844357679325 0 0.0011787776300961398 -0.0040262375243934178 0 0.0012088321767529644 -0.0040096887697923618 0 0.00098491142588862752 -0.0038478933333092793 0 0.000958173345998219 -0.003579498975673306 0 0.0010471165781372458 -0.0040029112251305631 0 0.0012088321767529644 -0.0040096887697923618 0 0.00098491142588862752 -0.0038478933333092793 0 0.00078575679505137779 -0.0038841888039765383 0 0.00078557059740136479 -0.0036687200494582442 0 0.00098491142588862752 -0.0038478933333092793 0 0.00078557059740136479 -0.0036687200494582442 0 0.00098491142588862752 -0.0038478933333092793 0 0.000958173345998219 -0.003579498975673306 0 0.0012726464284818879 -0.0033307624900536371 0 0.00090386884421135452 -0.0032378906020034464 0 0.000958173345998219 -0.003579498975673306 0 0.0012726464284818879 -0.0033307624900536371 0 0.0012088321767529644 -0.0040096887697923618 0 0.000958173345998219 -0.003579498975673306 0 0.0012726464284818879 -0.0033307624900536371 0 0.0012088321767529644 -0.0040096887697923618 0 0.001777162421271207 -0.0036553656434313926 0 0.0012088321767529644 -0.0040096887697923618 0 0.001878726099522349 -0.0043562752952118755 0 0.001777162421271207 -0.0036553656434313926 0 0.0012263204804486589 -0.0049386079413119184 0 0.0012088321767529644 -0.0040096887697923618 0 0.001878726099522349 -0.0043562752952118755 0 0.001878726099522349 -0.0043562752952118755 0 0.001777162421271207 -0.0036553656434313926 0 0.0025499985440628034 -0.0042072743879425414 0 0.0022099598581647732 -0.0049767734444721287 0 0.001878726099522349 -0.0043562752952118755 0 0.0025499985440628034 -0.0042072743879425414 0 0.0022692519651997655 -0.0032887501651565646 0 0.001777162421271207 -0.0036553656434313926 0 0.0025499985440628034 -0.0042072743879425414 0 0.0021291018950231537 -0.004424620905837862 0 0.0027316882744137174 -0.0047814360131388216 0 0.0023942074008797614 -0.0050761507896265531 0 0.0022015982807887615 -0.0038316218914361908 0 0.0024606243752621523 -0.0046507177063836221 0 0.0027336421257667222 -0.0042721107784135567 0 0.0027316882744137174 -0.0047814360131388216 0 0.0032212248757188338 -0.0047142244226792791 0 0.0027316882744137174 -0.0047814360131388216 0 0.0023942074008797614 -0.0050761507896265531 0 0.003008825963980459 -0.0051744028586431443 0 0.0023942074008797614 -0.0050761507896265531 0 0.0028483841701128637 -0.0054633459875589969 0 0.003008825963980459 -0.0051744028586431443 0 0.0024606243752621523 -0.0046507177063836221 0 0.0026249497484679353 -0.0053991195818126596 0 0.0022099598581647732 -0.0049767734444721287 0 0.0025499985440628034 -0.0042072743879425414 0 0.0026292630894174636 -0.0054697827476568282 0 0.0023942074008797614 -0.0050761507896265531 0 0.0028483841701128637 -0.0054633459875589969 0 0.0026292630894174636 -0.0054697827476568282 0 0.0028483841701128637 -0.0054633459875589969 0 0.0026292630894174636 -0.0054697827476568282 0 0.0026609196447938575 -0.0059314607767819039 0 0.0028483841701128637 -0.0054633459875589969 0 0.0030206982202109728 -0.00582915473302265 0 0.0026609196447938575 -0.0059314607767819039 0 0.0022099598581647732 -0.0049767734444721287 0 0.0021555841347073524 -0.0056686029003534194 0 0.0026292630894174636 -0.0054697827476568282 0 0.0021555841347073524 -0.0056686029003534194 0 0.0026292630894174636 -0.0054697827476568282 0 0.0026609196447938575 -0.0059314607767819039 0 0.0033372131334085619 -0.0059359024188273372 0 0.0036843785685777863 -0.0059630234636225367 0 0.003475814697558709 -0.0063490282856374196 0 0.0033372131334085619 -0.0059359024188273372 0 0.0035481268129931953 -0.005635441911841039 0 0.0036843785685777863 -0.0059630234636225367 0 0.0033372131334085619 -0.0059359024188273372 0 0.0030206982202109728 -0.00582915473302265 0 0.0030916209051155942 -0.0061888407378500035 0 0.0033372131334085619 -0.0059359024188273372 0 0.0030206982202109728 -0.00582915473302265 0 0.0032228317504447721 -0.005524230763307071 0 0.0028483841701128637 -0.0054633459875589969 0 0.0030206982202109728 -0.00582915473302265 0 0.0032228317504447721 -0.005524230763307071 0 0.0028483841701128637 -0.0054633459875589969 0 0.0032228317504447721 -0.005524230763307071 0 0.003008825963980459 -0.0051744028586431443 0 0.0032228317504447721 -0.005524230763307071 0 0.0035481268129931953 -0.005635441911841039 0 0.0036195905060250676 -0.0051772068192199516 0 0.0033372131334085619 -0.0059359024188273372 0 0.0032228317504447721 -0.005524230763307071 0 0.0035481268129931953 -0.005635441911841039 0 0.0032228317504447721 -0.005524230763307071 0 0.0036195905060250676 -0.0051772068192199516 0 0.003008825963980459 -0.0051744028586431443 0 0.0036195905060250676 -0.0051772068192199516 0 0.003008825963980459 -0.0051744028586431443 0 0.0032212248757188338 -0.0047142244226792791 0 0.0027316882744137174 -0.0047814360131388216 0 0.003008825963980459 -0.0051744028586431443 0 0.0032212248757188338 -0.0047142244226792791 0 0.0038410067195015704 -0.0046118224532902376 0 0.0036195905060250676 -0.0051772068192199516 0 0.0032212248757188338 -0.0047142244226792791 0 0.0038410067195015704 -0.0046118224532902376 0 0.0036195905060250676 -0.0051772068192199516 0 0.0040588887358444931 -0.0050143298299946473 0 0.0040588887358444931 -0.0050143298299946473 0 0.0044055730140498094 -0.0052207529625041479 0 0.0044608306501596126 -0.004744889239304109 0 0.0038410067195015704 -0.0046118224532902376 0 0.0040588887358444931 -0.0050143298299946473 0 0.0044608306501596126 -0.004744889239304109 0 0.0041457518836114779 -0.0053976754482989346 0 0.0044055730140498094 -0.0052207529625041479 0 0.0045418725727329736 -0.0056100072598448993 0 0.0040588887358444931 -0.0050143298299946473 0 0.0041457518836114779 -0.0053976754482989346 0 0.0044055730140498094 -0.0052207529625041479 0 0.0036195905060250676 -0.0051772068192199516 0 0.0040588887358444931 -0.0050143298299946473 0 0.0041457518836114779 -0.0053976754482989346 0 -0.000871780553059601 -0.023692512570092431 0 -0.000716705509040404 -0.023797758953387881 0 -0.00077564757993695986 -0.023878596775714699 0 -0.00060519945740679533 -0.023765543696695857 0 -0.000871780553059601 -0.023692512570092431 0 -0.000716705509040404 -0.023797758953387881 0 0.0044055730140498094 -0.0052207529625041479 0 0.0044608306501596126 -0.004744889239304109 0 0.0048506641807933978 -0.0053549448569747658 0 0.0015749832607007707 -0.014327810562544358 0 0.0021537524513131874 -0.013933761894483639 0 -0.000871780553059601 -0.023692512570092431 0 -0.0013070639497257265 -0.02369002937040314 0 -0.00077564757993695986 -0.023878596775714699 0 0.0044055730140498094 -0.0052207529625041479 0 0.0048506641807933978 -0.0053549448569747658 0 0.0045418725727329736 -0.0056100072598448993 0 -0.000716705509040404 -0.023797758953387881 0 -0.00077564757993695986 -0.023878596775714699 0 -0.00073930062986437726 -0.023848652084136161 0 0.0021537524513131874 -0.013933761894483639 0 0.00068396169651426778 -0.020161743956367786 0 -0.00077564757993695986 -0.023878596775714699 0 -0.00068963221364363493 -0.02384192414544652 0 -0.00069822647868497483 -0.02390922781699693 0 -0.000716705509040404 -0.023797758953387881 0 -0.00068963221364363493 -0.02384192414544652 0 -0.00073930062986437726 -0.023848652084136161 0 -0.00077564757993695986 -0.023878596775714699 0 -0.00068963221364363493 -0.02384192414544652 0 -0.00073930062986437726 -0.023848652084136161 0 0.0026747760962957702 -0.01581033422192837 0 0.0015432028008453196 -0.014294378437899217 0 0.0029000245537630078 -0.013201731740304232 0 0.0021537524513131874 -0.013933761894483639 0 0.0041753657395239875 -0.0097247716064476318 0 0.0026252715802180192 -0.016437621873467749 0 0.003696403411425677 -0.01556571471193658 0 0.0027114593848243337 -0.014541430507882805 0 0.00068396169651426778 -0.020161743956367786 0 0.0041753657395239875 -0.0097247716064476318 0 0.0048506641807933978 -0.0053549448569747658 0 0.0048167050467653755 -0.0058294245232948091 0 0.0045418725727329736 -0.0056100072598448993 0 0.0048167050467653755 -0.0058294245232948091 0 0.0045418725727329736 -0.0056100072598448993 0 0.0046014049189889612 -0.0059993444621198322 0 0.0045418725727329736 -0.0056100072598448993 0 0.0046014049189889612 -0.0059993444621198322 0 0.0042404786344978473 -0.0057858021615838692 0 0.0048528413558770319 -0.0058200946020148759 0 0.0046014049189889612 -0.0059993444621198322 0 0.0048605749711900913 -0.0063659380910461999 0 0.0046014049189889612 -0.0059993444621198322 0 0.0043066235208536544 -0.0061689109585655886 0 0.0048605749711900913 -0.0063659380910461999 0 0.0041753657395239875 -0.0097247716064476318 0 0.0055139060465757899 -0.0060486715274639278 0 0.003696403411425677 -0.01556571471193658 0 0.0027114593848243337 -0.014541430507882805 0 0.0038745070735262568 -0.013532444453379111 0 0.0041753657395239875 -0.0097247716064476318 0 0.004374562096965148 -0.010150787345087814 0 0.0035481268129931953 -0.005635441911841039 0 0.0036195905060250676 -0.0051772068192199516 0 0.0038686803435209575 -0.0056171119179982123 0 0.0036195905060250676 -0.0051772068192199516 0 0.0041457518836114779 -0.0053976754482989346 0 0.0038686803435209575 -0.0056171119179982123 0 0.0035481268129931953 -0.005635441911841039 0 0.0038686803435209575 -0.0056171119179982123 0 0.0036843785685777863 -0.0059630234636225367 0 0.0041457518836114779 -0.0053976754482989346 0 0.0045418725727329736 -0.0056100072598448993 0 0.0042404786344978473 -0.0057858021615838692 0 0.0041457518836114779 -0.0053976754482989346 0 0.0038686803435209575 -0.0056171119179982123 0 0.0042404786344978473 -0.0057858021615838692 0 0.0042404786344978473 -0.0057858021615838692 0 0.0039973473314566374 -0.0059619838340827557 0 0.0043066235208536544 -0.0061689109585655886 0 0.0038686803435209575 -0.0056171119179982123 0 0.0042404786344978473 -0.0057858021615838692 0 0.0039973473314566374 -0.0059619838340827557 0 0.0046014049189889612 -0.0059993444621198322 0 0.0042404786344978473 -0.0057858021615838692 0 0.0043066235208536544 -0.0061689109585655886 0 0.0039973473314566374 -0.0059619838340827557 0 0.0043066235208536544 -0.0061689109585655886 0 0.0038988803530219988 -0.0062927447261042751 0 0.0039973473314566374 -0.0059619838340827557 0 0.0036843785685777863 -0.0059630234636225367 0 0.0038988803530219988 -0.0062927447261042751 0 0.0038686803435209575 -0.0056171119179982123 0 0.0039973473314566374 -0.0059619838340827557 0 0.0036843785685777863 -0.0059630234636225367 0 0.0038988803530219988 -0.0062927447261042751 0 0.0037462582993333547 -0.0069056169725911108 0 0.003475814697558709 -0.0063490282856374196 0 0.0036843785685777863 -0.0059630234636225367 0 0.0038988803530219988 -0.0062927447261042751 0 0.003475814697558709 -0.0063490282856374196 0 0.0038988803530219988 -0.0062927447261042751 0 0.0043175826896117084 -0.0065672434464691407 0 0.0037462582993333547 -0.0069056169725911108 0 0.0043066235208536544 -0.0061689109585655886 0 0.0038988803530219988 -0.0062927447261042751 0 0.0043175826896117084 -0.0065672434464691407 0 0.0043175826896117084 -0.0065672434464691407 0 0.0037462582993333547 -0.0069056169725911108 0 0.0044111107196142876 -0.007034584488345188 0 0.0037462582993333547 -0.0069056169725911108 0 0.0044111107196142876 -0.007034584488345188 0 0.0042340251058835482 -0.0075214590276032446 0 0.0023240964505418221 -0.012855737439417569 0 0.0038745070735262568 -0.013532444453379111 0 0.0032973288185349585 -0.012294653195569971 0 0.0023240964505418221 -0.012855737439417569 0 0.0027114593848243337 -0.014541430507882805 0 0.0038745070735262568 -0.013532444453379111 0 0.0043175826896117084 -0.0065672434464691407 0 0.0048605749711900913 -0.0063659380910461999 0 0.0046305792536224105 -0.00675232664572751 0 0.0043066235208536544 -0.0061689109585655886 0 0.0043175826896117084 -0.0065672434464691407 0 0.0048605749711900913 -0.0063659380910461999 0 0.004374562096965148 -0.010150787345087814 0 0.0045611108339922895 -0.0091308010962353175 0 0.0048605749711900913 -0.0063659380910461999 0 0.0046305792536224105 -0.00675232664572751 0 0.0049185378333614716 -0.0070815930748102524 0 0.0046305792536224105 -0.00675232664572751 0 0.0044111107196142876 -0.007034584488345188 0 0.0049185378333614716 -0.0070815930748102524 0 0.0043175826896117084 -0.0065672434464691407 0 0.0046305792536224105 -0.00675232664572751 0 0.0044111107196142876 -0.007034584488345188 0 0.0044111107196142876 -0.007034584488345188 0 0.0049185378333614716 -0.0070815930748102524 0 0.0045458189809786846 -0.0074618458467959744 0 0.0038745070735262568 -0.013532444453379111 0 0.0041923045482234536 -0.011343280429949643 0 0.0032973288185349585 -0.012294653195569971 0 0.0032973288185349585 -0.012294653195569971 0 0.0034213119623155812 -0.011313456846376489 0 0.0027460839944135266 -0.011834891201774568 0 0.0041923045482234536 -0.011343280429949643 0 0.0032973288185349585 -0.012294653195569971 0 0.0034213119623155812 -0.011313456846376489 0 0.0034213119623155812 -0.011313456846376489 0 0.0026612749486801413 -0.011165452823971201 0 0.0028463382751998194 -0.010442681917390688 0 0.0034213119623155812 -0.011313456846376489 0 0.0026612749486801413 -0.011165452823971201 0 0.0027460839944135266 -0.011834891201774568 0 0.0020473945742918399 -0.011561286982693866 0 0.0026612749486801413 -0.011165452823971201 0 0.0027460839944135266 -0.011834891201774568 0 0.0023240964505418221 -0.012855737439417569 0 0.0032973288185349585 -0.012294653195569971 0 0.0027460839944135266 -0.011834891201774568 0 0.0020473945742918399 -0.011561286982693866 0 0.0023240964505418221 -0.012855737439417569 0 0.0027460839944135266 -0.011834891201774568 0 0.0034213119623155812 -0.011313456846376489 0 0.0028463382751998194 -0.010442681917390688 0 0.0038464404796407642 -0.0093546829148737232 0 0.0036962980818949537 -0.011013735738584383 0 0.0033452276310406578 -0.0089494643176492427 0 0.0022667510440368861 -0.010730101967269584 0 0.0026667597111478072 -0.0097763110574217386 0 0.0028463382751998194 -0.010442681917390688 0 0.0022667510440368861 -0.010730101967269584 0 0.0026612749486801413 -0.011165452823971201 0 0.0028463382751998194 -0.010442681917390688 0 0.0026667597111478072 -0.0097763110574217386 0 0.0028463382751998194 -0.010442681917390688 0 0.0035351180408788362 -0.0095825199261060281 0 0.0028971975220576018 -0.010376387750973413 0 0.0033452276310406578 -0.0089494643176492427 0 0.0034213119623155812 -0.011313456846376489 0 0.00470852682130957 -0.0079033341983116984 0 0.0047564938578560784 -0.0081861422663448875 0 0.0045611108339922895 -0.0091308010962353175 0 0.0047207806621149314 -0.0082632600718344374 0 0.0049185378333614716 -0.0070815930748102524 0 0.0046768088609625271 -0.0076403048631047401 0 0.0047564938578560784 -0.0081861422663448875 0 0.0041923045482234536 -0.011343280429949643 0 0.0034213119623155812 -0.011313456846376489 0 0.0047564938578560784 -0.0081861422663448875 0 0.0046768088609625271 -0.0076403048631047401 0 0.0045127745182026013 -0.0078146962957389536 0 0.0047564938578560784 -0.0081861422663448875 0 0.0049185378333614716 -0.0070815930748102524 0 0.0046768088609625271 -0.0076403048631047401 0 0.0045458189809786846 -0.0074618458467959744 0 0.0045458189809786846 -0.0074618458467959744 0 0.0045127745182026013 -0.0078146962957389536 0 0.0042340251058835482 -0.0075214590276032446 0 0.0044111107196142876 -0.007034584488345188 0 0.0045458189809786846 -0.0074618458467959744 0 0.0042340251058835482 -0.0075214590276032446 0 0.0046768088609625271 -0.0076403048631047401 0 0.0045458189809786846 -0.0074618458467959744 0 0.0045127745182026013 -0.0078146962957389536 0 0.0045127745182026013 -0.0078146962957389536 0 0.0047564938578560784 -0.0081861422663448875 0 0.0043631260194653956 -0.0080384898758267386 0 0.0045127745182026013 -0.0078146962957389536 0 0.0042340251058835482 -0.0075214590276032446 0 0.0043631260194653956 -0.0080384898758267386 0 0.0043531849683233941 -0.0086697856258670745 0 0.00470852682130957 -0.0079033341983116984 0 0.0043631260194653956 -0.0080384898758267386 0 0.0031482484941802906 -0.0090402480586297112 0 0.0033452276310406578 -0.0089494643176492427 0 0.0012283052964022435 -0.010021681066139843 0 0.0019587227706544474 -0.0096962112177955764 0 0.0021312398935854062 -0.0090743315610277778 0 0.00470852682130957 -0.0079033341983116984 0 0.0047564938578560784 -0.0081861422663448875 0 0.0043631260194653956 -0.0080384898758267386 0 0.00067483882908744624 -0.011679330521908863 0 0.0033452276310406578 -0.0089494643176492427 0 0.0026667597111478072 -0.0097763110574217386 0 0.003682563106809352 -0.0090428820806989999 0 0.0035351180408788362 -0.0095825199261060281 0 -0.0012042491850300506 -0.017084121427717733 0 -0.0014006547885569915 -0.0171431253898972 0 -0.0012567064197143269 -0.017185298298565518 0 0.00057376403704832268 -0.013697001714403193 0 0.00067483882908744624 -0.011679330521908863 0 -0.0013200349626458969 -0.017232164135928603 0 -0.0014006547885569915 -0.0171431253898972 0 -0.0012567064197143269 -0.017185298298565518 0 -0.0011407369430424109 -0.017176776063554947 0 -0.0012042491850300506 -0.017084121427717733 0 -0.0012567064197143269 -0.017185298298565518 0 0.0037427023272978257 -0.0077660253259652593 0 0.003320779366535975 -0.0082456248098527959 0 0.0029330187977657913 -0.0077174205141842776 0 0.0037462582993333547 -0.0069056169725911108 0 0.0037427023272978257 -0.0077660253259652593 0 0.0029330187977657913 -0.0077174205141842776 0 0.0037462582993333547 -0.0069056169725911108 0 0.0037427023272978257 -0.0077660253259652593 0 0.0042340251058835482 -0.0075214590276032446 0 0.0037427023272978257 -0.0077660253259652593 0 0.0042340251058835482 -0.0075214590276032446 0 0.0043631260194653956 -0.0080384898758267386 0 0.0043531849683233941 -0.0086697856258670745 0 0.0043631260194653956 -0.0080384898758267386 0 0.0038455549174372149 -0.0083147934654535169 0 0.0037427023272978257 -0.0077660253259652593 0 0.0043631260194653956 -0.0080384898758267386 0 0.0038455549174372149 -0.0083147934654535169 0 0.0033941050718647742 -0.0088739003939942544 0 0.003320779366535975 -0.0082456248098527959 0 0.002635846006719871 -0.0085876001746545503 0 0.0033941050718647742 -0.0088739003939942544 0 0.0038455549174372149 -0.0083147934654535169 0 0.003320779366535975 -0.0082456248098527959 0 0.0037427023272978257 -0.0077660253259652593 0 0.0038455549174372149 -0.0083147934654535169 0 0.003320779366535975 -0.0082456248098527959 0 0.002635846006719871 -0.0085876001746545503 0 0.0029330187977657913 -0.0077174205141842776 0 0.0019043390928909828 -0.0077434016813738996 0 0.003320779366535975 -0.0082456248098527959 0 0.002635846006719871 -0.0085876001746545503 0 0.0029330187977657913 -0.0077174205141842776 0 0.0029330187977657913 -0.0077174205141842776 0 0.0019043390928909828 -0.0077434016813738996 0 0.0022573543140972023 -0.0069699163135892549 0 0.0019043390928909828 -0.0077434016813738996 0 0.00091883846326398159 -0.0070655148570380778 0 0.0022573543140972023 -0.0069699163135892549 0 0.002635846006719871 -0.0085876001746545503 0 0.0019043390928909828 -0.0077434016813738996 0 0.0017109963063781483 -0.0084476344103472049 0 0.0020728301633150051 -0.0089225729900861347 0 0.002635846006719871 -0.0085876001746545503 0 0.0017109963063781483 -0.0084476344103472049 0 0.0019043390928909828 -0.0077434016813738996 0 0.0017109963063781483 -0.0084476344103472049 0 0.0010231560125563688 -0.0079218396028698443 0 0.0017109963063781483 -0.0084476344103472049 0 0.0010759536427266095 -0.0085507008461484634 0 0.0010231560125563688 -0.0079218396028698443 0 0.0010759536427266095 -0.0085507008461484634 0 0.00029321981669123618 -0.0082134665799366551 0 0.0010231560125563688 -0.0079218396028698443 0 0.00055893125048597791 -0.0089433173164421998 0 0.0010759536427266095 -0.0085507008461484634 0 0.00029321981669123618 -0.0082134665799366551 0 -0.00037277394327821115 -0.0071377957985858725 0 0.00022345543785673073 -0.0075243115580952138 0 0.00091883846326398159 -0.0070655148570380778 0 0.00022345543785673073 -0.0075243115580952138 0 0.0010231560125563688 -0.0079218396028698443 0 0.00091883846326398159 -0.0070655148570380778 0 0.00029321981669123618 -0.0082134665799366551 0 0.00022345543785673073 -0.0075243115580952138 0 0.0010231560125563688 -0.0079218396028698443 0 0.0019043390928909828 -0.0077434016813738996 0 0.0010231560125563688 -0.0079218396028698443 0 0.00091883846326398159 -0.0070655148570380778 0 0.0026079246261505782 -0.0066588969218549423 0 0.0027929060631482179 -0.0063565074487610292 0 0.003251223461095598 -0.0066658545913216207 0 0.0017973116712604092 -0.0067108786169134413 0 0.0026079246261505782 -0.0066588969218549423 0 0.0022141315321437113 -0.0063297998903720579 0 0.00096219891866540248 -0.0068189078201489816 0 0.0017022201053179097 -0.006877558282280467 0 0.0026079246261505782 -0.0066588969218549423 0 0.0022141315321437113 -0.0063297998903720579 0 0.0027929060631482179 -0.0063565074487610292 0 0.0022141315321437113 -0.0063297998903720579 0 0.0027929060631482179 -0.0063565074487610292 0 0.0026609196447938575 -0.0059314607767819039 0 0.0021555841347073524 -0.0056686029003534194 0 0.0023004758084381369 -0.0062562978592818758 0 0.0026609196447938575 -0.0059314607767819039 0 0.0023810014017343921 -0.0062131331697562716 0 0.0025838843359140603 -0.0059959185144489646 0 0.0030206982202109728 -0.00582915473302265 0 0.0026609196447938575 -0.0059314607767819039 0 0.0030916209051155942 -0.0061888407378500035 0 0.0027929060631482179 -0.0063565074487610292 0 0.0026609196447938575 -0.0059314607767819039 0 0.0030916209051155942 -0.0061888407378500035 0 0.0030916209051155942 -0.0061888407378500035 0 0.003475814697558709 -0.0063490282856374196 0 0.003251223461095598 -0.0066658545913216207 0 0.0033372131334085619 -0.0059359024188273372 0 0.0030916209051155942 -0.0061888407378500035 0 0.003475814697558709 -0.0063490282856374196 0 0.0037056795814748092 -0.0068845433707170672 0 0.0027869250125284141 -0.0068276713839667052 0 0.0037462582993333547 -0.0069056169725911108 0 0.0029330187977657913 -0.0077174205141842776 0 0.0022573543140972023 -0.0069699163135892549 0 0.0037462582993333547 -0.0069056169725911108 0 0.003475814697558709 -0.0063490282856374196 0 0.003251223461095598 -0.0066658545913216207 0 0.0027929060631482179 -0.0063565074487610292 0 0.0030916209051155942 -0.0061888407378500035 0 0.003251223461095598 -0.0066658545913216207 0 0.0017022201053179097 -0.006877558282280467 0 0.0027869250125284141 -0.0068276713839667052 0 
</DataArray>
</PointData>
<CellData Scalars="region_id,cross_section_updated," Vectors="" Tensors="stress,">
<DataArray type="Float64" Name="region_id" format="ascii">
5 5 6 5 5 5 5 5 5 5 5 5 6 5 5 5 6 6 5 5 5 6 5 5 6 5 6 5 5 5 5 5 5 5 5 5 5 5 6 5 5 5 5 5 5 5 5 6 5 6 5 5 5 5 5 5 6 5 5 5 5 5 5 5 5 5 5 5 5 5 5 5 5 5 5 5 5 5 5 5 6 5 5 5 5 5 5 6 5 5 5 6 6 5 5 6 5 6 5 5 5 5 5 5 5 5 5 5 5 5 6 5 5 5 5 5 5 5 5 5 5 5 5 6 6 5 6 5 5 5 5 5 5 6 5 5 5 5 5 5 5 5 5 5 5 5 5 5 5 5 5 5 6 5 5 6 5 5 5 5 5 5 5 6 5 5 5 6 5 5 5 5 5 5 5 5 5 5 5 5 5 5 5 5 5 5 5 5 5 5 5 6 5 5 5 5 5 5 5 5 5 5 5 5 5 6 5 5 5 5 6 5 5 5 5 5 5 6 5 5 5 5 5 5 6 6 5 5 6 5 5 5 6 6 6 5 6 5 5 6 5 5 5 5 5 5 6 6 5 5 5 5 5 5 5 5 5 5 5 5 5 5 5 5 5 6 5 5 5 5 5 5 6 5 5 5 6 5 5 5 5 5 6 6 5 6 5 5 6 5 5 6 5 5 5 5 5 5 5 5 5 6 5 5 5 5 5 6 5 5 5 5 6 5 5 5 6 5 6 5 5 5 5 5 5 5 5 5 5 6 5 5 5 5 5 5 6 5 5 5 5 5 5 5 5 6 5 5 5 5 5 6 5 5 5 5 5 5 5 5 5 5 6 5 6 5 5 5 5 5 5 5 5 5 5 5 5 5 5 5 5 5 5 5 5 5 5 5 5 6 5 5 6 5 5 5 5 5 5 5 5 6 5 5 5 5 6 5 5 5 5 5 5 5 5 5 5 5 5 5 5 6 5 5 5 5 5 5 5 5 6 5 5 5 5 5 5 5 5 5 6 5 5 5 5 5 5 5 5 6 5 5 5 5 5 5 5 5 5 5 5 5 5 5 5 5 5 5 5 5 5 5 5 5 5 5 6 5 5 5 5 5 5 5 5 5 5 6 5 5 5 5 5 6 5 5 5 5 5 5 6 5 5 5 6 5 6 5 5 5 6 5 5 5 5 5 5 5 5 5 5 5 5 5 5 5 5 5 5 5 5 5 6 5 5 6 5 5 5 5 5 5 5 5 5 5 5 5 6 5 5 5 6 6 5 5 5 5 5 6 5 6 5 5 5 6 5 5 6 5 5 5 5 5 5 5 5 6 5 5 5 5 5 5 5 6 5 6 6 5 5 6 6 5 5 5 5 5 5 5 5 5 5 5 6 5 5 6 6 5 5 5 5 5 5 5 5 5 5 5 5 5 5 5 5 6 5 5 5 5 5 5 5 5 5 6 5 6 5 5 5 5 5 5 5 5 5 5 5 5 5 5 5 5 5 5 6 5 5 5 5 6 5 5 6 5 5 6 5 6 5 5 5 5 5 5 5 5 5 6 5 5 6 5 5 5 5 5 5 5 5 5 5 5 5 5 5 5 5 5 5 5 6 5 5 5 6 5 5 5 5 5 5 5 5 5 5 5 5 5 5 5 5 5 5 5 5 5 5 5 5 5 5 5 5 5 5 6 5 5 6 5 5 5 6 5 5 5 6 5 5 6 6 6 5 5 5 5 5 5 5 5 5 5 5 5 5 5 5 5 5 6 6 5 5 6 5 5 5 6 6 6 5 5 5 6 5 6 5 6 5 5 5 5 6 5 5 5 5 5 5 5 5 5 5 5 5 5 5 5 5 5 5 5 6 5 6 5 5 5 5 5 5 5 5 5 5 5 5 5 5 5 5 5 5 5 5 5 5 5 5 6 5 5 6 5 5 6 5 5 5 5 6 5 6 5 6 5 6 5 5 5 5 6 5 5 6 5 6 6 5 5 5 5 5 5 5 5 5 5 5 5 5 5 5 5 5 5 5 5 5 5 5 5 5 5 5 5 5 5 5 5 5 5 5 5 5 5 5 5 5 5 5 5 5 5 5 5 6 5 6 5 5 5 6 5 6 5 5 5 5 5 5 5 5 5 5 5 5 5 5 5 5 5 5 5 5 5 5 5 5 5 5 5 5 6 5 5 5 5 5 5 5 5 6 5 5 5 5 5 5 6 5 5 6 5 6 5 5 5 5 5 5 5 5 5 5 5 5 5 5 5 5 5 5 6 5 5 5 5 6 5 6 5 5 5 6 6 6 5 5 5 5 5 5 6 6 5 5 5 6 5 5 5 5 5 5 5 5 5 5 6 5 6 5 5 5 5 5 6 5 5 6 6 6 5 5 5 5 5 6 5 6 5 5 5 5 5 5 6 5 6 5 5 5 5 6 5 5 5 5 5 6 5 5 5 6 5 5 5 5 5 5 5 5 5 5 5 5 5 5 5 5 5 6 5 5 6 5 5 5 5 5 5 5 5 6 5 5 6 5 5 5 5 5 5 5 5 5 5 5 5 5 5 5 5 5 5 5 5 5 6 5 5 5 5 6 5 5 5 6 5 6 5 5 5 5 5 5 5 5 6 5 6 5 6 5 5 5 6 6 5 5 6 6 5 5 6 5 5 5 5 5 5 5 5 5 5 6 5 5 5 5 5 5 6 5 5 5 5 5 5 5 5 5 5 5 5 5 5 6 5 5 5 5 5 5 6 5 5 5 5 5 5 5 5 5 6 5 5 5 5 5 5 5 5 5 5 6 5 5 5 5 5 5 5 5 5 5 5 5 5 5 5 5 5 5 5 5 5 6 5 5 5 5 5 5 6 5 6 5 5 5 5 5 6 5 5 5 5 5 5 5 5 5 5 5 5 5 5 5 5 5 5 5 5 5 5 5 5 5 5 5 5 5 5 5 6 5 5 5 5 5 5 5 5 6 5 5 5 5 5 5 5 5 6 5 5 5 5 5 5 5 5 5 5 5 5 5 5 5 5 5 5 5 5 5 5 5 5 5 5 5 5 5 5 5 6 5 5 5 5 5 5 5 5 5 5 5 5 5 5 5 5 5 5 5 5 5 5 5 5 5 5 5 5 5 5 5 5 5 5 5 5 5 5 5 5 5 5 5 5 5 5 5 5 5 5 5 5 5 5 5 5 5 5 5 5 5 5 5 5 5 5 5 5 5 5 5 5 5 5 5 5 5 5 5 5 5 5 5 5 5 5 5 5 5 5 5 5 5 5 5 5 5 5 5 5 5 5 5 6 5 5 5 5 5 5 6 6 5 5 5 5 5 5 5 5 5 5 5 5 5 5 5 5 5 5 5 5 5 5 6 6 5 5 6 5 5 5 5 6 5 5 5 5 5 5 5 5 5 5 5 5 5 5 5 5 5 5 5 5 5 5 5 5 5 5 5 5 5 6 5 5 5 5 5 5 5 5 5 5 5 5 5 5 5 5 5 5 5 5 5 5 5 5 5 5 5 5 5 5 5 5 5 5 5 5 5 5 5 5 5 5 5 5 5 5 5 5 5 5 5 6 5 5 5 5 5 5 5 6 5 5 5 5 5 5 5 6 5 5 5 5 6 5 5 5 5 5 5 5 5 5 6 5 5 5 5 5 6 5 5 5 5 5 6 5 5 5 5 5 5 5 5 5 5 5 5 5 5 5 5 5 5 5 5 5 5 5 5 5 5 5 5 5 5 5 5 5 5 5 5 6 5 5 5 5 5 6 5 5 5 5 5 5 5 5 5 5 5 5 5 5 5 5 5 5 5 6 5 5 5 5 5 5 5 5 5 5 5 5 5 5 5 5 5 5 5 5 5 5 5 6 5 6 5 5 5 5 6 5 5 5 5 5 5 5 5 5 5 5 5 6 5 5 6 5 5 6 5 5 5 6 6 5 5 6 5 5 5 5 5 5 6 5 5 5 6 5 6 5 6 5 5 5 5 5 5 5 5 5 5 5 6 5 5 5 5 6 5 5 5 5 5 5 5 5 5 5 5 5 5 5 5 6 5 6 5 5 5 5 5 5 5 5 6 5 5 5 5 5 6 5 6 5 6 5 5 5 5 5 5 5 5 5 5 5 6 5 5 6 5 5 5 5 5 5 5 6 5 6 5 5 6 5 5 5 5 5 5 5 5 5 5 5 5 5 5 5 5 5 5 6 5 5 5 5 5 5 5 5 5 5 5 5 5 5 5 5 5 5 5 5 5 5 5 5 5 5 5 6 6 5 5 6 5 6 6 5 5 5 5 6 5 6 5 5 5 6 6 5 5 5 5 5 5 5 5 5 5 5 5 6 5 5 5 5 6 5 6 5 5 5 5 5 5 6 5 5 5 5 5 5 5 5 5 5 5 5 5 5 5 6 5 5 5 6 5 5 5 5 6 5 5 5 5 5 5 5 5 6 5 5 5 5 5 5 5 5 5 5 5 5 5 5 5 5 5 5 5 5 5 5 5 5 5 5 5 5 5 6 5 5 5 5 5 5 5 5 5 5 5 5 5 5 5 5 5 5 5 5 5 5 5 5 5 5 5 5 5 5 5 6 5 5 5 6 5 5 5 5 5 5 6 5 5 5 5 5 6 5 6 5 5 6 5 5 6 5 5 5 6 5 5 5 5 5 5 5 5 5 5 5 5 5 5 5 5 5 5 5 5 5 5 5 6 5 5 5 5 6 5 6 5 5 6 5 5 5 5 5 5 5 5 6 5 5 5 5 5 6 5 5 5 5 5 6 6 5 5 5 5 6 5 5 5 5 5 5 5 5 5 5 5 5 5 5 5 5 5 5 6 5 5 5 5 6 6 6 5 5 5 6 5 5 5 6 5 5 6 5 5 6 5 5 6 5 5 6 5 5 6 5 5 5 5 5 5 5 6 5 5 6 5 5 6 5 5 5 5 5 5 5 5 5 5 5 5 5 5 5 6 5 5 5 6 5 5 5 5 5 5 5 5 5 5 5 5 5 5 5 5 5 5 5 5 5 5 5 5 5 5 5 5 5 5 6 5 5 5 5 6 5 5 5 5 5 5 5 5 5 6 5 5 5 5 5 5 5 5 5 5 5 5 5 5 5 5 5 5 5 5 5 5 5 5 5 5 5 5 5 5 5 5 5 5 5 5 5 5 5 5 5 5 5 5 5 5 5 5 5 5 5 5 6 5 5 5 5 6 5 5 5 5 6 5 5 5 5 5 6 5 5 5 5 5 5 5 5 6 5 5 6 5 6 5 5 5 5 6 5 5 5 5 6 5 5 5 5 5 5 5 5 5 5 6 5 5 5 5 5 5 5 5 5 6 5 5 5 5 5 5 6 5 5 5 5 6 6 5 5 5 5 5 6 5 5 5 5 6 5 5 6 5 5 6 5 6 5 6 5 5 5 5 5 5 5 5 5 5 5 5 5 5 5 5 5 5 6 5 5 5 5 5 5 5 5 5 5 5 5 5 5 5 5 5 5 5 5 5 5 5 5 5 5 5 5 5 5 5 5 5 5 5 5 5 5 5 5 5 5 5 5 5 5 5 5 5 5 5 5 5 5 5 5 5 6 5 5 5 5 5 5 5 5 5 5 5 5 5 5 5 5 5 5 5 5 5 6 6 5 5 5 5 5 5 5 5 5 5 5 5 5 5 5 5 5 6 5 5 5 5 5 5 5 5 6 5 5 5 6 5 5 5 5 5 5 5 5 5 6 5 5 6 5 5 5 5 6 5 5 5 5 5 5 6 5 6 5 5 5 6 5 5 6 5 5 5 5 5 6 5 5 6 5 5 5 5 5 5 5 5 5 5 6 5 5 5 5 5 5 5 5 5 5 5 5 5 5 5 5 5 5 6 6 5 5 5 5 5 5 5 6 5 5 5 6 5 5 5 5 5 5 5 5 5 6 5 5 5 5 5 6 5 5 6 5 5 6 5 5 6 5 5 6 5 5 5 5 6 5 5 5 5 5 5 5 5 5 5 5 5 5 5 5 5 5 5 5 5 5 5 6 5 5 5 5 5 5 5 5 5 5 5 6 5 6 5 5 5 5 5 5 6 5 5 5 6 5 5 5 5 5 5 5 5 5 5 5 5 5 5 5 5 5 5 5 5 5 5 6 5 5 5 5 5 5 5 6 5 6 6 5 5 6 5 5 5 5 5 5 6 6 5 5 5 6 5 5 5 5 5 6 5 5 5 6 5 5 5 6 5 5 5 6 5 6 5 5 6 6 5 6 5 5 5 6 6 6 6 5 5 6 5 5 5 5 5 5 6 5 5 5 5 5 5 5 5 5 5 5 5 6 5 6 5 5 5 5 5 5 5 5 5 5 5 5 6 5 5 5 6 5 5 5 5 5 5 6 5 5 5 6 5 6 5 5 5 5 5 5 5 5 5 5 5 5 5 5 6 6 5 5 6 5 5 6 6 5 5 5 5 6 5 5 5 5 5 5 6 5 5 5 5 5 6 5 5 5 5 5 5 5 5 5 5 5 5 5 5 5 5 5 5 5 5 5 5 6 5 5 5 5 5 6 5 6 5 5 6 5 5 5 5 5 6 5 5 5 5 5 5 6 5 5 5 5 5 6 5 5 5 5 6 5 5 5 5 5 5 5 5 6 5 5 5 5 5 5 5 5 5 5 5 5 5 6 5 5 5 5 5 5 5 5 5 6 5 5 5 5 5 6 5 5 5 5 5 5 5 6 5 5 6 5 5 5 5 5 5 5 5 5 5 6 5 5 5 5 6 5 5 5 5 5 5 5 5 5 5 5 5 5 5 5 6 6 5 5 6 5 5 5 5 5 5 5 5 5 5 5 5 5 5 5 5 5 5 5 5 5 5 5 5 5 5 5 5 5 5 5 5 5 6 5 6 5 5 5 5 5 5 5 5 5 5 5 6 5 5 6 5 5 6 5 5 5 5 5 5 5 6 5 5 5 5 5 5 5 5 5 5 5 5 5 5 5 5 5 5 5 6 5 5 5 5 5 5 5 5 5 5 5 5 5 5 5 5 5 5 5 5 5 5 5 5 5 5 5 5 5 5 5 5 5 5 5 5 5 6 5 6 5 5 5 5 5 6 6 5 5 6 5 6 5 5 6 5 5 5 5 5 6 5 5 5 5 5 5 5 5 5 5 6 5 5 5 5 6 5 5 5 6 5 5 5 5 5 5 5 5 5 5 5 5 6 5 5 5 5 5 5 5 5 5 5 5 5 5 5 5 5 5 5 5 5 5 5 5 6 5 5 5 5 5 5 5 5 5 5 5 5 5 5 5 5 5 5 5 5 5 6 5 5 5 5 5 5 5 5 6 5 5 5 5 5 5 5 5 5 5 5 5 5 6 5 5 5 5 5 5 6 6 5 5 5 5 6 5 6 5 5 5 5 5 5 5 5 6 5 6 5 5 6 6 5 5 5 5 5 5 5 5 5 6 5 5 5 6 5 5 5 5 5 5 5 5 5 5 5 5 5 5 5 5 6 5 5 5 5 5 5 5 5 5 5 5 5 5 5 5 6 5 5 5 5 5 5 5 5 5 5 5 5 6 5 5 5 5 5 5 6 6 5 5 5 6 5 5 5 5 5 5 5 6 5 5 5 5 5 5 5 5 5 5 5 5 5 5 5 5 6 6 5 5 5 5 5 6 5 5 5 6 5 5 5 5 5 5 6 5 6 5 5 6 5 6 6 5 5 6 5 6 5 5 6 5 5 5 5 5 6 5 5 5 6 5 6 5 6 5 5 5 5 5 5 5 5 5 5 6 5 5 5 6 5 5 5 5 5 5 6 5 5 5 5 5 5 5 5 5 5 5 5 5 5 6 5 5 5 6 5 5 5 6 5 6 5 6 5 6 5 6 5 5 5 5 5 5 5 5 5 5 5 5 5 5 5 5 5 6 5 5 6 5 6 6 5 5 5 5 5 6 6 5 5 5 5 6 5 5 5 5 6 5 5 5 5 5 5 5 6 5 5 5 5 5 5 5 5 5 5 5 5 5 5 5 5 6 6 5 6 6 5 5 5 5 5 5 5 6 5 5 5 5 5 6 5 5 6 5 5 6 5 5 5 5 5 6 5 5 5 5 5 5 6 5 5 5 6 5 6 5 5 5 5 5 5 5 5 5 6 5 5 5 5 5 5 5 5 6 5 5 5 5 5 5 5 5 6 5 5 6 5 5 6 6 5 6 5 5 6 6 5 6 5 6 5 5 6 5 5 5 5 5 5 5 5 5 6 5 5 5 5 6 5 6 5 5 5 5 5 5 5 5 5 5 5 5 6 6 5 5 5 6 6 6 5 6 6 6 5 5 5 6 5 6 5 5 5 5 6 5 6 5 5 5 5 5 5 5 5 5 5 5 6 5 5 5 5 5 5 5 6 5 5 5 5 6 5 5 5 5 5 5 5 5 5 5 5 5 5 5 5 5 5 5 5 5 5 5 5 5 5 6 5 5 5 5 5 5 5 5 5 5 5 6 5 5 5 5 5 5 5 5 5 5 5 5 5 5 5 5 5 5 5 5 5 5 5 5 5 5 5 5 5 5 6 6 5 5 6 6 5 5 5 5 5 5 5 5 5 5 5 5 5 5 5 5 6 5 5 5 6 5 6 5 5 5 5 5 5 5 6 5 5 6 5 5 6 5 6 6 5 6 5 5 5 5 5 6 5 6 5 5 5 5 6 5 5 5 5 5 5 6 5 5 6 5 5 5 5 5 5 5 6 5 5 5 5 6 5 5 5 5 5 5 5 5 5 5 6 5 5 5 6 5 5 5 5 5 6 5 5 5 5 6 5 5 5 5 5 5 5 6 5 5 5 5 5 5 5 5 5 5 5 5 5 5 6 6 5 5 6 6 5 5 6 5 5 5 5 5 5 5 5 5 5 5 5 6 5 5 6 5 5 6 5 5 5 5 5 6 5 5 5 5 5 5 5 5 5 5 6 5 6 5 5 6 5 5 5 5 5 5 5 5 5 5 5 5 5 5 5 6 5 5 5 5 6 5 5 5 6 5 5 5 5 5 5 6 5 5 5 6 5 6 5 5 5 5 5 5 5 5 5 5 5 5 5 5 5 6 5 5 5 5 5 5 5 5 5 5 5 6 5 5 5 5 5 5 6 5 5 5 6 5 5 5 5 5 5 6 5 5 5 6 5 5 5 5 5 5 5 5 5 5 5 5 5 5 5 5 5 5 5 6 5 6 5 6 5 5 6 5 6 5 6 5 5 5 5 5 6 5 5 6 5 5 5 6 5 5 6 5 5 5 5 5 5 5 5 5 5 5 6 5 5 5 5 5 6 5 5 5 5 5 5 5 5 5 5 5 5 5 5 5 5 5 6 5 5 5 6 5 5 5 6 6 5 5 5 5 5 5 5 5 5 5 5 5 5 5 5 5 5 5 5 5 5 5 5 5 5 5 5 5 5 5 5 5 5 5 5 5 5 5 5 5 6 5 5 6 5 5 5 5 5 5 5 5 5 5 5 5 5 5 5 5 5 5 5 5 5 5 5 5 6 5 5 5 5 5 6 5 5 5 5 5 5 5 5 5 5 5 5 5 5 6 5 5 5 5 5 5 5 5 5 5 6 5 5 5 5 5 5 5 5 5 5 5 6 5 5 5 5 5 5 5 5 5 5 5 5 5 5 5 5 5 5 5 5 5 5 5 5 5 5 5 5 6 5 5 5 5 5 5 5 5 5 6 5 5 5 5 5 5 6 5 5 5 5 5 5 5 5 5 5 5 5 5 5 5 5 5 5 6 5 5 5 6 5 6 5 5 5 5 5 5 5 5 5 5 5 5 5 5 5 5 6 5 6 5 5 5 6 5 5 5 5 5 5 5 5 5 5 5 5 6 5 5 5 5 6 5 5 5 5 5 5 6 5 6 5 5 5 5 5 5 5 6 5 5 5 6 5 5 5 6 5 5 5 5 6 5 5 5 6 5 5 5 5 6 5 6 5 5 5 5 5 5 5 5 5 5 5 5 5 5 5 5 5 5 5 5 5 5 5 5 5 5 5 5 5 5 6 5 5 5 5 5 5 5 5 5 5 5 5 5 5 5 5 6 5 5 5 6 5 5 5 5 6 5 5 5 5 6 5 5 5 5 5 5 6 5 5 5 5 5 5 6 5 5 5 5 5 6 5 5 5 5 6 5 5 5 5 6 5 5 5 5 5 5 5 5 5 5 5 5 5 5 5 5 6 5 5 6 5 5 5 5 5 6 5 5 5 5 5 5 5 5 5 5 5 5 5 5 5 5 5 5 5 5 6 5 5 5 5 6 5 5 5 5 5 5 5 5 5 5 5 5 5 5 6 5 5 5 6 5 5 5 5 5 5 5 5 5 5 5 5 5 5 5 5 5 5 5 5 5 5 5 5 5 5 5 5 5 5 5 5 5 5 5 5 5 5 5 5 5 5 5 5 5 5 5 5 5 6 5 6 5 6 5 5 5 5 5 5 5 5 5 5 6 5 5 6 5 5 5 5 5 5 5 5 6 5 5 5 6 5 5 5 5 6 5 5 6 5 5 6 5 5 6 5 5 5 6 5 5 5 5 5 5 5 5 5 5 5 5 5 6 5 5 5 5 6 5 5 5 5 5 5 5 5 5 5 6 5 5 5 6 5 6 5 5 5 6 5 6 5 6 5 5 5 6 6 5 5 6 5 5 5 6 5 6 5 6 5 5 5 5 5 5 5 5 6 6 5 5 6 5 5 6 5 5 5 6 5 5 6 6 6 5 5 6 5 6 5 5 6 5 5 5 6 5 5 5 6 5 5 5 5 5 5 5 6 5 6 5 6 6 5 5 5 5 5 5 5 5 5 5 5 5 5 5 5 5 5 5 5 5 5 5 5 5 5 5 5 6 5 5 5 5 5 5 5 5 5 5 5 5 5 5 5 5 6 5 5 5 5 5 5 5 6 5 5 5 5 5 5 6 6 5 5 5 5 5 5 5 6 5 5 5 6 6 5 5 6 5 5 5 5 5 5 5 5 6 5 5 5 5 5 6 5 6 5 5 6 5 5 5 6 5 5 5 5 6 5 5 5 5 6 5 5 6 5 5 5 5 5 5 5 5 5 5 6 5 5 5 5 5 5 5 5 5 5 5 5 5 5 5 5 5 5 5 5 5 5 5 5 5 5 5 5 6 5 6 5 5 5 5 5 5 5 5 5 6 5 5 5 5 5 5 5 5 5 5 5 5 5 6 5 5 5 6 5 6 5 5 6 5 6 5 6 5 5 5 5 5 5 5 6 5 5 5 5 6 5 6 5 5 5 5 5 6 6 5 5 5 5 6 5 5 6 5 5 5 5 5 5 5 5 5 5 5 5 5 5 5 5 5 5 5 5 5 5 5 5 5 5 5 6 5 6 5 5 5 5 5 5 6 5 6 5 5 6 6 5 5 6 6 5 6 5 5 5 5 5 5 5 5 5 6 5 5 5 6 5 5 6 5 5 5 5 5 5 5 5 5 5 5 5 5 5 5 5 5 5 5 5 5 5 5 5 6 5 5 5 5 5 5 5 5 6 6 6 5 5 5 5 5 5 5 5 5 5 5 5 5 5 5 5 5 5 5 6 6 5 5 5 6 5 5 6 5 5 6 5 5 5 5 5 5 5 6 5 5 5 5 5 5 5 6 5 5 5 5 5 5 5 5 5 6 6 5 5 5 5 5 6 5 5 5 5 5 5 5 5 5 5 5 5 5 5 5 5 6 5 5 5 5 5 5 6 5 5 5 5 5 6 5 5 5 6 5 5 5 5 5 5 5 6 5 5 6 5 5 5 5 5 5 6 5 5 5 5 5 5 5 5 5 5 5 5 5 6 5 5 5 6 5 6 5 5 5 5 5 5 6 5 5 6 5 6 5 6 5 5 5 5 5 5 5 5 5 5 5 5 5 5 5 5 5 5 5 5 5 5 5 5 5 5 5 5 5 5 5 5 5 5 5 5 5 5 5 6 5 5 6 5 5 5 5 5 5 5 5 5 5 5 5 5 5 5 5 5 5 5 5 5 6 6 5 5 5 6 5 5 5 5 5 5 5 5 5 5 5 5 5 5 5 5 5 5 5 5 5 5 5 5 5 5 5 6 5 5 5 5 5 5 5 5 5 5 6 5 5 5 5 5 6 5 6 5 5 5 5 5 5 5 5 5 6 5 5 5 5 5 5 5 5 5 6 5 5 5 5 5 5 5 5 5 5 5 6 5 5 5 5 5 5 5 5 5 5 5 5 5 5 5 6 5 5 5 5 5 5 5 5 5 5 5 5 5 5 5 5 5 5 5 5 5 6 5 5 5 6 5 5 5 6 5 5 6 5 5 5 5 5 5 5 5 5 6 5 5 5 5 5 6 6 5 5 5 5 5 5 5 5 6 5 5 5 5 5 5 6 5 6 5 5 5 5 5 5 5 5 5 6 5 5 6 5 6 5 5 5 5 5 5 5 5 6 5 5 6 5 5 6 5 5 5 5 5 5 5 5 5 5 5 5 5 5 5 5 6 5 6 5 5 5 5 5 5 5 5 6 5 5 5 5 5 5 5 6 5 5 5 5 5 5 5 5 5 5 5 6 5 5 5 5 5 5 6 6 5 5 5 5 5 5 5 5 5 5 5 5 5 5 6 5 5 5 5 5 5 5 5 5 5 5 5 5 6 5 5 5 5 5 5 6 5 5 5 5 5 5 5 5 5 5 5 5 5 5 5 5 5 5 5 5 5 5 5 5 5 5 5 5 5 5 5 5 5 5 5 6 5 5 5 5 5 5 5 5 5 5 5 5 5 5 5 5 5 5 5 5 5 5 5 5 5 5 5 5 5 5 5 5 5 5 5 5 5 5 5 5 5 5 5 5 5 5 5 5 5 5 5 5 5 5 5 5 5 5 5 5 5 5 5 5 5 5 5 5 5 5 5 5 5 5 5 5 5 5 5 5 5 5 5 5 5 5 5 5 5 6 5 5 5 5 5 5 5 5 5 6 6 5 5 6 5 5 5 5 6 5 5 5 5 6 6 5 5 5 5 5 5 6 5 6 5 5 5 5 5 5 5 6 5 5 6 5 5 5 5 5 5 5 5 5 5 5 5 5 5 6 5 5 5 5 5 5 5 5 5 5 5 5 5 5 5 5 5 5 5 5 5 5 5 6 5 5 5 5 5 5 5 5 5 5 5 5 5 5 5 5 5 6 5 5 5 5 5 5 5 5 5 5 5 6 5 5 5 5 5 6 5 5 5 5 5 5 5 5 5 5 5 5 5 5 5 5 6 5 5 5 5 5 5 5 5 5 5 5 5 5 5 6 5 5 5 6 5 5 5 5 5 5 5 5 5 5 5 5 5 5 5 5 5 5 5 5 5 5 5 5 5 6 5 5 5 6 5 5 6 5 5 5 5 5 5 5 6 5 6 5 5 5 5 5 5 5 6 5 5 5 5 5 6 5 6 5 5 6 5 5 5 5 5 5 5 5 5 5 6 5 5 5 6 6 5 5 5 5 6 5 5 5 5 5 5 6 5 5 6 5 6 5 5 5 5 5 6 5 5 5 5 5 5 5 5 5 5 6 5 5 5 5 5 5 5 6 5 5 5 5 6 5 5 6 5 5 5 5 5 5 5 5 5 6 5 5 5 5 5 5 5 5 5 5 5 5 5 5 5 5 5 5 5 5 5 5 5 5 5 5 5 5 5 6 5 5 5 5 5 5 5 5 5 6 5 5 5 5 6 5 5 5 5 6 5 6 5 5 5 5 5 6 5 5 6 5 5 5 5 5 5 5 5 5 5 5 5 5 6 5 5 6 5 6 5 5 5 5 5 5 5 5 5 5 6 5 5 5 5 5 5 5 5 5 6 5 5 5 5 5 6 5 5 5 5 5 5 6 5 5 6 5 6 5 5 6 5 6 6 5 5 5 5 5 5 5 5 5 5 5 5 5 5 5 5 5 5 5 5 5 5 5 5 5 5 5 6 5 5 6 5 5 5 5 5 5 5 5 5 5 5 5 5 5 5 5 5 5 5 5 5 6 5 5 5 6 5 5 5 5 5 5 5 5 5 5 5 5 5 5 5 6 5 5 5 5 5 5 5 5 5 5 5 5 6 5 5 5 6 6 5 5 5 5 5 5 5 6 5 5 6 5 6 5 6 5 5 6 5 5 5 6 5 5 5 6 6 5 5 6 6 6 6 5 6 5 5 5 5 6 5 5 5 5 5 5 5 5 5 5 5 5 6 5 5 6 5 5 5 5 5 5 6 5 5 5 5 6 5 5 5 6 5 5 5 5 5 5 5 5 5 5 5 5 6 5 5 5 5 6 5 5 6 5 5 5 5 5 5 5 5 6 6 5 6 5 5 5 5 5 5 5 6 5 5 5 5 5 5 5 5 5 5 5 6 5 6 5 5 5 5 5 5 5 5 5 6 5 5 5 5 6 6 5 5 5 6 5 5 6 5 5 5 5 5 5 5 5 5 5 6 5 5 5 5 5 5 5 5 5 5 5 5 5 5 5 5 5 5 5 5 5 5 6 5 5 5 5 5 5 5 5 5 5 5 5 5 6 5 6 6 5 5 6 5 5 5 5 5 5 5 5 5 5 5 5 5 5 5 5 6 5 5 6 6 5 5 5 6 6 6 5 5 5 5 5 5 6 5 5 5 5 5 5 5 5 5 5 5 5 5 5 5 5 5 5 5 5 5 6 5 5 5 5 6 5 5 5 5 5 5 5 5 5 5 5 5 5 5 5 5 5 5 5 5 5 5 5 5 5 5 5 5 5 5 5 5 5 5 5 5 5 6 5 5 5 5 5 5 5 6 5 5 5 6 5 5 5 5 6 5 5 5 5 6 5 5 6 5 6 5 5 6 5 5 5 5 6 5 6 5 5 6 5 6 5 6 5 6 5 5 5 6 5 5 6 5 5 5 5 5 5 5 5 5 6 5 5 5 5 6 5 5 5 6 5 5 6 5 5 5 5 5 5 5 5 5 5 5 5 5 6 5 5 5 5 5 5 5 5 5 5 5 5 5 5 5 5 5 5 5 5 5 5 5 5 5 5 5 5 6 5 5 5 5 5 6 5 5 5 6 5 5 5 5 5 5 5 6 5 5 5 5 5 5 5 6 5 5 5 5 5 5 5 5 5 5 5 5 5 5 5 5 5 5 5 5 5 5 5 5 5 5 5 5 5 5 5 5 5 5 5 6 5 5 5 5 6 5 5 5 5 5 5 5 5 5 6 5 5 6 5 5 5 5 5 5 5 6 5 5 5 5 5 5 5 5 5 5 5 5 5 5 5 5 5 5 5 5 5 5 5 5 5 5 5 5 5 6 5 5 5 5 5 5 5 5 5 5 5 5 5 6 5 5 5 6 5 5 6 5 5 5 5 5 6 5 5 5 5 6 5 6 6 5 5 6 5 6 5 5 5 5 5 5 5 5 5 5 5 5 5 5 5 5 5 5 5 5 5 5 5 6 5 5 6 5 5 5 5 5 6 6 5 5 5 5 5 5 5 5 5 5 5 5 5 5 5 5 5 5 5 6 5 5 5 6 6 5 5 5 5 5 6 5 5 5 5 5 5 5 5 5 5 5 5 5 5 5 5 5 5 5 5 5 5 5 5 5 5 5 5 5 5 6 5 6 5 5 5 5 5 5 5 5 5 5 5 5 5 5 5 5 5 5 5 5 5 5 5 5 5 5 5 5 5 5 5 5 5 5 5 5 5 5 5 5 5 5 5 5 6 5 6 5 5 5 6 5 6 5 5 5 5 5 6 6 5 6 5 6 5 6 5 5 5 5 6 5 5 5 6 6 5 6 5 5 6 5 6 6 5 5 5 6 6 5 5 5 6 5 5 5 6 5 6 5 5 5 6 5 5 5 5 5 5 5 5 5 5 5 5 5 5 5 5 5 6 5 5 5 5 6 5 5 5 5 5 5 5 5 5 5 5 5 5 5 5 5 5 5 5 5 5 5 5 6 5 5 5 5 6 5 6 5 6 5 5 5 5 5 5 5 5 5 5 5 5 5 5 5 5 5 5 5 5 5 5 5 5 5 5 5 5 5 5 5 5 5 5 5 6 5 5 5 5 5 5 5 5 5 5 6 5 5 5 5 5 5 5 6 6 5 5 5 6 5 5 5 5 5 5 5 5 5 6 5 5 5 6 6 5 6 6 5 5 5 5 5 5 5 5 5 5 5 5 5 5 5 5 5 6 5 5 6 5 5 5 5 5 5 5 6 5 5 5 5 5 6 5 5 5 5 5 5 5 5 5 5 5 5 5 5 5 5 5 5 5 5 5 5 5 5 5 5 5 5 5 5 6 5 5 5 6 5 6 5 5 5 5 5 6 5 5 5 5 5 5 6 5 5 5 5 5 5 5 5 5 5 5 5 5 5 5 6 5 5 5 6 5 5 5 6 5 6 5 5 5 6 6 5 5 5 5 5 5 5 5 5 5 5 5 5 5 6 5 5 6 5 5 5 5 5 5 5 5 5 5 5 5 6 5 5 5 5 5 5 5 5 5 6 5 5 5 5 6 6 5 6 5 5 5 6 5 6 5 5 6 5 5 6 5 5 5 5 6 5 5 5 6 5 5 5 5 5 5 5 5 5 5 5 5 6 5 5 5 5 5 5 5 6 6 5 6 5 5 5 5 6 5 5 5 5 5 5 5 5 5 5 5 5 5 6 5 5 5 5 5 6 5 5 5 5 5 6 5 6 5 5 5 6 5 5 5 6 5 5 5 5 5 5 5 5 5 5 5 5 5 5 5 5 5 5 5 6 5 5 5 5 5 5 5 5 5 5 5 6 5 6 5 5 5 5 5 5 5 5 5 5 5 5 5 5 5 5 5 5 5 5 5 5 5 5 5 5 5 5 5 5 5 5 5 5 5 5 6 5 5 5 5 6 5 5 5 5 5 5 5 5 5 6 5 5 5 5 5 5 5 5 5 5 5 5 5 5 6 5 5 6 5 5 5 5 5 6 5 5 5 5 5 5 6 5 6 5 5 6 5 5 5 5 5 5 5 5 6 5 5 5 5 5 5 5 5 5 5 5 6 6 5 5 5 5 6 5 5 5 5 5 5 5 5 6 5 5 6 5 5 5 5 6 5 5 5 5 5 5 5 5 5 5 5 5 5 5 5 5 5 5 5 5 5 5 5 6 5 5 6 5 5 5 5 5 5 5 6 6 6 5 5 5 5 6 5 5 6 5 5 5 5 5 5 5 5 5 5 5 6 5 5 6 5 5 5 5 5 5 6 5 5 5 6 5 5 6 5 5 5 5 5 5 5 5 5 5 5 6 5 6 6 5 5 5 5 5 6 5 5 5 5 5 5 5 6 5 6 5 5 5 5 5 5 5 5 5 5 5 5 5 5 6 5 5 5 6 5 5 5 5 5 5 5 5 5 5 5 6 5 5 6 5 5 5 6 5 5 5 6 6 5 5 6 5 6 5 5 5 5 5 5 5 5 5 5 5 6 5 6 5 5 6 5 5 5 6 5 5 5 5 5 5 5 6 5 5 6 5 5 5 5 6 6 5 6 6 5 6 6 5 6 5 6 5 5 5 5 6 6 6 5 5 5 5 5 5 5 6 5 5 5 6 5 5 6 6 5 5 5 5 6 5 5 5 6 6 5 5 5 5 6 6 6 5 5 5 5 5 5 5 5 6 5 5 5 5 5 5 5 5 5 5 6 5 6 5 5 6 5 5 5 5 5 5 6 5 6 5 5 5 5 5 6 5 5 5 6 5 5 5 5 5 5 5 6 5 5 5 5 5 5 6 5 5 5 5 5 6 5 5 5 5 5 5 5 5 5 5 5 5 5 5 5 5 5 5 5 5 5 5 5 5 5 5 6 5 5 5 5 5 5 5 5 5 6 5 5 5 5 6 6 5 5 5 6 5 5 5 5 5 5 5 5 5 6 5 6 5 5 5 5 5 5 5 6 5 5 5 5 6 5 6 5 5 5 5 5 5 5 5 5 5 5 5 5 5 5 6 5 5 5 5 5 5 5 5 5 5 5 5 5 5 5 5 5 5 5 5 5 5 5 5 5 5 5 5 6 5 5 5 5 6 5 5 5 5 5 6 5 5 5 5 5 6 5 5 5 5 5 5 5 5 5 5 6 5 5 5 5 5 5 5 5 5 5 5 5 5 5 5 5 6 5 5 6 6 5 5 6 5 5 5 5 5 5 5 6 5 5 5 5 5 5 5 5 5 5 5 5 5 5 5 5 5 5 5 5 5 5 5 5 5 5 5 5 5 5 5 5 5 6 5 5 5 6 5 5 5 5 5 5 5 5 5 5 5 5 5 5 5 5 5 5 5 5 5 5 5 5 5 5 5 5 5 5 6 5 5 5 5 6 5 5 5 5 5 5 5 5 5 5 5 5 5 5 5 5 5 5 5 5 5 5 6 5 5 6 5 5 5 5 5 5 6 5 5 5 6 5 5 5 5 6 6 5 5 5 5 5 5 5 5 5 5 6 5 5 6 5 5 5 6 5 5 5 5 5 5 5 5 5 5 5 5 5 5 5 5 5 5 5 5 5 5 5 5 5 5 5 5 5 5 6 5 5 6 5 5 5 5 5 5 6 5 5 6 5 5 6 5 5 5 5 5 5 5 6 5 5 5 5 5 5 6 5 5 6 5 5 5 5 5 5 5 5 5 6 5 5 5 6 5 5 5 6 5 5 5 6 5 5 5 6 5 6 5 5 5 5 5 5 5 5 5 5 6 5 5 6 6 5 5 5 5 5 5 5 6 5 5 5 5 5 5 5 5 6 5 5 5 6 5 5 5 5 5 5 5 5 5 5 5 6 5 5 5 5 5 5 5 5 5 5 5 5 5 5 6 5 5 6 5 5 5 5 5 5 5 5 5 5 6 6 5 5 5 5 5 6 5 5 5 5 5 5 5 5 5 5 5 5 5 5 5 5 5 6 5 5 6 5 6 5 5 5 5 5 6 5 5 5 5 5 5 5 5 5 5 5 5 5 5 5 5 6 5 5 5 5 5 6 5 6 5 6 5 5 5 5 5 5 5 5 5 5 5 5 5 5 5 6 5 5 5 5 5 6 5 5 6 5 5 5 5 5 6 5 5 5 5 5 5 5 6 5 5 5 5 5 6 5 6 5 5 5 6 5 5 5 5 5 5 5 5 5 5 5 5 6 5 5 5 5 5 5 5 5 5 5 5 5 5 5 5 5 5 5 5 5 5 5 5 5 5 5 5 5 5 5 5 5 5 5 5 5 5 5 5 5 5 5 5 5 5 5 5 5 5 5 5 5 5 5 5 5 5 5 5 5 5 5 5 5 5 5 5 5 5 5 5 5 5 5 5 5 5 5 5 5 5 5 5 5 5 5 5 5 5 5 5 5 5 5 5 5 5 5 5 5 5 5 5 5 5 5 5 5 5 5 5 5 5 5 5 5 5 5 5 5 5 5 5 5 5 5 5 5 5 5 5 5 5 5 5 5 5 5 5 5 5 5 5 5 6 5 5 5 5 6 6 5 5 5 5 5 6 5 5 6 5 6 5 5 5 5 5 5 5 6 5 6 5 5 5 5 5 5 5 5 5 5 5 5 5 5 5 5 5 5 5 5 5 5 5 5 5 6 6 5 5 5 6 5 5 5 6 5 5 5 5 5 5 6 5 5 5 5 5 6 5 5 5 5 5 5 5 5 5 6 5 5 5 5 5 5 5 5 5 5 5 5 5 5 5 5 5 5 5 5 6 5 5 5 6 5 5 5 5 5 5 5 5 5 5 5 5 5 5 5 5 6 6 6 5 5 5 6 5 5 5 5 5 5 6 6 5 6 5 5 6 5 6 5 5 5 5 6 5 5 5 6 5 5 5 5 5 5 5 5 5 5 5 6 5 5 5 5 5 5 5 5 5 5 5 5 5 5 5 6 5 5 5 5 5 5 5 5 5 6 6 5 5 5 6 5 5 5 5 5 5 5 5 5 5 6 5 5 5 5 5 6 5 5 6 5 5 5 5 5 5 5 5 6 6 5 5 5 5 5 5 5 5 5 5 5 5 5 5 5 5 5 6 5 5 5 5 6 5 5 5 5 5 5 5 6 5 5 5 5 5 5 5 5 5 6 6 5 5 5 5 5 5 5 5 5 5 5 5 5 5 5 5 5 6 5 5 5 5 5 5 5 5 5 5 5 5 5 5 5 5 5 5 5 5 5 5 5 5 5 5 5 5 5 5 5 5 5 5 5 5 5 5 5 5 5 5 5 5 5 6 5 5 6 5 6 5 5 5 5 6 5 5 5 5 6 5 5 6 5 5 5 6 5 5 5 5 5 5 6 5 5 5 6 5 5 6 5 5 6 5 5 5 5 5 5 5 6 6 5 5 5 6 5 5 5 5 5 5 5 5 5 5 6 5 5 5 5 5 5 6 5 6 5 5 5 5 6 5 5 5 5 6 5 6 5 6 5 5 5 6 5 5 5 5 5 5 5 5 5 5 5 5 5 5 5 5 5 5 5 5 5 5 5 5 5 5 5 5 5 5 5 5 5 5 5 5 5 5 5 5 5 6 5 5 5 5 6 6 5 5 5 5 5 5 5 5 5 6 5 5 5 5 5 5 5 5 5 5 5 5 5 6 6 5 5 6 5 5 6 5 5 5 5 5 5 5 5 5 6 5 5 6 5 5 5 5 5 5 5 5 6 6 5 5 5 6 5 5 5 6 5 6 5 6 5 5 6 5 6 5 5 5 5 5 5 5 6 5 5 5 5 5 6 5 5 5 5 6 5 5 5 5 6 5 5 5 5 5 5 5 6 5 5 5 5 5 5 5 5 6 5 5 5 5 5 5 5 5 5 5 5 5 5 5 5 6 5 5 6 5 5 5 5 5 5 6 5 5 6 5 5 5 5 5 5 5 6 5 5 6 5 5 5 5 5 6 5 5 5 5 5 6 5 5 5 5 5 5 6 5 5 5 6 5 5 6 5 5 5 6 5 6 5 5 5 5 5 6 5 5 5 5 5 5 5 6 5 5 5 5 5 5 5 6 5 5 6 5 5 6 5 6 5 5 5 5 5 5 6 6 5 5 6 6 5 5 5 5 5 5 5 5 5 5 5 5 5 5 5 5 5 5 5 5 5 5 5 5 6 5 5 6 5 5 5 6 5 6 5 5 5 6 5 6 5 5 6 5 5 6 5 5 5 6 5 5 5 5 5 5 5 5 5 5 6 5 6 5 5 5 5 6 5 5 6 5 5 5 5 5 5 6 5 5 5 5 5 5 6 5 5 5 5 5 5 5 6 5 5 6 6 5 5 5 5 5 6 5 5 5 5 5 5 5 5 5 5 5 5 5 5 5 5 5 6 5 5 5 6 5 5 5 5 5 5 5 5 5 5 5 5 5 5 6 5 6 5 5 5 5 5 5 5 5 5 5 5 5 5 5 5 6 5 5 5 5 5 6 5 5 5 6 5 5 5 5 5 6 5 5 6 5 5 5 5 5 5 5 5 5 6 5 5 5 5 6 5 6 5 6 6 5 5 5 5 5 5 6 5 5 5 5 5 5 5 5 5 6 5 5 5 5 5 5 5 5 5 5 5 5 5 5 5 5 6 5 5 6 5 5 5 5 5 6 6 5 5 5 5 5 5 5 5 5 5 6 5 5 5 5 6 5 5 5 5 5 5 5 5 6 5 5 6 5 5 5 6 5 5 5 5 5 5 5 5 5 5 5 5 5 5 5 5 6 5 5 5 5 5 5 5 5 5 5 5 5 6 6 5 5 5 5 5 5 6 5 5 5 5 5 5 5 5 6 5 5 5 6 5 5 5 5 5 6 5 5 6 5 5 5 5 5 6 5 5 6 5 6 6 5 5 6 5 5 6 6 5 5 5 5 5 5 6 5 5 5 6 5 6 5 6 5 5 5 5 5 5 5 5 5 5 5 5 5 5 5 6 5 5 5 5 5 5 5 5 5 6 5 5 5 5 5 6 5 5 6 5 5 5 5 6 5 6 5 6 5 5 5 5 6 5 5 6 5 5 5 5 6 6 5 5 6 5 5 6 6 5 5 5 5 5 5 5 6 5 5 5 5 5 5 5 6 5 5 5 5 5 5 6 5 5 5 5 5 5 6 5 5 5 5 6 5 5 5 5 5 5 5 5 5 5 5 6 5 5 5 5 5 6 5 5 5 6 6 5 6 5 5 6 5 5 5 6 6 5 5 6 6 5 5 5 5 6 5 5 5 6 5 5 5 5 5 5 5 5 5 5 5 5 5 6 5 5 5 5 5 6 5 5 5 5 5 5 5 5 5 5 5 5 5 5 5 5 5 5 5 5 5 5 6 5 5 5 5 5 5 5 6 5 5 5 5 6 6 5 5 5 5 5 5 5 5 5 5 5 5 5 5 6 5 5 5 5 5 6 5 5 6 5 5 6 5 6 5 5 5 6 5 5 5 5 5 5 5 6 6 5 5 5 5 5 5 5 6 5 5 5 5 6 6 5 6 5 5 6 5 5 5 5 5 6 5 5 5 5 5 5 6 5 5 5 5 5 5 5 6 5 6 5 5 5 5 5 5 5 5 5 5 5 5 6 5 5 5 5 5 5 6 5 5 6 6 5 5 5 5 5 5 5 6 5 5 6 6 6 5 5 5 6 5 5 6 6 5 5 5 5 6 5 5 5 5 5 5 5 5 5 5 5 6 5 5 5 5 5 5 5 5 5 6 5 6 5 5 5 5 5 5 5 5 5 5 5 5 5 5 5 6 5 5 5 5 5 5 5 5 5 5 5 6 5 5 5 5 5 5 5 5 5 5 5 5 5 5 5 5 5 5 5 5 5 5 5 5 5 5 5 5 5 5 5 5 5 5 5 5 5 5 5 5 5 5 6 5 5 6 5 6 5 5 5 5 6 5 5 5 5 6 5 5 5 5 5 6 6 5 6 6 5 5 5 5 5 5 5 5 5 5 5 5 5 5 6 5 6 5 6 5 5 5 5 5 5 5 5 5 5 5 5 5 5 5 5 5 5 5 5 5 5 5 5 5 5 5 5 6 6 5 6 5 5 5 5 5 5 5 5 5 5 5 5 5 5 5 6 6 5 5 5 5 5 5 5 5 5 6 5 5 6 5 5 5 5 5 6 5 6 5 5 5 5 5 5 5 5 5 5 5 5 5 5 5 5 5 5 5 5 5 5 5 5 5 5 5 5 5 5 5 5 5 5 5 5 5 5 5 5 5 5 5 5 5 5 5 5 5 5 5 5 5 5 5 5 5 5 6 5 5 5 5 5 5 5 5 6 5 5 5 5 6 5 6 5 5 5 5 6 6 5 5 5 5 5 5 5 5 5 5 5 5 5 5 5 5 5 5 5 5 5 5 5 5 6 5 5 5 5 5 5 6 5 5 5 5 5 5 5 5 5 5 5 5 6 5 5 5 5 5 5 6 5 5 5 5 5 5 5 5 6 5 5 5 5 5 5 5 5 5 5 5 5 5 5 6 6 5 5 6 5 6 5 5 5 6 6 5 5 6 5 5 5 5 5 5 5 5 5 6 5 5 5 5 5 5 5 5 5 5 5 5 6 5 5 5 6 5 5 6 5 5 6 6 6 5 5 5 5 6 5 6 5 6 5 5 5 5 5 5 5 6 5 5 6 6 6 5 6 5 5 5 5 6 5 5 5 5 5 5 5 5 6 5 5 6 5 5 5 5 5 6 5 5 5 5 6 6 5 5 5 6 5 5 5 5 5 5 6 5 5 5 5 5 5 6 5 5 5 5 5 5 6 5 5 5 5 5 5 5 5 5 5 5 5 5 5 5 5 5 5 5 5 5 5 5 5 5 5 5 5 5 5 5 5 5 5 5 5 5 5 5 5 5 5 5 5 5 5 5 5 5 5 5 5 6 5 5 5 5 5 5 6 5 5 5 5 5 5 5 5 5 5 5 5 5 6 5 5 5 6 5 5 5 5 5 5 5 5 5 5 5 5 5 5 5 5 5 5 5 5 5 5 5 5 5 5 5 6 5 5 5 6 5 5 5 5 6 5 6 5 5 5 5 5 6 5 6 5 5 5 5 5 5 5 5 5 5 5 5 5 5 5 5 5 5 5 5 5 6 5 5 5 5 5 5 5 5 5 5 5 5 5 6 5 5 5 6 5 6 5 5 5 5 5 5 5 5 5 5 6 5 5 6 5 5 6 5 5 5 5 5 5 5 5 5 5 5 5 5 5 5 5 5 5 5 5 5 5 5 5 5 5 5 6 5 5 5 6 5 5 5 5 6 5 5 5 6 
</DataArray>
<DataArray type="Float64" Name="stress" NumberOfComponents="9" format="ascii">
-52.689237277704308 -93.86895539068064 0 -93.86895539068064 31.770414872710717 0 0 0 0 0.40426714834899846 -13.706513447712414 0 -13.706513447712414 3343.4848131989274 0 0 0 0 -0.27388872025943611 -4.7162442023985705 0 -4.7162442023985705 1.7815197627349555 0 0 0 0 -99.620746055533246 -273.27215279973461 0 -273.27215279973461 3499.1684835035339 0 0 0 0 -12.17012438457715 -30.277669772696754 0 -30.277669772696754 69.295064316422213 0 0 0 0 -0.10446393194035633 -118.83421551891297 0 -118.83421551891297 27.347095535020344 0 0 0 0 -166.87839875147162 -169.73940067744843 0 -169.73940067744843 37.500305480225506 0 0 0 0 -275.6160423591964 -4.599330476097748 0 -4.599330476097748 70.365450162978959 0 0 0 0 0.22126204716416778 -233.89608752956701 0 -233.89608752956701 46.632126186348614 0 0 0 0 312.35051781710899 -1609.5708429085171 0 -1609.5708429085171 1049.5918594056493 0 0 0 0 880.944044344963 -960.65197849387914 0 -960.65197849387914 700.99882148128017 0 0 0 0 -262.12374284807885 -688.55556308995438 0 -688.55556308995438 927.34506607965886 0 0 0 0 -2.9187143062488832 6.6457279053295508 0 6.6457279053295508 53.371204994449897 0 0 0 0 -42.250991909415006 -1117.9951041616514 0 -1117.9951041616514 1751.0042079598788 0 0 0 0 -573.1966647498748 204.05626314493384 0 204.05626314493384 464.90245236762712 0 0 0 0 631.33461547168463 568.07725716415371 0 568.07725716415371 550.99507371629079 0 0 0 0 -0.796419375953626 15.658656143685505 0 15.658656143685505 68.766717191782334 0 0 0 0 -1.1569838913347941 -11.038937676877111 0 -11.038937676877111 10.527652145481717 0 0 0 0 -53.015896360963623 -2.9769486378390866 0 -2.9769486378390866 102.60328334130463 0 0 0 0 205.56639662647447 -797.50922037486453 0 -797.50922037486453 3125.3254904637433 0 0 0 0 37.05493183845946 308.35246597027981 0 308.35246597027981 3391.6292271408165 0 0 0 0 2.6713216275089535 1.4114777965855865 0 1.4114777965855865 0.026852836414491321 0 0 0 0 266.75148540061332 -964.42547070642468 0 -964.42547070642468 3500.1939513535472 0 0 0 0 822.08077611915314 156.41300667933683 0 156.41300667933683 -591.96642252892707 0 0 0 0 8.2375470565456705 16.387494682773706 0 16.387494682773706 13.418354135256635 0 0 0 0 -20.303273419577007 -290.60355212955619 0 -290.60355212955619 3498.2159374695184 0 0 0 0 5.3996140219489508 4.98543251345626 0 4.98543251345626 3.2789033677618811 0 0 0 0 -347.25422157749642 -12.309461837197887 0 -12.309461837197887 854.93530747265322 0 0 0 0 453.28631163409318 -263.89863055808746 0 -263.89863055808746 -69.489409613413045 0 0 0 0 946.96855209438627 -1222.3264632280043 0 -1222.3264632280043 1259.4946977696327 0 0 0 0 -436.3737398189084 479.95956082460179 0 479.95956082460179 3493.8647945472694 0 0 0 0 703.41307214318317 513.51790840294052 0 513.51790840294052 1913.0234022896475 0 0 0 0 -70.207587065278972 -303.73402253569657 0 -303.73402253569657 1515.7452965337179 0 0 0 0 5.4113542240099832 -76.634960107548977 0 -76.634960107548977 577.19695861451328 0 0 0 0 -270.67817089247228 -163.94210642381222 0 -163.94210642381222 1422.645324632751 0 0 0 0 -2.1776079011832508 -242.40052768326495 0 -242.40052768326495 1311.9360417626849 0 0 0 0 -229.41484224980798 -416.63761395230995 0 -416.63761395230995 2641.1958223823167 0 0 0 0 118.18852792248481 889.67512774944771 0 889.67512774944771 2175.6406832910743 0 0 0 0 8.2923230335087084 -12.186829033081779 0 -12.186829033081779 16.941784417343683 0 0 0 0 404.21692427406742 -1372.1766557129922 0 -1372.1766557129922 -728.04353130436357 0 0 0 0 -860.68756748627311 -274.87991967585549 0 -274.87991967585549 207.94419619299151 0 0 0 0 -1060.1773050774366 -928.88142542807236 0 -928.88142542807236 -121.09460654818395 0 0 0 0 -622.08332620235933 -358.97007566528919 0 -358.97007566528919 -199.85742573543394 0 0 0 0 -777.85376081167533 -353.92695717129027 0 -353.92695717129027 464.75938606556156 0 0 0 0 -164.09119658260261 -299.53055881298496 0 -299.53055881298496 25.54354764612799 0 0 0 0 -28.463461601555991 131.78523087318899 0 131.78523087318899 713.28013628319604 0 0 0 0 81.224909990885578 -155.31160363760318 0 -155.31160363760318 22.696582507807761 0 0 0 0 17.257436210103098 -30.851307938820412 0 -30.851307938820412 43.81662792719348 0 0 0 0 -625.62754076128294 -173.7049084489845 0 -173.7049084489845 178.92223965615267 0 0 0 0 24.458717624675707 -40.12449944368764 0 -40.12449944368764 56.834677271557922 0 0 0 0 -597.12624968460295 -299.11029940433946 0 -299.11029940433946 -32.539964510302525 0 0 0 0 -100.07299215681451 -110.12656472306844 0 -110.12656472306844 -28.841683419330366 0 0 0 0 -587.63425625133823 51.34653412478292 0 51.34653412478292 349.0982253246766 0 0 0 0 -788.2799484586194 -151.75445731409127 0 -151.75445731409127 184.23623525249423 0 0 0 0 103.71752599344472 292.92997693164216 0 292.92997693164216 334.70933642483533 0 0 0 0 -1307.8275953279763 -614.78595890121505 0 -614.78595890121505 -112.62077971392137 0 0 0 0 0.19113356706495921 0.68121494948849204 0 0.68121494948849204 -3.0870306751692169 0 0 0 0 -158.56257062764962 -13.371419352690282 0 -13.371419352690282 177.07880408220808 0 0 0 0 -340.64040375748846 -186.99961272900691 0 -186.99961272900691 396.50546755128016 0 0 0 0 -730.94106522373522 -238.72936405342625 0 -238.72936405342625 261.09903580229729 0 0 0 0 -511.69708719766277 -34.300449974893127 0 -34.300449974893127 334.55987157122581 0 0 0 0 -489.85739615720922 -108.93362377149606 0 -108.93362377149606 130.77498096691852 0 0 0 0 -685.24171120855681 87.20928239946079 0 87.20928239946079 78.997712430838874 0 0 0 0 -235.04080829788177 174.14005192862169 0 174.14005192862169 315.83594628082938 0 0 0 0 -40.690473285837015 80.775542763876729 0 80.775542763876729 210.26425191565204 0 0 0 0 65.522603638988528 292.3070686957908 0 292.3070686957908 617.20170508525916 0 0 0 0 176.16480598078761 -183.23451046185073 0 -183.23451046185073 682.30474837431302 0 0 0 0 -129.18344614267767 72.750723743985873 0 72.750723743985873 594.52235364250373 0 0 0 0 693.99482509523159 -163.20560634673166 0 -163.20560634673166 901.37122807734193 0 0 0 0 201.14578184400943 34.727579786002025 0 34.727579786002025 1339.5146626001369 0 0 0 0 379.77834163540558 222.25226936457329 0 222.25226936457329 280.41558504436398 0 0 0 0 307.50473617478895 174.52349070111086 0 174.52349070111086 898.1874014832913 0 0 0 0 585.74607452033717 85.70890494739615 0 85.70890494739615 426.58447363607411 0 0 0 0 1.1071490421007584 29.338009047613014 0 29.338009047613014 751.15533607662655 0 0 0 0 1104.0275935244274 -642.68801268988318 0 -642.68801268988318 1417.9693065539286 0 0 0 0 159.2174719485551 -281.77361289945111 0 -281.77361289945111 1306.7181085343036 0 0 0 0 584.57580503544091 105.29320594987439 0 105.29320594987439 1757.0106969077897 0 0 0 0 326.78541438249658 -860.41997512592934 0 -860.41997512592934 2702.0465407149532 0 0 0 0 -0.92502018733960978 -681.38897987854216 0 -681.38897987854216 2263.9652934924452 0 0 0 0 -668.57847548116195 454.59097829750863 0 454.59097829750863 732.94649756446597 0 0 0 0 -1.2914259008215621 0.20997051665439415 0 0.20997051665439415 21.110449008630042 0 0 0 0 2007.4609935644019 -1977.5192404935588 0 -1977.5192404935588 1358.7855825645674 0 0 0 0 554.59625289778376 -1424.1397445070652 0 -1424.1397445070652 441.10781574795692 0 0 0 0 144.51020656842184 -434.58731521207665 0 -434.58731521207665 948.42499394754486 0 0 0 0 -21.953239945541895 -641.41235923721433 0 -641.41235923721433 711.20024903886952 0 0 0 0 620.91699755661671 -768.12627091681861 0 -768.12627091681861 1041.6557570396544 0 0 0 0 -9.4482723443122723 1.3663178405422514 0 1.3663178405422514 44.572722259101283 0 0 0 0 -5.3916928566608444 -7.3973821609179211 0 -7.3973821609179211 34.190714397382919 0 0 0 0 -37.847244084812246 -18.605658185655557 0 -18.605658185655557 29.485382952057989 0 0 0 0 -37.182621624480817 -16.828552691185905 0 -16.828552691185905 68.154890886864905 0 0 0 0 -37.283457377218838 -15.930688638083666 0 -15.930688638083666 25.69213656872671 0 0 0 0 -3.7043744473678792 -9.2886259931157937 0 -9.2886259931157937 35.146326555877437 0 0 0 0 -18.331057052942757 0.47016634001512614 0 0.47016634001512614 11.693981180197717 0 0 0 0 245.4156571105982 97.181225230338896 0 97.181225230338896 216.26664268452214 0 0 0 0 -15.061514019697199 177.31888217755113 0 177.31888217755113 867.32023518071219 0 0 0 0 -10.448543812179892 -5.2654711088078372 0 -5.2654711088078372 26.190354809393568 0 0 0 0 -30.738277856204832 -15.973297176817141 0 -15.973297176817141 17.138268667127704 0 0 0 0 -21.072432646080461 -12.998312432065177 0 -12.998312432065177 66.3972398256427 0 0 0 0 -123.11783105160055 -274.06349365063943 0 -274.06349365063943 152.06408582415315 0 0 0 0 -444.81612262735234 360.57580114951998 0 360.57580114951998 580.39834221077035 0 0 0 0 -276.89565213476055 85.429549996521018 0 85.429549996521018 1549.9867609974317 0 0 0 0 -231.6986872864926 213.587154479932 0 213.587154479932 1568.3519624424662 0 0 0 0 -632.55286797951112 -35.932345570343386 0 -35.932345570343386 3500.0813550623025 0 0 0 0 179.01292857868197 -836.89166075284902 0 -836.89166075284902 4825.6160730157353 0 0 0 0 66.835525292521083 -99.578339661915379 0 -99.578339661915379 3042.901358657633 0 0 0 0 -347.68589554861984 524.05430115657509 0 524.05430115657509 3066.014277873634 0 0 0 0 -276.02543089129097 863.99232417498934 0 863.99232417498934 4830.1363319029697 0 0 0 0 29.50569381289182 485.06321235033101 0 485.06321235033101 1961.8770628039492 0 0 0 0 399.37274424953182 1109.5474630005847 0 1109.5474630005847 1115.3755823084757 0 0 0 0 645.3932225711817 493.25766970992663 0 493.25766970992663 327.11499802637263 0 0 0 0 0.11150206139215602 -6.158309581549986 0 -6.158309581549986 24.916211018756542 0 0 0 0 1462.2686058717568 -1044.0685476452127 0 -1044.0685476452127 305.7584025183387 0 0 0 0 2326.2464556111918 1199.8720234288048 0 1199.8720234288048 677.90081080881646 0 0 0 0 1190.9418550337941 -1627.8764090461809 0 -1627.8764090461809 1303.0163220103568 0 0 0 0 890.70409981803664 1990.0391472953233 0 1990.0391472953233 2999.6325054105328 0 0 0 0 1975.8264207761767 -465.93508583393123 0 -465.93508583393123 3500.1621631269445 0 0 0 0 323.25983900603563 90.84886379152158 0 90.84886379152158 4257.1783559407122 0 0 0 0 335.96548266903346 -2011.6097621693971 0 -2011.6097621693971 3923.0903081000943 0 0 0 0 513.56875949293533 -1155.9161910577895 0 -1155.9161910577895 1987.1600390684034 0 0 0 0 99.768110586715466 -853.7763908003908 0 -853.7763908003908 2595.7970925042027 0 0 0 0 -344.95334504281726 -410.5708651699897 0 -410.5708651699897 1759.221970798746 0 0 0 0 825.32052233633112 -255.08994509978947 0 -255.08994509978947 92.973695462831529 0 0 0 0 -367.64298798058826 128.57668717431807 0 128.57668717431807 173.28801110070708 0 0 0 0 0.92613849194334519 -11.078786250802096 0 -11.078786250802096 -3.5870733600149833 0 0 0 0 -5.4479515047121527 -17.56165769039983 0 -17.56165769039983 25.599448294604599 0 0 0 0 -157.5873825062049 -104.77437386243764 0 -104.77437386243764 37.213422713830369 0 0 0 0 -16.952401681256735 -7.3067314080654313 0 -7.3067314080654313 7.28136264024727 0 0 0 0 -106.03971315973331 -61.509614778926334 0 -61.509614778926334 -47.393124306763639 0 0 0 0 -75.169371604398293 -96.067718844817136 0 -96.067718844817136 -31.666303362624603 0 0 0 0 -15.016274226529731 -71.118835025321459 0 -71.118835025321459 -103.37849943315814 0 0 0 0 -22.380450084485346 -89.102503594753216 0 -89.102503594753216 -75.991728703520494 0 0 0 0 -65.009102307303237 -178.38246678805444 0 -178.38246678805444 -404.60984355000301 0 0 0 0 -40.78796463172057 -37.710723473144753 0 -37.710723473144753 -67.248221827423549 0 0 0 0 -3.6713818247856005 -2.6806111015362291 0 -2.6806111015362291 -0.65209629492416354 0 0 0 0 -420.2189304480209 -491.18426644093233 0 -491.18426644093233 2416.0933890775486 0 0 0 0 -24.371804793430556 -579.56021583676193 0 -579.56021583676193 1566.5858110664585 0 0 0 0 -543.28818849545962 -518.37272655758716 0 -518.37272655758716 3273.0721441547066 0 0 0 0 17.521974507191544 -875.17457946609829 0 -875.17457946609829 3499.7700409637328 0 0 0 0 -503.41550335056223 -441.97109935694425 0 -441.97109935694425 2408.6806192746008 0 0 0 0 -707.55987133437782 -115.03443185089054 0 -115.03443185089054 3500.6121489450379 0 0 0 0 -637.69812156504963 -80.83349583384188 0 -80.83349583384188 2471.2020983108814 0 0 0 0 54.686732046938218 235.22231221415041 0 235.22231221415041 2088.6861726019706 0 0 0 0 -173.37714307221745 -377.82233021338106 0 -377.82233021338106 1521.89585056949 0 0 0 0 -94.725808166767081 -276.3652337240128 0 -276.3652337240128 856.28502251193277 0 0 0 0 -197.5563680867258 -229.85266034144661 0 -229.85266034144661 876.42329388665712 0 0 0 0 -10.723729057890568 36.258327941718676 0 36.258327941718676 825.95059168578882 0 0 0 0 67.319775332617354 30.524352719822218 0 30.524352719822218 176.86988213495351 0 0 0 0 15.700666199815373 -153.49634776237144 0 -153.49634776237144 618.85857892059721 0 0 0 0 20.225872137530018 -71.568736887602427 0 -71.568736887602427 174.89903635686642 0 0 0 0 -1.5687562760627998 -39.371183703453426 0 -39.371183703453426 211.1401504909918 0 0 0 0 23.351693113859938 -109.89729473555053 0 -109.89729473555053 -25.096255992631995 0 0 0 0 78.940863450160123 -65.171967456353741 0 -65.171967456353741 -37.790026069720625 0 0 0 0 25.638911240813734 -47.858130967593596 0 -47.858130967593596 67.174964022157496 0 0 0 0 -126.65704626896468 -106.74718271189158 0 -106.74718271189158 117.58972075110796 0 0 0 0 -64.708336983379922 -52.719852343525417 0 -52.719852343525417 85.180082281760406 0 0 0 0 -1.1097612953107294 -15.777541158515021 0 -15.777541158515021 8.5921378486891058 0 0 0 0 -44.837769232108258 6.0700895820191363 0 6.0700895820191363 142.69265303650718 0 0 0 0 -200.01475004329814 41.054679898930772 0 41.054679898930772 147.66904000079194 0 0 0 0 -90.496490649411498 7.6047997683199355 0 7.6047997683199355 169.39398278019507 0 0 0 0 30.135176320844039 -13.382832288058125 0 -13.382832288058125 137.59050177734753 0 0 0 0 79.594403140471471 -14.629409490676949 0 -14.629409490676949 8.7429333578766091 0 0 0 0 14.023940613116054 -62.835512660166387 0 -62.835512660166387 15.694586365410942 0 0 0 0 -346.83074775344289 270.30836344816635 0 270.30836344816635 -82.87793466009316 0 0 0 0 -2.1937751890274741 -0.89259185802868046 0 -0.89259185802868046 -2.889087245224772 0 0 0 0 -173.22697493338546 -66.909102393619833 0 -66.909102393619833 155.88130615248519 0 0 0 0 -38.990340533523977 -113.88192009671184 0 -113.88192009671184 166.87224248645998 0 0 0 0 -180.4806165306868 -66.736370057253225 0 -66.736370057253225 161.31643352696847 0 0 0 0 -2.9647512027210308 -2.9364312507321344 0 -2.9364312507321344 2.4369788707030295 0 0 0 0 281.43573199428351 -153.99233335338067 0 -153.99233335338067 84.794749822474841 0 0 0 0 -27.993059573523738 -280.38492872746065 0 -280.38492872746065 230.37221038548159 0 0 0 0 -370.39503220441975 11.524374829477892 0 11.524374829477892 344.87412149787269 0 0 0 0 -240.12498459339281 81.477643144866306 0 81.477643144866306 -65.096173041341899 0 0 0 0 113.89644756258895 -267.70125246866905 0 -267.70125246866905 81.515779898109031 0 0 0 0 108.6263967934097 -122.04858575630499 0 -122.04858575630499 -118.802062110728 0 0 0 0 -10.063515039101219 -127.06422240187067 0 -127.06422240187067 24.556093001650879 0 0 0 0 -357.52383845567169 -56.817162289884436 0 -56.817162289884436 238.84818511415506 0 0 0 0 -202.5152973185277 -308.07913518863461 0 -308.07913518863461 44.240083141878131 0 0 0 0 1.8556161181882089 -69.102686714715674 0 -69.102686714715674 -84.915799492853694 0 0 0 0 -74.854727770739146 -123.68043735790343 0 -123.68043735790343 -9.3976163515908411 0 0 0 0 109.9736060505129 -96.370690570191073 0 -96.370690570191073 -50.169091278410633 0 0 0 0 118.58567103454652 -223.14278804572677 0 -223.14278804572677 54.191909485976794 0 0 0 0 1.1607876527697627 -104.51299133739656 0 -104.51299133739656 -7.7677912522049155 0 0 0 0 29.623622469123802 -65.180845557006251 0 -65.180845557006251 -65.072702880512225 0 0 0 0 122.48670514507648 -174.43633054550446 0 -174.43633054550446 -13.692488034481357 0 0 0 0 -1075.0528413951615 -246.81781796170571 0 -246.81781796170571 25.890648583008442 0 0 0 0 0.60055944425187135 -151.021033443134 0 -151.021033443134 -0.53489805372373667 0 0 0 0 -74.682084631494945 -304.81183076238813 0 -304.81183076238813 168.28126117885404 0 0 0 0 -114.16124831629531 -168.19701540837559 0 -168.19701540837559 129.77738523406151 0 0 0 0 -617.40082036958847 -36.025464907987043 0 -36.025464907987043 120.52419268386438 0 0 0 0 211.61436226277442 -200.02519850211479 0 -200.02519850211479 -1.038990384171484 0 0 0 0 204.90730502331098 -410.55809899693122 0 -410.55809899693122 134.1684247944213 0 0 0 0 -1.4976852756518255 -1.8014022974382655 0 -1.8014022974382655 0.30796661471242714 0 0 0 0 -1084.6509956113239 78.710535243802724 0 78.710535243802724 36.124744425149402 0 0 0 0 434.85289323168718 -352.04614776041853 0 -352.04614776041853 -4.6748001825762913 0 0 0 0 294.72417473323412 -271.69245156421675 0 -271.69245156421675 39.998546473361785 0 0 0 0 398.28697551749337 -159.09195365545747 0 -159.09195365545747 5.0315163015620783 0 0 0 0 66.020935546943292 -75.318579378319555 0 -75.318579378319555 -85.503064418968279 0 0 0 0 330.91805586923874 -127.74783277053211 0 -127.74783277053211 59.277741647783841 0 0 0 0 193.53764272885837 -116.26281106151146 0 -116.26281106151146 65.838023865293508 0 0 0 0 121.64450874983481 -193.9399195584956 0 -193.9399195584956 41.353019984409912 0 0 0 0 59.592418153476956 -210.78579997662746 0 -210.78579997662746 286.26502796128625 0 0 0 0 60.662594801583559 -132.6956635098586 0 -132.6956635098586 109.01858245902986 0 0 0 0 44.504633802295871 -83.603327713602994 0 -83.603327713602994 205.9738113808271 0 0 0 0 23.137409618112088 -3.2556715517821431 0 -3.2556715517821431 -69.96582318819128 0 0 0 0 -37.514256213714816 -44.469644380427781 0 -44.469644380427781 225.29709239388467 0 0 0 0 -7.6742345133409273 -4.0471620754832145 0 -4.0471620754832145 5.3591370930610225 0 0 0 0 -327.45895327135486 -79.527089880728454 0 -79.527089880728454 -15.432957254506618 0 0 0 0 -414.66307542625327 21.583197046857094 0 21.583197046857094 -71.680695051778457 0 0 0 0 -449.48349809151296 -55.945796604690258 0 -55.945796604690258 -139.05301768472418 0 0 0 0 -418.6942044772677 2.5175956143866642 0 2.5175956143866642 -54.982848733081482 0 0 0 0 1.3219201015796465 -1.6231751867194077 0 -1.6231751867194077 0.024869039805608395 0 0 0 0 -457.29361862647602 30.720229201353504 0 30.720229201353504 36.717583568975897 0 0 0 0 -396.2701410237114 107.72789544326952 0 107.72789544326952 27.915814881665938 0 0 0 0 -458.94142700949669 -76.792041614229674 0 -76.792041614229674 -51.307376290817047 0 0 0 0 -518.06885837706977 -92.067279554525157 0 -92.067279554525157 -17.542374055461551 0 0 0 0 -623.39745143961954 68.747841062107909 0 68.747841062107909 50.723101008858066 0 0 0 0 -388.82695481424071 65.671067365808995 0 65.671067365808995 -55.557373146642931 0 0 0 0 -3.591307106552998 -3.6494150176826707 0 -3.6494150176826707 1.6120640072470565 0 0 0 0 -1145.1214642751438 39.695254529171507 0 39.695254529171507 11.311417357312166 0 0 0 0 -543.33173392597382 126.16225446006865 0 126.16225446006865 22.92823694893741 0 0 0 0 0.39775427788981688 -3.9837106044105894 0 -3.9837106044105894 19.461458079924341 0 0 0 0 -15.935563617688786 -7.683610465930542 0 -7.683610465930542 27.581803562679852 0 0 0 0 41.735378880463941 -52.185539786732988 0 -52.185539786732988 6.9664317514107097 0 0 0 0 -674.40549059059731 -48.918100597446028 0 -48.918100597446028 46.070121968194144 0 0 0 0 -4.2129580865613327 -5.9155191947351398 0 -5.9155191947351398 14.990641413474862 0 0 0 0 -0.35221719090498982 -4.636161404518413 0 -4.636161404518413 4.4974747675897788 0 0 0 0 -52.592059222188709 16.152444412899058 0 16.152444412899058 15.079681977018481 0 0 0 0 -528.14629988690331 -136.20147681632807 0 -136.20147681632807 -80.492619838390965 0 0 0 0 -1.6389088105581919 -0.94120954313304139 0 -0.94120954313304139 6.1570567010261641 0 0 0 0 -180.53847801448137 -182.61805645085406 0 -182.61805645085406 68.396303166460712 0 0 0 0 -4.4566118533102781 -31.902033558886615 0 -31.902033558886615 42.573739937492064 0 0 0 0 -3.1846716841646412 -30.123410351843631 0 -30.123410351843631 -8.6894204490781703 0 0 0 0 -2.3734247941361168 -8.0550482065917208 0 -8.0550482065917208 13.68707796285787 0 0 0 0 -0.43724233825755832 -14.143762643878521 0 -14.143762643878521 8.1996280794567156 0 0 0 0 -8.8283845616507577 -9.0786072986751094 0 -9.0786072986751094 22.202562305243191 0 0 0 0 -9.8869860221911949 -9.8954957297100918 0 -9.8954957297100918 7.3627778807240247 0 0 0 0 -3.6321296514810086 -7.3080106297391723 0 -7.3080106297391723 23.146315702984111 0 0 0 0 -35.239469477995499 -28.566282131574553 0 -28.566282131574553 23.113360873350757 0 0 0 0 -14.140924369404274 -15.212030677153962 0 -15.212030677153962 16.323195940954975 0 0 0 0 1.9312604817127124 -7.1493970811028902 0 -7.1493970811028902 29.384763590128046 0 0 0 0 -44.031496835447797 -19.465987558383858 0 -19.465987558383858 32.863950868093525 0 0 0 0 -18.831074019057723 -24.767157080350444 0 -24.767157080350444 16.446894311942742 0 0 0 0 -11.096076496359274 -11.450147862393351 0 -11.450147862393351 23.068327397239045 0 0 0 0 -26.998255487714232 -17.804373471553845 0 -17.804373471553845 28.713188175868709 0 0 0 0 -16.541863832032504 -17.117170304234605 0 -17.117170304234605 21.725425835025817 0 0 0 0 -990.76527654648589 107.9912825088104 0 107.9912825088104 17.801561912456236 0 0 0 0 -1.0065502357191787 -4.2749879367903487 0 -4.2749879367903487 29.351392557096489 0 0 0 0 -4.9876922568843227 0.43328703903794974 0 0.43328703903794974 7.3314636339865444 0 0 0 0 -23.86469296289124 -8.2396006468115957 0 -8.2396006468115957 34.011265639710473 0 0 0 0 -15.250679280994063 -25.45876824480365 0 -25.45876824480365 31.451825151674711 0 0 0 0 350.64620379940243 -291.40648050451273 0 -291.40648050451273 310.10457882508535 0 0 0 0 -21.212401580392907 -24.663308841816615 0 -24.663308841816615 285.0932235944797 0 0 0 0 -324.25090003611155 346.59209425199731 0 346.59209425199731 185.66745791844005 0 0 0 0 -271.77465247465278 -356.36224558435583 0 -356.36224558435583 -138.99466859322274 0 0 0 0 244.05808227331454 -268.24817101929148 0 -268.24817101929148 -141.57718121248763 0 0 0 0 19.953265517573527 188.82046563649055 0 188.82046563649055 -493.76937876023658 0 0 0 0 54.963103007471545 8.4028274037555093 0 8.4028274037555093 -89.363372372507001 0 0 0 0 50.369128119715242 7.2672991326762713 0 7.2672991326762713 -83.169011087156832 0 0 0 0 15.564502284672926 57.505613497327431 0 57.505613497327431 -117.75521836116968 0 0 0 0 -95.379895114591818 63.540958540441352 0 63.540958540441352 -21.196148565242765 0 0 0 0 -18.003758675358768 -17.800293662021431 0 -17.800293662021431 64.258828887832351 0 0 0 0 -103.47639652847647 -63.425121857894737 0 -63.425121857894737 171.69778561490239 0 0 0 0 73.454040194558729 -86.701297115661873 0 -86.701297115661873 32.962087054962467 0 0 0 0 -587.39056317875054 -33.126970308669115 0 -33.126970308669115 127.82288356762729 0 0 0 0 96.264707547870785 116.48605560506257 0 116.48605560506257 -26.011567140993066 0 0 0 0 -0.36642481749250311 0.019868709403827456 0 0.019868709403827456 1.5971504237323018 0 0 0 0 -335.57357255494992 -196.56305732092733 0 -196.56305732092733 71.19181678124005 0 0 0 0 -439.13130011249723 166.8816255141428 0 166.8816255141428 30.424948972337006 0 0 0 0 -191.95989890773899 -167.21956918270007 0 -167.21956918270007 -132.16264710122778 0 0 0 0 -408.65888925652325 -119.50525280016154 0 -119.50525280016154 102.27140445029727 0 0 0 0 -288.44190419841107 51.116495108672098 0 51.116495108672098 38.191412712214515 0 0 0 0 -118.82341466112121 33.104320679358352 0 33.104320679358352 5.1206998858688166 0 0 0 0 -3.1872858380695046 -0.91763911667825226 0 -0.91763911667825226 8.7623553362169275 0 0 0 0 -56.243629298264295 -55.872701723405044 0 -55.872701723405044 -12.222156463627471 0 0 0 0 -7.8140969263031366 -2.2149660847499035 0 -2.2149660847499035 5.8910463699285174 0 0 0 0 -187.04580116782518 -47.301446590841806 0 -47.301446590841806 37.367221415435779 0 0 0 0 -6.1843759475397615 1.0766767631971419 0 1.0766767631971419 10.567245354954537 0 0 0 0 -17.275269053902775 -12.243776294104464 0 -12.243776294104464 22.515590254479321 0 0 0 0 -0.43839625571399665 5.2523639506762265 0 5.2523639506762265 -4.5947348990412138 0 0 0 0 -13.19379458300682 7.5121340886689723 0 7.5121340886689723 24.9977395537353 0 0 0 0 -11.571120698254617 1.390938827797072 0 1.390938827797072 38.809273309248965 0 0 0 0 -31.632722984331849 25.167444862450793 0 25.167444862450793 31.742157733184285 0 0 0 0 -6.3565249264633348 0.80541651250594981 0 0.80541651250594981 21.152733499461903 0 0 0 0 -4.251134530502374 -4.1649672691828101 0 -4.1649672691828101 3.3493041928729212 0 0 0 0 65.361560084542361 57.109415364484448 0 57.109415364484448 144.78264502578531 0 0 0 0 -2.8894702849614564 -3.0656778381888827 0 -3.0656778381888827 17.149660689851004 0 0 0 0 142.0918115334407 151.3340602159733 0 151.3340602159733 90.799705892524798 0 0 0 0 -113.82062366818172 51.575066628298373 0 51.575066628298373 196.72591116367403 0 0 0 0 -8.1574998172034654 2.0334950091895934 0 2.0334950091895934 4.7020098593006168 0 0 0 0 -132.47012197793629 157.69466501213901 0 157.69466501213901 -178.08698184800414 0 0 0 0 -499.58846705122232 -174.71095293741382 0 -174.71095293741382 316.72629110501839 0 0 0 0 0.37534927647521421 -1.0758823598852274 0 -1.0758823598852274 5.6646002881927302 0 0 0 0 -124.40396493855587 117.19699120146834 0 117.19699120146834 260.18388074646646 0 0 0 0 -163.01395721213794 -51.367599014938605 0 -51.367599014938605 116.25199164527658 0 0 0 0 -159.72950336831991 -34.51309241459785 0 -34.51309241459785 37.107665542614996 0 0 0 0 -182.79213180372426 -49.73555530912563 0 -49.73555530912563 117.31988957940484 0 0 0 0 -296.01349029007361 -61.72550525439874 0 -61.72550525439874 74.670197351137176 0 0 0 0 -177.95629372349686 -102.09772131372301 0 -102.09772131372301 62.927150924551825 0 0 0 0 -177.1120305531409 -163.65640828130176 0 -163.65640828130176 29.05683450656943 0 0 0 0 -311.01255387448327 -212.19740519016341 0 -212.19740519016341 54.993880900976365 0 0 0 0 -254.6111903138077 -297.23201240309209 0 -297.23201240309209 134.03933459243854 0 0 0 0 17.881825253579347 -40.448144301766121 0 -40.448144301766121 66.380719288851054 0 0 0 0 -159.49522602047819 -121.59379430238187 0 -121.59379430238187 68.663742513163015 0 0 0 0 -83.637711098555883 -98.672432182116609 0 -98.672432182116609 29.041757916005736 0 0 0 0 -43.527179823864572 37.185101478164142 0 37.185101478164142 138.09368485513914 0 0 0 0 -61.155791832536124 37.922067394669284 0 37.922067394669284 156.27090127373958 0 0 0 0 -149.30111482572647 -53.630654326065269 0 -53.630654326065269 104.93294062293717 0 0 0 0 -6.6343325194627454 0.74499998048025873 0 0.74499998048025873 5.1559874455500392 0 0 0 0 -18.477816528271433 17.382782591317664 0 17.382782591317664 34.345804743599729 0 0 0 0 -16.536810385470744 20.75410301064403 0 20.75410301064403 39.560799761529779 0 0 0 0 -24.859612561344875 -8.2488854225630348 0 -8.2488854225630348 74.574347151603433 0 0 0 0 4.6495213718503692 -94.329767342114792 0 -94.329767342114792 78.709840787563735 0 0 0 0 -14.29721082095179 -6.292884555416606 0 -6.292884555416606 -0.47959715301031736 0 0 0 0 -20.054202551211347 -14.609146752529341 0 -14.609146752529341 52.292803020536667 0 0 0 0 -82.565935080012423 -185.83463537038187 0 -185.83463537038187 -69.217313391178322 0 0 0 0 40.714971103225253 12.366523979868361 0 12.366523979868361 -8.8323752940050326 0 0 0 0 -2.608031673494061 -0.75764614631083305 0 -0.75764614631083305 -0.36641726513293804 0 0 0 0 -17.924950412423641 20.913223996367378 0 20.913223996367378 67.134337983618025 0 0 0 0 -5.0586796174458417 -1.9814724167644613 0 -1.9814724167644613 -1.2011048304470364 0 0 0 0 -106.12137026194523 -185.47681188319257 0 -185.47681188319257 -259.7395124949544 0 0 0 0 -316.23799035536285 -213.49424590198032 0 -213.49424590198032 250.69494006688183 0 0 0 0 430.8116188282529 -326.21528355794726 0 -326.21528355794726 -245.95468412913579 0 0 0 0 -100.66119615213393 -13.718000106360705 0 -13.718000106360705 124.80622893646068 0 0 0 0 -128.59905046278436 110.22859245578002 0 110.22859245578002 77.42694957454114 0 0 0 0 -64.647972264177952 14.623952433743398 0 14.623952433743398 82.23237092931231 0 0 0 0 -99.051130338635176 23.914368986555928 0 23.914368986555928 140.21440672784229 0 0 0 0 -61.984852124731333 -32.913363404702977 0 -32.913363404702977 161.28857457124104 0 0 0 0 -48.589597664800749 -6.1102400104064145 0 -6.1102400104064145 111.76200787684502 0 0 0 0 -35.501718263215025 -240.44006510731197 0 -240.44006510731197 294.75565709726652 0 0 0 0 -36.345845375057621 1.4916821695997555 0 1.4916821695997555 71.833034759960583 0 0 0 0 61.793851142450876 -87.599951774664078 0 -87.599951774664078 133.3447528941615 0 0 0 0 -53.789864246906291 -80.707786456205213 0 -80.707786456205213 232.50005135071115 0 0 0 0 -162.48444143093366 -6.340197453086148 0 -6.340197453086148 195.14216610846051 0 0 0 0 -141.24289673978978 -128.35687646006591 0 -128.35687646006591 300.32702001958387 0 0 0 0 -221.60408948338591 -162.73255787445669 0 -162.73255787445669 377.31584404154273 0 0 0 0 -266.25120378129577 -103.55493406941605 0 -103.55493406941605 365.35523865642608 0 0 0 0 18.162215381936623 -44.37890828929747 0 -44.37890828929747 70.009180714115701 0 0 0 0 -120.59696001114025 -250.30447655392345 0 -250.30447655392345 -277.53523915517144 0 0 0 0 -53.610359260147561 350.38804781221552 0 350.38804781221552 -385.54830449260771 0 0 0 0 -311.66454523009816 -42.108326043598936 0 -42.108326043598936 316.42279518810392 0 0 0 0 -296.02598825254972 53.941437238288927 0 53.941437238288927 263.80736286925094 0 0 0 0 -245.63618009205311 -79.253847493215289 0 -79.253847493215289 220.50623893509328 0 0 0 0 -139.25402674678298 -310.83363016035582 0 -310.83363016035582 -232.05478900726303 0 0 0 0 -124.56691372534806 -112.51657173696731 0 -112.51657173696731 -66.727751175123558 0 0 0 0 -189.56619352450116 -414.5532656380019 0 -414.5532656380019 -49.396920307946857 0 0 0 0 21.343952918245776 -42.046461309348174 0 -42.046461309348174 65.479464161211013 0 0 0 0 -92.77724333858896 -12.542718395852717 0 -12.542718395852717 180.70370496500436 0 0 0 0 -33.896453638722619 -193.09810370294053 0 -193.09810370294053 249.54297278876766 0 0 0 0 -134.27727068001604 23.215417983468797 0 23.215417983468797 -30.272885487800977 0 0 0 0 -74.564305667414942 228.99462681239083 0 228.99462681239083 712.740133762185 0 0 0 0 137.16450302476562 259.99956916186056 0 259.99956916186056 418.21234827380249 0 0 0 0 -25.08617498079267 5.9297262556746375 0 5.9297262556746375 -1.4085909333748674 0 0 0 0 -234.14442884987352 117.15034400069999 0 117.15034400069999 551.66518393254955 0 0 0 0 -0.73725485504837707 217.80565794353606 0 217.80565794353606 898.78810860357044 0 0 0 0 294.23644773220917 -110.92425915668173 0 -110.92425915668173 509.96106562626665 0 0 0 0 -77.66435417148432 226.50787214803131 0 226.50787214803131 991.63827956194291 0 0 0 0 743.24745330309224 283.07478821826226 0 283.07478821826226 995.27560194279522 0 0 0 0 -40.431596263508936 339.05614452558075 0 339.05614452558075 2052.706833435368 0 0 0 0 434.01623358597794 -451.88855643875286 0 -451.88855643875286 550.80646729799628 0 0 0 0 174.56615989384818 -666.54733012901852 0 -666.54733012901852 1489.5693467324454 0 0 0 0 297.17003963677416 -495.02189615552197 0 -495.02189615552197 626.89240626977698 0 0 0 0 77.774315154278611 -287.92526369096595 0 -287.92526369096595 804.75593576108804 0 0 0 0 -0.57181988442212317 2.3889967108255474 0 2.3889967108255474 1.724944798515935 0 0 0 0 -27.864572437605602 288.27353296353249 0 288.27353296353249 1827.1426563841815 0 0 0 0 -0.16188865491361581 -1.1854995013513836 0 -1.1854995013513836 16.336069825643563 0 0 0 0 82.880696448934941 166.78904521334334 0 166.78904521334334 311.75012812425848 0 0 0 0 227.84410653844816 392.19671228745574 0 392.19671228745574 677.22259970054438 0 0 0 0 -260.26285548595388 24.448041951087362 0 24.448041951087362 2175.1931885752056 0 0 0 0 394.12245286380448 -336.58394856441555 0 -336.58394856441555 1526.2924731359672 0 0 0 0 -342.14209741439845 197.6801167749727 0 197.6801167749727 1523.5828632574994 0 0 0 0 -255.12760139637498 98.594228409522202 0 98.594228409522202 1623.0614831008133 0 0 0 0 -270.45816191237463 343.10613814288808 0 343.10613814288808 1813.8410542142765 0 0 0 0 -459.82530572308087 138.86904459731159 0 138.86904459731159 1826.2624481073144 0 0 0 0 -396.134883984927 -8.1530283058818895 0 -8.1530283058818895 1553.648223574477 0 0 0 0 -525.95196408522497 126.97414657018089 0 126.97414657018089 1572.8101506232024 0 0 0 0 -385.02107736438757 273.99367264740067 0 273.99367264740067 658.53708352489048 0 0 0 0 -441.1252596113809 96.94309472986788 0 96.94309472986788 1554.9122675144754 0 0 0 0 -408.44237682608309 232.72181523584732 0 232.72181523584732 948.91842891150736 0 0 0 0 27.452293835809542 -228.22349015681539 0 -228.22349015681539 1073.5618269877014 0 0 0 0 14.714999898794076 -132.50233366592875 0 -132.50233366592875 1376.2632091615815 0 0 0 0 -92.32979771016835 -52.78284363320563 0 -52.78284363320563 952.52068487562065 0 0 0 0 -115.77335082884383 -159.83157663479506 0 -159.83157663479506 916.78010825650563 0 0 0 0 -287.32056308854953 82.690430452683358 0 82.690430452683358 1013.822859926353 0 0 0 0 -234.5962792768878 -128.13949872174999 0 -128.13949872174999 1644.6311215887836 0 0 0 0 -358.16085578164166 30.342303449957399 0 30.342303449957399 1582.3346388463469 0 0 0 0 -338.15094455979306 126.91710275545483 0 126.91710275545483 1681.678656797756 0 0 0 0 -35.961289022730853 368.39160697606712 0 368.39160697606712 1273.7324734228168 0 0 0 0 -174.28061653737495 -86.242005683896423 0 -86.242005683896423 1958.6748787238321 0 0 0 0 258.96671931683704 816.56529987542308 0 816.56529987542308 1937.7152744662308 0 0 0 0 11.107061121179711 -38.749005758749064 0 -38.749005758749064 59.285330226482643 0 0 0 0 -90.765341124348197 95.743219053123539 0 95.743219053123539 1106.7557181261363 0 0 0 0 -184.68080478577713 -50.642691263212328 0 -50.642691263212328 267.72714252050355 0 0 0 0 -25.998604435941115 4.9346087244439616 0 4.9346087244439616 11.381855481743855 0 0 0 0 -200.21599157965647 136.183896128161 0 136.183896128161 1493.5066650157278 0 0 0 0 192.13223392630894 16.541373279600521 0 16.541373279600521 -54.421470839093672 0 0 0 0 -419.50898517804853 -465.21726400903935 0 -465.21726400903935 -28.237010274926433 0 0 0 0 -211.2733645307635 -37.309014937338361 0 -37.309014937338361 55.584811616339721 0 0 0 0 -704.56813486824649 -302.87476362547022 0 -302.87476362547022 790.33173444526983 0 0 0 0 333.36074548934448 474.17995171001166 0 474.17995171001166 468.8396259591027 0 0 0 0 -918.44600500320121 -369.51989447993037 0 -369.51989447993037 67.357235186398611 0 0 0 0 237.47928663200673 -204.40871819867243 0 -204.40871819867243 -6.0389436371333431 0 0 0 0 -12.105212129326972 -8.3065223452065737 0 -8.3065223452065737 20.082551295909127 0 0 0 0 -115.48211053066916 -881.4275955957346 0 -881.4275955957346 -937.04762332131213 0 0 0 0 -340.87569359365625 -215.45317131763295 0 -215.45317131763295 -203.33016653280356 0 0 0 0 -26.11689256387308 -129.95511701017676 0 -129.95511701017676 3390.1960905145825 0 0 0 0 291.18229360836096 1205.4590454998659 0 1205.4590454998659 3089.891293520559 0 0 0 0 3.6049294522632458 -11.943706408687774 0 -11.943706408687774 16.044573801595988 0 0 0 0 238.55927179685386 -160.94558239654725 0 -160.94558239654725 114.1358000394539 0 0 0 0 68.829702394360538 221.50290652412514 0 221.50290652412514 1991.8112189323583 0 0 0 0 185.92474018822395 -471.34955178480595 0 -471.34955178480595 1753.2730646807977 0 0 0 0 336.45152001059978 -79.686384007742163 0 -79.686384007742163 1882.9618515603506 0 0 0 0 812.20140815184641 -845.73924974811962 0 -845.73924974811962 2340.009536171201 0 0 0 0 537.80296922059142 -597.99889372428333 0 -597.99889372428333 1350.0918007140863 0 0 0 0 342.9333045670719 -491.17855550016975 0 -491.17855550016975 910.30598373292014 0 0 0 0 368.83377633254349 -162.87953143051709 0 -162.87953143051709 935.16925316426205 0 0 0 0 363.71321063761752 305.04226086479321 0 305.04226086479321 1174.2727899290103 0 0 0 0 769.02497172041922 70.390548362538539 0 70.390548362538539 1291.7270611663407 0 0 0 0 383.21108080790509 -302.38017992512323 0 -302.38017992512323 1018.4766412552708 0 0 0 0 1401.7645484496243 -370.36881543762138 0 -370.36881543762138 1566.9248517829692 0 0 0 0 727.94895045411249 501.75935224777641 0 501.75935224777641 3437.4551149680483 0 0 0 0 550.70040291481928 -288.89359066067846 0 -288.89359066067846 1120.3930192627886 0 0 0 0 1.0354780179877068 -2.6388787748522873 0 -2.6388787748522873 0.57746257512405919 0 0 0 0 -138.00171910650806 -620.91608947053101 0 -620.91608947053101 3417.7225448520767 0 0 0 0 -193.9147477175884 -673.16657831909833 0 -673.16657831909833 3784.1813857313537 0 0 0 0 216.12788402137085 -641.13828031764569 0 -641.13828031764569 3269.7184599067114 0 0 0 0 453.01935516601043 -613.17108642391941 0 -613.17108642391941 759.77091121893318 0 0 0 0 -2.4517049841615517 248.56740958701266 0 248.56740958701266 1091.2247093301739 0 0 0 0 -255.97886333436429 156.97723133948966 0 156.97723133948966 448.26491791977605 0 0 0 0 -3.0189000022073742 119.22736692141916 0 119.22736692141916 297.9597740037425 0 0 0 0 196.67465968994429 -171.72945021927808 0 -171.72945021927808 18.060963040334173 0 0 0 0 8.1059779154626881 -10.997826346778169 0 -10.997826346778169 15.304841914590156 0 0 0 0 533.73816338932704 -1344.0264219074124 0 -1344.0264219074124 407.69236384881515 0 0 0 0 182.05988705869095 -1494.8764385512695 0 -1494.8764385512695 -2059.4477947959749 0 0 0 0 -152.93186479590076 -1573.6924576669953 0 -1573.6924576669953 1143.0558212323231 0 0 0 0 203.251084176718 555.50171010047052 0 555.50171010047052 1455.6331445325341 0 0 0 0 -214.34793516181162 314.99401662424498 0 314.99401662424498 1030.4442636615495 0 0 0 0 -534.07594016064104 -102.62660737758779 0 -102.62660737758779 982.70170838701597 0 0 0 0 1519.5576315585968 -699.56083695943016 0 -699.56083695943016 1006.7809551359605 0 0 0 0 127.35491796343558 -126.73334810117376 0 -126.73334810117376 960.09369258769584 0 0 0 0 72.290992878712672 70.349953062497661 0 70.349953062497661 358.67125510736514 0 0 0 0 -9.7760566292069768 5.5513848931241228 0 5.5513848931241228 -1.7820872209777434 0 0 0 0 143.35668313629367 290.48469437432504 0 290.48469437432504 171.43786933731462 0 0 0 0 -19.039492606892622 152.74048979474173 0 152.74048979474173 498.8020498768019 0 0 0 0 -15.256516778066377 157.98430677325086 0 157.98430677325086 457.04920769357705 0 0 0 0 96.467729037603817 111.87764467027591 0 111.87764467027591 474.67436001477836 0 0 0 0 0.2059546126990229 43.73259506807517 0 43.73259506807517 457.24957686908601 0 0 0 0 -38.892522641733237 176.70893759074897 0 176.70893759074897 759.815600412403 0 0 0 0 4.6359958225108784 210.00824283377733 0 210.00824283377733 122.73540010949364 0 0 0 0 82.458166995488028 70.264930997887859 0 70.264930997887859 308.18986936468718 0 0 0 0 -2.3980800826068105 2.0263394845795233 0 2.0263394845795233 -0.94834797248836367 0 0 0 0 62.610383425455439 54.585930942856066 0 54.585930942856066 -52.481614057993283 0 0 0 0 230.86691675631403 46.299310384427372 0 46.299310384427372 -372.80338832538109 0 0 0 0 182.89478659776518 268.13264688230265 0 268.13264688230265 54.25504111443297 0 0 0 0 118.94621482852682 277.78105563004647 0 277.78105563004647 -141.29113909864827 0 0 0 0 -0.1771553639337404 39.10806307704479 0 39.10806307704479 -94.885715021417127 0 0 0 0 201.77603875319502 -162.15243495975301 0 -162.15243495975301 506.39831756067724 0 0 0 0 -78.223608803040435 106.45767661676291 0 106.45767661676291 284.50483430211898 0 0 0 0 181.61393253919584 195.95917104369801 0 195.95917104369801 398.27765857632039 0 0 0 0 278.01085180033152 164.44724610367666 0 164.44724610367666 228.2767743327131 0 0 0 0 138.67097764163861 105.5789652423191 0 105.5789652423191 209.7272103257128 0 0 0 0 269.55222782645455 137.65182018523046 0 137.65182018523046 206.17792323297181 0 0 0 0 272.4890016129205 332.71564560054401 0 332.71564560054401 119.26401326600171 0 0 0 0 93.499554804472041 238.0908350656191 0 238.0908350656191 116.37940399948275 0 0 0 0 72.407317617557055 321.96771782518044 0 321.96771782518044 157.90068314528617 0 0 0 0 150.34859227552602 277.10000297167062 0 277.10000297167062 182.84581951297878 0 0 0 0 154.53047879995643 283.32127301692526 0 283.32127301692526 93.574927577661583 0 0 0 0 158.79425260908783 314.60362121080834 0 314.60362121080834 315.58976247700957 0 0 0 0 -4.2210683713483377 341.00067798945383 0 341.00067798945383 227.39947978132614 0 0 0 0 -169.36146289468434 166.46349809408275 0 166.46349809408275 149.0534092089365 0 0 0 0 -181.97868702737469 215.41515235427505 0 215.41515235427505 -29.115840643782576 0 0 0 0 -562.17106042624437 -144.18835909386689 0 -144.18835909386689 9.3098442735790741 0 0 0 0 -157.13002113444782 192.83933147528296 0 192.83933147528296 72.428546401319181 0 0 0 0 -106.83285154078294 89.21864821400959 0 89.21864821400959 244.95081694120017 0 0 0 0 -7.9688554631156876 357.59321869897394 0 357.59321869897394 180.19980916837812 0 0 0 0 89.119860115912161 245.69901714861044 0 245.69901714861044 24.06627316968661 0 0 0 0 -33.720939375571788 73.32319480152637 0 73.32319480152637 196.28645298728952 0 0 0 0 -12.965318781250474 7.0240371040626712 0 7.0240371040626712 11.427413344700511 0 0 0 0 -667.20133106264802 -199.39407677482814 0 -199.39407677482814 -20.100658075323736 0 0 0 0 -853.86797083907186 -227.52286851056851 0 -227.52286851056851 4.6909276288643014 0 0 0 0 -629.91340771084015 -314.7576732132693 0 -314.7576732132693 -81.008627265546238 0 0 0 0 -468.08211277444752 -180.13094134560379 0 -180.13094134560379 -127.14625668575854 0 0 0 0 -277.04476104142759 -203.15849328826152 0 -203.15849328826152 -32.342214416887145 0 0 0 0 -731.97706898844081 -373.51265283674002 0 -373.51265283674002 -113.98832746956032 0 0 0 0 -328.57077446914627 -46.719940722257888 0 -46.719940722257888 -412.68414224480512 0 0 0 0 -746.18733637246623 -130.11115536621219 0 -130.11115536621219 70.478439825179521 0 0 0 0 -455.82769760483825 -489.96743673173478 0 -489.96743673173478 -249.90412880493386 0 0 0 0 -81.725957492926682 -315.90112440029043 0 -315.90112440029043 -580.40010442155472 0 0 0 0 -4.0142074689939378 -9.7772876778795279 0 -9.7772876778795279 15.774280737179197 0 0 0 0 -281.12741232972076 -319.30152554274537 0 -319.30152554274537 28.100090404099319 0 0 0 0 -225.6125986953557 -261.0785950281861 0 -261.0785950281861 -37.780064968916122 0 0 0 0 -202.89389830331129 -57.791785816283664 0 -57.791785816283664 17.567480597579561 0 0 0 0 91.564215226975648 206.09320400256547 0 206.09320400256547 244.74920159664543 0 0 0 0 -503.02911390808094 30.586393707810203 0 30.586393707810203 359.90198232659895 0 0 0 0 -25.666618353750849 8.7039606348338907 0 8.7039606348338907 -1.2404117094387601 0 0 0 0 -165.21725828277295 257.02176203179988 0 257.02176203179988 902.34022983745672 0 0 0 0 -120.1859899771116 -211.11184577585664 0 -211.11184577585664 320.05477077074465 0 0 0 0 56.196555598924078 200.34185477232313 0 200.34185477232313 424.14386166303302 0 0 0 0 -4.8619677615279215 433.9798318373505 0 433.9798318373505 680.08809576410567 0 0 0 0 192.95434188539548 298.89259357831179 0 298.89259357831179 237.49290227997426 0 0 0 0 35.36093697350077 96.179455969366245 0 96.179455969366245 469.17285712316516 0 0 0 0 -19.241571207646135 7.9564696533014114 0 7.9564696533014114 -1.6612343695229868 0 0 0 0 0.13578702892309025 136.12651463862494 0 136.12651463862494 595.46033154038014 0 0 0 0 33.331205621134131 122.74127315021178 0 122.74127315021178 522.12275203403988 0 0 0 0 5.2594597544621138 127.85032674561808 0 127.85032674561808 521.70850001207145 0 0 0 0 -1.4756270300938734 -0.8692859713250698 0 -0.8692859713250698 2.0978636068507228 0 0 0 0 -30.722449318663621 66.180620636641834 0 66.180620636641834 477.08928946149535 0 0 0 0 -2.4465330110194117 -1.9670699229275499 0 -1.9670699229275499 2.9255954357004583 0 0 0 0 -28.445248300029903 31.301191957840274 0 31.301191957840274 829.28570150538144 0 0 0 0 -124.45440369657877 109.91426828895419 0 109.91426828895419 575.87613295703341 0 0 0 0 -80.73989260839744 273.05645424042814 0 273.05645424042814 993.67592709569726 0 0 0 0 -26.757081714282773 7.4062173676092868 0 7.4062173676092868 -0.38558311404001699 0 0 0 0 -33.635264160961015 169.48344243009342 0 169.48344243009342 613.53636723386444 0 0 0 0 -179.95500732361825 11.603708608156012 0 11.603708608156012 1206.3770128556644 0 0 0 0 -64.965569071499971 158.27242656197541 0 158.27242656197541 927.40065135704936 0 0 0 0 -178.09187136035405 -6.5842310267703397 0 -6.5842310267703397 904.71963083236187 0 0 0 0 -118.32486576266228 -73.465105729046627 0 -73.465105729046627 909.43703564768475 0 0 0 0 -90.578969042257086 -64.721035322254465 0 -64.721035322254465 648.89135309804988 0 0 0 0 -69.069385516796046 -307.59370595758082 0 -307.59370595758082 1054.8983232200189 0 0 0 0 84.862690509393701 -303.00993730465234 0 -303.00993730465234 660.68245038177702 0 0 0 0 24.411788774594925 69.040411062724161 0 69.040411062724161 785.7894048539456 0 0 0 0 -115.53213612558307 186.63653369102394 0 186.63653369102394 1236.8102612895091 0 0 0 0 -35.972261886820206 -71.357522406193311 0 -71.357522406193311 653.53300665156712 0 0 0 0 -56.790007671299463 61.638472370410454 0 61.638472370410454 813.56201543112547 0 0 0 0 -72.637047498529256 -10.197899634759779 0 -10.197899634759779 786.13792555133114 0 0 0 0 -51.099813478052624 -1.9239853445469635 0 -1.9239853445469635 736.13967343962668 0 0 0 0 -48.03123477494438 29.056638044512511 0 29.056638044512511 842.3809010409459 0 0 0 0 24.547969767279426 -100.27886410939755 0 -100.27886410939755 1071.3983649752336 0 0 0 0 7.507164086178193 -66.011355228059983 0 -66.011355228059983 809.97007569997368 0 0 0 0 -30.255192342847977 44.765765535572427 0 44.765765535572427 795.35845134407737 0 0 0 0 -29.509014912928375 52.518545962809185 0 52.518545962809185 613.80263096494309 0 0 0 0 54.069342640917171 -32.178380195728096 0 -32.178380195728096 414.47923696295766 0 0 0 0 -13.163291795024392 160.91827334420304 0 160.91827334420304 673.58514273233595 0 0 0 0 -1.4330989910599585 -1.8935134029277094 0 -1.8935134029277094 2.4146928231602089 0 0 0 0 66.420448255369479 122.34133854256652 0 122.34133854256652 509.43930617671867 0 0 0 0 0.23067695040280767 -42.707722171056957 0 -42.707722171056957 259.77313032701568 0 0 0 0 -0.34539905763584228 -0.61117737377833237 0 -0.61117737377833237 1.4862995293704415 0 0 0 0 47.856371327581606 157.45057801723306 0 157.45057801723306 456.3746225638024 0 0 0 0 -41.360867675361391 -2.6194548478779325 0 -2.6194548478779325 598.0746517896041 0 0 0 0 54.120721607475176 159.73852461003116 0 159.73852461003116 824.99443752554362 0 0 0 0 -0.044492141495459554 -18.781353561790834 0 -18.781353561790834 640.29636033491988 0 0 0 0 60.34646482284726 63.351451033597186 0 63.351451033597186 621.61210452883097 0 0 0 0 54.642945642614436 -31.810121299597085 0 -31.810121299597085 789.57280701574928 0 0 0 0 352.89727280227305 50.874851455489988 0 50.874851455489988 805.43403785668124 0 0 0 0 -177.22308473195244 20.31985407222237 0 20.31985407222237 1184.8019526095377 0 0 0 0 120.0123182591858 245.25047241148422 0 245.25047241148422 1110.3977789074706 0 0 0 0 -0.18464705860058792 -5.5893542347985203 0 -5.5893542347985203 971.27839666376531 0 0 0 0 -13.90648070216276 59.135865918244235 0 59.135865918244235 854.06430068297414 0 0 0 0 0.0087687009314872146 -2.0037493095587706 0 -2.0037493095587706 12.912071658136483 0 0 0 0 0.12656324450197687 -0.65335573720670936 0 -0.65335573720670936 1.1524697310627232 0 0 0 0 -101.63261891390539 -92.618608219025191 0 -92.618608219025191 899.1023403135041 0 0 0 0 0.68726146363816998 -2.2472690997674363 0 -2.2472690997674363 14.302013205742696 0 0 0 0 236.14135288047774 -232.59550105607923 0 -232.59550105607923 248.10503970237914 0 0 0 0 -0.40039242266454045 0.1032578919643754 0 0.1032578919643754 5.3481921247926891 0 0 0 0 1.2577043007028499 0.056533947065219081 0 0.056533947065219081 4.8104231437540648 0 0 0 0 -5.5603362537683871 -5.4320751854575064 0 -5.4320751854575064 17.807440272241365 0 0 0 0 -1.0759143478338502 -0.07123201945432811 0 -0.07123201945432811 19.661307217844296 0 0 0 0 -43.944562056780569 134.72263528726035 0 134.72263528726035 718.47386636916963 0 0 0 0 68.292028163629979 122.14052900056413 0 122.14052900056413 424.95117664210557 0 0 0 0 118.56938491738336 414.52182244361757 0 414.52182244361757 1010.4726388543459 0 0 0 0 8.2857485534894586 2.7306075889331396 0 2.7306075889331396 2.1630555268661027 0 0 0 0 6.6103140478517162 6.5255359967486584 0 6.5255359967486584 28.507186241262389 0 0 0 0 -2.2811209122659664 -0.23471008481330102 0 -0.23471008481330102 18.723203102789228 0 0 0 0 12.249440624026647 6.7421553907770431 0 6.7421553907770431 21.40919701414532 0 0 0 0 2.9663949430096181 3.6608009694900829 0 3.6608009694900829 23.177418722934817 0 0 0 0 -9.3063643125161324 -3.6823793314451905 0 -3.6823793314451905 27.966556035011308 0 0 0 0 -2.5300954652691257 -1.0638019827694052 0 -1.0638019827694052 18.85061110837529 0 0 0 0 10.592975432066025 7.8044392618176062 0 7.8044392618176062 23.810467597360912 0 0 0 0 -5.1109427579566216 15.041784543071117 0 15.041784543071117 48.654644945578184 0 0 0 0 -1.6791585447017723 1.3641632567125868 0 1.3641632567125868 21.186098231056349 0 0 0 0 -1.1109824876116363 2.1298592311104585 0 2.1298592311104585 23.115932021988556 0 0 0 0 10.314939716249683 6.799381249864382 0 6.799381249864382 20.560044564488635 0 0 0 0 -0.00088729208203285623 0.053405658967676573 0 0.053405658967676573 34.744342390215024 0 0 0 0 5.5271084807600355 5.6047872261042357 0 5.6047872261042357 20.732493383131441 0 0 0 0 6.0840915446744406 -3.7209498943266226 0 -3.7209498943266226 15.862255457435822 0 0 0 0 1.498332154962263 7.5495608100645768 0 7.5495608100645768 59.311179927375633 0 0 0 0 11.221842913609139 16.541776781472436 0 16.541776781472436 41.123475732223596 0 0 0 0 2.3340552636374028 30.431387474221992 0 30.431387474221992 101.13579973750893 0 0 0 0 1.5238065786407198 1.9793103756126698 0 1.9793103756126698 0.58497067084850585 0 0 0 0 0.034793994113695097 6.0153195556704304 0 6.0153195556704304 67.060746246817871 0 0 0 0 -0.14410465342725018 312.59848517093633 0 312.59848517093633 1589.7527055755345 0 0 0 0 4.2847487260917205 14.960584097774699 0 14.960584097774699 78.092329383827746 0 0 0 0 17.204346482098043 20.392556216273078 0 20.392556216273078 56.975372515342315 0 0 0 0 11.366234890887462 19.740831112125306 0 19.740831112125306 45.633212809814722 0 0 0 0 2.2062873477485994 24.521295992577507 0 24.521295992577507 73.455521953903371 0 0 0 0 -11.575756370632138 -3.2182855317441863 0 -3.2182855317441863 40.449879142019199 0 0 0 0 2.3939476341218189 8.4994078707889571 0 8.4994078707889571 23.52574726879152 0 0 0 0 13.996987609874793 22.897283093712758 0 22.897283093712758 28.163176574737008 0 0 0 0 -6.6721699371246004 -3.7198961842781699 0 -3.7198961842781699 11.487023956366954 0 0 0 0 10.706113871116472 9.0292508899933068 0 9.0292508899933068 -0.37727349628866591 0 0 0 0 -1.3756259826300976 10.002749612704065 0 10.002749612704065 69.330102626590815 0 0 0 0 11.543191668753316 12.041835850748612 0 12.041835850748612 51.819168268717476 0 0 0 0 -3.9425797820203559 -1.232818667736737 0 -1.232818667736737 36.491309474061893 0 0 0 0 5.2047319828261855 4.9547497173035993 0 4.9547497173035993 -1.586394686964212 0 0 0 0 2.7041320576869836 29.890669624583097 0 29.890669624583097 87.857906229226501 0 0 0 0 -21.38230309101391 469.1294357669758 0 469.1294357669758 1951.067406768565 0 0 0 0 14.331202572878247 20.649642701609991 0 20.649642701609991 74.480455215849361 0 0 0 0 150.94993472361693 517.36329640937038 0 517.36329640937038 1901.3008465386229 0 0 0 0 -152.22031468739806 174.29346604628518 0 174.29346604628518 2004.6309279607667 0 0 0 0 161.62852871946023 595.56790721315065 0 595.56790721315065 2251.1392283355672 0 0 0 0 171.49314067120395 561.59422147276928 0 561.59422147276928 2320.1343563584232 0 0 0 0 361.81765071519931 222.48504178982694 0 222.48504178982694 2165.0467383510695 0 0 0 0 -95.178062584604504 290.14489382932516 0 290.14489382932516 2731.2225083336234 0 0 0 0 153.2964101362868 516.32030615779513 0 516.32030615779513 2515.7548256228256 0 0 0 0 262.16606209183283 295.67430866310315 0 295.67430866310315 1544.5624268425454 0 0 0 0 16.093097110642866 10.229209797890832 0 10.229209797890832 7.5519186965735514 0 0 0 0 -15.954912139858607 695.70701478570118 0 695.70701478570118 2602.6481023846209 0 0 0 0 75.486885941411629 74.563444634375628 0 74.563444634375628 2477.1143316127418 0 0 0 0 1.5160963476967113 1.6354956244894225 0 1.6354956244894225 3.4900353803605526 0 0 0 0 -6.2845870703460562 -1.3363237547721667 0 -1.3363237547721667 5.9261444852054268 0 0 0 0 239.0093552972736 -28.098852764989715 0 -28.098852764989715 922.02553901323699 0 0 0 0 104.90680596173547 444.03001702886831 0 444.03001702886831 2085.838527039421 0 0 0 0 -189.62906393486651 -802.13117459063142 0 -802.13117459063142 1975.5773412686831 0 0 0 0 -119.19230257683284 289.7011854879529 0 289.7011854879529 1631.4648431166424 0 0 0 0 0.16169310931756958 266.39038960420294 0 266.39038960420294 1010.2275989168556 0 0 0 0 -197.03476973968327 39.231136433278152 0 39.231136433278152 1615.0377674199844 0 0 0 0 91.358399835790351 344.34567157957645 0 344.34567157957645 1576.4366532093482 0 0 0 0 146.14482205138347 -77.895041020987264 0 -77.895041020987264 740.93401548704423 0 0 0 0 -32.554213954573243 -165.68150551061262 0 -165.68150551061262 1175.6167151928385 0 0 0 0 -77.173985363333486 27.128029881441762 0 27.128029881441762 768.17127351406089 0 0 0 0 -112.00475741047148 47.896015660404373 0 47.896015660404373 1089.6092509805821 0 0 0 0 -1.4263319665778909 192.73601969794072 0 192.73601969794072 1436.9582165028842 0 0 0 0 17.130212057511926 213.53155729552236 0 213.53155729552236 1244.9515067908542 0 0 0 0 235.75184803243974 769.91780532019766 0 769.91780532019766 1681.6514156420635 0 0 0 0 -25.594253302080233 225.70303052485178 0 225.70303052485178 1967.1072381613631 0 0 0 0 473.75345116982317 -14.542378460653708 0 -14.542378460653708 -257.56969438029046 0 0 0 0 6.5522194773069558 2.7518177844636682 0 2.7518177844636682 2.1512385401043161 0 0 0 0 180.68316851369036 502.5597242123622 0 502.5597242123622 3226.4215969075649 0 0 0 0 -136.01514216755459 27.372511942812707 0 27.372511942812707 2585.8933000527031 0 0 0 0 552.60425560673502 518.15679443245608 0 518.15679443245608 2858.3468845315219 0 0 0 0 237.12147466984061 697.83081125501485 0 697.83081125501485 2908.4852828929143 0 0 0 0 317.28081001964529 479.37348075395857 0 479.37348075395857 2727.9530861198145 0 0 0 0 40.132391509114314 429.97938474167313 0 429.97938474167313 2812.9930024900823 0 0 0 0 308.14416246190694 468.81269758872259 0 468.81269758872259 3073.6517081960337 0 0 0 0 210.68323042259544 628.22979589000897 0 628.22979589000897 3200.8240286196815 0 0 0 0 100.81612407326702 550.16720249752689 0 550.16720249752689 3230.089057494275 0 0 0 0 2.3234586376281712 1.8473983217515695 0 1.8473983217515695 8.4896324635353153 0 0 0 0 89.718170682339405 986.31788536225213 0 986.31788536225213 2976.0353398944135 0 0 0 0 0.7005197525046265 1.3556530992226783 0 1.3556530992226783 1.2472867665431977 0 0 0 0 -26.854148305013041 -132.03707855396351 0 -132.03707855396351 1671.7423577933223 0 0 0 0 667.01478312893323 53.178505488132942 0 53.178505488132942 1396.5698373027408 0 0 0 0 235.23343738246876 -130.68081771178549 0 -130.68081771178549 217.10431788291316 0 0 0 0 -24.01657402904857 29.381267635224503 0 29.381267635224503 285.69491129161906 0 0 0 0 203.02963646755188 -486.11359232257382 0 -486.11359232257382 483.54409507900709 0 0 0 0 -204.24398156784491 -92.435173684545589 0 -92.435173684545589 215.78352403506869 0 0 0 0 50.998411505986951 -135.95532631865353 0 -135.95532631865353 -322.05395496507117 0 0 0 0 -66.802024801559128 -68.303191602724837 0 -68.303191602724837 82.414840854209615 0 0 0 0 -33.931789250973907 -18.054058949979662 0 -18.054058949979662 85.965701045963215 0 0 0 0 -177.84673164211472 134.01350215883576 0 134.01350215883576 45.014945938330129 0 0 0 0 219.79484473711182 -37.239889493384908 0 -37.239889493384908 77.360296293714782 0 0 0 0 -12.812398171495261 30.99793149423931 0 30.99793149423931 199.2822729130703 0 0 0 0 201.95514367407668 -54.280988581442216 0 -54.280988581442216 319.44442381740737 0 0 0 0 115.31915575819357 -176.68698016053895 0 -176.68698016053895 752.13571565515304 0 0 0 0 131.24600356270003 -23.071352628874592 0 -23.071352628874592 322.91661022987682 0 0 0 0 6.2196844810628136 -82.59101834998728 0 -82.59101834998728 737.94991545465018 0 0 0 0 174.40618734843702 60.381388267665898 0 60.381388267665898 123.84331178791035 0 0 0 0 61.628373783556526 -92.080552963707305 0 -92.080552963707305 114.87717578481852 0 0 0 0 1.9028299749501087 0.490517974473903 0 0.490517974473903 0.035619904332286012 0 0 0 0 219.65567494596849 35.680875439149531 0 35.680875439149531 -117.26684862277034 0 0 0 0 -22.254184484426332 105.15602278930601 0 105.15602278930601 -122.14418057706962 0 0 0 0 125.43060513881392 -20.330314162230934 0 -20.330314162230934 -101.87675646505522 0 0 0 0 5.2394083048243374 6.4109766549081542 0 6.4109766549081542 -17.745057861895475 0 0 0 0 6.830220791704229 13.126719123121148 0 13.126719123121148 20.164883732353104 0 0 0 0 -73.429784958988421 76.445968518033624 0 76.445968518033624 152.98425902927556 0 0 0 0 -86.778642063033658 232.74789681716356 0 232.74789681716356 -117.53295205278482 0 0 0 0 12.108186751483576 14.460622924834297 0 14.460622924834297 18.372887376210343 0 0 0 0 9.208336708799834 7.6030338435120939 0 7.6030338435120939 23.236455701320665 0 0 0 0 13.994499175747706 8.1779586648117402 0 8.1779586648117402 22.763530091164284 0 0 0 0 10.631662729142738 0.54810630817598849 0 0.54810630817598849 -0.81507421722056961 0 0 0 0 9.4240308044443282 8.5010300792528142 0 8.5010300792528142 29.674227570329094 0 0 0 0 13.139625551310658 1.8179906344952315 0 1.8179906344952315 3.57218438320362 0 0 0 0 48.945132278997107 -22.191260092818993 0 -22.191260092818993 274.90414294119546 0 0 0 0 13.99592044633664 8.3967891102875001 0 8.3967891102875001 21.68600875348784 0 0 0 0 -10.133296208083266 8.2842647667275742 0 8.2842647667275742 353.66129113268107 0 0 0 0 -24.438632585723468 7.6271169343194742 0 7.6271169343194742 580.24703664035769 0 0 0 0 -13.598709113388281 82.527373506962249 0 82.527373506962249 489.1528425111901 0 0 0 0 17.366432112581151 35.339080949754134 0 35.339080949754134 453.64376363961492 0 0 0 0 110.26297898512848 -94.109322112512018 0 -94.109322112512018 71.462184061725566 0 0 0 0 16.209671453103738 2.6499119989239261 0 2.6499119989239261 113.28309427556815 0 0 0 0 38.062677554205948 12.995184379658895 0 12.995184379658895 -6.1729306233755779 0 0 0 0 28.229974001431486 12.582387841353494 0 12.582387841353494 -4.6201785258172805 0 0 0 0 9.6180701029156808 67.648209082399262 0 67.648209082399262 204.6016635906999 0 0 0 0 -25.956313743285136 -54.211041816291981 0 -54.211041816291981 111.04372300658724 0 0 0 0 10.197468453866357 0.47260988327568043 0 0.47260988327568043 -8.6490357556673985 0 0 0 0 -81.849168337587798 72.494479944332852 0 72.494479944332852 323.34753501822706 0 0 0 0 25.244822456964584 -2.4311379196442431 0 -2.4311379196442431 221.28836422757013 0 0 0 0 54.936654458857447 -55.631696676195133 0 -55.631696676195133 290.42112466041362 0 0 0 0 -38.414744498819346 -128.12931627000216 0 -128.12931627000216 487.80583628241584 0 0 0 0 88.381609966686142 -106.62554350628852 0 -106.62554350628852 276.34498525076197 0 0 0 0 62.667399190814194 -195.16193404824298 0 -195.16193404824298 509.24878393758263 0 0 0 0 143.35173390246473 -151.28929266276828 0 -151.28929266276828 199.67981277688523 0 0 0 0 125.70049599991398 -306.49077492898505 0 -306.49077492898505 660.75381178883413 0 0 0 0 149.1896702997139 -191.66725557872633 0 -191.66725557872633 182.98726924226503 0 0 0 0 393.35149979026721 -227.93953936943581 0 -227.93953936943581 -21.286844113696134 0 0 0 0 277.87408085780339 53.99711539508553 0 53.99711539508553 -212.85352045344189 0 0 0 0 -9.4597063274715083 201.16022255757343 0 201.16022255757343 -63.248002133070258 0 0 0 0 237.83902510914504 -177.87903713872947 0 -177.87903713872947 178.13374131939781 0 0 0 0 154.00275054443455 -9.4896206572739175 0 -9.4896206572739175 -7.9275390685652383 0 0 0 0 -9.9535697445919595 50.339650528367201 0 50.339650528367201 -37.424098126437457 0 0 0 0 101.21543855791651 -1.9146413575945189 0 -1.9146413575945189 39.557237490094849 0 0 0 0 87.708139470400738 84.970775672849413 0 84.970775672849413 -28.658810084627476 0 0 0 0 -30.813766855896574 -183.20318707339902 0 -183.20318707339902 177.44883147656219 0 0 0 0 -154.88076493678261 99.700087565877766 0 99.700087565877766 37.0403093854693 0 0 0 0 4.2734666443422764 -3.5530702079747734 0 -3.5530702079747734 39.439718129511107 0 0 0 0 -59.311558036933548 12.529176095253206 0 12.529176095253206 5.0634735365310917 0 0 0 0 84.633184283650735 -76.552648773256806 0 -76.552648773256806 -39.408866708530695 0 0 0 0 65.809410811349153 -98.299334424769768 0 -98.299334424769768 214.6594550200607 0 0 0 0 -0.56681043011150045 0.070108180566634815 0 0.070108180566634815 2.8886261060210074 0 0 0 0 302.79295749139601 -155.81705977827369 0 -155.81705977827369 -676.66927055668202 0 0 0 0 297.72109121356516 -115.48477303535037 0 -115.48477303535037 -150.72994027436653 0 0 0 0 133.99265175446271 -366.69781715453428 0 -366.69781715453428 -360.72384562116349 0 0 0 0 349.4609449505806 60.191931237117387 0 60.191931237117387 -498.19535943696974 0 0 0 0 353.23449509635611 88.420310738307307 0 88.420310738307307 -425.81218737282325 0 0 0 0 -274.54260009473364 81.542940064624418 0 81.542940064624418 -135.37794685480185 0 0 0 0 385.83729783101899 -198.5802325987388 0 -198.5802325987388 -415.59610319848071 0 0 0 0 -202.17621240492554 164.00761935297487 0 164.00761935297487 -200.49652577243978 0 0 0 0 -229.2207001889401 -101.90324937354308 0 -101.90324937354308 -581.41851067630341 0 0 0 0 -257.8063047915648 272.45949624316563 0 272.45949624316563 65.114341897133272 0 0 0 0 -308.37369287942056 -29.052440401064814 0 -29.052440401064814 742.62280147912679 0 0 0 0 -318.76288283915346 -67.801230886572739 0 -67.801230886572739 231.9330961702799 0 0 0 0 -256.2718741299218 -92.085881546434393 0 -92.085881546434393 73.264510301989503 0 0 0 0 -364.07565874140255 -426.73208997873735 0 -426.73208997873735 -200.12577514589066 0 0 0 0 -268.96122437185477 -513.35291798680555 0 -513.35291798680555 -487.23036094906274 0 0 0 0 197.0838627128046 -165.13114089555984 0 -165.13114089555984 566.45226176045253 0 0 0 0 204.84785777910031 -262.93458464900505 0 -262.93458464900505 468.0932599521766 0 0 0 0 111.62603755821328 -209.41443382132275 0 -209.41443382132275 447.86238085602236 0 0 0 0 -67.868969143422873 -266.45377658407961 0 -266.45377658407961 232.53117074158945 0 0 0 0 -161.15395812341922 97.121920148045319 0 97.121920148045319 419.25413602322806 0 0 0 0 76.295959133527504 -69.688837566682196 0 -69.688837566682196 80.118945845752023 0 0 0 0 200.00787039840361 -223.757693724212 0 -223.757693724212 21.166629557948909 0 0 0 0 178.08000629199455 -85.511518367097779 0 -85.511518367097779 -47.867550041992217 0 0 0 0 322.04182676853634 -193.37874989119155 0 -193.37874989119155 -17.708883151120972 0 0 0 0 394.06123852460587 -89.478396224149037 0 -89.478396224149037 -175.8590905956371 0 0 0 0 139.83346029032236 -11.920393593629342 0 -11.920393593629342 -121.25182150030741 0 0 0 0 99.602695646812208 -191.41239055422193 0 -191.41239055422193 -210.68212574171775 0 0 0 0 -94.683077931173102 -63.853758784738602 0 -63.853758784738602 -55.229987909580814 0 0 0 0 -195.23448420736349 -146.33290634666628 0 -146.33290634666628 -81.471204272893374 0 0 0 0 124.86623327084817 -88.674233081255807 0 -88.674233081255807 -182.36300626269076 0 0 0 0 1.9419938344593377 1.2422865154158895 0 1.2422865154158895 0.64933567420763438 0 0 0 0 -32.237628054218476 5.6361032401982811 0 5.6361032401982811 55.935916528484086 0 0 0 0 -734.45734560062738 -540.53003515885212 0 -540.53003515885212 3.3747632374870591 0 0 0 0 -1.0409258371764079 0.62124539894568187 0 0.62124539894568187 -0.35035129210365312 0 0 0 0 -134.4261597201621 -308.70849502542114 0 -308.70849502542114 -72.171501504832122 0 0 0 0 -665.40919541209405 -82.858825655872351 0 -82.858825655872351 -81.503517900971929 0 0 0 0 -187.7918955241239 -245.20155512478959 0 -245.20155512478959 -267.14569991111057 0 0 0 0 12.251668520070076 -1.2856724097755459 0 -1.2856724097755459 -5.0817628765851168 0 0 0 0 52.082551585552665 8.0789856948304077 0 8.0789856948304077 -17.161493499559583 0 0 0 0 46.903858687003776 -41.330430975314812 0 -41.330430975314812 -45.116617975698318 0 0 0 0 10.494983738490191 -4.0738464434980415 0 -4.0738464434980415 0.91709744468607823 0 0 0 0 3.1680201952463136 0.19413367737151077 0 0.19413367737151077 -4.6705716956673768 0 0 0 0 5.0044151883510608 -7.609782403981626 0 -7.609782403981626 0.011183639959199354 0 0 0 0 -441.92011626366912 -272.7032483934745 0 -272.7032483934745 -61.552239239012124 0 0 0 0 9.8001489254524365 -6.2393951658136757 0 -6.2393951658136757 2.4763952179675357 0 0 0 0 9.3629198598230658 -4.9121201312999858 0 -4.9121201312999858 5.0105651878702702 0 0 0 0 8.371366683167377 -10.265139544746916 0 -10.265139544746916 3.7393621131944457 0 0 0 0 18.8255081131731 -4.1237835234205704 0 -4.1237835234205704 6.8230066541582346 0 0 0 0 -39.8835188613848 -53.486255144904135 0 -53.486255144904135 -8.4921506543178111 0 0 0 0 29.189156282300246 -124.63702694028325 0 -124.63702694028325 -144.08488757572195 0 0 0 0 -314.73982903307297 -55.637554210436065 0 -55.637554210436065 -74.076871913915966 0 0 0 0 -52.773397067107908 -164.12466620436498 0 -164.12466620436498 -166.08315206802217 0 0 0 0 -294.95369390224005 -124.50206111307489 0 -124.50206111307489 -56.269394385803025 0 0 0 0 -226.85141878906143 -82.492164173687343 0 -82.492164173687343 -146.40116633023717 0 0 0 0 -147.45836045577016 -172.14864005167328 0 -172.14864005167328 -117.31298299951595 0 0 0 0 -125.57623489068646 -168.1479617281002 0 -168.1479617281002 -101.3705117021309 0 0 0 0 -68.813510003436932 -100.97797439218266 0 -100.97797439218266 -62.609353296109475 0 0 0 0 -147.89805672465081 -169.32982015139714 0 -169.32982015139714 -25.4142238723216 0 0 0 0 17.426473604595643 -7.3466572963370709 0 -7.3466572963370709 2.219535932992585 0 0 0 0 -64.194220773109919 -193.45111990546866 0 -193.45111990546866 -60.493373382807476 0 0 0 0 16.398736194374578 -115.27428367927496 0 -115.27428367927496 -141.27611921701464 0 0 0 0 -179.18277774347553 -131.86905494348321 0 -131.86905494348321 -85.072341390754445 0 0 0 0 -75.429062094477558 -94.200282487145159 0 -94.200282487145159 -140.84521241913899 0 0 0 0 -186.82651870813061 -179.57897584191232 0 -179.57897584191232 -60.835212908597896 0 0 0 0 15.901305511185003 -8.0749483250278047 0 -8.0749483250278047 -1.1867174934265563 0 0 0 0 47.307538660162905 -9.8491676002525423 0 -9.8491676002525423 -4.7391413486410272 0 0 0 0 -84.600926185397839 -93.951601670880336 0 -93.951601670880336 -83.89369504104252 0 0 0 0 131.788760361389 11.87679776812729 0 11.87679776812729 -112.91950749968782 0 0 0 0 9.7586459031614954 -3.9449748944374061 0 -3.9449748944374061 5.3512723803754056 0 0 0 0 21.269782684888469 -8.7992988125188276 0 -8.7992988125188276 2.9513873682590201 0 0 0 0 24.820627610473863 -6.5496326251450228 0 -6.5496326251450228 2.3395884994970402 0 0 0 0 22.245548510058256 -8.0998474259977229 0 -8.0998474259977229 1.8846553628100082 0 0 0 0 10.614991345911966 -6.109468592337663 0 -6.109468592337663 2.4118461044188848 0 0 0 0 22.076590973515454 -3.1138670760113598 0 -3.1138670760113598 0.48164374625645401 0 0 0 0 17.490720871370076 -4.6434120260956036 0 -4.6434120260956036 1.2224748877285929 0 0 0 0 16.602853360855988 -9.8236543696402805 0 -9.8236543696402805 5.6207674614342977 0 0 0 0 49.044719781897584 -20.746548460330814 0 -20.746548460330814 4.4947481523504393 0 0 0 0 27.271252051211974 -1.2896809309595483 0 -1.2896809309595483 4.530432726314757 0 0 0 0 10.279455307011755 -5.1152046606385113 0 -5.1152046606385113 2.3615401519315355 0 0 0 0 1.0546206981216528 -19.63491419456841 0 -19.63491419456841 31.945262071529214 0 0 0 0 4.1244169242137225 -0.61446588323647688 0 -0.61446588323647688 0.94700786750902388 0 0 0 0 102.13082703645887 4.4003297039889731 0 4.4003297039889731 76.716928250772071 0 0 0 0 26.84757722598005 10.800648393671821 0 10.800648393671821 -2.298211684365981 0 0 0 0 25.496473565599445 -25.043103633139253 0 -25.043103633139253 -41.166238402875024 0 0 0 0 14.017241194187022 -36.028011305624204 0 -36.028011305624204 -2.4626566833030665 0 0 0 0 26.739526695290124 -1.4679501572754816 0 -1.4679501572754816 9.0388023513660301 0 0 0 0 31.653935623502718 -0.89121753739345877 0 -0.89121753739345877 -50.570258608669974 0 0 0 0 19.761335426384459 -10.532440822932102 0 -10.532440822932102 14.175127318447622 0 0 0 0 -17.184117972501554 87.980391793280432 0 87.980391793280432 -83.776747162672109 0 0 0 0 57.587028898510198 181.6771909866693 0 181.6771909866693 0.51785182632738724 0 0 0 0 94.215251070277191 134.3839353836338 0 134.3839353836338 -189.54363522765925 0 0 0 0 39.027516835318238 240.07679963779083 0 240.07679963779083 63.976747626380529 0 0 0 0 11.567496277648388 197.63484683196293 0 197.63484683196293 -1.5376107489209971 0 0 0 0 -95.83871227436066 305.1086913913532 0 305.1086913913532 391.72531759085541 0 0 0 0 172.77076963622858 316.07320445858204 0 316.07320445858204 87.494757630869572 0 0 0 0 131.59217760935326 234.21837651047463 0 234.21837651047463 249.62677129579242 0 0 0 0 423.711225151279 470.78129185553553 0 470.78129185553553 405.28305130981607 0 0 0 0 520.92417424764335 155.09733293843055 0 155.09733293843055 207.86679473624099 0 0 0 0 317.88311474379225 298.07050923286442 0 298.07050923286442 -67.010091405900312 0 0 0 0 206.34374817162643 182.74739824729477 0 182.74739824729477 205.98321535534342 0 0 0 0 170.17863088122613 83.458979618080775 0 83.458979618080775 -283.12791433464736 0 0 0 0 141.21555267305689 -195.24506944255063 0 -195.24506944255063 -533.23919896568987 0 0 0 0 82.886496996037749 98.781977431819541 0 98.781977431819541 -145.49573077249443 0 0 0 0 166.92646887846604 234.22777311362734 0 234.22777311362734 -108.68299821211258 0 0 0 0 1.3247018743531953 50.585855409546639 0 50.585855409546639 -157.42233273726379 0 0 0 0 -213.01824257551925 -34.285965776842204 0 -34.285965776842204 -179.49908586040692 0 0 0 0 -177.20982133374309 -223.40286314969126 0 -223.40286314969126 -251.05564039663295 0 0 0 0 -2.6454994054545402 6.9680602898640274 0 6.9680602898640274 -5.2003903769786177 0 0 0 0 113.86353926863376 2.3040893424094975 0 2.3040893424094975 -30.149711444304558 0 0 0 0 4.0988593105524984 -0.14676953582215901 0 -0.14676953582215901 0.15015413440993086 0 0 0 0 39.79608939056925 -417.62193432053755 0 -417.62193432053755 -514.83236450124241 0 0 0 0 399.91138312341172 193.652530776606 0 193.652530776606 -228.97572586464958 0 0 0 0 440.55085788317774 -25.374552758781647 0 -25.374552758781647 -836.60334422275628 0 0 0 0 718.83761579580005 -30.821555352529685 0 -30.821555352529685 247.99953023192938 0 0 0 0 51.448559234639106 334.40618217944575 0 334.40618217944575 105.07408941478934 0 0 0 0 -86.066885273346543 -436.76161319086532 0 -436.76161319086532 82.87835758071742 0 0 0 0 501.23207507960797 -373.69466955105599 0 -373.69466955105599 -907.72433350261417 0 0 0 0 543.51798340898858 -93.827683867792075 0 -93.827683867792075 269.22386493420345 0 0 0 0 362.12001595500169 -497.25809533861684 0 -497.25809533861684 596.86483314898214 0 0 0 0 374.00815813385998 -361.9925036514469 0 -361.9925036514469 361.39462006076064 0 0 0 0 468.49590346171681 -222.67844929747662 0 -222.67844929747662 -50.521005868387874 0 0 0 0 516.21128165412301 -249.01973066329083 0 -249.01973066329083 -81.166352425570949 0 0 0 0 395.70722917270541 27.085331502450572 0 27.085331502450572 -438.70372043980751 0 0 0 0 500.16587821701523 249.57210794444109 0 249.57210794444109 -95.324398335971637 0 0 0 0 596.07856158766663 243.26595385927067 0 243.26595385927067 -741.12560304306317 0 0 0 0 230.99290464586738 69.670194893900771 0 69.670194893900771 -74.80427432252327 0 0 0 0 265.60989395678371 4.8075102487782715 0 4.8075102487782715 -15.688883652230288 0 0 0 0 25.270908629704081 -103.55733462828084 0 -103.55733462828084 -12.135550482402323 0 0 0 0 392.36556354055733 95.297725548720337 0 95.297725548720337 -31.420743873779429 0 0 0 0 367.65164757274943 45.221615160651709 0 45.221615160651709 -32.52345417131437 0 0 0 0 394.60275964938592 79.064055952068884 0 79.064055952068884 -68.467558832431678 0 0 0 0 373.30073347922735 30.940095548736281 0 30.940095548736281 -67.003697400978581 0 0 0 0 55.373333136372821 -222.59690513464739 0 -222.59690513464739 90.936649417240005 0 0 0 0 181.82775695704913 60.338689258864179 0 60.338689258864179 106.91691599080514 0 0 0 0 54.408578402236444 -9.7242179934846433 0 -9.7242179934846433 0.17764000814395864 0 0 0 0 258.78233111424743 -296.96459115799371 0 -296.96459115799371 -185.83704008963832 0 0 0 0 183.45206617230724 -161.19140459354094 0 -161.19140459354094 -358.83785382422502 0 0 0 0 45.605598708958645 -5.6396676188031734 0 -5.6396676188031734 -0.16691004709538859 0 0 0 0 149.61586746004468 44.652530030711205 0 44.652530030711205 -373.39368247155653 0 0 0 0 171.46250975281839 275.61517667529324 0 275.61517667529324 -51.603696649865014 0 0 0 0 3.3782391855357012 3.4940024460131553 0 3.4940024460131553 -2.2474178354640912 0 0 0 0 -46.565405835510319 54.858479690257809 0 54.858479690257809 211.62881649311021 0 0 0 0 375.30165779141225 62.072775194272253 0 62.072775194272253 4.5591256715997588 0 0 0 0 380.96440700914172 90.951467508159112 0 90.951467508159112 2.7949148231564322 0 0 0 0 21.44173521819539 -8.1026260484504746 0 -8.1026260484504746 10.522770902418415 0 0 0 0 13.580337273985249 20.654073787862288 0 20.654073787862288 0.7972246462414887 0 0 0 0 8.1401971456507454 16.181142222078051 0 16.181142222078051 21.922477400425123 0 0 0 0 1.2641631706646876 5.4863652499284257 0 5.4863652499284257 -2.4302148782414861 0 0 0 0 -3.8620255074438319 75.062919057396357 0 75.062919057396357 -265.35649201684282 0 0 0 0 15.123559367419826 -2.9479642593391304 0 -2.9479642593391304 21.04429036674847 0 0 0 0 -65.922575761446865 22.947558294756163 0 22.947558294756163 -57.354734132288286 0 0 0 0 -11.37455792920111 20.615952443643479 0 20.615952443643479 -29.778952748726653 0 0 0 0 45.005579875069913 92.234998436707315 0 92.234998436707315 6.1544979881145991 0 0 0 0 46.212586869132792 24.037555491391686 0 24.037555491391686 -3.7802705924550537 0 0 0 0 -40.10844578495562 2.0275762941309949 0 2.0275762941309949 -7.8545192827659776 0 0 0 0 -27.864707459516012 78.978741740810619 0 78.978741740810619 8.6267636364209466 0 0 0 0 31.105713101029863 -5.3391933741431501 0 -5.3391933741431501 -4.3485955059727761 0 0 0 0 60.112186057533563 275.28223979187169 0 275.28223979187169 -148.96142426480947 0 0 0 0 55.959553230305573 49.131021237270033 0 49.131021237270033 -119.92501261041616 0 0 0 0 -9.9896497026836641 17.387740643333217 0 17.387740643333217 -20.372143443113146 0 0 0 0 54.529472436781361 102.01127283638198 0 102.01127283638198 -107.78056492672476 0 0 0 0 2.0790255245883191 -39.597947440402564 0 -39.597947440402564 36.830533334538828 0 0 0 0 13.940101526303213 37.74366998438164 0 37.74366998438164 19.983038799402948 0 0 0 0 123.96761481017711 -95.374117524319445 0 -95.374117524319445 -267.10481472441461 0 0 0 0 18.769792309806007 21.361129810386046 0 21.361129810386046 170.59823843573758 0 0 0 0 217.09054112752187 155.57254397646466 0 155.57254397646466 72.376236631571373 0 0 0 0 310.51170340136696 -106.95081444020616 0 -106.95081444020616 -349.60865753385588 0 0 0 0 -47.379883261158909 -7.47459107271834 0 -7.47459107271834 -371.71655622245453 0 0 0 0 208.87870235201854 -56.444082356247236 0 -56.444082356247236 -669.32997645074829 0 0 0 0 -27.384570284586516 15.037636135748471 0 15.037636135748471 -231.6867509020376 0 0 0 0 310.00280034127786 311.39599346473699 0 311.39599346473699 -136.35757247867878 0 0 0 0 187.10672570047518 165.46500356383331 0 165.46500356383331 116.97439303372812 0 0 0 0 154.18817105726612 388.41863006454514 0 388.41863006454514 282.49516928011144 0 0 0 0 127.66305967744165 243.80662914577624 0 243.80662914577624 -65.172558297563228 0 0 0 0 35.457047702464479 119.42401831041934 0 119.42401831041934 -114.25163576638442 0 0 0 0 186.0252418034006 142.20627492654603 0 142.20627492654603 -452.02357297490835 0 0 0 0 98.636087515016698 117.12662210057897 0 117.12662210057897 -121.84140213635692 0 0 0 0 -40.70365280466649 102.17366527546255 0 102.17366527546255 -93.3602579288372 0 0 0 0 32.088702840005226 207.81901823876251 0 207.81901823876251 -53.060058651492 0 0 0 0 -76.642171284609503 157.35639953342616 0 157.35639953342616 -72.900736504845554 0 0 0 0 -86.919328282736387 94.231854961471981 0 94.231854961471981 -70.917195815200103 0 0 0 0 38.429078296066336 133.22666261977429 0 133.22666261977429 -98.515951804234646 0 0 0 0 -183.5452332237719 342.00133868003468 0 342.00133868003468 680.80700914211047 0 0 0 0 -226.71990207291174 300.12689315951138 0 300.12689315951138 322.2973146008153 0 0 0 0 -105.13291380749433 58.898855262479628 0 58.898855262479628 55.360388188222714 0 0 0 0 -20.305176244412905 292.91672668312458 0 292.91672668312458 360.11080149919144 0 0 0 0 12.863260621707013 253.07337692726287 0 253.07337692726287 371.46480742761196 0 0 0 0 -95.211330258984162 161.05348274968128 0 161.05348274968128 444.4106862492481 0 0 0 0 -124.01168073853523 291.21600634462447 0 291.21600634462447 704.5955944469315 0 0 0 0 -164.45554123318152 385.94588729923271 0 385.94588729923271 1109.1100774267397 0 0 0 0 -268.70662059086226 348.59610803069518 0 348.59610803069518 1330.4946683552407 0 0 0 0 -264.63954327686588 372.25188764247287 0 372.25188764247287 1326.230423408073 0 0 0 0 -180.90361273196231 403.14998525866395 0 403.14998525866395 1110.677665322597 0 0 0 0 -141.34379221673885 545.71210716187852 0 545.71210716187852 1597.7781786231353 0 0 0 0 -53.569765063684827 281.94693164400815 0 281.94693164400815 590.57139297144022 0 0 0 0 95.460447089976242 395.14802559917734 0 395.14802559917734 610.85328050097451 0 0 0 0 50.585663683210896 410.87663016924671 0 410.87663016924671 938.23957037240325 0 0 0 0 591.15581458645875 607.25905985890859 0 607.25905985890859 393.27991890498743 0 0 0 0 297.81157881738181 535.7081581139646 0 535.7081581139646 964.14921898782086 0 0 0 0 653.9684786225007 1164.3620000063311 0 1164.3620000063311 2072.5056832244663 0 0 0 0 1724.0251636368689 123.45561795959838 0 123.45561795959838 672.74420333385933 0 0 0 0 585.68230334830014 -10.080961643594804 0 -10.080961643594804 133.00032237675623 0 0 0 0 157.50030255885434 173.01597343024332 0 173.01597343024332 671.35199483676843 0 0 0 0 -56.266525445857951 189.19422742532697 0 189.19422742532697 661.21788337200996 0 0 0 0 -38.908680190374071 48.663335458157235 0 48.663335458157235 668.99462090902853 0 0 0 0 -37.261730085816453 173.62783573442721 0 173.62783573442721 706.70841850620855 0 0 0 0 -63.302218608966541 52.307326533809828 0 52.307326533809828 652.79749129913034 0 0 0 0 -127.22948119263583 -54.137184806026198 0 -54.137184806026198 336.71164301801764 0 0 0 0 40.186542932350676 63.447789924288372 0 63.447789924288372 373.2224057042622 0 0 0 0 5.8762210454929118 91.306161140728364 0 91.306161140728364 190.33526312130562 0 0 0 0 -58.903030145505909 40.620059088658309 0 40.620059088658309 189.94392089921166 0 0 0 0 3.2157966294208178 -0.98821477753497788 0 -0.98821477753497788 -0.94804691722498546 0 0 0 0 12.072053392665111 -27.108691107008781 0 -27.108691107008781 357.25337020221923 0 0 0 0 4.7572487111082751 -0.020458261776628461 0 -0.020458261776628461 2.1492923204571639 0 0 0 0 36.115666448067714 -76.656351562203781 0 -76.656351562203781 79.470528213605576 0 0 0 0 202.07844470061991 107.79746143749799 0 107.79746143749799 64.62024505098816 0 0 0 0 -20.556376748703315 -5.2250806702286354 0 -5.2250806702286354 190.29431981127709 0 0 0 0 7.3887659732079927 1.0123489337515039 0 1.0123489337515039 -0.31384907629410463 0 0 0 0 48.571865859392346 48.061962658161065 0 48.061962658161065 -106.95094524428714 0 0 0 0 5.7810351878484223 3.1985524694732703 0 3.1985524694732703 -2.3168557743149449 0 0 0 0 22.28896376765988 63.189453151462658 0 63.189453151462658 -5.6833122806419851 0 0 0 0 40.514620262367316 -60.285317717349244 0 -60.285317717349244 183.59549994082772 0 0 0 0 -7.072749363262119 47.360280492488528 0 47.360280492488528 353.13378188491333 0 0 0 0 22.449680651483504 -23.93348211311968 0 -23.93348211311968 192.17816931300331 0 0 0 0 -42.791496223933791 295.92388430038409 0 295.92388430038409 181.92564133145834 0 0 0 0 25.030433369855018 126.2020737464336 0 126.2020737464336 235.99910313142755 0 0 0 0 -52.135429846814986 172.89421270608727 0 172.89421270608727 624.2801736590045 0 0 0 0 99.872274054292575 168.90320338129823 0 168.90320338129823 563.17895084607881 0 0 0 0 -2.4283763776084015 174.21535502344705 0 174.21535502344705 581.25636053699418 0 0 0 0 171.3181364674802 329.61715673541948 0 329.61715673541948 910.07651940987853 0 0 0 0 -32.930041594470822 275.77979242039873 0 275.77979242039873 889.38138080279168 0 0 0 0 -11.134080297102628 239.46450387647201 0 239.46450387647201 578.47975782578578 0 0 0 0 -185.55503050097877 282.17537825826366 0 282.17537825826366 1049.1617730047146 0 0 0 0 -139.26913970513897 93.11728532433699 0 93.11728532433699 1499.810375004221 0 0 0 0 -187.81751037726008 243.21671580865222 0 243.21671580865222 1075.7371831677083 0 0 0 0 199.93115621701691 143.22014428747207 0 143.22014428747207 954.54744575900986 0 0 0 0 -178.0510996293724 296.64794154245828 0 296.64794154245828 1389.9038168615152 0 0 0 0 81.85636779302763 228.25076519871436 0 228.25076519871436 908.77610574295977 0 0 0 0 -125.46105187071498 9.3317046387237497 0 9.3317046387237497 1028.4259274883079 0 0 0 0 -270.28053509296933 123.84387556221191 0 123.84387556221191 1080.324733983347 0 0 0 0 -153.06507249817719 74.817470677975507 0 74.817470677975507 1112.7600388493665 0 0 0 0 -155.87320451814526 45.049978619788817 0 45.049978619788817 805.93895165933645 0 0 0 0 26.776080698058934 -1.9941838985437244 0 -1.9941838985437244 145.96605776123761 0 0 0 0 55.686178131160887 260.80287954103915 0 260.80287954103915 28.994492461717527 0 0 0 0 -175.59659180946528 -359.72363635822694 0 -359.72363635822694 279.40034599987848 0 0 0 0 -562.90786496589499 -37.828947147165309 0 -37.828947147165309 1478.9471137616129 0 0 0 0 -111.79079390402694 824.71359220728118 0 824.71359220728118 692.52906289860402 0 0 0 0 -532.06648068722097 -394.71909028165828 0 -394.71909028165828 1018.3826985582127 0 0 0 0 -0.036354191634465849 2.4988209310810738 0 2.4988209310810738 9.5838296923934649 0 0 0 0 -300.18134946216924 517.84550721912092 0 517.84550721912092 1595.2176517571097 0 0 0 0 32.211142094586648 327.86794994490629 0 327.86794994490629 844.57232729596581 0 0 0 0 -262.60459914315607 528.73743353539794 0 528.73743353539794 1084.266327077552 0 0 0 0 31.771454875292193 -159.09409408655483 0 -159.09409408655483 261.45039522727893 0 0 0 0 62.716765220440038 418.74157126914815 0 418.74157126914815 650.76885761361336 0 0 0 0 12.615154691060525 173.18942077559859 0 173.18942077559859 -175.58692508163222 0 0 0 0 -712.32150026184308 171.57752128602806 0 171.57752128602806 177.49536600073043 0 0 0 0 -340.42686975697507 -215.95450834035728 0 -215.95450834035728 142.06955310338526 0 0 0 0 -0.22915398212613525 1.2878395053876943 0 1.2878395053876943 5.5696338318078631 0 0 0 0 -62.547329742843431 87.378700018227391 0 87.378700018227391 -29.699886839836836 0 0 0 0 103.46029548037041 9.572483584008296 0 9.572483584008296 -52.336207229633146 0 0 0 0 247.77135111264306 -262.21440188271845 0 -262.21440188271845 -25.778031006630044 0 0 0 0 -199.60650737174274 -112.21543634189948 0 -112.21543634189948 -31.455573204384564 0 0 0 0 -201.62595251919993 -118.14119008673151 0 -118.14119008673151 271.08447223059193 0 0 0 0 -44.632950354530749 33.931626739455169 0 33.931626739455169 52.189592483700835 0 0 0 0 -0.1528318650072249 2.9163321650438903 0 2.9163321650438903 14.029036603057136 0 0 0 0 -278.4311478850027 284.81629185791098 0 284.81629185791098 -5.5547896883654175 0 0 0 0 -572.53624099980493 117.83770405263385 0 117.83770405263385 127.85815539199393 0 0 0 0 -0.31857318243788679 4.2352814272437342 0 4.2352814272437342 18.546390918289205 0 0 0 0 1322.4849736678059 655.03098521427489 0 655.03098521427489 157.58577614519163 0 0 0 0 12.050603028209739 13.009328429164505 0 13.009328429164505 20.099222999032662 0 0 0 0 1285.9888990863683 1551.315769631387 0 1551.315769631387 1261.9215793549374 0 0 0 0 -138.97613750163782 23.493958729828591 0 23.493958729828591 2923.6755669496706 0 0 0 0 -95.060410571924422 220.4876460532214 0 220.4876460532214 1761.2894911291369 0 0 0 0 265.21257149927987 -345.91054517790326 0 -345.91054517790326 -444.38070064414933 0 0 0 0 -158.57606933782063 -381.81520935075241 0 -381.81520935075241 1910.6061534532346 0 0 0 0 342.72065933051999 -713.45826386800036 0 -713.45826386800036 799.10348363588855 0 0 0 0 327.50953076839141 -722.91089464192191 0 -722.91089464192191 2012.7818435183872 0 0 0 0 377.41321173512824 -303.40423220412049 0 -303.40423220412049 -210.80431772346492 0 0 0 0 153.50508011538204 -347.67481259153283 0 -347.67481259153283 832.87435333876056 0 0 0 0 119.31469408355588 -129.45407363562117 0 -129.45407363562117 220.71704880522157 0 0 0 0 -56.113572600443149 -21.273262373506441 0 -21.273262373506441 782.74397388850048 0 0 0 0 -91.256939388329556 -227.99366535102308 0 -227.99366535102308 910.13368589227321 0 0 0 0 -110.74817717395285 -252.11518202572915 0 -252.11518202572915 1032.495684798705 0 0 0 0 -195.5334691888429 146.63689247950242 0 146.63689247950242 1397.7441149223887 0 0 0 0 -216.7396601663113 67.392336513854389 0 67.392336513854389 1617.7291631122403 0 0 0 0 -190.00765211513044 148.66761362726538 0 148.66761362726538 1172.8880894591384 0 0 0 0 -13.288117852240589 154.28839018487179 0 154.28839018487179 917.37083828216419 0 0 0 0 -15.77963140457905 -104.45652324932598 0 -104.45652324932598 722.94789165016846 0 0 0 0 1.4712622612603887 1.929807077973777 0 1.929807077973777 4.3330325443605489 0 0 0 0 171.26524877219936 -103.53519448329826 0 -103.53519448329826 87.778788110430469 0 0 0 0 65.754269821148227 152.67809249877428 0 152.67809249877428 411.13910350071092 0 0 0 0 -138.83953641756716 0.64368835029017646 0 0.64368835029017646 91.33098532409349 0 0 0 0 -67.365454900747864 98.333611483642017 0 98.333611483642017 139.45699113246519 0 0 0 0 -7.6034050229431234 5.3348711778044446 0 5.3348711778044446 48.649427147674714 0 0 0 0 -17.144370385083676 20.892090616034693 0 20.892090616034693 47.067882387214922 0 0 0 0 3.8598558599836146 23.649637804156697 0 23.649637804156697 26.56902642790277 0 0 0 0 17.345146957975885 -56.426175426327973 0 -56.426175426327973 -126.56138025609107 0 0 0 0 -22.005513977629562 15.693213801656384 0 15.693213801656384 63.879649687296478 0 0 0 0 -560.26378692947083 -142.16365108884929 0 -142.16365108884929 385.14249907088708 0 0 0 0 -26.276967251963669 20.064701902903678 0 20.064701902903678 62.092674312503476 0 0 0 0 -17.479935616173293 10.000176043765336 0 10.000176043765336 53.887545210182651 0 0 0 0 -9.8033110374282835 -8.9479387768220562 0 -8.9479387768220562 35.725956987592099 0 0 0 0 -711.65066849858067 839.83463048800331 0 839.83463048800331 381.40839356896367 0 0 0 0 -104.30641387205924 38.047986783822125 0 38.047986783822125 6.1988349484745413 0 0 0 0 -29.577723531045194 279.02020269268542 0 279.02020269268542 23.16691275863559 0 0 0 0 97.802529367025272 24.347778048919281 0 24.347778048919281 -73.689219709842291 0 0 0 0 56.694247833230975 194.73422350792316 0 194.73422350792316 158.10965172527358 0 0 0 0 41.848196405921044 53.031315028914833 0 53.031315028914833 334.98991576262779 0 0 0 0 20.468428115955291 40.396321274467091 0 40.396321274467091 45.781881212490248 0 0 0 0 -5.6606119054621402 3.68062445466866 0 3.68062445466866 1.9140171822166394 0 0 0 0 -95.487237633695258 130.47824006809242 0 130.47824006809242 79.784171817969764 0 0 0 0 -565.31075518172293 113.21548822710611 0 113.21548822710611 400.86384104110766 0 0 0 0 250.4999635580316 189.61625583852583 0 189.61625583852583 -192.36384212542362 0 0 0 0 -54.893188446246128 20.840408263443493 0 20.840408263443493 6.7948339817804211 0 0 0 0 -10.875367938842828 37.247122863671393 0 37.247122863671393 36.205657191489081 0 0 0 0 94.660789025600025 -136.48414661631159 0 -136.48414661631159 159.98216762786251 0 0 0 0 47.217427797588698 -39.819207773507515 0 -39.819207773507515 135.56197854354832 0 0 0 0 -68.452233322814436 57.3784877905955 0 57.3784877905955 218.83700620567106 0 0 0 0 962.97591565046741 162.61706238283659 0 162.61706238283659 -83.613495896541281 0 0 0 0 -86.552068994205001 122.77467888348292 0 122.77467888348292 197.62544647404138 0 0 0 0 -90.27044849962391 101.87589697444537 0 101.87589697444537 103.12091249612422 0 0 0 0 -125.31057631903604 98.662809273653693 0 98.662809273653693 126.02706440448264 0 0 0 0 -154.13040220137535 26.769604535396866 0 26.769604535396866 12.937620075041195 0 0 0 0 -127.62861749515355 104.06561952768971 0 104.06561952768971 168.53812107946578 0 0 0 0 0.67759559916082346 -4.5194178212261527 0 -4.5194178212261527 10.419123149964349 0 0 0 0 110.34040098060018 -192.22889404612761 0 -192.22889404612761 99.058649767597672 0 0 0 0 -1.1846284615917959 -9.8247322111565722 0 -9.8247322111565722 67.477444074671752 0 0 0 0 -8.100829626873292 -41.046020160676562 0 -41.046020160676562 87.790816161985276 0 0 0 0 -114.71476290767731 104.72808070705287 0 104.72808070705287 87.049117232934805 0 0 0 0 -43.831711175313103 27.662315726629458 0 27.662315726629458 5.4921141290105879 0 0 0 0 -63.497668999122709 54.705289615772926 0 54.705289615772926 -9.9334137362384354 0 0 0 0 -4.8040272811740579 67.871008740257821 0 67.871008740257821 -37.240712936996715 0 0 0 0 -1.5353023829047956 -2.5731145589128701 0 -2.5731145589128701 5.3865995256610404 0 0 0 0 -11.758098480737317 -51.11201898798754 0 -51.11201898798754 120.40861308947206 0 0 0 0 28.374149416784348 37.00250293197314 0 37.00250293197314 48.124361292022513 0 0 0 0 -7.0330285723795152 6.8998758377961025 0 6.8998758377961025 49.495281852461204 0 0 0 0 -22.645715987613237 64.703787127290354 0 64.703787127290354 39.138514597888758 0 0 0 0 1.6334299359304074 -13.262782799075246 0 -13.262782799075246 56.310573143438234 0 0 0 0 8.0383948373341809 -81.787965888353938 0 -81.787965888353938 122.86071167193586 0 0 0 0 -6.1614661165449434 0.98467430014352431 0 0.98467430014352431 70.458706942154095 0 0 0 0 -20.106458181352536 -4.3922115338937147 0 -4.3922115338937147 106.98287513926334 0 0 0 0 -17.131073072164327 6.1640130611194763 0 6.1640130611194763 70.929897880665521 0 0 0 0 -18.261655138790957 -18.537441460335685 0 -18.537441460335685 40.048744512096164 0 0 0 0 -1.2725396229445796 -7.1153188866784447 0 -7.1153188866784447 52.135424475750966 0 0 0 0 -27.872218336319975 -0.31750164418190252 0 -0.31750164418190252 31.975041124722338 0 0 0 0 -2.4010509246150287 -8.8130996720389732 0 -8.8130996720389732 39.648435860711487 0 0 0 0 -92.908067993941586 -28.614531489780347 0 -28.614531489780347 96.862776382091397 0 0 0 0 49.933524654075654 -41.319327047925981 0 -41.319327047925981 22.897880755743245 0 0 0 0 30.9625423369489 -4.3240646535414271 0 -4.3240646535414271 -23.988607820188918 0 0 0 0 -38.387579312078287 15.76113828142843 0 15.76113828142843 51.45288683650142 0 0 0 0 -260.6136892694044 -80.152253611524429 0 -80.152253611524429 124.59701675671022 0 0 0 0 -36.741034138457508 1.431998410858796 0 1.431998410858796 74.366184570259065 0 0 0 0 -2.4718641851758156 -13.728669414741894 0 -13.728669414741894 41.266028993107966 0 0 0 0 -48.934556019099546 -48.612372557343406 0 -48.612372557343406 54.35662173977471 0 0 0 0 -1.4130999194060301 -5.6956808391425859 0 -5.6956808391425859 52.803008754988412 0 0 0 0 -240.36581367149461 -32.021950698679575 0 -32.021950698679575 185.02483151602064 0 0 0 0 -95.457611086511406 -27.505065548082712 0 -27.505065548082712 48.652795289599453 0 0 0 0 -47.300216416851072 -160.49166558941488 0 -160.49166558941488 394.60459826883016 0 0 0 0 2.5488036385218038 -178.26383108142181 0 -178.26383108142181 109.07872160800616 0 0 0 0 0.16705626912447524 1.2192873674716296 0 1.2192873674716296 5.0469889604349873 0 0 0 0 -67.189520008234922 196.41979964432358 0 196.41979964432358 -18.434043384506367 0 0 0 0 0.3233918008791079 154.11365726451913 0 154.11365726451913 -75.698187101701478 0 0 0 0 -361.31716918185884 -21.745154005318909 0 -21.745154005318909 84.512781487719622 0 0 0 0 -99.758041683341617 -89.665132426453056 0 -89.665132426453056 49.47183626628248 0 0 0 0 56.791509765089359 101.51683592211339 0 101.51683592211339 48.715969248776673 0 0 0 0 -1.5889750297910901 2.2271660452554514 0 2.2271660452554514 5.9946777450092554 0 0 0 0 -4.2918638494315928 -77.027722489536245 0 -77.027722489536245 32.485195946246677 0 0 0 0 -25.039069418515282 -61.888574261474787 0 -61.888574261474787 8.8439958984090481 0 0 0 0 -262.10831266168225 -21.630385487926105 0 -21.630385487926105 48.626828695152653 0 0 0 0 -0.78134965395497247 -5.1796803025490448 0 -5.1796803025490448 7.2912219984787896 0 0 0 0 -190.55287232857199 -163.228316701945 0 -163.228316701945 140.76882654678775 0 0 0 0 -122.19979625530652 -20.08936471934885 0 -20.08936471934885 -33.159055230164086 0 0 0 0 -249.81765718856332 29.872207514770707 0 29.872207514770707 159.70353758163401 0 0 0 0 -186.80827037727158 -87.073073485255009 0 -87.073073485255009 61.98949196805188 0 0 0 0 -120.64573223911498 -17.82701879830438 0 -17.82701879830438 93.754570163684548 0 0 0 0 -132.4807246720593 11.536753820160811 0 11.536753820160811 100.62016715284699 0 0 0 0 -83.456728672177633 46.070495238262083 0 46.070495238262083 34.333768401964335 0 0 0 0 -85.99553936506436 43.106440225026745 0 43.106440225026745 119.64690110467927 0 0 0 0 -123.44227818118543 -36.041076365690969 0 -36.041076365690969 360.64272611013439 0 0 0 0 49.012939649647251 159.07003391655235 0 159.07003391655235 129.97014642280556 0 0 0 0 -432.62103341790316 -14.77084968584677 0 -14.77084968584677 400.20811001828406 0 0 0 0 123.83784385682588 -26.039730087677526 0 -26.039730087677526 -157.12920717227098 0 0 0 0 -284.20110354189819 -171.00676338370977 0 -171.00676338370977 43.971721178833832 0 0 0 0 211.11878497623184 83.560105779673904 0 83.560105779673904 58.862201747466315 0 0 0 0 61.852802910965693 93.013580996383098 0 93.013580996383098 115.76980396467479 0 0 0 0 89.456160207914763 174.3207954512618 0 174.3207954512618 197.22422488310258 0 0 0 0 133.77642971548858 87.841043424115924 0 87.841043424115924 68.487080542290641 0 0 0 0 -1.3704397542609046 2.5030968542556522 0 2.5030968542556522 8.2072252426622754 0 0 0 0 100.68047488494039 45.835251135828003 0 45.835251135828003 16.583676941576414 0 0 0 0 93.288845053681086 100.71949051466891 0 100.71949051466891 65.847351916279877 0 0 0 0 -1.4819957555743333 3.4941002845608367 0 3.4941002845608367 8.0600490928443378 0 0 0 0 28.481950963396685 49.343668746809271 0 49.343668746809271 41.406637549844163 0 0 0 0 70.371579360271426 77.154204336395196 0 77.154204336395196 83.902286972515867 0 0 0 0 115.25217897341008 20.108952405229502 0 20.108952405229502 96.480025064833171 0 0 0 0 93.330398355515172 61.199458171948208 0 61.199458171948208 17.779691533534788 0 0 0 0 95.84271470778549 81.43069402639594 0 81.43069402639594 66.260044069276773 0 0 0 0 101.03647607782932 101.06212298716855 0 101.06212298716855 74.151808439886736 0 0 0 0 87.872549813625483 83.106492903003527 0 83.106492903003527 71.33369990564097 0 0 0 0 -80.564276585030825 -71.664799889091228 0 -71.664799889091228 31.038063505271566 0 0 0 0 -19.558330130288162 -3.2568240219156337 0 -3.2568240219156337 42.154304840688553 0 0 0 0 93.084086537026451 80.739199856292544 0 80.739199856292544 107.19077004823339 0 0 0 0 -72.055458447147657 -86.054630638249364 0 -86.054630638249364 65.004061610714416 0 0 0 0 -19.335701576540043 -3.4774862681475014 0 -3.4774862681475014 44.66097550379817 0 0 0 0 -16.751641378180921 -31.02166485125781 0 -31.02166485125781 -3.2006400188038242 0 0 0 0 -31.948566586709603 35.221478844265221 0 35.221478844265221 56.518962002221087 0 0 0 0 16.744400973177278 101.73408317017311 0 101.73408317017311 137.1828848493698 0 0 0 0 -17.325167886682266 1.7261650849686703 0 1.7261650849686703 136.91974991877021 0 0 0 0 18.591778636266227 33.11016615499102 0 33.11016615499102 139.69613727822434 0 0 0 0 8.6138198499082819 -67.707408517511794 0 -67.707408517511794 134.94287926430115 0 0 0 0 8.587669254757941 -13.393909347047156 0 -13.393909347047156 25.189486236165976 0 0 0 0 -6.7675606637351962 -43.671517875351128 0 -43.671517875351128 52.679660439065628 0 0 0 0 -10.190457482860552 29.825160993619647 0 29.825160993619647 79.253135757113341 0 0 0 0 -0.1041640609526476 46.495907885255292 0 46.495907885255292 231.52491738008393 0 0 0 0 -8.3363193273773959 4.324769030616153 0 4.324769030616153 352.18768443052249 0 0 0 0 129.97799152754908 178.44314871770621 0 178.44314871770621 331.91002545763331 0 0 0 0 -64.647745344850335 98.902244938501099 0 98.902244938501099 393.92734772097901 0 0 0 0 -20.175684801961339 -13.718075407872675 0 -13.718075407872675 376.81797219970031 0 0 0 0 56.40473183527574 175.33989301707334 0 175.33989301707334 289.05091734110101 0 0 0 0 68.396547916905035 -65.288443539910077 0 -65.288443539910077 -39.000929565736442 0 0 0 0 -27.637874573291356 -108.73621938571159 0 -108.73621938571159 180.95825255115051 0 0 0 0 159.84277531622462 -17.939790193675435 0 -17.939790193675435 199.59903790758108 0 0 0 0 9.7078448656174601 85.6373668545275 0 85.6373668545275 279.00242180196801 0 0 0 0 22.281437879734948 22.5496048523637 0 22.5496048523637 20.714002184686251 0 0 0 0 0.094924803518070047 14.289835165553086 0 14.289835165553086 69.785043741605477 0 0 0 0 0.12805730033860888 0.30779503956814835 0 0.30779503956814835 0.626793527434927 0 0 0 0 23.854283679421449 -13.259647629427491 0 -13.259647629427491 -5.8651225096837152 0 0 0 0 47.244135963856039 145.7682512714091 0 145.7682512714091 386.21231160203024 0 0 0 0 21.910651064247944 9.008297906970256 0 9.008297906970256 -19.20573631786101 0 0 0 0 0.40214824926354709 9.3467857116702362 0 9.3467857116702362 -28.158563910386874 0 0 0 0 -0.16246096952965691 0.038627745314329331 0 0.038627745314329331 -0.026052678356265346 0 0 0 0 44.08379557911362 7.1954471204371657 0 7.1954471204371657 -20.442550724459579 0 0 0 0 -6.7133194036865049 -7.0008947016031016 0 -7.0008947016031016 -5.613539516707533 0 0 0 0 -8.3173997026144946 -3.8312599186119769 0 -3.8312599186119769 -4.5914736610284308 0 0 0 0 0.85483630422869394 0.66479487107284285 0 0.66479487107284285 -0.14800843415531517 0 0 0 0 11.962152057385381 17.17322763903212 0 17.17322763903212 -31.061917110107061 0 0 0 0 -0.23946939278750917 -0.34067222387901097 0 -0.34067222387901097 -0.90028558144643966 0 0 0 0 -9.6024255156160336 5.6682417767879087 0 5.6682417767879087 7.9412210409936961 0 0 0 0 -0.93930674927869084 17.210139011224783 0 17.210139011224783 -10.005245963518973 0 0 0 0 -0.011729269679584289 20.251435050933651 0 20.251435050933651 1.834343317852472 0 0 0 0 -51.582712999814788 -3.8520491901526839 0 -3.8520491901526839 17.413647640642012 0 0 0 0 3.5303548160340483 -39.413075943739386 0 -39.413075943739386 -9.902255134205916 0 0 0 0 26.540844008807412 -34.27438111090305 0 -34.27438111090305 11.44110987825843 0 0 0 0 -2.1493877560292276 -24.905628860971774 0 -24.905628860971774 12.233635826894897 0 0 0 0 -24.24484685808801 -8.2726334344843053 0 -8.2726334344843053 -5.527003352290194 0 0 0 0 -2.8063235714728751 -2.2428696751823907 0 -2.2428696751823907 3.7843612798953927 0 0 0 0 -11.452774380512182 10.873179081041599 0 10.873179081041599 19.030699937691679 0 0 0 0 0.012906246524758358 0.010581874756184106 0 0.010581874756184106 0.95113146121286718 0 0 0 0 116.9054842965952 5.6375470804414363 0 5.6375470804414363 119.92547449772246 0 0 0 0 -16.437334723465337 0.9744108673707359 0 0.9744108673707359 41.888318125683099 0 0 0 0 -29.348333992552966 -47.038805227071862 0 -47.038805227071862 7.8528459370718338 0 0 0 0 86.477175733142076 88.148025339126434 0 88.148025339126434 20.747455062955851 0 0 0 0 113.26532952689968 -8.8768948285060105 0 -8.8768948285060105 22.72564348000742 0 0 0 0 3.4231800580240908 5.2403802053173223 0 5.2403802053173223 1.836827906058204 0 0 0 0 10.09716724065931 24.478186431055065 0 24.478186431055065 41.443975704381444 0 0 0 0 16.817472663803386 44.42880243693071 0 44.42880243693071 53.795102456482709 0 0 0 0 -18.337099117595656 4.5234939395668334 0 4.5234939395668334 19.148442535151844 0 0 0 0 1.3844063254169585 3.8713764041396388 0 3.8713764041396388 5.1865620370728038 0 0 0 0 -0.47782515569538475 14.024055060891158 0 14.024055060891158 42.035932294312772 0 0 0 0 -8.5121580574287634 25.406674425692472 0 25.406674425692472 58.533681945621538 0 0 0 0 -36.176623214059873 0.83625099425989902 0 0.83625099425989902 59.870265523524722 0 0 0 0 -4.7123957233829152 -2.1968853337962742 0 -2.1968853337962742 7.0734990044260826 0 0 0 0 -7.7252106199200838 8.4795825281908037 0 8.4795825281908037 19.02458315390686 0 0 0 0 -17.102154706991485 12.351580843576812 0 12.351580843576812 47.174991405714536 0 0 0 0 -5.2250278665383263 18.826785652447143 0 18.826785652447143 19.791023793426575 0 0 0 0 -1.1269648088170641 30.191293335818045 0 30.191293335818045 49.683430456745555 0 0 0 0 -0.0011390310326097469 25.088582656066137 0 25.088582656066137 37.011754075152567 0 0 0 0 -8.7374080927716449 20.963520236284239 0 20.963520236284239 55.050199133504066 0 0 0 0 8.7795148495338964 20.646882703906158 0 20.646882703906158 53.997152454525349 0 0 0 0 -0.98225390836284632 13.849923190965455 0 13.849923190965455 50.039458738552639 0 0 0 0 -0.53138597915219865 7.8747547028847293 0 7.8747547028847293 83.097654227720341 0 0 0 0 0.003577505684027274 26.064268968303292 0 26.064268968303292 81.414738113351632 0 0 0 0 -1.1617920716582208 -1.2840237215360162 0 -1.2840237215360162 0.3468401734979274 0 0 0 0 -9.2953806266671606 13.690532702210476 0 13.690532702210476 110.76951749969157 0 0 0 0 79.760107235906617 -69.90309472662193 0 -69.90309472662193 24.766287214319163 0 0 0 0 59.84668019354649 29.352292905343347 0 29.352292905343347 -9.8217085602082079 0 0 0 0 1.1057092427213107 28.047150421238257 0 28.047150421238257 47.686992427814403 0 0 0 0 -8.1399055507994262 8.0109106098097982 0 8.0109106098097982 45.7779130233248 0 0 0 0 -13.565921630478698 13.217937107183388 0 13.217937107183388 60.482904564943965 0 0 0 0 -2.976542877122645 12.3890706832583 0 12.3890706832583 36.180187297343593 0 0 0 0 -73.886847360663751 24.605162371456572 0 24.605162371456572 123.37519224623975 0 0 0 0 -20.401637140867905 7.1214177828796892 0 7.1214177828796892 55.792381555016618 0 0 0 0 -30.736138033413226 90.559471795975696 0 90.559471795975696 -44.896779345546747 0 0 0 0 -44.195585063967883 12.817501979741792 0 12.817501979741792 235.48980009851221 0 0 0 0 253.79028040051435 -65.308532721763186 0 -65.308532721763186 90.276272426694049 0 0 0 0 74.627175472114686 -26.523472189350286 0 -26.523472189350286 120.98735170495638 0 0 0 0 189.29367374378853 -90.605420406922349 0 -90.605420406922349 32.576748640800361 0 0 0 0 233.22896715810884 -15.508078442038823 0 -15.508078442038823 -11.623670076747658 0 0 0 0 173.82945697078321 47.979382805009664 0 47.979382805009664 54.27488969911974 0 0 0 0 404.74692948006577 -1.8803234313527355 0 -1.8803234313527355 61.139880991511745 0 0 0 0 215.64936695740585 41.799392134069421 0 41.799392134069421 399.59898457660165 0 0 0 0 890.47069660148827 521.79105284126854 0 521.79105284126854 227.69993716516183 0 0 0 0 246.99473553539929 604.46135485128616 0 604.46135485128616 953.25330267570098 0 0 0 0 -47.827729361093589 253.87125611258671 0 253.87125611258671 821.27076287762247 0 0 0 0 -0.37578113411764935 1.3410668956836815 0 1.3410668956836815 3.4194919599824516 0 0 0 0 478.28536708381398 442.37265225643569 0 442.37265225643569 523.63091462573357 0 0 0 0 -325.58307321778375 -121.61359263001577 0 -121.61359263001577 321.37779743097781 0 0 0 0 145.71595535587016 7.7173081086766615 0 7.7173081086766615 -2.2705769737367518 0 0 0 0 86.019725905558516 155.94480299402494 0 155.94480299402494 -109.81550304035045 0 0 0 0 255.67550128564108 149.82362963845662 0 149.82362963845662 -75.949877171678963 0 0 0 0 -129.77035994036305 48.784057298849802 0 48.784057298849802 44.359724427893525 0 0 0 0 -1.0891307884615817 2.9115189328929674 0 2.9115189328929674 6.9451738294106349 0 0 0 0 49.310191392296474 34.228943250782322 0 34.228943250782322 -15.10905611950875 0 0 0 0 42.501080744178466 74.135757457337604 0 74.135757457337604 27.488786282861838 0 0 0 0 110.19904451083494 43.69072283810965 0 43.69072283810965 -4.1686649813273107 0 0 0 0 130.02603216047919 73.56148201380347 0 73.56148201380347 -64.457321128204057 0 0 0 0 142.20664974775173 20.319376715662656 0 20.319376715662656 11.959272595049697 0 0 0 0 156.34656135148589 10.517263391406232 0 10.517263391406232 -20.058983651630115 0 0 0 0 142.83733027488961 -2.9405864808650222 0 -2.9405864808650222 19.54229783399569 0 0 0 0 150.58837347131976 -10.630213926240685 0 -10.630213926240685 23.193329797417391 0 0 0 0 96.134432640021714 -26.251175327053716 0 -26.251175327053716 20.863006947445683 0 0 0 0 21.318939863147541 3.0613172345626722 0 3.0613172345626722 1.4386752056855154 0 0 0 0 66.450714041642641 -94.132883260794188 0 -94.132883260794188 346.51326310007789 0 0 0 0 1642.5076246173994 -289.64553138460906 0 -289.64553138460906 788.58764580148272 0 0 0 0 55.321674893071759 -59.219621754524269 0 -59.219621754524269 375.88198078323694 0 0 0 0 24.926123531731719 -37.474000702881312 0 -37.474000702881312 475.42378238177071 0 0 0 0 36.891849856670888 -132.20056139255757 0 -132.20056139255757 466.04420670385798 0 0 0 0 37.317896288324846 -129.05921471104375 0 -129.05921471104375 452.67384812943419 0 0 0 0 -1056.3958201807764 -2168.8381309642064 0 -2168.8381309642064 1728.653604712059 0 0 0 0 -278.38033265073318 102.6281327826091 0 102.6281327826091 222.63517848832453 0 0 0 0 -10.911075031615383 -74.806171033400915 0 -74.806171033400915 733.24098333155234 0 0 0 0 1.4732036451059685 -151.6160386876436 0 -151.6160386876436 658.20862012257567 0 0 0 0 20.555629012981022 5.2519897553905466 0 5.2519897553905466 1.2564435416260304 0 0 0 0 20.878751600936084 -45.810638961745099 0 -45.810638961745099 532.00029870699655 0 0 0 0 37.264884542182699 -149.51455948922376 0 -149.51455948922376 567.95168161426773 0 0 0 0 40.026677474745156 -154.57434332734374 0 -154.57434332734374 537.00786332286225 0 0 0 0 37.249615474993334 -172.68591418763754 0 -172.68591418763754 561.49120275389578 0 0 0 0 0.64049700309624313 -200.60200479862033 0 -200.60200479862033 583.99904496919771 0 0 0 0 25.606127279729662 -145.14694678868273 0 -145.14694678868273 650.94380966273457 0 0 0 0 41.173732636420027 -220.72917191628585 0 -220.72917191628585 590.13389456867844 0 0 0 0 52.345408318882619 -207.66306245871237 0 -207.66306245871237 515.59293247908499 0 0 0 0 52.294746036859578 -203.77458548275172 0 -203.77458548275172 539.72327889930602 0 0 0 0 52.434029040276073 -191.56057013049212 0 -191.56057013049212 520.43387615848769 0 0 0 0 31.969251102567796 -167.2238346306367 0 -167.2238346306367 524.14601256410606 0 0 0 0 54.634085445992241 -179.69332973700148 0 -179.69332973700148 514.30329647963117 0 0 0 0 39.965189295324308 -175.12871414386063 0 -175.12871414386063 526.55775187288236 0 0 0 0 29.42640486005439 -126.16449940976054 0 -126.16449940976054 502.76388418918214 0 0 0 0 24.684860493889573 -116.7796754796118 0 -116.7796754796118 480.82036081859405 0 0 0 0 55.547493151256276 -164.05303439919408 0 -164.05303439919408 470.89184020162065 0 0 0 0 35.621009441970727 -116.96156026293602 0 -116.96156026293602 457.15749650945509 0 0 0 0 -13.02237369627619 -130.07191632248214 0 -130.07191632248214 453.62857945617361 0 0 0 0 161.48105026419216 -184.59751526574473 0 -184.59751526574473 357.73177550305263 0 0 0 0 3.4823377485718083 -131.5391022149779 0 -131.5391022149779 363.92614687082096 0 0 0 0 71.723490435685562 -51.875232535002851 0 -51.875232535002851 150.47561331454745 0 0 0 0 3.5784857679988278 1.4983230559038105 0 1.4983230559038105 -2.0556152628535389 0 0 0 0 38.249135319138531 -133.03496976655151 0 -133.03496976655151 378.11587955278083 0 0 0 0 144.79024768993986 571.54671076646264 0 571.54671076646264 882.0343267748035 0 0 0 0 -19.11378088554784 -46.344876586580995 0 -46.344876586580995 473.82612957961101 0 0 0 0 84.010968635751851 30.154801798084009 0 30.154801798084009 208.2329720705784 0 0 0 0 77.535685765731614 227.67467799476253 0 227.67467799476253 490.77360339996972 0 0 0 0 -60.047586565560778 -85.215958630897148 0 -85.215958630897148 103.41793835393764 0 0 0 0 21.998866272905069 -24.501321993955784 0 -24.501321993955784 31.666050892010738 0 0 0 0 104.57717945228978 160.98419658893181 0 160.98419658893181 447.13480740989326 0 0 0 0 2.5200434810494059 1.7452589550153164 0 1.7452589550153164 -4.0489013972771772 0 0 0 0 -22.001487869863922 34.986376623963224 0 34.986376623963224 -27.73783667762109 0 0 0 0 -96.067284493228726 -39.232952685780219 0 -39.232952685780219 117.55184185647158 0 0 0 0 36.214724973640841 -62.106880115316017 0 -62.106880115316017 123.87849305099053 0 0 0 0 3.5206633018715365 -119.56658001796404 0 -119.56658001796404 129.5332150767681 0 0 0 0 275.04834532488167 -142.56368282004041 0 -142.56368282004041 -33.980167001776863 0 0 0 0 12.652479688747547 -6.8684595261900547 0 -6.8684595261900547 3.6964872260912642 0 0 0 0 -55.931844790473406 -263.99937663624951 0 -263.99937663624951 55.038553955841053 0 0 0 0 602.98927157198705 -545.67834633786333 0 -545.67834633786333 115.45698490547511 0 0 0 0 -147.31684923172725 -92.299935923583689 0 -92.299935923583689 204.20721564124324 0 0 0 0 -945.27693133758294 -100.26353766898438 0 -100.26353766898438 524.28278105990466 0 0 0 0 -74.009013500497531 -223.10694350812264 0 -223.10694350812264 430.70513944483446 0 0 0 0 -57.376132476452767 -93.013413914639386 0 -93.013413914639386 195.79419619025612 0 0 0 0 -57.402848009201989 -95.262887140204839 0 -95.262887140204839 150.42341614675388 0 0 0 0 53.240590314963811 -117.05176270694074 0 -117.05176270694074 140.33853484033511 0 0 0 0 52.756878347665406 -109.19011215794308 0 -109.19011215794308 29.101887512069425 0 0 0 0 2.6817843949263107 -15.571193828224224 0 -15.571193828224224 211.01162430229851 0 0 0 0 30.867198080502021 -70.69080510801723 0 -70.69080510801723 145.73631818677859 0 0 0 0 46.129871408168583 -64.981329212503624 0 -64.981329212503624 122.35423002739208 0 0 0 0 13.193271320722488 14.28545245198984 0 14.28545245198984 212.47235951472248 0 0 0 0 -8.2962494908489361 -35.600851135964376 0 -35.600851135964376 33.633631128835987 0 0 0 0 9.9811277252538275 -45.592379106225053 0 -45.592379106225053 38.07333171234859 0 0 0 0 2.540457502992183 -49.022077463663663 0 -49.022077463663663 39.05949183768098 0 0 0 0 2.5984786303490637 -49.388874136800951 0 -49.388874136800951 35.421201918864426 0 0 0 0 -3.3587570578583836 -58.164323874416368 0 -58.164323874416368 42.70177785832675 0 0 0 0 7.9058041109419719 -33.562050595237451 0 -33.562050595237451 108.74015523148046 0 0 0 0 -9.19666375179645 -62.842511203382855 0 -62.842511203382855 89.790624000113894 0 0 0 0 -6.8831449734834678 -34.652105011373351 0 -34.652105011373351 98.937958661526864 0 0 0 0 3.1141892393898161 -30.128518978128341 0 -30.128518978128341 95.572522620157542 0 0 0 0 -20.876139290521451 -36.260441273419929 0 -36.260441273419929 100.73307965629283 0 0 0 0 -8.4705206594326228 -29.183166089198494 0 -29.183166089198494 98.998140729978331 0 0 0 0 -31.58073843569764 -16.884820566172039 0 -16.884820566172039 79.439687647263781 0 0 0 0 -20.632068130813167 -30.507288880566193 0 -30.507288880566193 76.654601968533825 0 0 0 0 -6.5127908733692266 -46.135880415900829 0 -46.135880415900829 77.922583544401277 0 0 0 0 -20.384078775609964 -28.397987456559349 0 -28.397987456559349 83.929052902116382 0 0 0 0 -31.195394303987086 -20.072703151015958 0 -20.072703151015958 98.404902435835538 0 0 0 0 -24.109226935664537 -17.941919429505106 0 -17.941919429505106 61.851287582518125 0 0 0 0 198.63166968302721 -74.047270152466808 0 -74.047270152466808 972.19661034732962 0 0 0 0 -9.9142323522788018 3.7454735303514894 0 3.7454735303514894 8.4065315422645153 0 0 0 0 -24.976260665425798 -28.415644285569215 0 -28.415644285569215 105.86914935814093 0 0 0 0 -118.45911513550345 -206.60381044905262 0 -206.60381044905262 1578.1801599590326 0 0 0 0 104.52572632058946 -202.76259064567421 0 -202.76259064567421 1397.6014957918014 0 0 0 0 -28.348811727873908 -99.63401146308388 0 -99.63401146308388 1329.987787447506 0 0 0 0 56.407459663615555 37.875984542504739 0 37.875984542504739 1930.1992386302736 0 0 0 0 140.84497747056594 -33.22524372296175 0 -33.22524372296175 1498.6817893717271 0 0 0 0 -483.68119096819191 477.27893437797502 0 477.27893437797502 1681.9333331974267 0 0 0 0 291.74189587221645 -552.09563117843027 0 -552.09563117843027 2207.9043461694382 0 0 0 0 -0.34258515601219486 -4.2459180374468843 0 -4.2459180374468843 3.0931829856651092 0 0 0 0 -316.31227843211673 -86.089073520917736 0 -86.089073520917736 1573.9273397931574 0 0 0 0 -89.744214907466812 -228.67269589717762 0 -228.67269589717762 1592.8654007407895 0 0 0 0 -97.222895372597122 -172.8177370837293 0 -172.8177370837293 1356.5679753263357 0 0 0 0 -387.84009667583632 23.664750396263116 0 23.664750396263116 1431.9328815528061 0 0 0 0 256.02347378218838 -333.27099271699808 0 -333.27099271699808 1087.2228119658175 0 0 0 0 866.20113179527743 -791.8882034666749 0 -791.8882034666749 1423.0059157429805 0 0 0 0 -360.50575038697571 -150.40726578036993 0 -150.40726578036993 1650.3421290008355 0 0 0 0 -380.70863568724644 256.4843647016969 0 256.4843647016969 1767.3337360031182 0 0 0 0 -0.63194406138953463 -0.57341686358804544 0 -0.57341686358804544 13.114303680977443 0 0 0 0 -501.88820400468376 244.28137884371063 0 244.28137884371063 828.55996950538974 0 0 0 0 529.45200694773439 -676.35859687292032 0 -676.35859687292032 736.68619429801765 0 0 0 0 -483.7575720774787 432.46759336426862 0 432.46759336426862 177.2809003151051 0 0 0 0 -3.1398642883914363 -609.32649819471771 0 -609.32649819471771 1771.8319699182066 0 0 0 0 416.81780563089342 -367.46135355584374 0 -367.46135355584374 136.25396619628737 0 0 0 0 -218.76310393538733 303.34598043864753 0 303.34598043864753 50.433130726676609 0 0 0 0 -212.40238729309829 198.95807051225438 0 198.95807051225438 490.13599496813549 0 0 0 0 -25.946516186781082 52.939276735814929 0 52.939276735814929 76.953789130508085 0 0 0 0 -465.42631127869936 101.19627017850326 0 101.19627017850326 1370.3822443233366 0 0 0 0 -156.10244411064195 -68.024061250511295 0 -68.024061250511295 1175.4529730800277 0 0 0 0 -26.752354463475058 -43.89383217584691 0 -43.89383217584691 772.77674643444334 0 0 0 0 -214.54340036997382 81.092331892046786 0 81.092331892046786 1098.5704014944931 0 0 0 0 -202.78159679195778 128.18018790659335 0 128.18018790659335 790.89794457166863 0 0 0 0 -173.39842205432433 18.497466001485009 0 18.497466001485009 736.38443663805811 0 0 0 0 -65.634261757359127 39.357932537164743 0 39.357932537164743 472.38293193442951 0 0 0 0 -25.121015973611065 34.607524267259578 0 34.607524267259578 472.38148820740753 0 0 0 0 -61.287549350727204 -18.246591388102388 0 -18.246591388102388 767.35379263242794 0 0 0 0 28.769528890942638 -69.260788060437335 0 -69.260788060437335 784.54523048167175 0 0 0 0 54.357912798803227 -43.807700827950612 0 -43.807700827950612 504.9165530351529 0 0 0 0 33.820627123928716 -120.37971614849812 0 -120.37971614849812 499.63356408703748 0 0 0 0 72.569347763321275 -104.11912450243835 0 -104.11912450243835 531.0126202343672 0 0 0 0 134.48823547219399 -97.463653513219469 0 -97.463653513219469 528.30099046805844 0 0 0 0 43.220029420929677 -79.797233754610716 0 -79.797233754610716 1012.1334381485867 0 0 0 0 72.517719649664286 -91.55659413911053 0 -91.55659413911053 787.07059473281879 0 0 0 0 -42.762773999287674 -65.69592019357151 0 -65.69592019357151 1088.0715093873878 0 0 0 0 -25.804231142151821 -47.885491116434423 0 -47.885491116434423 1093.554651911676 0 0 0 0 122.8771195162717 -80.958477363587008 0 -80.958477363587008 1011.4359569798835 0 0 0 0 -7.9840712451468789 -93.360013731304207 0 -93.360013731304207 942.92466284020702 0 0 0 0 1.4520812110031329 -144.00592657215066 0 -144.00592657215066 681.04378995081788 0 0 0 0 -99.937107505336826 -92.812076438069198 0 -92.812076438069198 1091.4241872155944 0 0 0 0 -61.653098428741941 134.26047859250684 0 134.26047859250684 877.6791053315261 0 0 0 0 7.3001217349642467 7.4248464636332443 0 7.4248464636332443 0.54263116729148542 0 0 0 0 -2.5864773308012445 -217.73127946389832 0 -217.73127946389832 745.33540322156114 0 0 0 0 -112.06013139858032 -298.79453007582379 0 -298.79453007582379 942.93035357109329 0 0 0 0 -90.205183642836346 -258.46885892621503 0 -258.46885892621503 1005.6610206594305 0 0 0 0 97.663982518810371 -396.71326784616031 0 -396.71326784616031 482.63261979649542 0 0 0 0 209.2928610801373 -648.86490180964756 0 -648.86490180964756 990.88170937920768 0 0 0 0 -29.380708871887691 -342.07597902350972 0 -342.07597902350972 786.02816822683599 0 0 0 0 86.701945618548962 -444.78941756910763 0 -444.78941756910763 516.23232671483129 0 0 0 0 32.87598164316023 -278.94627003804817 0 -278.94627003804817 523.83683809153445 0 0 0 0 -1.3740827381116105 -191.80077920199619 0 -191.80077920199619 712.58522530049231 0 0 0 0 45.458749768575217 -252.1055457626062 0 -252.1055457626062 486.79172341552476 0 0 0 0 18.986271959440273 -281.75450426740645 0 -281.75450426740645 625.22336541285767 0 0 0 0 87.099036507463552 -241.54335198837612 0 -241.54335198837612 408.17989242992917 0 0 0 0 70.828669937443919 -213.06066453558378 0 -213.06066453558378 474.47501581652068 0 0 0 0 103.44763774000785 -149.86578171220026 0 -149.86578171220026 325.21810018636461 0 0 0 0 84.312619988488223 -200.26800304111748 0 -200.26800304111748 250.51080572143837 0 0 0 0 91.672245399746316 -140.20262695733982 0 -140.20262695733982 270.8957578202353 0 0 0 0 66.382342016659095 -202.13982732716977 0 -202.13982732716977 320.66553326038047 0 0 0 0 48.831954661862255 -314.90578338073465 0 -314.90578338073465 493.87689636662253 0 0 0 0 88.602421613886463 -225.99461456518793 0 -225.99461456518793 292.64991899458983 0 0 0 0 58.234025010635378 -345.27890136282804 0 -345.27890136282804 503.81514898515525 0 0 0 0 -342.58858776563488 262.33314088619545 0 262.33314088619545 8.232949264900526 0 0 0 0 91.700970659901941 -297.37728936145322 0 -297.37728936145322 250.77937148095953 0 0 0 0 352.92039409593235 -423.58558036595787 0 -423.58558036595787 113.72052417103259 0 0 0 0 125.49649314525232 -411.99144669757516 0 -411.99144669757516 488.42141258333868 0 0 0 0 90.458338660610025 -301.1413775263245 0 -301.1413775263245 214.2623260912369 0 0 0 0 207.69821174805111 -339.44995940217632 0 -339.44995940217632 146.17996417896211 0 0 0 0 129.45979276461367 -159.33404979928309 0 -159.33404979928309 -114.7193166204961 0 0 0 0 243.9428144680096 -107.21169405278852 0 -107.21169405278852 -134.56360074042459 0 0 0 0 -38.144209668444091 142.46239311865065 0 142.46239311865065 -201.18848210502802 0 0 0 0 30.54995896649416 -66.79370214867231 0 -66.79370214867231 40.643188277957961 0 0 0 0 20.778105538247473 -93.668680148402927 0 -93.668680148402927 -8.2807822558534099 0 0 0 0 -82.54469621105514 42.35002711994315 0 42.35002711994315 -40.855920863046777 0 0 0 0 44.367684243086842 -262.06138139813265 0 -262.06138139813265 280.33957728254245 0 0 0 0 59.115578810766237 -133.83941487924312 0 -133.83941487924312 143.39058816257602 0 0 0 0 94.670227021004393 -181.49394897531602 0 -181.49394897531602 63.474584404742927 0 0 0 0 -81.628448585816656 -81.277199210740008 0 -81.277199210740008 120.02616234231391 0 0 0 0 -546.85900056076571 75.957112780228272 0 75.957112780228272 192.64473187272961 0 0 0 0 -11.974553270974866 -162.08075876576913 0 -162.08075876576913 163.86882238103135 0 0 0 0 48.46891207450426 -45.361511072322173 0 -45.361511072322173 87.086860153729504 0 0 0 0 -53.984108326068963 -33.350180095803807 0 -33.350180095803807 38.991920138054411 0 0 0 0 -108.38987966998502 -9.611654290696606 0 -9.611654290696606 94.685303081685561 0 0 0 0 -388.8942010951323 -22.628208458649169 0 -22.628208458649169 181.74717096837412 0 0 0 0 -215.06700401506532 -93.267486721881141 0 -93.267486721881141 131.60955841289251 0 0 0 0 -272.19403909482571 86.524328470331966 0 86.524328470331966 76.545557263772935 0 0 0 0 -204.14556923276359 -119.33470608870994 0 -119.33470608870994 27.330422442042618 0 0 0 0 -391.14975093740395 -276.04554920042938 0 -276.04554920042938 -81.531312562685343 0 0 0 0 -116.1557612648503 -26.491863601273508 0 -26.491863601273508 87.204160558881995 0 0 0 0 -117.21602692787201 -26.344597816416353 0 -26.344597816416353 120.22788521358552 0 0 0 0 -81.599960847616785 -88.344604626021464 0 -88.344604626021464 115.23250858145184 0 0 0 0 107.82858689180739 54.031998495680455 0 54.031998495680455 398.51978861839598 0 0 0 0 124.86131636905156 71.106510837078531 0 71.106510837078531 166.07310852536648 0 0 0 0 114.1489952473994 -59.125448651011538 0 -59.125448651011538 267.43759796501399 0 0 0 0 100.41925549072948 -159.70279413667595 0 -159.70279413667595 310.03476424243127 0 0 0 0 108.37480161721214 -154.61185459249828 0 -154.61185459249828 170.07708800880937 0 0 0 0 96.610034106382955 -94.032008672671509 0 -94.032008672671509 211.16992649858912 0 0 0 0 42.188237035594284 -57.908956424405915 0 -57.908956424405915 203.95296447775763 0 0 0 0 97.875776946695623 -107.59207220917779 0 -107.59207220917779 55.855556737536972 0 0 0 0 -70.266122283423101 -203.87783410383054 0 -203.87783410383054 153.12981851279619 0 0 0 0 4.9549929469394556 -124.64747768376401 0 -124.64747768376401 43.793317914172803 0 0 0 0 53.85087686998304 -185.76540223292977 0 -185.76540223292977 155.62850779293512 0 0 0 0 17.110784714279362 -139.47004784453748 0 -139.47004784453748 197.38660201734456 0 0 0 0 42.842261146137389 -189.30885910440702 0 -189.30885910440702 153.60550451181916 0 0 0 0 110.13857852399815 -181.24019629951908 0 -181.24019629951908 216.12703380041057 0 0 0 0 60.883816069088425 -114.58965683557108 0 -114.58965683557108 349.45349120988067 0 0 0 0 110.8573375720789 -112.25431090550228 0 -112.25431090550228 345.34447465724952 0 0 0 0 40.482452113858017 -184.53129461828939 0 -184.53129461828939 209.1962654661329 0 0 0 0 52.689862752540648 -68.701503170417709 0 -68.701503170417709 353.13428712514724 0 0 0 0 50.798598887011394 -195.21662406062114 0 -195.21662406062114 219.64646378760517 0 0 0 0 50.836813570529557 -130.8691399819254 0 -130.8691399819254 231.10004934124299 0 0 0 0 42.323253516237401 -115.85372384797938 0 -115.85372384797938 213.23212846636306 0 0 0 0 27.881744617707227 -293.28114625885428 0 -293.28114625885428 155.85956557077589 0 0 0 0 12.511156832966662 -256.42089965938067 0 -256.42089965938067 85.476556032677763 0 0 0 0 -96.159088968648575 -342.39259550365659 0 -342.39259550365659 138.32461033783329 0 0 0 0 0.65048253196437145 -255.18120785194333 0 -255.18120785194333 148.91878460618318 0 0 0 0 -59.115127506140198 -238.25781223986996 0 -238.25781223986996 168.77517091129994 0 0 0 0 -51.283086971885496 -233.51495063388575 0 -233.51495063388575 171.47671407332382 0 0 0 0 -194.18622924758893 -306.19224040960398 0 -306.19224040960398 238.50634829725823 0 0 0 0 -162.64787360463379 -386.96220897420426 0 -386.96220897420426 430.18656323514915 0 0 0 0 -94.369535605510464 -396.218188967694 0 -396.218188967694 278.747172000516 0 0 0 0 -92.966191178991721 -547.17686545399192 0 -547.17686545399192 390.87201767731131 0 0 0 0 -139.33252893640201 -767.5770395971922 0 -767.5770395971922 809.32065279892413 0 0 0 0 -124.09841470963329 -626.22202347254279 0 -626.22202347254279 190.60583133128239 0 0 0 0 224.5214714196627 -776.82141756859346 0 -776.82141756859346 -453.25300471583614 0 0 0 0 96.889099383217399 -679.89911105571809 0 -679.89911105571809 203.59979400088923 0 0 0 0 35.534817561583623 -561.58304281819437 0 -561.58304281819437 74.714745271045103 0 0 0 0 -111.9534044677057 -439.70947481676558 0 -439.70947481676558 171.76869765446463 0 0 0 0 36.697175720626547 -308.90990314216833 0 -308.90990314216833 59.633826213641441 0 0 0 0 54.843521591789795 -300.19986381983108 0 -300.19986381983108 -208.60890469976584 0 0 0 0 39.807060595820076 -69.390879064638284 0 -69.390879064638284 124.37126224812528 0 0 0 0 49.996593098931839 -150.35479277180252 0 -150.35479277180252 -43.246003391439444 0 0 0 0 34.098697604672225 25.063871530651568 0 25.063871530651568 -316.26249113159429 0 0 0 0 192.34908104950227 -201.90241246532969 0 -201.90241246532969 -168.42906954322098 0 0 0 0 182.21436867795273 -39.532592826075415 0 -39.532592826075415 -788.46520986581163 0 0 0 0 480.07009987698984 -709.52508558391128 0 -709.52508558391128 -435.93029954457597 0 0 0 0 335.16273062748223 304.29614640277578 0 304.29614640277578 -1456.2121589137969 0 0 0 0 805.08961406571325 -423.03871967278246 0 -423.03871967278246 -1993.4049353235459 0 0 0 0 166.44389162198422 81.831917388773945 0 81.831917388773945 -411.04673057794571 0 0 0 0 305.55832121501703 -157.31712268662432 0 -157.31712268662432 -233.26523534035368 0 0 0 0 68.295013878914688 235.15496340938626 0 235.15496340938626 -354.53939352945599 0 0 0 0 1069.3414283956154 -1575.0880555058684 0 -1575.0880555058684 -1214.2401158329594 0 0 0 0 222.51994158943853 -561.52087912135175 0 -561.52087912135175 1205.6878073915141 0 0 0 0 281.78748364302737 -1492.0701386320943 0 -1492.0701386320943 483.57041822450265 0 0 0 0 172.60799463538501 -354.6312406240977 0 -354.6312406240977 511.40801804554212 0 0 0 0 -1.610503602001907 -2.003333761379027 0 -2.003333761379027 19.603155749962241 0 0 0 0 266.15741079930189 -290.43413711975785 0 -290.43413711975785 83.125199406029424 0 0 0 0 196.52638672951207 -249.05972385823907 0 -249.05972385823907 341.86880849084991 0 0 0 0 204.67901460010762 -185.15489185429396 0 -185.15489185429396 16.514112148579443 0 0 0 0 107.61586254630402 -74.224137229743064 0 -74.224137229743064 -101.11372640191257 0 0 0 0 -109.14418545826629 52.284691526729148 0 52.284691526729148 13.779772401838272 0 0 0 0 173.47987351104939 -73.870026326108928 0 -73.870026326108928 -186.15811348274292 0 0 0 0 3.8814316563689575 -1.7473939634795954 0 -1.7473939634795954 -3.0147548445630221 0 0 0 0 6.1138213404818131 -4.7904039334083599 0 -4.7904039334083599 2.9398778630770863 0 0 0 0 208.89235539785486 -425.02673686662501 0 -425.02673686662501 339.24392287542651 0 0 0 0 -199.99655603498468 -324.34693281881846 0 -324.34693281881846 446.33268009559106 0 0 0 0 -244.80386195296524 -223.95068095243187 0 -223.95068095243187 245.29111933099921 0 0 0 0 267.20994974902527 -223.35077485182384 0 -223.35077485182384 -20.077134223058238 0 0 0 0 -297.78009203167858 -135.84559247564903 0 -135.84559247564903 117.49424604522937 0 0 0 0 -218.11199154683709 -260.11225132763502 0 -260.11225132763502 292.62680391634785 0 0 0 0 -184.59467646633084 -165.07019317357117 0 -165.07019317357117 125.91384754842147 0 0 0 0 -196.51267861524684 -159.19504782205331 0 -159.19504782205331 141.79077521333602 0 0 0 0 -135.45538049005927 10.460932824965312 0 10.460932824965312 -123.17454409319907 0 0 0 0 -128.28401749611476 -10.989961112332821 0 -10.989961112332821 -76.280615121024312 0 0 0 0 -348.11643143882975 -10.426118714007316 0 -10.426118714007316 8.7130576310155448 0 0 0 0 -272.91931371719693 -98.951159091731824 0 -98.951159091731824 112.89893452549768 0 0 0 0 -36.519048186579312 23.787185825356573 0 23.787185825356573 -420.8953209240135 0 0 0 0 -272.35797632520189 110.24609750856507 0 110.24609750856507 -175.53542368543276 0 0 0 0 20.911843179015705 -105.08562686056939 0 -105.08562686056939 -202.81011372246576 0 0 0 0 70.302817244295511 -82.266619644280581 0 -82.266619644280581 -301.56140733918437 0 0 0 0 75.291599940179367 -136.0980227594373 0 -136.0980227594373 -166.95820656426804 0 0 0 0 94.933001190431241 -113.92017662873332 0 -113.92017662873332 -177.59162464665133 0 0 0 0 -35.488775621683999 -94.994737113509473 0 -94.994737113509473 -46.598040051547287 0 0 0 0 -15.528907575104313 -136.75051513469225 0 -136.75051513469225 40.616341973059207 0 0 0 0 43.625117469055112 -129.02263981588476 0 -129.02263981588476 51.210454043357458 0 0 0 0 17.860170074139205 -65.923584809002932 0 -65.923584809002932 -79.688951429896406 0 0 0 0 -9.9734704128415412 -2.2899928434273633 0 -2.2899928434273633 10.583686339914911 0 0 0 0 11.216057725937263 -12.984173846933697 0 -12.984173846933697 9.7218102188461017 0 0 0 0 -37.809036856576199 -55.582175369611832 0 -55.582175369611832 8.025502164469799 0 0 0 0 172.32942425525835 -154.1620605553253 0 -154.1620605553253 -284.26204973347558 0 0 0 0 1.4876373580524436 -3.2596584148037984 0 -3.2596584148037984 -0.87870843691398193 0 0 0 0 -195.96587598193673 -27.339188724072301 0 -27.339188724072301 11.650151611116598 0 0 0 0 -176.89481279660362 149.56861403510811 0 149.56861403510811 111.54514128669871 0 0 0 0 -23.170191297826932 53.736316747195815 0 53.736316747195815 -120.43035080074696 0 0 0 0 244.56845612123016 42.99186431223643 0 42.99186431223643 -517.378205755414 0 0 0 0 -5.5288183620589297 1.8615353101292058 0 1.8615353101292058 1.4049723147634678 0 0 0 0 -190.98445743605942 29.014170306702908 0 29.014170306702908 87.779911454999819 0 0 0 0 24.387401643254634 -10.410789562534774 0 -10.410789562534774 30.763360305238166 0 0 0 0 -119.64028071727262 -18.405415661847655 0 -18.405415661847655 85.763138310227077 0 0 0 0 139.15170917452633 345.05610886414797 0 345.05610886414797 246.79569305037512 0 0 0 0 99.707637246345257 190.59650382574182 0 190.59650382574182 -30.393127846073185 0 0 0 0 15.326880082735897 -19.996447801458999 0 -19.996447801458999 216.97756826093246 0 0 0 0 100.80427083538234 12.226368347655807 0 12.226368347655807 115.17556108810822 0 0 0 0 89.017634526340771 106.82158218479162 0 106.82158218479162 602.01455000451824 0 0 0 0 125.62375804581643 353.61106650189868 0 353.61106650189868 453.65135211445158 0 0 0 0 143.77743812213043 -215.54212437668502 0 -215.54212437668502 948.73892130771128 0 0 0 0 228.07700895374023 -266.4293031912548 0 -266.4293031912548 -12.437958761307527 0 0 0 0 -108.00839739432831 -90.59574951668219 0 -90.59574951668219 904.45358783433039 0 0 0 0 -180.95851650462669 -221.82018795846011 0 -221.82018795846011 244.96327012959227 0 0 0 0 -235.30598372023769 38.679019445306039 0 38.679019445306039 197.53312089043902 0 0 0 0 -11.855056794216125 -103.66163480006799 0 -103.66163480006799 261.62096072489658 0 0 0 0 -116.0976492225559 -18.262224205074745 0 -18.262224205074745 672.06165570671874 0 0 0 0 88.98550243644786 309.62438673591532 0 309.62438673591532 402.9435630712178 0 0 0 0 87.438762210969799 384.9064666885497 0 384.9064666885497 493.21845053981542 0 0 0 0 90.176398124143816 203.28764157123078 0 203.28764157123078 439.57750057446447 0 0 0 0 91.19287956891003 184.66133651831842 0 184.66133651831842 364.92771722801263 0 0 0 0 114.74035754663237 228.16244281004401 0 228.16244281004401 184.11212926652661 0 0 0 0 114.44049453290063 116.43847215239657 0 116.43847215239657 259.60374135419988 0 0 0 0 576.66432120137142 4.1908932629148694 0 4.1908932629148694 -623.3561188728163 0 0 0 0 139.57321671151294 423.53690605929478 0 423.53690605929478 290.24893035625428 0 0 0 0 126.89342602985505 25.627326110909053 0 25.627326110909053 -149.76634006625682 0 0 0 0 96.944531334038402 102.5949407249318 0 102.5949407249318 -246.12512475957374 0 0 0 0 165.60006224739845 292.51629510997373 0 292.51629510997373 165.93805380928825 0 0 0 0 18.189239743721373 482.00015820276349 0 482.00015820276349 813.35404850874329 0 0 0 0 116.46990242178981 225.81779751045178 0 225.81779751045178 979.55196472190801 0 0 0 0 -0.33519448518999928 -1.1257553067106549 0 -1.1257553067106549 6.3471060297708561 0 0 0 0 -3.2602105699688764 340.74541607019273 0 340.74541607019273 782.9724887485645 0 0 0 0 -91.143485891832825 303.09618157293517 0 303.09618157293517 786.71566713911102 0 0 0 0 84.069426661757461 339.87629542315335 0 339.87629542315335 390.44553329530936 0 0 0 0 -92.896600588836918 287.25218161306293 0 287.25218161306293 855.99354656200376 0 0 0 0 -118.14962559273954 230.87366500217104 0 230.87366500217104 775.21943643415034 0 0 0 0 -25.995087027551563 208.9808398780915 0 208.9808398780915 780.1854737269332 0 0 0 0 -90.013797530220472 180.60171983743385 0 180.60171983743385 811.22054455093348 0 0 0 0 -92.194967858054952 175.58750333641729 0 175.58750333641729 800.77694872691791 0 0 0 0 -27.246455613979379 76.590505122670947 0 76.590505122670947 850.13162999377528 0 0 0 0 -51.429810881927551 143.66326939272949 0 143.66326939272949 667.05530661233934 0 0 0 0 27.323730683117901 72.766828600128065 0 72.766828600128065 698.6972349044172 0 0 0 0 25.811665643937886 -12.669261506138355 0 -12.669261506138355 753.86903006185457 0 0 0 0 -28.106621302347776 253.04185772828896 0 253.04185772828896 579.05488945607067 0 0 0 0 27.549252180586336 106.57277919160333 0 106.57277919160333 502.68789111061778 0 0 0 0 61.120438798652685 169.08314438876914 0 169.08314438876914 603.89207487076601 0 0 0 0 97.186909796297186 23.163394084855099 0 23.163394084855099 342.36418797790247 0 0 0 0 98.690044949078583 -82.291815696888079 0 -82.291815696888079 362.28660819819925 0 0 0 0 110.75835565269426 -71.09117174392486 0 -71.09117174392486 372.66542404369829 0 0 0 0 66.293396569382821 -41.111222689352871 0 -41.111222689352871 451.33361200428772 0 0 0 0 98.292747955118102 -80.704411939506826 0 -80.704411939506826 490.32704223277688 0 0 0 0 88.524406139661096 17.568019198858565 0 17.568019198858565 529.69137822819903 0 0 0 0 66.329826840971748 -38.636698636025017 0 -38.636698636025017 607.37020707310148 0 0 0 0 25.70002229497004 -1.2660910642880481 0 -1.2660910642880481 577.80568680376018 0 0 0 0 54.173976628516129 -81.090189901593476 0 -81.090189901593476 636.17375700149933 0 0 0 0 51.296143301338816 -105.86846973593856 0 -105.86846973593856 527.00009741682152 0 0 0 0 61.009820579944062 -146.03058674420026 0 -146.03058674420026 565.80345100223713 0 0 0 0 45.28337938020104 -181.00242180836358 0 -181.00242180836358 518.4605104170405 0 0 0 0 61.479325123087619 -194.70229180847309 0 -194.70229180847309 511.05259583074076 0 0 0 0 63.087571129001844 -198.70300014931126 0 -198.70300014931126 513.59978128128569 0 0 0 0 73.460008695919896 -215.7573949869693 0 -215.7573949869693 457.68836622136587 0 0 0 0 92.730192098638327 -159.75782156744208 0 -159.75782156744208 433.69355004000681 0 0 0 0 105.18834465476539 -163.22704098689792 0 -163.22704098689792 410.6576464791724 0 0 0 0 84.890488627323066 -153.60913238754074 0 -153.60913238754074 460.44993729507405 0 0 0 0 68.434107359013979 -157.36295785692528 0 -157.36295785692528 487.17960708010651 0 0 0 0 12.297508978055703 -146.50044599995272 0 -146.50044599995272 677.54984938747293 0 0 0 0 69.856784255858656 -181.34098694233035 0 -181.34098694233035 493.79367986303532 0 0 0 0 31.631722958733462 -163.74847493686138 0 -163.74847493686138 608.52749794769625 0 0 0 0 34.189505679594731 -49.351115725306954 0 -49.351115725306954 815.48865369891791 0 0 0 0 45.058194322889904 -74.744115366193 0 -74.744115366193 631.77577025992287 0 0 0 0 84.401247971749399 -96.968603338282264 0 -96.968603338282264 748.06327419944319 0 0 0 0 117.50046750454203 -84.985757083808494 0 -84.985757083808494 650.37493345481198 0 0 0 0 94.038660021303713 71.797949315375263 0 71.797949315375263 1022.2692019089009 0 0 0 0 115.18055158771858 -5.972910509655776 0 -5.972910509655776 739.28186372960045 0 0 0 0 35.81127047614973 -28.958812222156666 0 -28.958812222156666 880.1478116618091 0 0 0 0 8.723068187273384 40.740407469784259 0 40.740407469784259 716.6478113383655 0 0 0 0 -77.564052412511955 125.92707260489442 0 125.92707260489442 961.54235860393419 0 0 0 0 548.71678619075556 -62.220728540933123 0 -62.220728540933123 887.32635041549656 0 0 0 0 844.05436259365706 464.88646509161663 0 464.88646509161663 907.2407980752032 0 0 0 0 142.09861369350256 296.14704430573511 0 296.14704430573511 873.71095714559488 0 0 0 0 24.543669047259755 653.96403153649771 0 653.96403153649771 1626.5989396007062 0 0 0 0 537.4588789973277 1074.8411286509672 0 1074.8411286509672 1030.9733959576806 0 0 0 0 9.4819380385062928 -2.4779816863134343 0 -2.4779816863134343 1.6483738723046599 0 0 0 0 662.59593335717909 752.10870435133256 0 752.10870435133256 519.76029122160071 0 0 0 0 151.7481384847415 72.659442052663508 0 72.659442052663508 245.32765876705162 0 0 0 0 154.02175520015771 200.75966975513802 0 200.75966975513802 354.99791562810788 0 0 0 0 209.30889517379001 140.19290631724289 0 140.19290631724289 186.71592680015601 0 0 0 0 105.07918315087409 103.59947041972191 0 103.59947041972191 237.99780856576763 0 0 0 0 487.92144807036675 -144.77023193968853 0 -144.77023193968853 -52.657369763503084 0 0 0 0 2763.9603972169716 1459.8246801238565 0 1459.8246801238565 581.19137475351454 0 0 0 0 19.888489564965354 -8.5725847902973058 0 -8.5725847902973058 4.547234674656913 0 0 0 0 147.55297071056157 -689.67457142484727 0 -689.67457142484727 1873.9772322580793 0 0 0 0 -243.48069840573589 808.80941995161993 0 808.80941995161993 2453.3836358604494 0 0 0 0 -993.28115802532739 -553.58455006031727 0 -553.58455006031727 3337.5664841372854 0 0 0 0 281.43276142541436 1432.64641040879 0 1432.64641040879 2906.8696256314379 0 0 0 0 755.24132150960577 434.08401927814339 0 434.08401927814339 -59.854853764256404 0 0 0 0 1780.1584692337419 1238.4556766164405 0 1238.4556766164405 541.06022416325141 0 0 0 0 628.66127895571117 1134.1085293319447 0 1134.1085293319447 633.53014898297261 0 0 0 0 6.533148202268368 12.797045782260419 0 12.797045782260419 33.853945891050913 0 0 0 0 189.51825219040984 -53.643568232298094 0 -53.643568232298094 240.34418960257608 0 0 0 0 114.00399720938003 -260.26866403223357 0 -260.26866403223357 703.89318894707321 0 0 0 0 115.34745477960496 128.20708171050069 0 128.20708171050069 1137.2693670064327 0 0 0 0 157.57689332630116 -41.804179334489163 0 -41.804179334489163 46.454796215326496 0 0 0 0 -0.19748313370421666 -0.91246503809389523 0 -0.91246503809389523 3.1622682212950792 0 0 0 0 -934.79377647187403 -183.12915476622948 0 -183.12915476622948 676.56895687957149 0 0 0 0 513.92850196313339 -333.43713945982563 0 -333.43713945982563 285.12217478764069 0 0 0 0 530.19167266005388 -186.83917868856588 0 -186.83917868856588 150.18650447227992 0 0 0 0 -328.82004283679998 -502.4557783667733 0 -502.4557783667733 810.85611567891101 0 0 0 0 -118.84015001141415 -239.60683755588616 0 -239.60683755588616 -192.25050897471374 0 0 0 0 -182.59350240075219 158.34212029308765 0 158.34212029308765 2.1056193785989308 0 0 0 0 86.712300626939395 38.000501623992022 0 38.000501623992022 192.64320045429486 0 0 0 0 169.34992599201269 86.14764350646692 0 86.14764350646692 164.69691680869437 0 0 0 0 -630.93451133773578 -658.10916343864574 0 -658.10916343864574 1640.6707709942712 0 0 0 0 8.9174134356442849 -6.9441981187081794 0 -6.9441981187081794 5.814302100117807 0 0 0 0 311.4207827624341 380.87753741985944 0 380.87753741985944 440.44342007248815 0 0 0 0 -121.25146283371578 462.7184640213336 0 462.7184640213336 598.4880284358369 0 0 0 0 -569.43549469721256 -234.57055919423874 0 -234.57055919423874 1873.8198985256349 0 0 0 0 133.74459463102903 974.64114338965373 0 974.64114338965373 697.7274341703087 0 0 0 0 239.88501122624803 1103.865207566414 0 1103.865207566414 830.73334022264135 0 0 0 0 -10.786190962048828 1.8031320415477978 0 1.8031320415477978 1.3970759609885874 0 0 0 0 125.72697068013076 919.2062279325437 0 919.2062279325437 1201.0174933215367 0 0 0 0 77.973429374207626 970.7292732793394 0 970.7292732793394 1090.9426195570195 0 0 0 0 134.5847812610582 -76.556881046177296 0 -76.556881046177296 -232.0312494468817 0 0 0 0 74.15435697952114 295.9566808051411 0 295.9566808051411 236.70454680857074 0 0 0 0 67.75342171093962 107.60449839825378 0 107.60449839825378 -118.14218721902216 0 0 0 0 -29.768599124790427 10.911362778455981 0 10.911362778455981 -5.5012915054355034 0 0 0 0 -61.19631518807455 2.3569494778275839 0 2.3569494778275839 712.4548070974015 0 0 0 0 -57.754428321493833 70.801190088910516 0 70.801190088910516 139.3589412589281 0 0 0 0 418.60155354338826 474.01963011097905 0 474.01963011097905 265.03884640948672 0 0 0 0 605.806084227214 764.4504155586701 0 764.4504155586701 497.87880800231505 0 0 0 0 314.35741457071424 411.55601766657674 0 411.55601766657674 374.47617603230174 0 0 0 0 364.72354724299163 394.78256347623756 0 394.78256347623756 343.76492970787513 0 0 0 0 271.65981120855349 465.26071681630492 0 465.26071681630492 468.91135347937961 0 0 0 0 497.02352577337706 671.56677267576106 0 671.56677267576106 539.6701302833535 0 0 0 0 321.18109904622361 693.67861483785236 0 693.67861483785236 601.32807184252306 0 0 0 0 219.85288830253376 595.02638099998148 0 595.02638099998148 507.95354445244448 0 0 0 0 292.41438625187584 574.86553838156397 0 574.86553838156397 424.50585684223915 0 0 0 0 257.08259945113423 583.43856646479617 0 583.43856646479617 946.29172829208255 0 0 0 0 331.34781034801563 730.84523550455197 0 730.84523550455197 465.71793571310263 0 0 0 0 283.4953307540236 827.73373747727237 0 827.73373747727237 812.93717259378172 0 0 0 0 315.37163075200078 766.64282456157252 0 766.64282456157252 273.22184525486955 0 0 0 0 339.88931403413881 688.65032101530232 0 688.65032101530232 379.41684875785722 0 0 0 0 263.55494877132878 537.34034401755525 0 537.34034401755525 325.1517586941336 0 0 0 0 136.42030916597651 450.25266898244445 0 450.25266898244445 318.38858877267921 0 0 0 0 4.2202026333652611 388.9105648202094 0 388.9105648202094 477.91449488315266 0 0 0 0 -34.651205084348476 264.25477534596575 0 264.25477534596575 344.96526438319415 0 0 0 0 -25.393623983038196 256.53969923828117 0 256.53969923828117 315.26967793234508 0 0 0 0 -191.17055872210949 85.842148934083525 0 85.842148934083525 638.56817346699609 0 0 0 0 -173.23242647776533 57.565481922552863 0 57.565481922552863 320.61571613483829 0 0 0 0 -102.35644945625609 122.45568779657333 0 122.45568779657333 1002.256930344709 0 0 0 0 46.836019418407886 372.9204250597104 0 372.9204250597104 523.50459535547088 0 0 0 0 50.669183849345245 441.54453018988352 0 441.54453018988352 617.47162899009709 0 0 0 0 85.821695868702591 533.63478684900019 0 533.63478684900019 921.97748413942463 0 0 0 0 451.70506464692573 914.5964899964747 0 914.5964899964747 1011.3767958453245 0 0 0 0 301.01854340550199 659.53298113506025 0 659.53298113506025 580.19830571925922 0 0 0 0 108.20931578710133 381.55499827396125 0 381.55499827396125 735.69140782344766 0 0 0 0 99.335646529400762 435.45163172279763 0 435.45163172279763 1180.6878897566494 0 0 0 0 166.80747792382454 460.40307057145401 0 460.40307057145401 1173.5871833338315 0 0 0 0 170.26954290362005 532.6792780034375 0 532.6792780034375 2595.4378533532581 0 0 0 0 653.00518779243851 656.45911032097501 0 656.45911032097501 585.71034072111797 0 0 0 0 -89.897472458931588 18.115047342434991 0 18.115047342434991 197.77795278806093 0 0 0 0 90.67203238079037 23.121382264615931 0 23.121382264615931 39.770147675197222 0 0 0 0 -20.372781403469155 6.8843594455021844 0 6.8843594455021844 22.87589188931247 0 0 0 0 -38.751451659509712 4.2790336010511965e-05 0 4.2790336010511965e-05 336.88791115216372 0 0 0 0 121.53414832558519 -54.164786566379462 0 -54.164786566379462 332.04643886524718 0 0 0 0 -56.530917623011192 28.717956186246738 0 28.717956186246738 310.68266070675418 0 0 0 0 -392.20177614048953 226.21474213166221 0 226.21474213166221 282.73453367397451 0 0 0 0 -435.36084277141708 345.47368501367782 0 345.47368501367782 182.4314705877332 0 0 0 0 2.9126696237192569 29.207308674166669 0 29.207308674166669 96.446097960869722 0 0 0 0 -51.68494231623481 148.31110413974238 0 148.31110413974238 72.351806161608692 0 0 0 0 385.55667046613235 402.73542545557575 0 402.73542545557575 102.81124216575699 0 0 0 0 186.54740325971397 412.04266677085252 0 412.04266677085252 201.30093185063743 0 0 0 0 -215.73859540367994 218.85561367894115 0 218.85561367894115 190.29373396551819 0 0 0 0 -74.253355792063303 335.50645388126395 0 335.50645388126395 136.53631877545558 0 0 0 0 -59.875610738788964 291.63703698815516 0 291.63703698815516 243.93099354334117 0 0 0 0 -185.85312952332606 232.85677775785371 0 232.85677775785371 188.9191878731217 0 0 0 0 -47.531819286916289 213.57896421548503 0 213.57896421548503 115.48203019835637 0 0 0 0 33.502528792140765 282.28100589259338 0 282.28100589259338 219.84812900747056 0 0 0 0 -69.368243977725797 268.41138094331836 0 268.41138094331836 277.31032358608718 0 0 0 0 -509.69920902427839 153.29095991486247 0 153.29095991486247 101.51923800364602 0 0 0 0 -307.22721739570261 176.50136958720395 0 176.50136958720395 -56.317294632928679 0 0 0 0 -265.07513994701731 277.05443966204621 0 277.05443966204621 122.3874215001706 0 0 0 0 -271.53794220402779 121.36170559783932 0 121.36170559783932 77.96884105749632 0 0 0 0 -328.38013148163736 161.6307147391708 0 161.6307147391708 95.013102068303851 0 0 0 0 -543.24069906040677 281.05724819854368 0 281.05724819854368 38.437624721293105 0 0 0 0 -829.28790208883584 140.79792627529241 0 140.79792627529241 148.10410946706543 0 0 0 0 -526.34438807742845 10.941462689865148 0 10.941462689865148 -2.4522458420688054 0 0 0 0 -866.05918593067327 533.64410834785667 0 533.64410834785667 -53.033086166838075 0 0 0 0 -0.88051705976276651 12.730980840305676 0 12.730980840305676 16.409970909290209 0 0 0 0 -635.37614084956294 85.709359721906367 0 85.709359721906367 160.74966002212022 0 0 0 0 -454.50656608541613 81.46588539610093 0 81.46588539610093 233.95392630896822 0 0 0 0 -465.13512727164925 146.70288758709648 0 146.70288758709648 157.47788820735877 0 0 0 0 -299.15456855977391 151.60052553869173 0 151.60052553869173 198.84356517992273 0 0 0 0 -405.92821520193684 47.480757842327876 0 47.480757842327876 137.8664680121874 0 0 0 0 -396.21278520071792 51.168667316451319 0 51.168667316451319 269.35633370021242 0 0 0 0 -384.70758500938246 76.101359902051627 0 76.101359902051627 149.20189843962726 0 0 0 0 -483.98124539591663 190.83232776786826 0 190.83232776786826 84.382645182893611 0 0 0 0 -124.96179829216271 188.03400531866646 0 188.03400531866646 313.41676059543533 0 0 0 0 -244.6924486538046 97.426027184483246 0 97.426027184483246 202.98694366635209 0 0 0 0 -136.02132904655809 211.2356971635636 0 211.2356971635636 267.2972782155266 0 0 0 0 -313.0302832689631 71.260507844475796 0 71.260507844475796 337.5111285819803 0 0 0 0 -291.82903689867089 -36.07242909562774 0 -36.07242909562774 169.91648119366437 0 0 0 0 -297.23982983009046 -2.0384327877109172 0 -2.0384327877109172 361.40246903171283 0 0 0 0 -195.36819749118149 192.10174447356985 0 192.10174447356985 444.70821505938511 0 0 0 0 -369.93371455682063 -0.071207250592124183 0 -0.071207250592124183 146.25858463826808 0 0 0 0 -391.1660122203848 74.418965494536678 0 74.418965494536678 184.73137381770357 0 0 0 0 -309.52946682178572 73.5899573125389 0 73.5899573125389 239.79562043523765 0 0 0 0 -368.85004369530361 -19.978418618142314 0 -19.978418618142314 263.60711412839373 0 0 0 0 -65.581260649729302 169.41855031012346 0 169.41855031012346 172.76640663110084 0 0 0 0 -163.97024141499423 37.630517371162568 0 37.630517371162568 152.00857024890138 0 0 0 0 -418.98782394365844 66.511616724023042 0 66.511616724023042 191.53153668464802 0 0 0 0 -128.18159972286776 151.62686697684876 0 151.62686697684876 159.06803897520876 0 0 0 0 -10.512704613278469 27.183594977797945 0 27.183594977797945 32.563356979105421 0 0 0 0 -121.33241423803702 60.793979188129015 0 60.793979188129015 160.87932182154327 0 0 0 0 6.7883766731514399 56.599636252483968 0 56.599636252483968 134.82212764210109 0 0 0 0 -350.17532426383696 82.404588723446068 0 82.404588723446068 162.03226729681774 0 0 0 0 -189.28957578471636 110.53609005509134 0 110.53609005509134 147.20169689802424 0 0 0 0 -137.02168431081373 10.736636635370814 0 10.736636635370814 254.73306661826791 0 0 0 0 -83.297440339625609 9.9371513815094659 0 9.9371513815094659 168.540999410322 0 0 0 0 20.340330246371945 59.751941828388873 0 59.751941828388873 118.47623093742175 0 0 0 0 -100.49924227553947 9.1945258515843307 0 9.1945258515843307 190.68683433514525 0 0 0 0 -520.96530539717241 200.12289462435365 0 200.12289462435365 154.23438017483568 0 0 0 0 -12.903280857195568 -8.8273572977759613 0 -8.8273572977759613 315.27496779798821 0 0 0 0 -10.046200867749576 -8.8929035003911849 0 -8.8929035003911849 175.0418030541914 0 0 0 0 -72.847479384683538 24.53924339828518 0 24.53924339828518 188.05662474548444 0 0 0 0 -140.19810868519562 8.4999941920086712 0 8.4999941920086712 292.23364685651904 0 0 0 0 -42.876933761030159 146.6386421693278 0 146.6386421693278 167.77003499480816 0 0 0 0 185.05527274817723 129.72968685837259 0 129.72968685837259 227.57081768497483 0 0 0 0 -28.018871192325605 50.069817495590542 0 50.069817495590542 321.55217949642974 0 0 0 0 -46.402295229388983 116.47485963091822 0 116.47485963091822 151.66859015049704 0 0 0 0 -121.30247285112273 66.760806817022967 0 66.760806817022967 296.60051642216558 0 0 0 0 259.16042724116051 302.71134845997949 0 302.71134845997949 198.57132221762004 0 0 0 0 -37.039895044196001 59.771455953861533 0 59.771455953861533 -33.631699124250076 0 0 0 0 -70.708650735861227 91.529266935846863 0 91.529266935846863 -32.525595651182812 0 0 0 0 15.785674411993064 32.605879866962738 0 32.605879866962738 -43.669141988575575 0 0 0 0 6.2541565316450347 24.271889220322784 0 24.271889220322784 1.5491241850161259 0 0 0 0 3.0138718687042001 31.481729735274712 0 31.481729735274712 -34.60402540078212 0 0 0 0 257.46989427310746 140.96034488914302 0 140.96034488914302 89.407257197395666 0 0 0 0 3.3194829514870068 3.8954949137286974 0 3.8954949137286974 2.1244037671406488 0 0 0 0 3.9767943337337783 63.632994745683391 0 63.632994745683391 -34.576554554660106 0 0 0 0 21.422982883130317 28.383156693525962 0 28.383156693525962 26.635473061462108 0 0 0 0 -90.067339175890083 111.03698182360677 0 111.03698182360677 51.995214255686733 0 0 0 0 -29.500682055227632 36.861309737993935 0 36.861309737993935 66.413074693177123 0 0 0 0 1.0285252047154501 6.1533672819380172 0 6.1533672819380172 10.728229209326358 0 0 0 0 -41.794961526146835 80.702519116977783 0 80.702519116977783 49.83856565708993 0 0 0 0 -13.923168227205679 -136.89130754432699 0 -136.89130754432699 87.998819877644564 0 0 0 0 -14.181064065646273 23.558798141753435 0 23.558798141753435 89.580150519369766 0 0 0 0 -342.92621216576299 -2.0825035289562948 0 -2.0825035289562948 147.91538595293241 0 0 0 0 -407.16820774225198 -30.172475710904109 0 -30.172475710904109 177.4358218940979 0 0 0 0 -296.77880125569027 -176.07088294634013 0 -176.07088294634013 288.52033936022053 0 0 0 0 -319.98331682698154 -94.987062689258892 0 -94.987062689258892 58.007121524744434 0 0 0 0 -17.79391904299294 163.97978816311252 0 163.97978816311252 -133.62381747440668 0 0 0 0 -439.31890333418778 -225.50563967119524 0 -225.50563967119524 60.280752139238757 0 0 0 0 -35.126300595174612 15.675833188548509 0 15.675833188548509 56.12592285789222 0 0 0 0 -93.019490382397635 45.256858046908746 0 45.256858046908746 128.85381754899572 0 0 0 0 39.681979555117778 -4.9217424914968433 0 -4.9217424914968433 64.170235779754876 0 0 0 0 -43.626830347013311 -5.3752174839100917 0 -5.3752174839100917 134.09881981814215 0 0 0 0 -9.8782325971819809 -2.2184721355947516 0 -2.2184721355947516 16.14290576160441 0 0 0 0 -318.55416655520457 -286.40257807108719 0 -286.40257807108719 -67.921232418011641 0 0 0 0 -41.050990905429458 4.0711211939615524 0 4.0711211939615524 56.512129671685898 0 0 0 0 -243.75324080705377 -184.31449873219935 0 -184.31449873219935 -99.852343721606303 0 0 0 0 -5.2581862274564388 -11.357450549426829 0 -11.357450549426829 7.4885885709930733 0 0 0 0 24.284734576401661 -362.88234066978475 0 -362.88234066978475 541.41977357811993 0 0 0 0 342.73185325371378 433.64469596736308 0 433.64469596736308 219.58145201150182 0 0 0 0 126.47853722743412 110.52589319396793 0 110.52589319396793 -21.400352082895552 0 0 0 0 28.771023168904776 276.82012021839182 0 276.82012021839182 348.97810098868285 0 0 0 0 16.71571033048258 283.41281971960416 0 283.41281971960416 353.9521984738094 0 0 0 0 19.116996788684901 254.29604423841374 0 254.29604423841374 294.61303402142858 0 0 0 0 93.276667169939458 317.63225748907917 0 317.63225748907917 348.69584084388043 0 0 0 0 12.690162558032682 -10.549562737510314 0 -10.549562737510314 513.77876092217048 0 0 0 0 -75.035472033168844 72.953439866823828 0 72.953439866823828 643.50472810298379 0 0 0 0 181.49465729384201 358.91108299123152 0 358.91108299123152 461.50977371697081 0 0 0 0 107.16569762122163 248.85506149363937 0 248.85506149363937 345.36271302436944 0 0 0 0 -5.3662487036004656 -0.47456730168629946 0 -0.47456730168629946 2.6218753614726893 0 0 0 0 412.51021653696284 298.46221489014351 0 298.46221489014351 198.30315242303186 0 0 0 0 1.8958051951685775 126.97620566124533 0 126.97620566124533 228.50186828494043 0 0 0 0 44.131082759621563 258.30944354066196 0 258.30944354066196 374.42059763109137 0 0 0 0 -39.606031362514841 61.727879315119935 0 61.727879315119935 58.780410255774768 0 0 0 0 -23.864464404089176 1.6844859070920108 0 1.6844859070920108 5.5979408810565872 0 0 0 0 -39.846330128801128 53.922851383802481 0 53.922851383802481 82.761757112755731 0 0 0 0 723.44149223609247 -322.81287310515472 0 -322.81287310515472 183.87742620686186 0 0 0 0 568.52667989970439 -476.25006833849693 0 -476.25006833849693 1778.2845683319465 0 0 0 0 497.68664887808086 -206.37426795386273 0 -206.37426795386273 750.71000462207303 0 0 0 0 -12.654609162993438 -298.8810731337544 0 -298.8810731337544 761.98985590868688 0 0 0 0 28.601658926496384 -48.219305364145839 0 -48.219305364145839 1510.5331640927761 0 0 0 0 26.016934526354817 82.376144365058281 0 82.376144365058281 718.90654152283969 0 0 0 0 148.40880204153018 3.1006686995970085 0 3.1006686995970085 626.27721362042939 0 0 0 0 -121.86239754819326 -265.68970107375208 0 -265.68970107375208 281.66419658089399 0 0 0 0 13.032759322040874 -158.36974890750571 0 -158.36974890750571 259.91417940958854 0 0 0 0 -193.19765039387312 -173.85244167634301 0 -173.85244167634301 579.81415726432897 0 0 0 0 -60.392830368083651 94.705013558228529 0 94.705013558228529 494.04857454964076 0 0 0 0 -208.71089668586319 -292.02186744033679 0 -292.02186744033679 136.22422319254656 0 0 0 0 -161.27104202918599 -112.66312970552099 0 -112.66312970552099 151.27732039453531 0 0 0 0 -64.111471298012248 -24.112166421487927 0 -24.112166421487927 -36.762894471503387 0 0 0 0 -47.860926477986425 -22.355181561307063 0 -22.355181561307063 41.534812196093455 0 0 0 0 -107.40016061430833 -318.63343438029551 0 -318.63343438029551 -246.52335456557194 0 0 0 0 -27.745057026797134 -36.345267449346863 0 -36.345267449346863 33.511155519724099 0 0 0 0 -93.83797309329384 -363.54079264322354 0 -363.54079264322354 -485.68622043850337 0 0 0 0 -172.98186829561723 -145.67855979556953 0 -145.67855979556953 -291.11234602816694 0 0 0 0 -76.023582315097883 -204.51538116355732 0 -204.51538116355732 -78.003617597176344 0 0 0 0 65.743324869243224 -340.38371203196584 0 -340.38371203196584 -145.28153644694248 0 0 0 0 259.42088968436292 -389.54827192095036 0 -389.54827192095036 -174.33248066714441 0 0 0 0 -84.519291587420184 -65.951252055594523 0 -65.951252055594523 -359.77961886477715 0 0 0 0 -535.77740731155063 90.603445704909973 0 90.603445704909973 -4.1118435590033187 0 0 0 0 369.87434238474179 53.639346841649967 0 53.639346841649967 -342.4285914582797 0 0 0 0 -1.5786308704804768 2.8687870615554658 0 2.8687870615554658 -1.9919167377952931 0 0 0 0 370.01796195787256 43.692387468581728 0 43.692387468581728 -17.286105285820668 0 0 0 0 -104.2476412342719 -588.35707704723654 0 -588.35707704723654 -583.88553252221027 0 0 0 0 466.9847784781839 -243.64854170868421 0 -243.64854170868421 -631.84029263965203 0 0 0 0 -98.461790180155276 -26.160037174224271 0 -26.160037174224271 86.140174502033915 0 0 0 0 -39.353741725097734 24.259836358265602 0 24.259836358265602 152.60914935504115 0 0 0 0 -0.32951628627121909 37.484535476091381 0 37.484535476091381 13.596780481083798 0 0 0 0 20.836829118090279 3.7734160691043144 0 3.7734160691043144 158.07603532358189 0 0 0 0 4.0745469839301611 -1.3561511485195297 0 -1.3561511485195297 -4.9182041870172952 0 0 0 0 731.94231344931723 -408.03767925814464 0 -408.03767925814464 -677.39738671510713 0 0 0 0 -9.7654039105225543 -40.886890819927245 0 -40.886890819927245 35.516887116168149 0 0 0 0 -292.11289958849193 -110.35615505260648 0 -110.35615505260648 164.83882377191867 0 0 0 0 -47.514794982860622 -9.7743141432729317 0 -9.7743141432729317 158.55180586063216 0 0 0 0 -42.915169365140173 32.872786340114544 0 32.872786340114544 198.50617229788986 0 0 0 0 -71.514668360646738 5.7263719223556109 0 5.7263719223556109 192.09190582926385 0 0 0 0 -105.92189944128495 -161.0915709648616 0 -161.0915709648616 439.25949197766022 0 0 0 0 -114.5976659318726 271.77878618640534 0 271.77878618640534 421.53475209995781 0 0 0 0 -35.462673980197906 134.80836470165377 0 134.80836470165377 -14.902404552063672 0 0 0 0 -10.336827602940048 -122.71784948599088 0 -122.71784948599088 63.513336795665964 0 0 0 0 7.1008276960799321 -111.78390707851213 0 -111.78390707851213 66.866039716653177 0 0 0 0 -114.50166347011429 -24.386201287437871 0 -24.386201287437871 260.83519046554284 0 0 0 0 238.01177226972877 652.29357477163194 0 652.29357477163194 138.34736094338587 0 0 0 0 0.13637521306370193 -0.56624637899341934 0 -0.56624637899341934 6.7387639331105902 0 0 0 0 67.861608100550484 -126.68658952121041 0 -126.68658952121041 61.306290575255844 0 0 0 0 -11.86617778052153 1.5119754565047856 0 1.5119754565047856 -26.252929650174337 0 0 0 0 6.0024391577894143 -4.4662288858747488 0 -4.4662288858747488 19.883068879421785 0 0 0 0 310.81471776097715 -391.38396761722834 0 -391.38396761722834 686.26792594424478 0 0 0 0 477.10024908481046 497.19035710291791 0 497.19035710291791 339.49238872688147 0 0 0 0 20.803860912274104 -216.09673217582167 0 -216.09673217582167 327.21973308875749 0 0 0 0 193.46643387011954 517.28777583871852 0 517.28777583871852 359.98228816375922 0 0 0 0 -69.280475279781058 377.02882137832057 0 377.02882137832057 724.79912338432791 0 0 0 0 1064.7749220795449 1405.5985760207986 0 1405.5985760207986 702.30353938729968 0 0 0 0 -378.43696785655175 40.123116514805588 0 40.123116514805588 372.00823040345131 0 0 0 0 1.1538736192041856 3.3436655016367212 0 3.3436655016367212 8.5210377745360404 0 0 0 0 824.08325363747645 666.59977911687383 0 666.59977911687383 203.61738999597583 0 0 0 0 20.759817104888754 -34.984926229664161 0 -34.984926229664161 57.509830594600459 0 0 0 0 -112.33487243958882 -57.154391322361334 0 -57.154391322361334 127.60461962906629 0 0 0 0 441.86494464690509 418.67670372651264 0 418.67670372651264 1086.9613397735739 0 0 0 0 -12.008693156954287 29.824031018275434 0 29.824031018275434 20.93765080631529 0 0 0 0 -74.467920195962989 92.122640083805891 0 92.122640083805891 111.86930359476537 0 0 0 0 -112.81906671406296 88.73036712614703 0 88.73036712614703 120.48924775265186 0 0 0 0 -200.36116506264136 128.05200620381584 0 128.05200620381584 167.27518903485907 0 0 0 0 -30.169203141544358 183.04075410224323 0 183.04075410224323 161.11763576854719 0 0 0 0 -93.893373159319253 114.10402970338328 0 114.10402970338328 87.084476485317282 0 0 0 0 -24.665333365439437 84.866988763912559 0 84.866988763912559 98.025344579902594 0 0 0 0 -33.860635709230792 26.262834035267588 0 26.262834035267588 263.21541074835886 0 0 0 0 -188.53824563041917 -27.490649305602346 0 -27.490649305602346 201.96633379958803 0 0 0 0 -99.996908599145627 92.318820112228423 0 92.318820112228423 200.51088309319312 0 0 0 0 -69.451421663371207 170.18164018550033 0 170.18164018550033 124.16270961440023 0 0 0 0 -90.933594097276227 191.44807009237047 0 191.44807009237047 361.66113426175434 0 0 0 0 -32.96039614426445 197.91886410799634 0 197.91886410799634 304.02086293144384 0 0 0 0 -23.401253621296746 190.17136425615899 0 190.17136425615899 250.48222568815072 0 0 0 0 -4.9759781238553842 118.71056042049167 0 118.71056042049167 445.14103134046309 0 0 0 0 -24.318372221362324 255.86765777962046 0 255.86765777962046 425.25073365279241 0 0 0 0 27.249679279530298 243.97213487359943 0 243.97213487359943 675.79279860983661 0 0 0 0 446.65897421681711 65.329950000159442 0 65.329950000159442 431.75390316442645 0 0 0 0 408.9616099498553 317.35119208176911 0 317.35119208176911 363.97109377676679 0 0 0 0 3.8207682047336906 -3.1740447287856171 0 -3.1740447287856171 3.5399617190259391 0 0 0 0 243.27866265478644 596.68275139210846 0 596.68275139210846 381.03588818744174 0 0 0 0 354.27244351647869 214.1565585841854 0 214.1565585841854 329.94107436813647 0 0 0 0 89.930792151177229 201.7050525263403 0 201.7050525263403 376.25655284899403 0 0 0 0 258.01541103481486 272.96925936710613 0 272.96925936710613 396.51563495487062 0 0 0 0 -15.818653969633942 118.47666334077076 0 118.47666334077076 346.19936598210916 0 0 0 0 127.21657863132668 145.2641608516642 0 145.2641608516642 312.80211969000084 0 0 0 0 94.252960356681797 170.28604405975057 0 170.28604405975057 416.22327345343365 0 0 0 0 -8.7152999540568317 13.995896448907843 0 13.995896448907843 245.96982713079342 0 0 0 0 118.72916515977994 88.055565841197676 0 88.055565841197676 234.29467557356111 0 0 0 0 50.809205661691522 140.97633838623005 0 140.97633838623005 298.64615622621204 0 0 0 0 76.620492387238301 113.4388655963412 0 113.4388655963412 317.30501541987906 0 0 0 0 298.28752542261464 398.28376328014565 0 398.28376328014565 488.67295443774492 0 0 0 0 -192.24975710201761 135.21138648749911 0 135.21138648749911 440.11510156971417 0 0 0 0 -29.921290542131828 78.510656594251486 0 78.510656594251486 117.73783766822635 0 0 0 0 47.382276144630396 -1.8726197808846337 0 -1.8726197808846337 152.10828078169288 0 0 0 0 29.734796235287831 -6.0497493420298269 0 -6.0497493420298269 73.104883541021991 0 0 0 0 -127.06064886584466 -31.322158479744758 0 -31.322158479744758 197.43723099856288 0 0 0 0 -52.827214089679273 83.980899993566709 0 83.980899993566709 150.27938833495864 0 0 0 0 -274.26592889130688 -15.441610325608053 0 -15.441610325608053 144.36760627653621 0 0 0 0 -170.28500165605669 24.844197535157946 0 24.844197535157946 129.04844294882059 0 0 0 0 -372.69995311498451 -41.745525462629303 0 -41.745525462629303 161.50659696941148 0 0 0 0 -355.56880844548573 -74.43526995935099 0 -74.43526995935099 83.365514011660707 0 0 0 0 -353.34383308591282 -28.623029815393238 0 -28.623029815393238 172.08115964909666 0 0 0 0 -359.63769362761127 8.517510589073936 0 8.517510589073936 80.056420024528052 0 0 0 0 -299.07161916186419 -16.600446682568872 0 -16.600446682568872 133.19634374083034 0 0 0 0 -280.06113219328188 -50.981541994467989 0 -50.981541994467989 186.65192025173019 0 0 0 0 -952.31430137367533 442.7704564374967 0 442.7704564374967 272.46172303978756 0 0 0 0 0.28037969112241257 -13.667270551119447 0 -13.667270551119447 12.260067827030667 0 0 0 0 -1.7100763312222858 -17.446327439599109 0 -17.446327439599109 104.96878148243862 0 0 0 0 -80.497670619772634 -57.034170163686213 0 -57.034170163686213 155.50038284937182 0 0 0 0 -10.369197060704209 -9.6300192853050248 0 -9.6300192853050248 16.188038488529855 0 0 0 0 2.395860205653312 -22.485449683333776 0 -22.485449683333776 118.79338244636358 0 0 0 0 -322.50518907254536 -37.739236395820626 0 -37.739236395820626 124.09173604465468 0 0 0 0 -5.4144904426097566 -39.321055170407938 0 -39.321055170407938 61.534638073238142 0 0 0 0 -1.7491252456182265 -20.672503674504583 0 -20.672503674504583 98.63796396836311 0 0 0 0 -1121.7472224367184 -90.331477451219712 0 -90.331477451219712 354.9207169736419 0 0 0 0 -69.778163462161956 -66.351844018437987 0 -66.351844018437987 146.25100121703144 0 0 0 0 -540.50798653951369 159.1032004470394 0 159.1032004470394 -76.992730378903616 0 0 0 0 3.8346659409753556 -14.769523074788594 0 -14.769523074788594 53.209192055239328 0 0 0 0 5.6427345691557811 -24.416948711316294 0 -24.416948711316294 114.72316758968498 0 0 0 0 22.210264158175619 -180.47748160610536 0 -180.47748160610536 94.167910335992929 0 0 0 0 0.25400654770600051 -10.966813605117366 0 -10.966813605117366 20.574628443712697 0 0 0 0 69.892196303630044 7.7368478297648835 0 7.7368478297648835 131.61989661051848 0 0 0 0 -1792.4649974049853 -313.10864834337917 0 -313.10864834337917 309.7801217051765 0 0 0 0 -69.133555182111195 -37.662575278774966 0 -37.662575278774966 144.78814805122965 0 0 0 0 3.5877457635845698 -26.099076493868345 0 -26.099076493868345 98.124507521611392 0 0 0 0 -3.9298131541144405 -11.150600527312168 0 -11.150600527312168 120.15792812066528 0 0 0 0 -25.921157053066054 7.5790434856025968 0 7.5790434856025968 73.383596931251304 0 0 0 0 -274.8293531081265 41.342204526281421 0 41.342204526281421 182.66395931589454 0 0 0 0 -283.73630012591161 8.3425458378114854 0 8.3425458378114854 104.8973052420879 0 0 0 0 -388.31576321515485 -19.677759388843697 0 -19.677759388843697 129.99013289860159 0 0 0 0 -431.21044680963928 62.047592926432117 0 62.047592926432117 133.46701409449815 0 0 0 0 -481.60189622031476 340.8019185129815 0 340.8019185129815 -5.2163661481008603 0 0 0 0 -369.60173071928432 82.712538656884135 0 82.712538656884135 389.23297988568811 0 0 0 0 -24.52187680938323 65.788452359105577 0 65.788452359105577 358.8461953152655 0 0 0 0 -126.12062232837525 57.650441310262977 0 57.650441310262977 431.3577674609769 0 0 0 0 -217.74866236901221 -100.96270874680704 0 -100.96270874680704 608.3006088537586 0 0 0 0 -81.694468449555188 164.86457596912078 0 164.86457596912078 72.958570363312901 0 0 0 0 297.98116830787649 -424.42116277395689 0 -424.42116277395689 344.80630964996817 0 0 0 0 -0.61503703227745321 2.0011311582664533 0 2.0011311582664533 1.2255194196732475 0 0 0 0 -266.21861861371099 202.44983138369207 0 202.44983138369207 221.36118489058208 0 0 0 0 -197.01097334044141 -139.70865550517192 0 -139.70865550517192 297.60000498133741 0 0 0 0 -1369.7714948302037 -232.19841469745938 0 -232.19841469745938 102.73380324278878 0 0 0 0 -1120.7978932219021 343.54525141189549 0 343.54525141189549 82.931359543149824 0 0 0 0 -15.700742369854161 10.393262520471655 0 10.393262520471655 96.812736931063867 0 0 0 0 -387.48733869499847 225.83784808433714 0 225.83784808433714 -9.5535156643184109 0 0 0 0 -25.882760748199342 51.202719926236711 0 51.202719926236711 27.495570184922368 0 0 0 0 -458.30889288080107 -67.248683380888409 0 -67.248683380888409 254.75639994999756 0 0 0 0 -763.90911552408579 140.70566428994312 0 140.70566428994312 310.79563606750253 0 0 0 0 -713.10141565376034 -114.27930481863316 0 -114.27930481863316 258.3447726256677 0 0 0 0 -229.81265688864005 44.081725698946229 0 44.081725698946229 274.19355542359244 0 0 0 0 -539.98254937645106 140.64455633483203 0 140.64455633483203 309.89394428437168 0 0 0 0 -330.60261000634637 -8.2177496636254546 0 -8.2177496636254546 258.28021265673124 0 0 0 0 -36.422620489648118 42.167527411235589 0 42.167527411235589 161.61005212038768 0 0 0 0 -211.11188715061598 85.753757313768233 0 85.753757313768233 175.69038498593727 0 0 0 0 -107.46537486879515 119.83986399096329 0 119.83986399096329 166.13786928575382 0 0 0 0 -155.23849225152162 -20.69069976284004 0 -20.69069976284004 222.31847813287095 0 0 0 0 -76.490628668001591 33.250755078248403 0 33.250755078248403 189.39012767611212 0 0 0 0 -159.02455973043834 -74.528016643241699 0 -74.528016643241699 235.30532045209202 0 0 0 0 -146.96852157928151 -53.731020897479141 0 -53.731020897479141 266.78531793492311 0 0 0 0 -93.771993325117108 -38.633782982371386 0 -38.633782982371386 210.57548249389583 0 0 0 0 -92.712058720883903 -91.488553948729162 0 -91.488553948729162 239.63729615925149 0 0 0 0 -42.250876135389262 -97.252176817057716 0 -97.252176817057716 193.9642722458193 0 0 0 0 -50.559652255655237 -19.466946445809299 0 -19.466946445809299 115.56215075471505 0 0 0 0 -43.896070728154882 -50.301937646994702 0 -50.301937646994702 190.07199934217533 0 0 0 0 3.407475036859978 -18.212100502445537 0 -18.212100502445537 121.51721511449136 0 0 0 0 -44.503830893558188 6.4655494705248202 0 6.4655494705248202 187.63053241120724 0 0 0 0 -123.61124810207923 235.75218011980724 0 235.75218011980724 -48.750561769069463 0 0 0 0 -4.1072892260344815 -75.052007915526701 0 -75.052007915526701 102.99499315715659 0 0 0 0 -52.363657272385893 25.358929131568111 0 25.358929131568111 121.36113047967504 0 0 0 0 17.445766222316571 234.13841006617773 0 234.13841006617773 100.20970973646035 0 0 0 0 -68.132949964992349 102.79948136035819 0 102.79948136035819 -98.152329090391504 0 0 0 0 50.198794590400894 111.47330930570388 0 111.47330930570388 41.478078423198895 0 0 0 0 -45.897121436839889 33.627647448156196 0 33.627647448156196 145.57450213171035 0 0 0 0 -321.03854586304851 317.29185859691279 0 317.29185859691279 163.61126428689022 0 0 0 0 -61.289529224281523 -14.604658518840438 0 -14.604658518840438 190.96673186307635 0 0 0 0 117.7640695979851 -132.18368283298287 0 -132.18368283298287 34.890076261554896 0 0 0 0 166.35125160267307 -272.41830529225422 0 -272.41830529225422 272.25699580454807 0 0 0 0 2.7179000489172971 -2.2240560515116421 0 -2.2240560515116421 8.0812786461593227 0 0 0 0 150.840187783174 7.4296006452954089 0 7.4296006452954089 52.923691185891585 0 0 0 0 29.969203577248209 -38.470379319873246 0 -38.470379319873246 57.928234042276927 0 0 0 0 1.2649889340090255 -49.972407647564523 0 -49.972407647564523 35.167393869181979 0 0 0 0 21.483994736084242 -45.1770610223939 0 -45.1770610223939 3.5896793171086756 0 0 0 0 4.3854797100386804 -52.746878611598731 0 -52.746878611598731 23.006510702814921 0 0 0 0 12.02262545632675 -46.465282291235781 0 -46.465282291235781 27.774612761269964 0 0 0 0 9.8882799378379715 -48.377672392166005 0 -48.377672392166005 36.281925376591971 0 0 0 0 7.3641796163068705 -45.772976256668699 0 -45.772976256668699 39.067742802286375 0 0 0 0 -1.5337162250202567 3.9043732051015994 0 3.9043732051015994 1.3181754476366034 0 0 0 0 35.551411280253205 -21.514207225400469 0 -21.514207225400469 -100.11180294311453 0 0 0 0 -36.260258579630317 -147.76345574867582 0 -147.76345574867582 208.10693569330215 0 0 0 0 -128.86294526154234 -200.84105863656032 0 -200.84105863656032 293.14427305955178 0 0 0 0 -11.222966246557917 -147.56056645163471 0 -147.56056645163471 207.57264608124854 0 0 0 0 113.0207981976107 -340.35094448588541 0 -340.35094448588541 214.63814214386412 0 0 0 0 -56.200816773934093 -300.34020519204944 0 -300.34020519204944 251.41069055333719 0 0 0 0 134.71323567486525 -307.29860394629509 0 -307.29860394629509 166.83765623994077 0 0 0 0 -266.61347406801269 -145.32351238484387 0 -145.32351238484387 327.1570998895013 0 0 0 0 -274.7444208139932 -163.67949027735904 0 -163.67949027735904 288.31579998048147 0 0 0 0 -94.886953651719523 -341.12267281391553 0 -341.12267281391553 268.12363167365856 0 0 0 0 -553.53916729446064 -133.78024285494536 0 -133.78024285494536 329.74472716279075 0 0 0 0 -344.81320268543277 -292.64860135850745 0 -292.64860135850745 191.39998857570458 0 0 0 0 -338.04538091133145 -268.9824288266401 0 -268.9824288266401 273.75249022731356 0 0 0 0 -594.46869473200059 -206.34253118680954 0 -206.34253118680954 119.08321073818479 0 0 0 0 -353.26051715142421 -348.60837571522347 0 -348.60837571522347 76.103550157636164 0 0 0 0 -424.89023561585054 -211.67246192814855 0 -211.67246192814855 -18.630281284210469 0 0 0 0 -736.44227414061606 -363.84978579860717 0 -363.84978579860717 221.11312442595158 0 0 0 0 -830.08108038417413 -315.56544654249501 0 -315.56544654249501 71.667710108737083 0 0 0 0 -839.96070165551646 -160.28778490905688 0 -160.28778490905688 -60.898032022799271 0 0 0 0 -1228.9832698047758 -117.62041224535369 0 -117.62041224535369 168.84433673476178 0 0 0 0 -699.24756923231689 -38.199514408408277 0 -38.199514408408277 161.17836411470989 0 0 0 0 -57.462504763102515 -488.20995786794856 0 -488.20995786794856 264.51546436984768 0 0 0 0 -174.13628887597588 -146.63090861650335 0 -146.63090861650335 302.58694751427066 0 0 0 0 235.32618072567948 -556.13182719023189 0 -556.13182719023189 527.77033239366335 0 0 0 0 447.53663205226258 81.699361359330624 0 81.699361359330624 378.86578744223345 0 0 0 0 622.26430896784382 -314.65652175925811 0 -314.65652175925811 42.844514126592003 0 0 0 0 397.86663035977188 74.635747022744908 0 74.635747022744908 -66.925041886018334 0 0 0 0 -38.070708162946403 -44.650809562810082 0 -44.650809562810082 92.274094123567011 0 0 0 0 59.550820504895228 -299.65699934372947 0 -299.65699934372947 781.78366372281903 0 0 0 0 7.2737341286614505 -1.7297656541788706 0 -1.7297656541788706 -1.0259692168651298 0 0 0 0 662.53374345372276 -254.11089169773072 0 -254.11089169773072 386.17799210961721 0 0 0 0 322.9832037238466 107.22627715084923 0 107.22627715084923 674.52524562329472 0 0 0 0 227.92800730277941 -104.29230553295656 0 -104.29230553295656 335.19043906922616 0 0 0 0 -939.71256213697598 -95.777224667041651 0 -95.777224667041651 73.281117777667532 0 0 0 0 -845.55830331506149 -173.64138011474279 0 -173.64138011474279 -515.65158066554204 0 0 0 0 -1044.1475774680403 213.12834055211852 0 213.12834055211852 -221.11506209336039 0 0 0 0 -1031.8440255819296 -322.14351297150824 0 -322.14351297150824 -451.7441428175789 0 0 0 0 -1131.7638692368782 -392.48217757348993 0 -392.48217757348993 -275.99278330709058 0 0 0 0 -757.8512432485295 -77.254120340916415 0 -77.254120340916415 -418.00573830784379 0 0 0 0 -994.13498877473467 -193.38221169880308 0 -193.38221169880308 -141.01016936956694 0 0 0 0 -1106.2633440235368 -319.5428864156529 0 -319.5428864156529 -144.4303964358769 0 0 0 0 -574.2406641743728 -334.89191575768473 0 -334.89191575768473 -83.090415467393541 0 0 0 0 -807.74233430962886 -96.669489284711062 0 -96.669489284711062 -72.970997046147204 0 0 0 0 -418.0882076018479 -245.20038993414028 0 -245.20038993414028 -119.42239193908517 0 0 0 0 -268.13859385545038 -62.227280392653029 0 -62.227280392653029 17.58156010176117 0 0 0 0 -458.76819690178127 12.734584671376069 0 12.734584671376069 -83.759525993520128 0 0 0 0 204.43921622190646 -200.66773582162341 0 -200.66773582162341 144.90550099927441 0 0 0 0 67.623726395302583 29.946959474140385 0 29.946959474140385 316.83528874615513 0 0 0 0 90.402135590593389 39.004952730164405 0 39.004952730164405 -38.677953644861191 0 0 0 0 -108.32941994790417 -232.34330706838364 0 -232.34330706838364 52.263923916610111 0 0 0 0 154.61502029559415 -79.440138276599555 0 -79.440138276599555 41.14697305297841 0 0 0 0 429.35755555154356 148.06155398864576 0 148.06155398864576 147.49010092315348 0 0 0 0 86.762433527587746 -209.51136582722893 0 -209.51136582722893 628.23199977567492 0 0 0 0 -1162.6117066398638 -541.00992978404565 0 -541.00992978404565 131.26989738099837 0 0 0 0 -562.59510399365354 -119.65488168218326 0 -119.65488168218326 -78.576401108089613 0 0 0 0 -341.30002588813841 -183.91719243461512 0 -183.91719243461512 189.51432255240888 0 0 0 0 -636.28849275810535 -51.961786541754464 0 -51.961786541754464 613.55636834685538 0 0 0 0 -60.120398350321921 80.793327710478479 0 80.793327710478479 55.345607185678091 0 0 0 0 42.732839148811763 481.80847278463443 0 481.80847278463443 467.25066006839779 0 0 0 0 -84.197677589812884 107.42832023688334 0 107.42832023688334 203.75914002761783 0 0 0 0 656.82073396082706 571.75074071527297 0 571.75074071527297 344.13300330709444 0 0 0 0 -0.3693351007847665 0.45114543979050836 0 0.45114543979050836 7.1031607317127374 0 0 0 0 17.368606576163074 -114.70123733491312 0 -114.70123733491312 234.34850641931371 0 0 0 0 -9.1022738902172478 513.1495635954052 0 513.1495635954052 959.775693757525 0 0 0 0 125.10812984543008 -58.892795260216644 0 -58.892795260216644 27.228347205463251 0 0 0 0 1.1904929504261439 2.3041026661038142 0 2.3041026661038142 2.0361213261852917 0 0 0 0 228.70423092329111 209.99765244821265 0 209.99765244821265 301.60372162580279 0 0 0 0 -473.04238976031365 -30.135876282044592 0 -30.135876282044592 435.37484080891227 0 0 0 0 -863.23531333726442 171.25247348806033 0 171.25247348806033 294.70444916999259 0 0 0 0 260.44685837905672 152.96479009071027 0 152.96479009071027 -18.558611653867047 0 0 0 0 -317.4803446161277 409.4810895245646 0 409.4810895245646 291.49542443204291 0 0 0 0 48.1570469698745 204.43958359491444 0 204.43958359491444 306.95380732687772 0 0 0 0 0.75479475400480212 -1.3860107004378577 0 -1.3860107004378577 5.1713116560600874 0 0 0 0 127.99839842750026 65.703652159987996 0 65.703652159987996 57.440398915279729 0 0 0 0 -158.67377658628357 35.697831143848816 0 35.697831143848816 684.98323268032345 0 0 0 0 -26.35995751511291 -65.177996582337528 0 -65.177996582337528 152.44704946581624 0 0 0 0 3.8132203627774288 19.332139831752102 0 19.332139831752102 8.3132171327808919 0 0 0 0 6.4463400816530338 12.487200235832461 0 12.487200235832461 -8.403950483199651 0 0 0 0 -1.4057275658437476 11.261330264531418 0 11.261330264531418 5.062863951205931 0 0 0 0 39.550960981523531 78.191193761893373 0 78.191193761893373 -75.343549433115186 0 0 0 0 6.3813913882023172 11.388947072144434 0 11.388947072144434 -0.30463484626765336 0 0 0 0 -10.103982723922172 -64.124300352490536 0 -64.124300352490536 -20.52152543905504 0 0 0 0 107.05439297678095 40.885903508663432 0 40.885903508663432 -117.7806695207928 0 0 0 0 7.602247773321599 7.5943207346425829 0 7.5943207346425829 9.9209599275006539 0 0 0 0 16.46551612452231 28.881751565086461 0 28.881751565086461 -4.4609712393137215 0 0 0 0 11.841569624211843 33.815300989330098 0 33.815300989330098 1.9341081051652509 0 0 0 0 2.9225583938357538 10.935425685806241 0 10.935425685806241 -2.5400729274402405 0 0 0 0 19.832322515669148 32.4639842108121 0 32.4639842108121 -1.372348075046375 0 0 0 0 27.046924839350709 0.46267808813386324 0 0.46267808813386324 -21.354219784030875 0 0 0 0 -0.1142789583927879 13.390761869517519 0 13.390761869517519 11.495171875171309 0 0 0 0 4.2484305185640281 7.7020331168243361 0 7.7020331168243361 -9.8036278661743737 0 0 0 0 5.6017018145284965 6.5159282055237782 0 6.5159282055237782 1.2017286637101279 0 0 0 0 86.944946088773577 67.46952695421237 0 67.46952695421237 5.3829236265267468 0 0 0 0 20.387882180301858 33.451445278241181 0 33.451445278241181 -3.313990908578262 0 0 0 0 24.726832921851383 38.949275851357186 0 38.949275851357186 0.53788379488628379 0 0 0 0 18.679966333642582 81.456714548085742 0 81.456714548085742 70.037373592850145 0 0 0 0 -5.9193265137550952 92.392391353207643 0 92.392391353207643 156.41195033762142 0 0 0 0 -6.8302221462954549 85.960823830387255 0 85.960823830387255 113.91091174791654 0 0 0 0 55.61214771745108 101.39598249888104 0 101.39598249888104 68.603843997768081 0 0 0 0 18.788056474889956 65.43092667014227 0 65.43092667014227 53.756422970113363 0 0 0 0 155.20343093431302 60.019211093061926 0 60.019211093061926 -25.61238106364749 0 0 0 0 38.833684421852013 -0.78037318839443515 0 -0.78037318839443515 -22.939352384637459 0 0 0 0 52.712425835814429 111.6301671570385 0 111.6301671570385 124.84063780078031 0 0 0 0 77.232586336489476 104.15164424847126 0 104.15164424847126 122.52216872573445 0 0 0 0 81.162259997429828 142.53594643202041 0 142.53594643202041 253.38163487696465 0 0 0 0 73.347504041459615 77.032963254451715 0 77.032963254451715 245.26932337222576 0 0 0 0 240.4346434675208 321.6158722713501 0 321.6158722713501 573.92308635662266 0 0 0 0 56.953604113648908 129.51866096224421 0 129.51866096224421 258.50581775455203 0 0 0 0 7.3157667372252035 105.44503296265384 0 105.44503296265384 247.30475659835724 0 0 0 0 -19.678137571831485 85.689853389448785 0 85.689853389448785 173.70916585026225 0 0 0 0 -4.2066925917961271 70.915320853476487 0 70.915320853476487 149.57063471738729 0 0 0 0 -242.21322200361374 -28.819452052331258 0 -28.819452052331258 196.80880703601701 0 0 0 0 -223.37186862454655 27.377397987302629 0 27.377397987302629 213.66562437328548 0 0 0 0 -18.580132588813285 -40.352309851112409 0 -40.352309851112409 143.81829457391251 0 0 0 0 -0.15811071830890366 0.07092792938546566 0 0.07092792938546566 -2.5316541450996191 0 0 0 0 -157.4646803106516 -9.6159666196429043 0 -9.6159666196429043 121.02452489667098 0 0 0 0 588.17271501820869 -49.041619311822615 0 -49.041619311822615 91.419766367984494 0 0 0 0 193.95476646312909 125.58958664755164 0 125.58958664755164 39.805214957253838 0 0 0 0 -274.65995946709518 101.90733110995166 0 101.90733110995166 25.966455727711491 0 0 0 0 -1.7027830786962959 1.2284921877677863 0 1.2284921877677863 -0.91460560327603346 0 0 0 0 -368.21144489459857 41.328955487479561 0 41.328955487479561 29.980244497680815 0 0 0 0 0.27201471982157743 2.0268956196086449 0 2.0268956196086449 -7.8179761980774645 0 0 0 0 -0.97819135583449679 7.0633788480743078 0 7.0633788480743078 -6.1356959801921676 0 0 0 0 -26.235317421023865 54.227820635484477 0 54.227820635484477 -104.46960509475389 0 0 0 0 -0.53406256629395799 7.9122579045328294 0 7.9122579045328294 0.72770515873517283 0 0 0 0 1.2600646157663959 46.813345087581865 0 46.813345087581865 -25.449367047296619 0 0 0 0 1.8576571820058234 14.393696154129884 0 14.393696154129884 3.7719200995488791 0 0 0 0 -42.48020684801395 11.01334423215576 0 11.01334423215576 -2.5545694894531152 0 0 0 0 -349.02025570389196 46.053271541747108 0 46.053271541747108 1.9170286282342204 0 0 0 0 -6.7167483854464081 -188.97959034353914 0 -188.97959034353914 210.95522396373599 0 0 0 0 -200.93482313356708 -21.964449881270411 0 -21.964449881270411 198.7135690845931 0 0 0 0 -112.29371743068441 -59.781893444369416 0 -59.781893444369416 198.50938448246598 0 0 0 0 -84.505517948199667 18.613363708371821 0 18.613363708371821 19.290384532098415 0 0 0 0 3.1877928684023966 -22.265831274748592 0 -22.265831274748592 109.16000444256565 0 0 0 0 -34.386873076578013 -15.38869657194482 0 -15.38869657194482 11.834979153391032 0 0 0 0 -156.92804765375968 -75.49744576380067 0 -75.49744576380067 -40.410827506333646 0 0 0 0 -318.88053274066897 128.46525244250302 0 128.46525244250302 10.923207897094471 0 0 0 0 -271.67157649753642 -11.607831129762417 0 -11.607831129762417 91.609303082048427 0 0 0 0 -464.43068612954198 -99.035414430618403 0 -99.035414430618403 133.68817408195173 0 0 0 0 2.6318310048179043 -19.007141172763934 0 -19.007141172763934 105.49817643407633 0 0 0 0 -412.76935979856603 -82.073168936025468 0 -82.073168936025468 46.276049472449813 0 0 0 0 -445.45410915448116 -22.924335580080879 0 -22.924335580080879 136.77961189448251 0 0 0 0 -329.76919542274175 23.075072493793414 0 23.075072493793414 98.120958320243517 0 0 0 0 -599.19825554303759 -12.535501898832081 0 -12.535501898832081 130.97193983262696 0 0 0 0 -557.43111306671983 -63.32414779134524 0 -63.32414779134524 130.65818076396681 0 0 0 0 3.3111925867781786 -20.5320483397891 0 -20.5320483397891 102.04047456774367 0 0 0 0 2.7029825096374145 -19.668771603868784 0 -19.668771603868784 104.49149655863184 0 0 0 0 -627.60385246508474 -123.3485034024452 0 -123.3485034024452 138.55229970151413 0 0 0 0 -114.78116029790544 -54.98672646488194 0 -54.98672646488194 169.9961646720767 0 0 0 0 -78.505268150149277 -34.084060520082858 0 -34.084060520082858 53.71410453824501 0 0 0 0 -107.46364501334597 -48.403226968935087 0 -48.403226968935087 118.49458790828794 0 0 0 0 0.92964491030714869 -20.589879986559765 0 -20.589879986559765 101.69395891184304 0 0 0 0 -519.34543005899218 -345.08983032101605 0 -345.08983032101605 -26.311964137203177 0 0 0 0 -864.15422866928657 -132.13718409552894 0 -132.13718409552894 137.68301660527504 0 0 0 0 -652.92410213980281 85.498894926862704 0 85.498894926862704 39.824102466678596 0 0 0 0 -322.21507972209884 -62.856193438376522 0 -62.856193438376522 131.15062064605308 0 0 0 0 -50.882806674976564 -52.828495244310488 0 -52.828495244310488 86.67774456066536 0 0 0 0 -158.20980394990877 -58.463152380021583 0 -58.463152380021583 126.50180160082982 0 0 0 0 -110.84473327873911 -52.982321551963878 0 -52.982321551963878 106.94806696604235 0 0 0 0 -167.12262110923621 -35.781936606676027 0 -35.781936606676027 135.52628531758955 0 0 0 0 -152.99358512222625 -14.416604342733365 0 -14.416604342733365 162.59664196563494 0 0 0 0 -85.873008253926855 26.323205217467489 0 26.323205217467489 163.74340499106785 0 0 0 0 -158.30274001104431 36.102602337278711 0 36.102602337278711 229.96968988289882 0 0 0 0 -167.65171889634223 -2.0695172969398072 0 -2.0695172969398072 154.37292101661728 0 0 0 0 -86.920336212075654 18.602771183518968 0 18.602771183518968 127.31356752915781 0 0 0 0 -37.785925196852077 15.039105999707203 0 15.039105999707203 127.53440508756385 0 0 0 0 -44.661910274250658 42.884074973640587 0 42.884074973640587 119.24726373629262 0 0 0 0 -117.06042986255306 93.69610139345717 0 93.69610139345717 140.20265433465261 0 0 0 0 -107.24066637903525 53.803007202337596 0 53.803007202337596 134.08594064967735 0 0 0 0 -907.25358792590441 -211.0166961248251 0 -211.0166961248251 5.2521850160846952 0 0 0 0 -7.8004004237815714 -23.003878528836502 0 -23.003878528836502 20.774373239845289 0 0 0 0 -1393.9173656715238 54.534445646459062 0 54.534445646459062 96.378059217779082 0 0 0 0 -40.90003884704447 -17.291055308690716 0 -17.291055308690716 119.3491331735176 0 0 0 0 -106.93575604429134 -38.666399193425605 0 -38.666399193425605 86.598442871945736 0 0 0 0 -63.66651156713101 -15.274816134404858 0 -15.274816134404858 126.44516825994401 0 0 0 0 -5.0253407343343302 -15.27093822582844 0 -15.27093822582844 99.316268026034365 0 0 0 0 -10.536759202891172 -59.365548404290017 0 -59.365548404290017 48.262239163776243 0 0 0 0 -11.187135291213785 3.397751775122293 0 3.397751775122293 97.821005430654395 0 0 0 0 -16.013459269775922 -14.380032741124026 0 -14.380032741124026 118.32696631495752 0 0 0 0 -38.338677837279647 -41.036839215668806 0 -41.036839215668806 57.455563459305267 0 0 0 0 -21.14543824169823 -2.9394660495290736 0 -2.9394660495290736 131.23334180523671 0 0 0 0 -13.863947922080198 19.603810509891513 0 19.603810509891513 13.471509082147747 0 0 0 0 -100.13433190302021 -20.862184343561239 0 -20.862184343561239 52.854744123818818 0 0 0 0 -1274.3462709695114 -222.37533056799293 0 -222.37533056799293 219.56807123440922 0 0 0 0 -105.6681320554801 -29.596768442893335 0 -29.596768442893335 157.14949917704507 0 0 0 0 -6.8159410112750765 -9.1423176813971949 0 -9.1423176813971949 87.87936007233705 0 0 0 0 -1032.0004246880012 23.535459488688502 0 23.535459488688502 157.4908083044138 0 0 0 0 -54.374849988552342 4.3861479593088006 0 4.3861479593088006 104.97510037309985 0 0 0 0 -4.5784879767216555 -6.5138566248320622 0 -6.5138566248320622 71.438525589537306 0 0 0 0 -1533.0683812643333 -330.84638886737412 0 -330.84638886737412 253.69024361483753 0 0 0 0 -31.069735357777745 25.218407557851606 0 25.218407557851606 82.755627392456518 0 0 0 0 -13.610759427167332 10.680676207848263 0 10.680676207848263 92.99270058808888 0 0 0 0 -7.95476664079888 15.553642936352844 0 15.553642936352844 84.587701068074239 0 0 0 0 -1.4056451253638897 0.88029303088478628 0 0.88029303088478628 116.78414043536759 0 0 0 0 -28.532467814195719 21.531362694570731 0 21.531362694570731 46.765502102454128 0 0 0 0 -104.70855003725956 -7.5028075621012249 0 -7.5028075621012249 285.19615389248293 0 0 0 0 -19.926342508910238 36.106382584457606 0 36.106382584457606 216.54461993870791 0 0 0 0 -10.529266754590225 32.60745746162376 0 32.60745746162376 5.9034080698428788 0 0 0 0 -32.781485784489632 -6.9811235219640366 0 -6.9811235219640366 107.21056650579703 0 0 0 0 -91.560422908096371 100.65472737585515 0 100.65472737585515 275.53268546660593 0 0 0 0 1.7602997441979795 7.59247247138644 0 7.59247247138644 4.1714427792286983 0 0 0 0 -4.1866338079944398 19.505217083906956 0 19.505217083906956 87.169742570362416 0 0 0 0 -63.901211017126116 74.186042299388447 0 74.186042299388447 68.419763322429958 0 0 0 0 -48.697561047404861 32.246000583750146 0 32.246000583750146 105.80878674015867 0 0 0 0 -21.598632357099632 18.032447218623645 0 18.032447218623645 104.38033116065776 0 0 0 0 -37.634731240699693 12.15078572615068 0 12.15078572615068 103.02836668239189 0 0 0 0 -23.51231865043701 22.636515615042981 0 22.636515615042981 108.56554589811861 0 0 0 0 -33.469685450411816 6.860503158368374 0 6.860503158368374 144.0082885012016 0 0 0 0 -37.052540532277348 10.868880353610765 0 10.868880353610765 138.1201985368518 0 0 0 0 -79.395024377587106 34.868096796974896 0 34.868096796974896 265.45221616895356 0 0 0 0 -35.947571682053422 22.969137851215152 0 22.969137851215152 120.34218669416123 0 0 0 0 -3.1370859122081818 -3.6994835903497956 0 -3.6994835903497956 23.548083800285436 0 0 0 0 63.362743097815837 -0.24953885594533176 0 -0.24953885594533176 190.5368502190243 0 0 0 0 -0.85636106756919617 -30.704268989550542 0 -30.704268989550542 220.03422042994555 0 0 0 0 -1.1609556815347695 0.56214776386398757 0 0.56214776386398757 -3.5805127257924445 0 0 0 0 -66.713996840713662 -37.797359929146296 0 -37.797359929146296 139.27220163397425 0 0 0 0 -48.633359854539776 108.25423934399214 0 108.25423934399214 -69.642383814235814 0 0 0 0 -3.0523627093944015 57.720547275117838 0 57.720547275117838 -15.164132193310422 0 0 0 0 -69.663886100270247 151.75173180040713 0 151.75173180040713 30.106644447247163 0 0 0 0 -247.70088442513224 73.750063736673866 0 73.750063736673866 15.158650294817107 0 0 0 0 -166.4004654105313 11.314606710515619 0 11.314606710515619 118.64510865260149 0 0 0 0 -204.24942060284229 116.16033296914884 0 116.16033296914884 -12.813777166987506 0 0 0 0 -246.4738032662699 79.896515181442339 0 79.896515181442339 -36.343755416193261 0 0 0 0 -33.251075937916539 -16.716659610118768 0 -16.716659610118768 40.284117795365091 0 0 0 0 -30.306220571526865 -10.424972552601957 0 -10.424972552601957 55.527014620376576 0 0 0 0 -30.753760025359952 1.4971189055531795 0 1.4971189055531795 7.2985449962175153 0 0 0 0 -35.700767212711526 -2.2824115369480751 0 -2.2824115369480751 51.585187851400406 0 0 0 0 -24.77378166395647 -24.933281881176299 0 -24.933281881176299 51.220072857652369 0 0 0 0 -35.339264555497721 -16.181438848228481 0 -16.181438848228481 50.421339267766598 0 0 0 0 -16.994022576152929 -41.463232076924214 0 -41.463232076924214 48.347614187406634 0 0 0 0 0.64898086926836029 5.1370726723013611 0 5.1370726723013611 22.602636562421836 0 0 0 0 -50.14330022797094 13.490497731156438 0 13.490497731156438 43.572678510418882 0 0 0 0 133.43203562570079 -182.09713232810526 0 -182.09713232810526 293.63325346742522 0 0 0 0 20.493596811112184 -7.4402919154599658 0 -7.4402919154599658 -12.563741077824943 0 0 0 0 0.39497437374075339 1.6985876044722357 0 1.6985876044722357 8.2693507685569791 0 0 0 0 118.51394342076492 -126.64277534396842 0 -126.64277534396842 92.283352527113493 0 0 0 0 31.78071001819535 -86.885064471818396 0 -86.885064471818396 90.266067462102001 0 0 0 0 -40.084282366336993 -61.440043462112953 0 -61.440043462112953 144.33951515232911 0 0 0 0 -15.422314604800704 -104.88679636074403 0 -104.88679636074403 200.40566070582918 0 0 0 0 -12.042302079974888 -82.844123791615516 0 -82.844123791615516 287.32682727603787 0 0 0 0 -59.546932930053572 -21.805669813226132 0 -21.805669813226132 182.74824143866408 0 0 0 0 -41.775441639689689 -22.120371184280657 0 -22.120371184280657 383.01228261728193 0 0 0 0 -46.391302272010762 7.0391415679184774 0 7.0391415679184774 245.82180263169084 0 0 0 0 9.8789480524155806 -56.660395458129642 0 -56.660395458129642 268.93926659306248 0 0 0 0 9.1019902293190285 -59.870573912887863 0 -59.870573912887863 572.01865646594342 0 0 0 0 -125.11640187851845 304.99938558837209 0 304.99938558837209 492.22296585753213 0 0 0 0 -154.03314359190881 200.32036372386858 0 200.32036372386858 227.76555624205412 0 0 0 0 -311.46567978595704 8.2809511286877751 0 8.2809511286877751 730.56827025727443 0 0 0 0 -200.52177303719145 125.05571917235739 0 125.05571917235739 420.82697144544886 0 0 0 0 -249.42308460927188 -28.734092877463468 0 -28.734092877463468 260.7793037767151 0 0 0 0 -214.77890583889166 70.148743419917878 0 70.148743419917878 217.20134627250604 0 0 0 0 -82.166968720194745 165.05303926658968 0 165.05303926658968 127.80502162793732 0 0 0 0 -133.79061943123043 151.12682741763228 0 151.12682741763228 151.81741817394231 0 0 0 0 -125.10513526606155 126.04625491225113 0 126.04625491225113 220.13266059735676 0 0 0 0 -51.239910852693356 105.79138287263225 0 105.79138287263225 134.96302777339588 0 0 0 0 29.709254134047114 248.13829011819871 0 248.13829011819871 130.90006408040813 0 0 0 0 -42.122989218672046 96.143190611717728 0 96.143190611717728 -42.317667959549453 0 0 0 0 -317.10037735268452 -407.77754789638857 0 -407.77754789638857 1700.7639969870061 0 0 0 0 175.57557228202677 -771.52045272830583 0 -771.52045272830583 1757.0862998455923 0 0 0 0 883.11870655067514 -576.02572472324755 0 -576.02572472324755 1296.1997861707641 0 0 0 0 302.25062182155762 368.18044423324318 0 368.18044423324318 729.78312851028022 0 0 0 0 -27.088912326088575 -739.86427301488948 0 -739.86427301488948 2295.9603698369683 0 0 0 0 236.47563291164624 117.34489292486978 0 117.34489292486978 2173.8760282435501 0 0 0 0 -568.28679888236366 -207.34205163009756 0 -207.34205163009756 187.70488492599816 0 0 0 0 686.80109155594346 266.356613787284 0 266.356613787284 -3.8702059554634616 0 0 0 0 17.465102753419849 -26.432000161505798 0 -26.432000161505798 38.830795652955061 0 0 0 0 723.71955814032935 6.9973205857968424 0 6.9973205857968424 76.196516339332447 0 0 0 0 485.09927024137869 406.81557650627929 0 406.81557650627929 -16.270701043227746 0 0 0 0 533.17017464849187 107.66536351748437 0 107.66536351748437 -18.800426471534593 0 0 0 0 -322.92105012478896 328.7021421732461 0 328.7021421732461 131.72441040556441 0 0 0 0 1.5907209890375356 6.9779458250927036 0 6.9779458250927036 20.783982521237363 0 0 0 0 -558.23856809886456 344.83177524549865 0 344.83177524549865 542.62965873240319 0 0 0 0 433.11147609161617 -435.33337599581864 0 -435.33337599581864 350.44961408277413 0 0 0 0 1815.7900800487787 -1935.3882190149561 0 -1935.3882190149561 1514.0424414423071 0 0 0 0 347.74695149636273 -60.0781930039484 0 -60.0781930039484 1519.6817264483179 0 0 0 0 627.42166060873751 -1012.5725571253861 0 -1012.5725571253861 559.16656314539978 0 0 0 0 148.22572049017799 49.917055296413309 0 49.917055296413309 34.326247988585237 0 0 0 0 53.800748398657674 137.76289060956151 0 137.76289060956151 -5.7817772657435853 0 0 0 0 18.629009701543964 101.38702152313272 0 101.38702152313272 14.120452031394962 0 0 0 0 58.256009416936763 82.352975216664163 0 82.352975216664163 -26.011953621688008 0 0 0 0 0.67520132796260013 5.2228307420410545 0 5.2228307420410545 23.064870551987781 0 0 0 0 5.0700106992571818 68.1734566811283 0 68.1734566811283 -24.368573154170008 0 0 0 0 35.805802281942078 -0.3081461012170621 0 -0.3081461012170621 -86.500181149443961 0 0 0 0 -110.34337946414337 144.42036830150118 0 144.42036830150118 -46.119816483987961 0 0 0 0 8.0708311107762256 79.24126009275551 0 79.24126009275551 9.6120907793883816 0 0 0 0 -111.22762222546999 133.02859291080676 0 133.02859291080676 -1.2647553390925168 0 0 0 0 -170.314636482526 61.992716077787918 0 61.992716077787918 46.909580013016239 0 0 0 0 -99.160328574347261 63.443359211378265 0 63.443359211378265 46.939143889161642 0 0 0 0 -105.51174325326747 76.621363107395155 0 76.621363107395155 25.630006910036172 0 0 0 0 -334.8735075354482 124.70553208216734 0 124.70553208216734 92.651878435441176 0 0 0 0 -416.88568039348297 169.5044083302837 0 169.5044083302837 152.39135086489841 0 0 0 0 -274.34502089771195 93.753241031041398 0 93.753241031041398 78.560291991887425 0 0 0 0 -223.95237776495946 224.39152114540047 0 224.39152114540047 66.428292411204893 0 0 0 0 108.02811332672418 296.08240005688958 0 296.08240005688958 76.056608753613546 0 0 0 0 -647.5782268811688 45.373019647006004 0 45.373019647006004 184.29397500070627 0 0 0 0 -340.95439312679537 129.98763281109495 0 129.98763281109495 48.361217307123297 0 0 0 0 -723.83749712918222 159.05194821939313 0 159.05194821939313 308.07547132088075 0 0 0 0 -347.30951927543595 149.62142568371928 0 149.62142568371928 327.75394877214785 0 0 0 0 1.9530637544357887 362.00955859242458 0 362.00955859242458 421.34935968996433 0 0 0 0 -359.82725271530808 -122.97445794943155 0 -122.97445794943155 514.3968612077515 0 0 0 0 106.2356205592996 -274.16915513388813 0 -274.16915513388813 432.38824941564235 0 0 0 0 -833.53575487010858 -231.92190112683602 0 -231.92190112683602 312.56848000859839 0 0 0 0 -364.4474730212944 -74.283206078624062 0 -74.283206078624062 99.364334325990058 0 0 0 0 -846.6543450181066 -332.15935334625465 0 -332.15935334625465 -102.74787314897185 0 0 0 0 -872.12848646016846 -233.2719138048833 0 -233.2719138048833 360.4330475845054 0 0 0 0 -878.48047536548393 -350.0114685771332 0 -350.0114685771332 -318.60795558006794 0 0 0 0 -829.35618111272493 -158.42312257312005 0 -158.42312257312005 138.36992861729232 0 0 0 0 -459.43349243684088 -478.63014323484094 0 -478.63014323484094 154.77222458941105 0 0 0 0 -254.13812976063332 -388.72129724860133 0 -388.72129724860133 -67.126463949596655 0 0 0 0 -1597.4676495639433 -650.12543201858352 0 -650.12543201858352 265.87207317459251 0 0 0 0 -245.77180013433775 -529.63353673964593 0 -529.63353673964593 165.00411135771537 0 0 0 0 -85.882148753881893 -260.98616408033558 0 -260.98616408033558 54.96543104018383 0 0 0 0 84.278785016356778 -542.33731737644121 0 -542.33731737644121 243.06364109327842 0 0 0 0 209.8029251216567 -471.23043296620017 0 -471.23043296620017 286.53700697422028 0 0 0 0 -251.56337868273465 -379.95379107370172 0 -379.95379107370172 343.74613920207048 0 0 0 0 257.67983109618126 -355.3610886226088 0 -355.3610886226088 121.66804451203643 0 0 0 0 -306.20581525844864 -170.86290619015926 0 -170.86290619015926 36.143018162030785 0 0 0 0 410.3104790461457 -282.08720311545039 0 -282.08720311545039 276.35378507111454 0 0 0 0 615.46472390745748 -538.30728761698629 0 -538.30728761698629 486.91290347721952 0 0 0 0 307.46279708292514 -498.44263252824021 0 -498.44263252824021 337.06891370815356 0 0 0 0 668.0213567388364 -472.38398855899868 0 -472.38398855899868 162.35061086621135 0 0 0 0 667.58152446599297 -456.64416525453817 0 -456.64416525453817 372.25277804637153 0 0 0 0 650.07005429293213 -634.18436730499889 0 -634.18436730499889 344.33980089698161 0 0 0 0 650.76493419802864 -636.21486655085027 0 -636.21486655085027 224.43391308510945 0 0 0 0 390.31987412962826 -416.2527750214249 0 -416.2527750214249 121.20780583802843 0 0 0 0 1238.1662665200492 -469.83225549173585 0 -469.83225549173585 209.40746032619063 0 0 0 0 1074.7658517884574 -411.93782608493348 0 -411.93782608493348 300.24455706797744 0 0 0 0 856.75566341739341 -554.27208195710409 0 -554.27208195710409 339.55509317407268 0 0 0 0 1047.4511582373652 -393.15450802816122 0 -393.15450802816122 496.07483317998413 0 0 0 0 1025.0853995767022 -452.19165465426158 0 -452.19165465426158 471.841458387491 0 0 0 0 931.75580742367015 -222.15596808722876 0 -222.15596808722876 1221.4013979392985 0 0 0 0 124.72593803878362 -445.87285536574927 0 -445.87285536574927 1184.53527476819 0 0 0 0 -0.98221013883221531 221.89248813048107 0 221.89248813048107 1073.882148110577 0 0 0 0 0.036010645170285294 0.36187377729100945 0 0.36187377729100945 11.430932660605805 0 0 0 0 142.46591317047864 -652.36934809525519 0 -652.36934809525519 1232.4396093210526 0 0 0 0 576.90055138482148 337.10592168178118 0 337.10592168178118 176.97705695194054 0 0 0 0 731.88199514639291 -781.81749354857129 0 -781.81749354857129 1045.1849466516287 0 0 0 0 1212.240898168282 -992.53145105306976 0 -992.53145105306976 957.21543424988522 0 0 0 0 -8.2933004294532608 -0.13911283662122287 0 -0.13911283662122287 32.967469653038336 0 0 0 0 -795.63861562144075 245.26113043187252 0 245.26113043187252 211.17007879108132 0 0 0 0 962.83465019444429 -515.49606621085695 0 -515.49606621085695 631.6691144834258 0 0 0 0 937.62459274031016 -602.77018077618868 0 -602.77018077618868 487.18607373179111 0 0 0 0 856.71518271019136 -683.26679681768155 0 -683.26679681768155 601.31001328014827 0 0 0 0 -9.6715589801037538 -2.3405767868681266 0 -2.3405767868681266 44.268260043046098 0 0 0 0 1126.9830334479648 -548.74178675287112 0 -548.74178675287112 501.89519706823921 0 0 0 0 1112.2507550548889 -473.62938091045362 0 -473.62938091045362 296.95140107276529 0 0 0 0 -236.45610611625216 24.228101661225082 0 24.228101661225082 84.287911376206466 0 0 0 0 1560.3403776472478 -770.19702063073782 0 -770.19702063073782 467.02836911344639 0 0 0 0 -53.335688598622255 -43.567784583719913 0 -43.567784583719913 55.856412115630519 0 0 0 0 -2.9563201294765875 8.7556479790212087 0 8.7556479790212087 -0.45418245829603165 0 0 0 0 87.93578820978837 -129.19840327074417 0 -129.19840327074417 16.795197393497801 0 0 0 0 -30.632540231719759 -80.012978604943783 0 -80.012978604943783 -3.2083256096884725 0 0 0 0 -55.52051606558507 -51.641409288076829 0 -51.641409288076829 31.316476638763561 0 0 0 0 -19.303353252693341 92.63632976977533 0 92.63632976977533 -94.890638863638742 0 0 0 0 -159.64468554902078 -143.4611855108833 0 -143.4611855108833 176.96553345811844 0 0 0 0 93.432756795057458 -212.63586407468574 0 -212.63586407468574 99.694283797449316 0 0 0 0 0.21669718910015945 43.696678390202578 0 43.696678390202578 114.52792553841573 0 0 0 0 75.315997813488252 -36.902753781905631 0 -36.902753781905631 -42.083555149263702 0 0 0 0 3.6990789641854711 -0.72941648312080076 0 -0.72941648312080076 -1.5208958407209252 0 0 0 0 -24.153006888591335 -16.086208447020908 0 -16.086208447020908 -5.1006986343927565 0 0 0 0 -28.056090000895892 -14.185896562463313 0 -14.185896562463313 30.479117751499871 0 0 0 0 3.65598032050878 -8.0132794604474284 0 -8.0132794604474284 12.850404665460815 0 0 0 0 0.4236882205832444 22.775814133834501 0 22.775814133834501 -38.543110675891512 0 0 0 0 2.3522727944371162 -2.9506390076273874 0 -2.9506390076273874 4.4215646637700559 0 0 0 0 75.509469183540205 -20.495657676197879 0 -20.495657676197879 -79.814693173357227 0 0 0 0 22.203226487754591 8.3891720594670005 0 8.3891720594670005 -29.59691778148408 0 0 0 0 -25.118102312750125 -120.14085766442258 0 -120.14085766442258 76.351402984102606 0 0 0 0 95.917180404305327 -327.14704816896119 0 -327.14704816896119 194.78113062439661 0 0 0 0 1.4973942216806915 -2.6142668916718179 0 -2.6142668916718179 4.7202290767214947 0 0 0 0 426.2911879698695 -225.61544078754378 0 -225.61544078754378 -53.701627671907772 0 0 0 0 -596.78977062340732 -442.0146918991386 0 -442.0146918991386 356.97521404677536 0 0 0 0 442.25131872337352 -63.770204772532452 0 -63.770204772532452 -223.02871450011298 0 0 0 0 -1042.704721900499 575.99842721499954 0 575.99842721499954 430.6633096402802 0 0 0 0 -2.2856443191500997 -0.46091786951207325 0 -0.46091786951207325 13.405326926007177 0 0 0 0 53.465522095122651 -281.56236155338411 0 -281.56236155338411 354.76487480770447 0 0 0 0 81.598697668739987 -335.96978973947625 0 -335.96978973947625 288.39923534810077 0 0 0 0 479.24635224735584 -406.44893994860831 0 -406.44893994860831 382.70211776409997 0 0 0 0 65.196399884476705 -267.05519102948892 0 -267.05519102948892 241.53516918845708 0 0 0 0 -9.8730142428180443 -0.36037809486151673 0 -0.36037809486151673 37.741880104371376 0 0 0 0 -10.431763363698792 -9.0969428419757605 0 -9.0969428419757605 55.245621993810346 0 0 0 0 1.845781687420299 1.6069680814034655 0 1.6069680814034655 39.38031669517386 0 0 0 0 -15.716982013951821 -0.25115808546524931 0 -0.25115808546524931 39.855129429837689 0 0 0 0 -18.315502659184858 -12.108464410688612 0 -12.108464410688612 28.169991810354986 0 0 0 0 -7.4497375826003918 -13.118652509866479 0 -13.118652509866479 26.782703724726161 0 0 0 0 -26.700011458285623 -10.630105468513463 0 -10.630105468513463 2.9185942128115983 0 0 0 0 -20.745569652160611 -19.315231440203206 0 -19.315231440203206 23.11158297314978 0 0 0 0 -26.760900310962029 -18.284540773951449 0 -18.284540773951449 23.873900040431181 0 0 0 0 -21.844964253745275 -18.687928819701483 0 -18.687928819701483 13.254379272657388 0 0 0 0 -18.169038995909432 -37.608899205912167 0 -37.608899205912167 31.3711501179896 0 0 0 0 -21.84604787985063 -49.178467370991029 0 -49.178467370991029 1.3023576006526127 0 0 0 0 10.682853389271827 -54.875351938035237 0 -54.875351938035237 11.850737216387643 0 0 0 0 13.09802927472083 -38.626551410845423 0 -38.626551410845423 8.157643184378685 0 0 0 0 -11.644437943012235 -22.595318958148709 0 -22.595318958148709 25.832619363318372 0 0 0 0 -16.422967972205299 -10.65028843321852 0 -10.65028843321852 37.01504883934831 0 0 0 0 -24.937575517425007 -6.7811295535977081 0 -6.7811295535977081 -3.4367412649094149 0 0 0 0 -14.519479271139517 -46.541105804488325 0 -46.541105804488325 74.40614366511727 0 0 0 0 -11.918198545786481 -21.84509398485261 0 -21.84509398485261 41.779613687467645 0 0 0 0 -3.3820909873575147 -48.420114754324459 0 -48.420114754324459 36.621493182261474 0 0 0 0 -24.503044104543733 -45.616070860363834 0 -45.616070860363834 37.861762857786744 0 0 0 0 -20.740363709005578 -41.404736414784566 0 -41.404736414784566 33.177545350248693 0 0 0 0 -72.2145567399225 -31.251108998119889 0 -31.251108998119889 49.088036896013364 0 0 0 0 -4.4835546899913048 -7.5521070194038558 0 -7.5521070194038558 33.091904898851482 0 0 0 0 0.75863704453058745 -7.9583642189033981 0 -7.9583642189033981 36.116787002567435 0 0 0 0 -45.327307427364531 -21.493697799458459 0 -21.493697799458459 41.967548931912461 0 0 0 0 2.2970223278038588 -17.194503331232681 0 -17.194503331232681 29.621898654702818 0 0 0 0 -22.407843883184796 -42.186793383665645 0 -42.186793383665645 76.414913150896609 0 0 0 0 -2.2896604170973083 -17.431974881473334 0 -17.431974881473334 44.4735911512862 0 0 0 0 -18.722740358353491 -13.164557480726486 0 -13.164557480726486 14.252910062944522 0 0 0 0 -24.994855201629775 -6.8393497343895433 0 -6.8393497343895433 35.412248137228744 0 0 0 0 -25.001488073326698 -8.0014375486171048 0 -8.0014375486171048 58.746347265599979 0 0 0 0 -25.853388737759815 18.26808931495907 0 18.26808931495907 47.367400108822039 0 0 0 0 -63.135302123374458 2.7343175701353175 0 2.7343175701353175 62.865989281544898 0 0 0 0 -25.599845441892967 21.915830707406712 0 21.915830707406712 72.505778841514257 0 0 0 0 -4.4478923908676329 -24.001894115420896 0 -24.001894115420896 80.942803054585369 0 0 0 0 -34.993774438694118 -97.07005117500205 0 -97.07005117500205 50.305157134047477 0 0 0 0 -18.375655706430734 -124.94658184317268 0 -124.94658184317268 90.087481609709357 0 0 0 0 -84.743761952021941 -238.61447431492525 0 -238.61447431492525 -102.59549164722921 0 0 0 0 120.35545071581873 -23.979679042713542 0 -23.979679042713542 -56.26558778391427 0 0 0 0 -3.7619248592606418 -2.5517500500632693 0 -2.5517500500632693 4.8602149818553144 0 0 0 0 -135.2520442935529 -354.61894672612107 0 -354.61894672612107 168.42386302173099 0 0 0 0 -93.806288286435347 -319.75750941986007 0 -319.75750941986007 -432.49095484057034 0 0 0 0 -2.4006471051344285 -6.6003532875634363 0 -6.6003532875634363 7.248802074713538 0 0 0 0 -265.44281534297897 -140.21148507677208 0 -140.21148507677208 -388.19813561894989 0 0 0 0 731.29622068989602 -518.55614929605326 0 -518.55614929605326 507.30040632504097 0 0 0 0 -11.781788429681541 -8.5860714920885641 0 -8.5860714920885641 25.025728891248974 0 0 0 0 -43.089525486568164 -96.40535498376812 0 -96.40535498376812 64.659336372347752 0 0 0 0 9.5272229813712421 -17.623218503765386 0 -17.623218503765386 2.7509300015722857 0 0 0 0 7.6684989699701873 -26.043272542359773 0 -26.043272542359773 43.917423258330018 0 0 0 0 -5.8538867050843493 -4.6172457687032065 0 -4.6172457687032065 24.01521436596289 0 0 0 0 1068.3214681585914 -544.80500888942152 0 -544.80500888942152 95.728993060194625 0 0 0 0 1108.0995127031165 -706.48543330435859 0 -706.48543330435859 334.88401541456187 0 0 0 0 745.02104478239471 -411.32953968920629 0 -411.32953968920629 347.06695807861979 0 0 0 0 709.10696452288084 -538.51060831233099 0 -538.51060831233099 124.32195323290944 0 0 0 0 316.42909411740766 -618.68190372070239 0 -618.68190372070239 197.14256011288489 0 0 0 0 814.40495502946214 -762.67032913420553 0 -762.67032913420553 381.67744598592981 0 0 0 0 614.64102358170203 -660.96132491365643 0 -660.96132491365643 509.47285117574575 0 0 0 0 615.42301178890034 -526.17706001399029 0 -526.17706001399029 202.84162805265805 0 0 0 0 459.76209841511991 -739.03929637955662 0 -739.03929637955662 341.41955603869792 0 0 0 0 267.15058953228618 -516.36107366887882 0 -516.36107366887882 331.32224785431026 0 0 0 0 247.01692685687752 -573.48863061258635 0 -573.48863061258635 170.02502097995603 0 0 0 0 138.46019835695122 -345.2271842678565 0 -345.2271842678565 159.06708882337261 0 0 0 0 -257.02069314556047 -255.63680154973008 0 -255.63680154973008 324.5503017797746 0 0 0 0 -1062.7531012399049 -206.81198294631395 0 -206.81198294631395 321.62601642839581 0 0 0 0 -367.60649247244646 -71.189599345283568 0 -71.189599345283568 108.56546863354015 0 0 0 0 -201.85963197057822 -219.42719912351822 0 -219.42719912351822 233.23718733640271 0 0 0 0 250.23653788605316 -562.98268108098273 0 -562.98268108098273 148.53509994332944 0 0 0 0 534.8297003333156 -747.74821596821175 0 -747.74821596821175 -246.00413893534278 0 0 0 0 8.6188980753028233 -6.9866177031048835 0 -6.9866177031048835 5.5755273951336761 0 0 0 0 -17.339393189815837 -75.295614291809216 0 -75.295614291809216 -399.7115864059233 0 0 0 0 306.75179285188869 -453.30200254748161 0 -453.30200254748161 350.37051800111658 0 0 0 0 370.59420400280919 -899.95514821598772 0 -899.95514821598772 1077.6243789149739 0 0 0 0 412.72430914020788 -1044.919218451596 0 -1044.919218451596 95.778634249927563 0 0 0 0 146.2338088516135 -268.83616893662111 0 -268.83616893662111 -898.525828030095 0 0 0 0 644.12841804157699 -1204.4866658711471 0 -1204.4866658711471 175.11119388529914 0 0 0 0 12.635707448021549 -768.60728084294533 0 -768.60728084294533 -433.61451474989735 0 0 0 0 -182.92225664955686 -510.55548776220348 0 -510.55548776220348 469.60373733803135 0 0 0 0 1062.9512156312167 -37.554548535928916 0 -37.554548535928916 468.6249213942574 0 0 0 0 -95.084275496213877 -394.90389031949371 0 -394.90389031949371 1359.0212739277704 0 0 0 0 170.29371738812915 -24.607082753342183 0 -24.607082753342183 1098.3235206342652 0 0 0 0 1289.2098397107011 -712.65586377373984 0 -712.65586377373984 431.43946456968843 0 0 0 0 723.91926525786869 -859.92922132572676 0 -859.92922132572676 1030.3751658764813 0 0 0 0 167.34667112098396 -371.77473632739566 0 -371.77473632739566 704.21837308333852 0 0 0 0 536.91879154097774 -568.0897822515376 0 -568.0897822515376 556.77294347734278 0 0 0 0 599.91472865177707 -841.03484370017441 0 -841.03484370017441 808.73562211512763 0 0 0 0 262.00976611628141 -646.95180589978008 0 -646.95180589978008 787.90308853906026 0 0 0 0 643.49866964832904 -561.07973145474534 0 -561.07973145474534 479.31998567004757 0 0 0 0 149.56584585363089 -104.82052147370996 0 -104.82052147370996 559.76483862281384 0 0 0 0 568.58685698105614 -165.76590064488846 0 -165.76590064488846 447.96348140936607 0 0 0 0 -55.060785708671574 -126.11934034905789 0 -126.11934034905789 417.09571638775469 0 0 0 0 104.03937273562883 -265.99726715457837 0 -265.99726715457837 514.13448693374812 0 0 0 0 -93.449873783756175 -133.06920811392047 0 -133.06920811392047 470.67460303746338 0 0 0 0 -8.3585133377901002 -50.761337916668708 0 -50.761337916668708 482.3279502346868 0 0 0 0 17.231458831104646 -67.422743539576913 0 -67.422743539576913 508.0527257581125 0 0 0 0 148.07760806918236 -226.33862805960052 0 -226.33862805960052 591.98256049254996 0 0 0 0 250.84896576458164 -268.35340216326586 0 -268.35340216326586 634.00879240130598 0 0 0 0 -25.392869758039978 -15.418479152169311 0 -15.418479152169311 565.70339802705712 0 0 0 0 -24.903636218185511 -106.26969450936485 0 -106.26969450936485 560.66287184917746 0 0 0 0 -112.37756576324455 23.347904311132879 0 23.347904311132879 421.43553926462482 0 0 0 0 -100.86926198286073 109.47080013689265 0 109.47080013689265 405.96845732162365 0 0 0 0 -109.14408286933485 75.092947466124315 0 75.092947466124315 326.27612598406995 0 0 0 0 -47.051268571014589 32.642358326535032 0 32.642358326535032 430.23187818110455 0 0 0 0 -92.416602274826403 -13.401944551828137 0 -13.401944551828137 598.08211143560766 0 0 0 0 6.6600530011139654 61.524904235142458 0 61.524904235142458 521.64467414305545 0 0 0 0 -98.119889513553119 -14.779740750338533 0 -14.779740750338533 734.18651578712888 0 0 0 0 128.43349823390645 -141.05827363263234 0 -141.05827363263234 628.10474530735883 0 0 0 0 337.53115531299335 -522.49325942610812 0 -522.49325942610812 837.61274219424376 0 0 0 0 11.322363086679035 -225.02332960833337 0 -225.02332960833337 1043.7291964468823 0 0 0 0 248.70855425678587 -741.7052937888584 0 -741.7052937888584 1049.54090376971 0 0 0 0 130.33218095384603 -124.51133217154711 0 -124.51133217154711 760.25278772306774 0 0 0 0 -19.120022123247281 -105.88244537978244 0 -105.88244537978244 842.85653845674096 0 0 0 0 113.02203494996269 -35.366829528571543 0 -35.366829528571543 1595.6031118433093 0 0 0 0 244.91521418755363 186.26509230201555 0 186.26509230201555 278.83951582557347 0 0 0 0 -48.623771680922346 221.70643262419981 0 221.70643262419981 733.89320615333418 0 0 0 0 20.342898626385249 124.60872105398266 0 124.60872105398266 284.01719074550056 0 0 0 0 -160.09446462816732 69.143506806918595 0 69.143506806918595 561.24753634666922 0 0 0 0 -45.032692855649429 322.89343010077664 0 322.89343010077664 -234.62768179130944 0 0 0 0 -160.69244863309314 100.01804028985498 0 100.01804028985498 -36.434830857226189 0 0 0 0 -177.80916940957445 267.56763523384961 0 267.56763523384961 277.43349136530014 0 0 0 0 273.70697342881408 251.66694368464232 0 251.66694368464232 -766.36658316903777 0 0 0 0 -245.07853605996138 119.32058442293055 0 119.32058442293055 45.936166561459686 0 0 0 0 63.745768576532839 -12.898922961750941 0 -12.898922961750941 94.909893487507361 0 0 0 0 66.122808222323698 -306.26469616121358 0 -306.26469616121358 -1012.2783615610097 0 0 0 0 40.269909709701935 149.4574146579962 0 149.4574146579962 4279.889092083471 0 0 0 0 -696.47491559485786 -71.153840487617344 0 -71.153840487617344 -348.79470422072336 0 0 0 0 -12.708636708190085 -57.771346736467876 0 -57.771346736467876 3500.8711360596135 0 0 0 0 -8.2696570235239815 21.424737164601417 0 21.424737164601417 2.9942741502175352 0 0 0 0 5.8038533970457138 265.08432905400878 0 265.08432905400878 -458.74396952141979 0 0 0 0 -180.06754187453001 50.855959616648761 0 50.855959616648761 3447.931413422677 0 0 0 0 -267.28234278316449 373.2090368207264 0 373.2090368207264 -270.7606353230949 0 0 0 0 -74.160537640205803 220.95862513332395 0 220.95862513332395 -40.455862185706792 0 0 0 0 -77.190107626599456 280.00647825061446 0 280.00647825061446 -45.550661736480833 0 0 0 0 -68.840527645661496 212.30371529706099 0 212.30371529706099 -225.53336647090327 0 0 0 0 -204.48847534903916 392.91263650215478 0 392.91263650215478 8.6198370651582081 0 0 0 0 -119.32045756825477 162.48954071709477 0 162.48954071709477 214.63904674545483 0 0 0 0 -160.98561942423521 247.49471640084812 0 247.49471640084812 392.52181295076298 0 0 0 0 -130.88799065524938 255.25338933318653 0 255.25338933318653 162.57813787876512 0 0 0 0 -177.7631536131039 212.94043382245582 0 212.94043382245582 319.45335758152942 0 0 0 0 -114.27240863800398 197.80009837193938 0 197.80009837193938 90.446971435692831 0 0 0 0 -113.02206140205635 170.85594580492034 0 170.85594580492034 142.25926066700777 0 0 0 0 -80.992296492291644 99.160293542395721 0 99.160293542395721 22.056239513418404 0 0 0 0 -72.366585783907567 130.72751643243828 0 130.72751643243828 -31.533772902686906 0 0 0 0 -189.74091869173353 26.451040470423777 0 26.451040470423777 3495.5341171925793 0 0 0 0 -14.666390845140995 93.620952399656744 0 93.620952399656744 -292.92067593018328 0 0 0 0 -41.120245068000258 88.180199166827151 0 88.180199166827151 -4.2144861043598212 0 0 0 0 -64.488917316103652 64.988568244443741 0 64.988568244443741 38.164090194397431 0 0 0 0 315.2703103960261 964.83985665244109 0 964.83985665244109 2801.6622424667185 0 0 0 0 -94.604179143208967 72.680169333953017 0 72.680169333953017 54.216236750045937 0 0 0 0 -21.916113384573332 25.165723751553116 0 25.165723751553116 14.840448618431441 0 0 0 0 -1.0957617552129855 5.7888378370843414 0 5.7888378370843414 4.9096043671490861 0 0 0 0 -137.65223263023836 104.9280654793838 0 104.9280654793838 106.48582030017133 0 0 0 0 -136.4469574231631 87.882340930412226 0 87.882340930412226 107.97595531715342 0 0 0 0 -157.67849784385999 61.576505738686137 0 61.576505738686137 77.121655531624128 0 0 0 0 -179.18456466788496 -2.4634853316956651 0 -2.4634853316956651 72.473399870170397 0 0 0 0 -143.93582558279195 118.35789626387486 0 118.35789626387486 139.77018236256481 0 0 0 0 -158.23851150562132 138.31757601715799 0 138.31757601715799 330.17879436371004 0 0 0 0 -142.4202861220765 106.52013320734841 0 106.52013320734841 231.03404758612669 0 0 0 0 -153.30265282113396 -20.769640526639705 0 -20.769640526639705 375.66456564744658 0 0 0 0 -179.66741913271926 28.487159119420539 0 28.487159119420539 286.73540814137232 0 0 0 0 -183.38660801724643 21.074367774525854 0 21.074367774525854 275.8786584505724 0 0 0 0 -195.16018958486711 -126.15535493901916 0 -126.15535493901916 303.85297838401766 0 0 0 0 -179.02797232895796 -138.03731054817672 0 -138.03731054817672 312.0343962572806 0 0 0 0 -156.97599461483333 -63.624788687662658 0 -63.624788687662658 399.92542460337427 0 0 0 0 -206.43045231278484 -251.21797566673558 0 -251.21797566673558 436.86656197300908 0 0 0 0 -159.64139650100151 -198.69326418423589 0 -198.69326418423589 146.04921369303383 0 0 0 0 -258.16053476373236 -64.416903648849257 0 -64.416903648849257 199.13350339295721 0 0 0 0 -188.66270164485013 -87.307611690515841 0 -87.307611690515841 91.097157987965147 0 0 0 0 -1.8797335670729436 -21.818710011007841 0 -21.818710011007841 86.455632405039381 0 0 0 0 -173.81348891061702 14.929807214035463 0 14.929807214035463 88.925874669783298 0 0 0 0 28.593028356630668 -6.8680193427262566 0 -6.8680193427262566 48.067696842408623 0 0 0 0 -91.61450702842825 -210.99734396043823 0 -210.99734396043823 978.75378178474784 0 0 0 0 297.04941724854746 35.940313118935592 0 35.940313118935592 28.909098241794709 0 0 0 0 -56.186462571228276 79.662501755180529 0 79.662501755180529 75.268367872882664 0 0 0 0 -387.26130151759617 -89.809940313358311 0 -89.809940313358311 390.80582523258636 0 0 0 0 833.62811002817944 -541.04294062574991 0 -541.04294062574991 2.4009741719419253 0 0 0 0 -124.09755277512227 -384.47057760531789 0 -384.47057760531789 561.28332682463224 0 0 0 0 -5.2123184308161257 -19.558102168000453 0 -19.558102168000453 87.393153405569265 0 0 0 0 317.43359926284126 -16.824436974402488 0 -16.824436974402488 -434.01789986302174 0 0 0 0 891.19770073565587 -1885.9830631973309 0 -1885.9830631973309 3496.8464436577278 0 0 0 0 1032.5679050733265 -1878.5515032583285 0 -1878.5515032583285 3462.3382431373466 0 0 0 0 6.3854819134355152 -4.8478739917474059 0 -4.8478739917474059 16.265660867318278 0 0 0 0 -131.2403137419895 -884.71898966881054 0 -884.71898966881054 2552.9030679687203 0 0 0 0 271.55859752925642 -776.59584622967668 0 -776.59584622967668 1049.8744774357547 0 0 0 0 507.66866992084977 -1368.6716441664066 0 -1368.6716441664066 2079.0015081372221 0 0 0 0 -316.70442670713675 -711.98145343475699 0 -711.98145343475699 2506.8157336560325 0 0 0 0 -165.14021739661669 -1063.660602377784 0 -1063.660602377784 2531.6186392604068 0 0 0 0 -757.63988905870815 -659.819944108247 0 -659.819944108247 3499.4566841517044 0 0 0 0 -693.63328916987507 -387.21917343753012 0 -387.21917343753012 2685.1197224502062 0 0 0 0 -221.85736038923176 -353.98723619860175 0 -353.98723619860175 1539.9530614935065 0 0 0 0 -546.8877639877702 -109.4456452359409 0 -109.4456452359409 2722.2316038863646 0 0 0 0 -7.9893582715092721 1.8250200252941227 0 1.8250200252941227 0.11091227369727186 0 0 0 0 19.204470496489648 -6.1881699675795971 0 -6.1881699675795971 568.57600360060314 0 0 0 0 -223.61769711047646 -213.99146320819273 0 -213.99146320819273 1585.2632497316608 0 0 0 0 -2.1175513256146421 1.5369793699183134 0 1.5369793699183134 0.65415094623745418 0 0 0 0 136.99737002576205 -211.64986045524347 0 -211.64986045524347 437.82460192545841 0 0 0 0 -5.5065430534348252 -13.875455962530395 0 -13.875455962530395 107.79544590672458 0 0 0 0 3.803772227674699 0.70666685903233883 0 0.70666685903233883 58.202062160831701 0 0 0 0 -16.334168479551408 -12.788854094600538 0 -12.788854094600538 90.755748678007421 0 0 0 0 2.5210581803739487 0.23138492671155197 0 0.23138492671155197 -0.80263012022954427 0 0 0 0 -58.941025324733346 -85.412284696430333 0 -85.412284696430333 -17.077593824019004 0 0 0 0 -2.7866584803859951 -163.71777908046033 0 -163.71777908046033 -36.242003086793375 0 0 0 0 -19.171005253019757 44.343584346039052 0 44.343584346039052 349.58321610468602 0 0 0 0 -20.25572119804292 -10.797999065520798 0 -10.797999065520798 120.12876816337393 0 0 0 0 -15.441743868893354 0.8019309794703986 0 0.8019309794703986 136.69141888037757 0 0 0 0 -158.46766413021908 119.2608082068361 0 119.2608082068361 479.31926181542775 0 0 0 0 -3.429378382124149 -3.5343208762178673 0 -3.5343208762178673 21.520910914390122 0 0 0 0 -461.29527839943603 222.95570465571495 0 222.95570465571495 306.98436034078759 0 0 0 0 -9.3347253035639639 -6.1182194764942146 0 -6.1182194764942146 48.242260051318397 0 0 0 0 285.46297133367807 -412.34686052866505 0 -412.34686052866505 -235.53402428463426 0 0 0 0 -29.768053856967526 129.57945486401184 0 129.57945486401184 471.15883387046762 0 0 0 0 86.181837376136173 -150.98489905371866 0 -150.98489905371866 -399.48367838360923 0 0 0 0 -7.5026606903946487 0.10402320013278565 0 0.10402320013278565 -0.66072957086156947 0 0 0 0 12.271903026821747 -332.07977298448873 0 -332.07977298448873 -154.3725692379038 0 0 0 0 96.867103039189715 -38.64042692882731 0 -38.64042692882731 530.52635966824778 0 0 0 0 -7.2233543963713442 0.70448569452743715 0 0.70448569452743715 -1.653486212620362 0 0 0 0 -75.491984055654029 -65.692121598943686 0 -65.692121598943686 -5.2823426495870081 0 0 0 0 -57.992649507421447 -79.948445545619506 0 -79.948445545619506 6.1425890117861854 0 0 0 0 -68.758217977934692 -22.38430535389125 0 -22.38430535389125 -106.42183346951606 0 0 0 0 -355.90675121389353 388.00937375049568 0 388.00937375049568 767.39541860622148 0 0 0 0 -100.39276289194822 -48.849058292188147 0 -48.849058292188147 -14.432144774448716 0 0 0 0 -22.001830998889762 -0.53346337648738196 0 -0.53346337648738196 7.1072181786851614 0 0 0 0 -125.28764214779221 -32.573801030395316 0 -32.573801030395316 -2.3607641101534682 0 0 0 0 -169.25522689931677 -21.721672706221739 0 -21.721672706221739 48.44045746761617 0 0 0 0 -3.13889676378058 11.661255331665698 0 11.661255331665698 42.324360886108387 0 0 0 0 -60.938519680535592 65.401163740223183 0 65.401163740223183 87.153598609744222 0 0 0 0 -156.99698776175501 -51.303456825007515 0 -51.303456825007515 111.86011782907735 0 0 0 0 -104.35979806162686 -66.010237013566211 0 -66.010237013566211 44.255249808662484 0 0 0 0 -127.10127590895354 -42.655335461150571 0 -42.655335461150571 20.636241375713325 0 0 0 0 -131.62437151486301 -62.425207265454219 0 -62.425207265454219 43.792888811385239 0 0 0 0 -127.86029524486366 -92.448306815256728 0 -92.448306815256728 258.95388780834901 0 0 0 0 -111.07494983110155 71.42686394556506 0 71.42686394556506 7.6346419288454399 0 0 0 0 -141.06228013932059 7.5419248211051695 0 7.5419248211051695 160.17924673288007 0 0 0 0 -2.9563955610146877 41.752784316819998 0 41.752784316819998 -2.0527868749268237 0 0 0 0 -60.942107433839283 -8.3601764856955469 0 -8.3601764856955469 19.793143343524207 0 0 0 0 1.910198541105153 7.4537904549350715 0 7.4537904549350715 34.174379172016025 0 0 0 0 -90.534022910990643 31.904620867625454 0 31.904620867625454 46.650289326069469 0 0 0 0 -52.873397976047272 36.984766790224967 0 36.984766790224967 18.260054502573666 0 0 0 0 -50.024331356078847 2.973535168734486 0 2.973535168734486 42.744095729278342 0 0 0 0 -277.1504391212784 99.114883941380299 0 99.114883941380299 101.11817224337847 0 0 0 0 -176.25621191160189 7.0408105679429696 0 7.0408105679429696 69.879515357547461 0 0 0 0 -92.835978545979742 51.478081149492937 0 51.478081149492937 52.974815743099953 0 0 0 0 -84.491391398147982 -53.26912666199884 0 -53.26912666199884 133.63647666101087 0 0 0 0 -30.405872486962835 -44.75833970778308 0 -44.75833970778308 90.746605546903993 0 0 0 0 -9.3843540832003782 -28.755944312089468 0 -28.755944312089468 130.73659920184787 0 0 0 0 -21.541810854350842 -107.10037377961424 0 -107.10037377961424 209.55742702107273 0 0 0 0 41.566657296991252 35.37953715051799 0 35.37953715051799 122.25101243652989 0 0 0 0 -12.684644494753229 -38.479728989069372 0 -38.479728989069372 180.66254445157233 0 0 0 0 -15.257437456910338 -74.177072211846053 0 -74.177072211846053 140.44482113423533 0 0 0 0 2.7193402378252358 -25.986911427038876 0 -25.986911427038876 112.69838126225272 0 0 0 0 4.8484752324584406 -71.343775208687589 0 -71.343775208687589 125.11735604596697 0 0 0 0 -30.370959611227899 -58.119408330475778 0 -58.119408330475778 140.83755074954365 0 0 0 0 97.874699655883887 -53.269851428296079 0 -53.269851428296079 136.02486789168597 0 0 0 0 21.304633820523122 -56.684500685287276 0 -56.684500685287276 138.36095933976753 0 0 0 0 -12.281855800406461 -3.2175058766161762 0 -3.2175058766161762 93.611609443409563 0 0 0 0 -34.723228741317811 7.6855237626848414 0 7.6855237626848414 53.299294080201861 0 0 0 0 -19.019793879911731 35.325927821188998 0 35.325927821188998 116.78492547762289 0 0 0 0 10.983711190858685 8.9520504309166427 0 8.9520504309166427 101.66506846098673 0 0 0 0 22.195222133693278 -52.608323453544131 0 -52.608323453544131 115.42683440473911 0 0 0 0 -10.548792988382559 -22.074725604144234 0 -22.074725604144234 96.907939017610715 0 0 0 0 -360.78667731442511 12.33494222821173 0 12.33494222821173 428.74373685845649 0 0 0 0 155.29759568507825 319.16360978818466 0 319.16360978818466 402.50467055951594 0 0 0 0 -163.29029299794638 -76.733789575459014 0 -76.733789575459014 -39.688253911735956 0 0 0 0 15.345190879344536 -20.889711514139137 0 -20.889711514139137 45.541593557563544 0 0 0 0 -206.39709628424498 -27.513537372353312 0 -27.513537372353312 256.90442645348776 0 0 0 0 -147.5711780854981 -147.7299054349387 0 -147.7299054349387 126.72635477009635 0 0 0 0 -487.3304896819036 -162.33996106312043 0 -162.33996106312043 199.4422432635638 0 0 0 0 20.018912248427753 -18.67793864519075 0 -18.67793864519075 14.672096971687978 0 0 0 0 -424.21110175586364 -376.70308657836904 0 -376.70308657836904 -106.85515117123214 0 0 0 0 51.657030556905283 74.545978685137015 0 74.545978685137015 125.43981417435589 0 0 0 0 62.645651144863677 102.85300883251875 0 102.85300883251875 132.35468871781632 0 0 0 0 -233.69125135952709 -44.172365052796522 0 -44.172365052796522 185.77509932373778 0 0 0 0 -50.720427323212675 105.08519466366261 0 105.08519466366261 192.86968629132389 0 0 0 0 102.26840889995515 218.48067788231856 0 218.48067788231856 458.31874288251856 0 0 0 0 312.37903699588787 -393.57115504372996 0 -393.57115504372996 472.55165014711679 0 0 0 0 397.63602953704572 -388.19990278849036 0 -388.19990278849036 349.68166995968932 0 0 0 0 -28.587534487084667 4.5468677542676232 0 4.5468677542676232 124.98161483596391 0 0 0 0 -16.188748644431435 -4.4302725841540891 0 -4.4302725841540891 79.41533305663053 0 0 0 0 -28.610405526839259 -39.266581826762376 0 -39.266581826762376 91.504208290789393 0 0 0 0 -56.146473959488503 -2.6193414294139075 0 -2.6193414294139075 136.15274300552846 0 0 0 0 -107.20635760566142 -41.641035290422224 0 -41.641035290422224 114.36941148306505 0 0 0 0 -61.437976466098917 -26.407973168370518 0 -26.407973168370518 76.085110900741711 0 0 0 0 3.7386058705169489 -7.9938060909553315 0 -7.9938060909553315 52.358877512004256 0 0 0 0 10.711912011053078 -23.70579091460381 0 -23.70579091460381 32.997243749574018 0 0 0 0 -62.021025852106831 -51.146464474167431 0 -51.146464474167431 87.353158079014975 0 0 0 0 -133.8499828851775 114.57424359782908 0 114.57424359782908 603.85529598682479 0 0 0 0 -0.32148286392111325 0.044674960545080467 0 0.044674960545080467 15.625170126879732 0 0 0 0 211.49891384830181 -89.047116005833232 0 -89.047116005833232 10.327368446565742 0 0 0 0 -1.6922300209394052 -6.6280689646237079 0 -6.6280689646237079 57.38091274794715 0 0 0 0 13.043387789584672 -1.462290681739546 0 -1.462290681739546 4.5685258124471657 0 0 0 0 19.461089945606773 8.8765282425038095 0 8.8765282425038095 49.961019920079707 0 0 0 0 263.14945763813313 -189.02679396039912 0 -189.02679396039912 341.57364617015628 0 0 0 0 5.7201991580436822 -12.435095501416363 0 -12.435095501416363 12.980862077125359 0 0 0 0 -170.01060133127794 -197.46142369765403 0 -197.46142369765403 -53.227969904897691 0 0 0 0 218.15546785402609 -446.36698735117898 0 -446.36698735117898 906.94344351280051 0 0 0 0 -0.88087547297702429 0.095843687898280905 0 0.095843687898280905 4.7588539511422603 0 0 0 0 500.17016904568482 -433.31086347502242 0 -433.31086347502242 -473.08851398320621 0 0 0 0 967.22985175748317 -870.07366344084221 0 -870.07366344084221 774.23900418112862 0 0 0 0 759.39858052000841 -906.75464037286474 0 -906.75464037286474 387.49227000082101 0 0 0 0 26.016791851134258 10.898998424329875 0 10.898998424329875 -93.37143002985249 0 0 0 0 9.4621223903779637 -4.4339699881846641 0 -4.4339699881846641 4.0052908633010702 0 0 0 0 222.93492512997568 -567.94758952643861 0 -567.94758952643861 2268.0469585462779 0 0 0 0 -69.815539718846793 2.8458563337044325 0 2.8458563337044325 1167.1531732761923 0 0 0 0 241.59431454187552 -562.34997128306895 0 -562.34997128306895 1508.831003705538 0 0 0 0 1287.9485949214302 -768.05776015894662 0 -768.05776015894662 1050.8100305997868 0 0 0 0 505.0807925565457 -302.77506334798454 0 -302.77506334798454 939.07270126708136 0 0 0 0 1153.5958385413096 218.22927793665622 0 218.22927793665622 1335.3853717289385 0 0 0 0 251.28120309189399 -656.08840670139034 0 -656.08840670139034 2288.9723941980483 0 0 0 0 440.66311116180464 300.50375013569283 0 300.50375013569283 98.575855159193452 0 0 0 0 229.34753306970035 155.2151083517092 0 155.2151083517092 9.4540389138237515 0 0 0 0 493.94945454200808 139.60197776475252 0 139.60197776475252 742.03490337480252 0 0 0 0 172.63258485723151 -130.40883905298779 0 -130.40883905298779 516.13456236005004 0 0 0 0 476.70235782432854 -317.90531204703075 0 -317.90531204703075 762.03050848675412 0 0 0 0 602.63635177549099 -557.8144201722971 0 -557.8144201722971 1061.2491277894176 0 0 0 0 335.71742570832566 216.6317682630397 0 216.6317682630397 425.82742012057133 0 0 0 0 203.14060071812662 -86.116006597075284 0 -86.116006597075284 880.69913510719925 0 0 0 0 340.73983606726262 130.98780178175002 0 130.98780178175002 1838.5037015797607 0 0 0 0 506.00385770464089 -506.8758833687582 0 -506.8758833687582 1444.0417177367126 0 0 0 0 289.52247886427324 -206.3724016830256 0 -206.3724016830256 1310.8266198641286 0 0 0 0 -363.03889476653984 308.06158789015899 0 308.06158789015899 3497.6916885929513 0 0 0 0 137.00571392666259 744.02061733811206 0 744.02061733811206 1866.6752675333082 0 0 0 0 581.65074583833871 1320.3581740751688 0 1320.3581740751688 3501.6371116974915 0 0 0 0 684.06150023884754 404.62152683251043 0 404.62152683251043 -1612.0027105288148 0 0 0 0 -0.78372647722887212 7.4527991835935765 0 7.4527991835935765 2.6412542227821958 0 0 0 0 -11.273832548336486 1073.81178153562 0 1073.81178153562 1124.907773494182 0 0 0 0 147.17473374904017 582.15253987753181 0 582.15253987753181 2291.5944875538116 0 0 0 0 411.34117222369417 1141.4937105632962 0 1141.4937105632962 -934.28843621174019 0 0 0 0 66.759398387898045 -220.152626790672 0 -220.152626790672 1149.0764986894901 0 0 0 0 -161.84108663466091 -391.68770246917211 0 -391.68770246917211 1983.8771224463835 0 0 0 0 -77.975715144910936 -416.34388071042576 0 -416.34388071042576 1795.5408451281601 0 0 0 0 235.79959468846471 -78.080394710323162 0 -78.080394710323162 2022.3399051230917 0 0 0 0 -423.23894373525997 -409.91486721877845 0 -409.91486721877845 2267.2481535693651 0 0 0 0 -432.14189213464198 -486.37136205743536 0 -486.37136205743536 3500.630382086204 0 0 0 0 145.89475682184215 -1132.5094376897305 0 -1132.5094376897305 2133.4821652197315 0 0 0 0 204.05582981554011 -809.76908798396016 0 -809.76908798396016 1426.5983593394994 0 0 0 0 1.7201473831235035 2.7273653696870559 0 2.7273653696870559 19.093689504580652 0 0 0 0 1230.3643906678976 -2307.3050952104986 0 -2307.3050952104986 3493.8543116210212 0 0 0 0 0.7530559283903322 9.5272303035279897 0 9.5272303035279897 44.57020703013248 0 0 0 0 -575.00900098314844 143.0179040774259 0 143.0179040774259 336.10623362847014 0 0 0 0 232.68877976375984 -722.7890236635767 0 -722.7890236635767 1434.5022549279788 0 0 0 0 305.48564880992092 -620.56791108881771 0 -620.56791108881771 825.59917400681115 0 0 0 0 20.336438384557283 36.309916395291793 0 36.309916395291793 442.80929258300603 0 0 0 0 -132.44892635430057 -158.26690788902604 0 -158.26690788902604 117.6789319311095 0 0 0 0 -176.40662794454104 -92.343924761405717 0 -92.343924761405717 65.79706313710696 0 0 0 0 -24.186982260048879 0.16599342010515783 0 0.16599342010515783 13.113771894013489 0 0 0 0 -144.6698914036931 -99.677668795270165 0 -99.677668795270165 -8.0563314587609511 0 0 0 0 -116.11990783412602 -132.68142102807622 0 -132.68142102807622 28.838532670799182 0 0 0 0 -86.714814616432477 -24.013431241619401 0 -24.013431241619401 411.38112812022973 0 0 0 0 -4.1122711119646791 14.662637078850471 0 14.662637078850471 55.512529462027921 0 0 0 0 -191.32247890816825 -68.36558442875733 0 -68.36558442875733 28.479571625416838 0 0 0 0 -189.15480145229273 -204.59152101891277 0 -204.59152101891277 -44.939793079983033 0 0 0 0 357.38489478714331 76.008662264127295 0 76.008662264127295 -717.96498623830712 0 0 0 0 -57.97412694039501 -71.996627043763851 0 -71.996627043763851 55.415258247244921 0 0 0 0 26.64588125511467 -343.08891563475117 0 -343.08891563475117 -301.98549089085958 0 0 0 0 147.88109636775005 -184.5216713905013 0 -184.5216713905013 -518.86036548024185 0 0 0 0 -105.64543425758171 -61.597993305242085 0 -61.597993305242085 -189.4821103316898 0 0 0 0 187.30676866526068 -217.025683456477 0 -217.025683456477 -290.85437340083206 0 0 0 0 -45.029087000302127 -239.91899984672318 0 -239.91899984672318 103.71486359369237 0 0 0 0 -146.6631848800439 -261.40364359240601 0 -261.40364359240601 571.15495229997089 0 0 0 0 -104.75481528611714 -89.720075628037236 0 -89.720075628037236 151.60403017757798 0 0 0 0 442.77303857468729 -104.27206058375309 0 -104.27206058375309 57.494910099560158 0 0 0 0 -127.1097439375136 191.68236043927089 0 191.68236043927089 1872.5616639107122 0 0 0 0 -185.40625939691546 -135.39625534133603 0 -135.39625534133603 494.35956127702821 0 0 0 0 333.83724935626537 214.25701730043795 0 214.25701730043795 515.06949129987481 0 0 0 0 -464.08755133756642 989.45040143511915 0 989.45040143511915 3492.7841704846805 0 0 0 0 697.47328961997596 1482.2781468975509 0 1482.2781468975509 721.72290257521456 0 0 0 0 -422.46958187787357 434.95534811044297 0 434.95534811044297 1814.2758797948632 0 0 0 0 -380.76913743328015 -227.51559776336273 0 -227.51559776336273 3500.8757131355965 0 0 0 0 -356.50967707405607 -602.67768839763494 0 -602.67768839763494 1985.969570911705 0 0 0 0 -133.88054581997562 -812.0776282825309 0 -812.0776282825309 1733.7356345176654 0 0 0 0 -73.074402482887365 -44.817527784127833 0 -44.817527784127833 1545.4964300793065 0 0 0 0 1.3404932806150696 -2.9540017300688755 0 -2.9540017300688755 14.824966494595351 0 0 0 0 -491.66867796471104 340.24437932454839 0 340.24437932454839 3496.171017232331 0 0 0 0 305.13069002372964 740.35499087532207 0 740.35499087532207 1502.1439165704014 0 0 0 0 1584.550030998666 -1399.8154325222695 0 -1399.8154325222695 1461.2672491748062 0 0 0 0 -326.26687569521829 -1166.0784035347256 0 -1166.0784035347256 3494.6047750949733 0 0 0 0 927.35194788290835 -1947.4555566964584 0 -1947.4555566964584 2004.3575478778112 0 0 0 0 590.07534838820652 231.66466137347584 0 231.66466137347584 -623.20868925189075 0 0 0 0 -27.320823682349186 -556.07064176478002 0 -556.07064176478002 1219.3569889309902 0 0 0 0 -0.89014721527954899 -2.7279020898462649 0 -2.7279020898462649 1.2679800117209865 0 0 0 0 27.249163382874428 -424.0983601151147 0 -424.0983601151147 1366.7273484401921 0 0 0 0 0.49008159148152636 3.2096110686534836 0 3.2096110686534836 33.779428239722435 0 0 0 0 5.9926401402455545 10.325505288207051 0 10.325505288207051 23.706188177652926 0 0 0 0 5.176751859708137 -3.8927558720109232 0 -3.8927558720109232 -223.14078179971875 0 0 0 0 670.28675279047661 101.1540689230842 0 101.1540689230842 -223.1407817997133 0 0 0 0 0.79801857167625734 3.5713878834600559 0 3.5713878834600559 -4.5440180444854201 0 0 0 0 83.147160513357221 117.45995148589355 0 117.45995148589355 -40.616951163859312 0 0 0 0 -222.93065416067074 221.08338584697799 0 221.08338584697799 112.15415364481805 0 0 0 0 -196.47528360656759 -19.49332990436713 0 -19.49332990436713 177.30589948129546 0 0 0 0 176.95368360950545 -113.15727107274711 0 -113.15727107274711 -105.64099889922909 0 0 0 0 -14.09680321291512 11.38640452278014 0 11.38640452278014 31.289822337381338 0 0 0 0 2.6738751011680506 25.356453798274742 0 25.356453798274742 27.122481336437886 0 0 0 0 0.36645727494204028 11.650032527784063 0 11.650032527784063 37.038413510380224 0 0 0 0 1.1842194282830549 13.116491556453745 0 13.116491556453745 28.668983377497881 0 0 0 0 -42.802899393684726 16.251233617409468 0 16.251233617409468 56.288402657944971 0 0 0 0 -18.86649118381456 -17.805367251052303 0 -17.805367251052303 43.628010574329892 0 0 0 0 222.43644900902498 -399.5873203123615 0 -399.5873203123615 956.99439860359485 0 0 0 0 0.75648568459613186 0.071069036895757498 0 0.071069036895757498 4.6914560191025849 0 0 0 0 124.17640451478897 205.16657121207601 0 205.16657121207601 216.83505772457238 0 0 0 0 70.043495701519078 -87.245657080346973 0 -87.245657080346973 -10.060700944600285 0 0 0 0 13.934921137642959 -5.9953046218599866 0 -5.9953046218599866 -23.835785763296826 0 0 0 0 167.83551270741469 34.466809761130662 0 34.466809761130662 -102.94707786526942 0 0 0 0 14.497439664478691 85.34498087023394 0 85.34498087023394 -107.17211046618064 0 0 0 0 -4.5026191340958235 2.7623923864335622 0 2.7623923864335622 9.8720420456553786 0 0 0 0 -56.99264595416993 -5.4072592140473716 0 -5.4072592140473716 -0.35652436857890279 0 0 0 0 -31.200931858994124 -34.063170304619689 0 -34.063170304619689 -37.630898719095057 0 0 0 0 -16.63890997951512 22.905039656401641 0 22.905039656401641 6.2820555976117021 0 0 0 0 -17.6587498960433 15.994563414758684 0 15.994563414758684 12.480726753604856 0 0 0 0 -40.476062645206753 22.353805103540253 0 22.353805103540253 -7.730048442917905 0 0 0 0 -30.466703365992089 8.4129096801032119 0 8.4129096801032119 4.0284809504041732 0 0 0 0 -22.810616767534157 12.075282996896021 0 12.075282996896021 80.713471414115929 0 0 0 0 -4.5089348516453853 2.5005663233479485 0 2.5005663233479485 0.43781069001850526 0 0 0 0 -9.9671567174436859 29.527966485202342 0 29.527966485202342 66.700246154670822 0 0 0 0 -20.542560847870845 33.485154167072324 0 33.485154167072324 86.983589666495391 0 0 0 0 -1.303578776682599 13.712340088170095 0 13.712340088170095 25.183806874889456 0 0 0 0 -0.80912116720091909 12.295565595453237 0 12.295565595453237 25.410303481562401 0 0 0 0 -22.469140409481383 13.027896978891704 0 13.027896978891704 68.830040870449011 0 0 0 0 1.4147511971320594 12.758197939627296 0 12.758197939627296 35.334572792647762 0 0 0 0 -14.448835744277403 42.801230947004115 0 42.801230947004115 101.9338119092281 0 0 0 0 -6.6626549458236468 32.49404882816998 0 32.49404882816998 8.7611820120218908 0 0 0 0 -1.8353214423693389 12.38045477682963 0 12.38045477682963 25.708750827965879 0 0 0 0 -0.04803785115420478 14.443868101537802 0 14.443868101537802 17.336587518527558 0 0 0 0 -69.800510887768723 85.7269845819701 0 85.7269845819701 -38.088956573843461 0 0 0 0 -0.77404263335309342 10.67926929709353 0 10.67926929709353 -0.79875794868944006 0 0 0 0 -2.5849717686007381 21.910540321947337 0 21.910540321947337 25.501706968309009 0 0 0 0 8.1623956115439569 22.067281783679391 0 22.067281783679391 21.337168668840604 0 0 0 0 3.9851456967775789 19.899824226908095 0 19.899824226908095 20.625097092288343 0 0 0 0 6.9241104865604584 19.398088990862441 0 19.398088990862441 14.019930311769066 0 0 0 0 7.2219664567404198 12.659649170105062 0 12.659649170105062 7.6848885727926506 0 0 0 0 2.2219740035622726 10.707250944911388 0 10.707250944911388 20.434236014295259 0 0 0 0 -0.037369830548515282 5.4860147601085885 0 5.4860147601085885 2.1645686557182433 0 0 0 0 -0.31461205247614998 -7.5242608728276537 0 -7.5242608728276537 -13.324017839200678 0 0 0 0 -26.412492694072625 1.9171564921198296 0 1.9171564921198296 14.436888215062936 0 0 0 0 1.7393553443997185 4.227311150598517 0 4.227311150598517 0.57250130090632467 0 0 0 0 11.349623198389509 2.8439435903455887 0 2.8439435903455887 16.761508802286698 0 0 0 0 25.364142008209001 -34.254286316672733 0 -34.254286316672733 84.397827513839729 0 0 0 0 86.645899990249291 97.22341242398943 0 97.22341242398943 67.465663113456685 0 0 0 0 10.081438788470678 17.020579112939231 0 17.020579112939231 13.486820793205197 0 0 0 0 -10.525568792770173 4.7191440702645195 0 4.7191440702645195 32.741335713839362 0 0 0 0 14.098877989234097 -1.3375511396343427 0 -1.3375511396343427 32.487217675276042 0 0 0 0 -1.3023772565344842 -0.48399533424228736 0 -0.48399533424228736 1.5364544944168799 0 0 0 0 7.5012749826838672 14.486466330723033 0 14.486466330723033 30.819448962818569 0 0 0 0 148.05204060194592 -18.87662820101832 0 -18.87662820101832 174.83536202277173 0 0 0 0 -34.557727403677745 45.044863723247545 0 45.044863723247545 191.90449207168422 0 0 0 0 1.6271160126025279 12.274744378879404 0 12.274744378879404 30.217880484615307 0 0 0 0 9.5262829251716994 18.072374647666038 0 18.072374647666038 27.882744729962724 0 0 0 0 3.170096812155407 10.340506027623633 0 10.340506027623633 30.204407414756133 0 0 0 0 -10.011561239265802 30.348757358206058 0 30.348757358206058 63.602874764666922 0 0 0 0 -19.342079872205431 -2.5517112023135269 0 -2.5517112023135269 47.783618969649979 0 0 0 0 26.133902375478101 1.0795207380106149 0 1.0795207380106149 2.4240856262404122 0 0 0 0 19.354694745584311 13.836590606860227 0 13.836590606860227 37.150413828404453 0 0 0 0 12.339358543173148 -0.43346109967660595 0 -0.43346109967660595 53.733341783536162 0 0 0 0 27.362836756808974 5.7101630434299295 0 5.7101630434299295 25.887912804988446 0 0 0 0 2.3259825910193697 7.4906742190444948 0 7.4906742190444948 1.2970137789562628 0 0 0 0 5.7047284672025853 12.298486513222088 0 12.298486513222088 49.312834703896442 0 0 0 0 0.77501638232761838 11.103356924283236 0 11.103356924283236 43.438414669634973 0 0 0 0 16.0199577675603 16.138193696981944 0 16.138193696981944 39.827923348540935 0 0 0 0 3.6592798874989967 16.529362104589381 0 16.529362104589381 48.568793296818967 0 0 0 0 -5.5906136311214141 4.9170455640560249 0 4.9170455640560249 34.943380977168999 0 0 0 0 -23.688627122165599 13.21626793206724 0 13.21626793206724 27.571088662698457 0 0 0 0 -23.422021780079376 6.1199733440935233 0 6.1199733440935233 53.733191080325923 0 0 0 0 -19.873530288382426 19.237141600610812 0 19.237141600610812 46.334973472625279 0 0 0 0 -18.983249870654618 20.393292000115252 0 20.393292000115252 28.182813354065274 0 0 0 0 -1.3029385734353127 12.195803784479722 0 12.195803784479722 43.219858127227781 0 0 0 0 -1.6704664164280985 18.758709668976735 0 18.758709668976735 33.687270447950709 0 0 0 0 -0.25436040244949254 25.404277123782776 0 25.404277123782776 21.727865369779465 0 0 0 0 -10.000433783398876 47.391122565578371 0 47.391122565578371 66.697863086821599 0 0 0 0 -3.981697323393746 42.335683316210634 0 42.335683316210634 29.812439648314466 0 0 0 0 0.24579306989381644 8.7287916839718385 0 8.7287916839718385 37.841355018725565 0 0 0 0 -12.220806149000737 15.753522597597453 0 15.753522597597453 34.492876649590471 0 0 0 0 -0.29509114031861827 31.712379403025352 0 31.712379403025352 64.23165428343782 0 0 0 0 12.216980011038686 33.375608628028203 0 33.375608628028203 36.573145691738773 0 0 0 0 -2.7572602835516666 6.0014654170234794 0 6.0014654170234794 35.650555041395997 0 0 0 0 -11.528310200594206 16.380927199912549 0 16.380927199912549 78.214135720496415 0 0 0 0 -1.3838304684270497 13.402505765652677 0 13.402505765652677 26.95157806314819 0 0 0 0 -3.3466757397814035 1.6188767315743462 0 1.6188767315743462 45.017089167013182 0 0 0 0 -2.5902620384946999 21.416780560873121 0 21.416780560873121 45.397516028348036 0 0 0 0 1.493210271669227 3.1894910617447749 0 3.1894910617447749 43.577390264050337 0 0 0 0 -4.1050872026140723 5.4054845161263074 0 5.4054845161263074 45.226979916205892 0 0 0 0 2.4867685162487967 8.5195560861735231 0 8.5195560861735231 35.896004586054289 0 0 0 0 -6.56395218591922 24.392294200113611 0 24.392294200113611 50.129977229204087 0 0 0 0 -8.1162467216994401 4.3483570793887338 0 4.3483570793887338 46.885675756468117 0 0 0 0 2.1558774007509385 27.661393934986336 0 27.661393934986336 51.323562708655118 0 0 0 0 -0.67283422773835089 2.7563566404987867 0 2.7563566404987867 7.8818471915710688 0 0 0 0 11.110466077594765 16.402303955223033 0 16.402303955223033 46.015348822065789 0 0 0 0 -1.6299493219323029 -0.6951616162871872 0 -0.6951616162871872 0.90655757514725366 0 0 0 0 6.6339427804046522 22.276796431091498 0 22.276796431091498 36.356747254671063 0 0 0 0 9.6310162292033965 13.39550217170472 0 13.39550217170472 29.922092154833081 0 0 0 0 -22.068840230703245 44.275554287736668 0 44.275554287736668 62.580046434763062 0 0 0 0 10.378958530315231 46.848265590600931 0 46.848265590600931 62.4706137677058 0 0 0 0 -2.3893458363706941 29.248998980059696 0 29.248998980059696 64.508594234393968 0 0 0 0 22.649129738083786 30.581703146734071 0 30.581703146734071 49.691115543166234 0 0 0 0 -1.5400707380638323 25.34990061085773 0 25.34990061085773 51.716844351141845 0 0 0 0 -1.0049024725945053 19.070348548832044 0 19.070348548832044 52.582630832617724 0 0 0 0 3.9144597241772772 19.462547915049072 0 19.462547915049072 48.170560711310827 0 0 0 0 -3.0271448491764801 2.4205586518919517 0 2.4205586518919517 41.441985385677981 0 0 0 0 -4.3844880167447968 3.5032987863651215 0 3.5032987863651215 47.045304102661021 0 0 0 0 -8.2045222659139654 0.11942042915870843 0 0.11942042915870843 79.286473514090176 0 0 0 0 5.5789107949681238 -7.2670670365550905 0 -7.2670670365550905 -28.504009845747305 0 0 0 0 2.7911485515760432 -22.146150215099624 0 -22.146150215099624 9.6547289747322793 0 0 0 0 -1.0822503281865514 4.314129644844563 0 4.314129644844563 -1.0950836333843914 0 0 0 0 -2.2735326760012153 6.4416471477817367 0 6.4416471477817367 9.6049253046397034 0 0 0 0 38.785833716950037 40.847742890187874 0 40.847742890187874 -29.939659327761206 0 0 0 0 -17.070932384905632 9.2239005264345906 0 9.2239005264345906 47.696489806014142 0 0 0 0 1.1807122679337383 11.034586401483528 0 11.034586401483528 40.849098319343952 0 0 0 0 -5.9802730052857953 8.9127063138719222 0 8.9127063138719222 37.956931396136497 0 0 0 0 -74.286840786783941 -48.612543662565713 0 -48.612543662565713 -23.106013046792214 0 0 0 0 1.5514368098243827 9.5264437953017591 0 9.5264437953017591 29.997528132128679 0 0 0 0 0.03990846011454785 13.950319742480033 0 13.950319742480033 6.5961047927544616 0 0 0 0 -54.118891837374164 89.944257103770269 0 89.944257103770269 -15.343027646187693 0 0 0 0 69.566079493144173 78.459528061970559 0 78.459528061970559 -32.424717592518391 0 0 0 0 297.69020288910656 18.12196346562996 0 18.12196346562996 -19.575748777823719 0 0 0 0 -214.18566925779095 255.30016593298433 0 255.30016593298433 485.40531139645282 0 0 0 0 1.0413408302925464 6.6458907355142784 0 6.6458907355142784 31.789284299070985 0 0 0 0 -98.792357190465054 43.25296367784722 0 43.25296367784722 44.24689060021683 0 0 0 0 -88.588745778905263 -40.016227578385951 0 -40.016227578385951 137.96696952622278 0 0 0 0 157.18589147702357 -69.453348623359489 0 -69.453348623359489 -0.88065677432405209 0 0 0 0 7.7288339723174317 -13.951887669432836 0 -13.951887669432836 -15.800034793930536 0 0 0 0 64.091756536570557 -172.19321610235511 0 -172.19321610235511 250.61176732333661 0 0 0 0 467.13116312367998 584.20916064334324 0 584.20916064334324 130.54005294526542 0 0 0 0 3.6938777705296779 5.4521679884755265 0 5.4521679884755265 9.717817431604864 0 0 0 0 -144.71142881647953 -444.08063530459549 0 -444.08063530459549 3493.2002524517939 0 0 0 0 -126.51261519799036 -298.9565426278059 0 -298.9565426278059 1770.8863188622036 0 0 0 0 -214.17180688933976 -173.3022984984209 0 -173.3022984984209 599.06362424197368 0 0 0 0 -192.76803799592335 475.29668521628901 0 475.29668521628901 3493.0931727843072 0 0 0 0 -249.65953692581198 -965.53387244748501 0 -965.53387244748501 3491.9209829906795 0 0 0 0 1.2041573788840285 3.5898520389790889 0 3.5898520389790889 15.289865456091661 0 0 0 0 662.80553938885043 1340.8883446572622 0 1340.8883446572622 1076.5013266795431 0 0 0 0 215.43489666634616 -206.02813257629714 0 -206.02813257629714 205.71705164578998 0 0 0 0 386.96856404650703 335.85750657686003 0 335.85750657686003 484.60224751897113 0 0 0 0 -454.61687018514425 645.81815194732735 0 645.81815194732735 3490.5097054594407 0 0 0 0 -507.46227568608526 226.93289212344644 0 226.93289212344644 1672.9650919596497 0 0 0 0 -633.69047058142417 -509.90541933189161 0 -509.90541933189161 3503.213692507692 0 0 0 0 -45.659873470791155 -1212.2715587482855 0 -1212.2715587482855 401.05009206123214 0 0 0 0 -137.88346409040165 -1532.9556285772451 0 -1532.9556285772451 3405.3167146616029 0 0 0 0 -141.08390356725013 -1318.2658998848638 0 -1318.2658998848638 1576.4916051057371 0 0 0 0 145.58662644544097 -235.52554305603007 0 -235.52554305603007 361.70383747940286 0 0 0 0 8.6502227459945402 77.72039708317061 0 77.72039708317061 -301.63389028953679 0 0 0 0 36.866472752867423 -18.291709098528372 0 -18.291709098528372 1103.9843131547368 0 0 0 0 76.995107648559213 -236.01594803701119 0 -236.01594803701119 1376.1245662973151 0 0 0 0 180.07143222247319 -69.017371685191165 0 -69.017371685191165 135.75719666405712 0 0 0 0 211.32308069170847 197.01102699239505 0 197.01102699239505 64.081119566668349 0 0 0 0 -189.23762500796519 252.22663130702313 0 252.22663130702313 274.43653268288335 0 0 0 0 -33.989336293970069 120.42800419006926 0 120.42800419006926 40.71881884090908 0 0 0 0 29.005314787982002 -139.56120090665354 0 -139.56120090665354 43.820540196116781 0 0 0 0 86.244084107512407 73.115368952685458 0 73.115368952685458 6.2663329629685904 0 0 0 0 -297.39863288449021 50.043320964743543 0 50.043320964743543 167.83958774060739 0 0 0 0 -160.80388197996808 916.98660253002527 0 916.98660253002527 2894.0862654520461 0 0 0 0 -283.35825489323656 31.979257430390135 0 31.979257430390135 1421.7668382333286 0 0 0 0 -3.335185101878678 0.38491090074151657 0 0.38491090074151657 4.7321184181551956 0 0 0 0 -453.26303722695638 90.582168841079692 0 90.582168841079692 2145.1414948945458 0 0 0 0 255.37079218629395 1114.9173899425932 0 1114.9173899425932 3498.9067862568336 0 0 0 0 2.9461448514421136 671.12213502443046 0 671.12213502443046 1157.3535757601785 0 0 0 0 384.08464377291199 378.53998107490952 0 378.53998107490952 1330.0665354999292 0 0 0 0 -96.039951457568122 158.24677642429378 0 158.24677642429378 1439.023508247421 0 0 0 0 0.48202314358187071 -15.239345446375822 0 -15.239345446375822 38.624191304033133 0 0 0 0 -90.875117428164288 611.66910128450763 0 611.66910128450763 2526.3614504363031 0 0 0 0 -3.7199051193960297 0.38127671335280411 0 0.38127671335280411 7.4745054074415549 0 0 0 0 78.717861490929749 710.99252961478851 0 710.99252961478851 1347.8696232862858 0 0 0 0 749.58412777076694 2006.0689610766094 0 2006.0689610766094 3490.9351437668483 0 0 0 0 0.52549150600242212 -5.251232333270174 0 -5.251232333270174 17.195907001297144 0 0 0 0 -102.1083385471677 35.468145351759176 0 35.468145351759176 51.300370143526379 0 0 0 0 -631.49414966769996 -69.277266012110886 0 -69.277266012110886 144.55070119971424 0 0 0 0 -167.60793445619467 -48.193569107541862 0 -48.193569107541862 53.971848425702774 0 0 0 0 -106.94548548267716 76.128242645590944 0 76.128242645590944 83.983473750042322 0 0 0 0 207.40778641984161 -141.11364629001037 0 -141.11364629001037 215.66699276652434 0 0 0 0 2.9073269842629665 -19.441152413013739 0 -19.441152413013739 42.888399044438231 0 0 0 0 -224.86347315841726 -299.20213311785483 0 -299.20213311785483 309.22945784205513 0 0 0 0 106.47953030458302 -150.89835928346292 0 -150.89835928346292 451.9679892430504 0 0 0 0 22.325154997499681 130.54738433534567 0 130.54738433534567 -55.614279737637844 0 0 0 0 233.14167015603195 343.79128448743597 0 343.79128448743597 465.8724108754177 0 0 0 0 -26.798669882539798 3.8250423195058829 0 3.8250423195058829 1423.392674353483 0 0 0 0 -5.9502509240114705 7.767440600633563 0 7.767440600633563 24.830876732627075 0 0 0 0 2.439862304470223 -18.190304890407255 0 -18.190304890407255 41.828336058554157 0 0 0 0 -24.171845898703623 -264.50233489119273 0 -264.50233489119273 -101.64787839714018 0 0 0 0 6.0518066375392152 8.5253755338853807 0 8.5253755338853807 56.867857682804924 0 0 0 0 -35.044190064325576 -14.905624927805547 0 -14.905624927805547 104.67103199235862 0 0 0 0 -7.9159489868061428 1.4802455169337918 0 1.4802455169337918 13.563879183297104 0 0 0 0 1.8905260087105944 2.3779103528104315 0 2.3779103528104315 9.8451229476086155 0 0 0 0 -5.415683826167581 13.820440205383562 0 13.820440205383562 5.154919529579578 0 0 0 0 4.6364673626198964 -1.5550926657742821 0 -1.5550926657742821 13.056844289269975 0 0 0 0 -17.582629871112999 9.6565305097465171 0 9.6565305097465171 15.396267625736073 0 0 0 0 16.6684755676024 5.4954295269526483 0 5.4954295269526483 -17.447742497563013 0 0 0 0 -12.545182938743324 15.441827242580985 0 15.441827242580985 7.6739231571918936 0 0 0 0 -3.1056479986230512 14.201427152573821 0 14.201427152573821 -1.8475940632237613 0 0 0 0 -71.249607707101774 58.046110790780403 0 58.046110790780403 116.08297603620304 0 0 0 0 -21.029918462319785 63.954759633523281 0 63.954759633523281 70.107086505780899 0 0 0 0 2.215911625943761 -5.2751136461356509 0 -5.2751136461356509 20.004743327786855 0 0 0 0 19.203511349410974 41.576838984750793 0 41.576838984750793 76.18108004466194 0 0 0 0 203.72549191008147 95.347881187532039 0 95.347881187532039 36.122077287705906 0 0 0 0 15.568159318654239 -74.382619836251251 0 -74.382619836251251 306.32797008290072 0 0 0 0 -3.2757806906845417 -38.803895602351986 0 -38.803895602351986 241.23075283368235 0 0 0 0 1.9478385702481091 66.439249378028762 0 66.439249378028762 306.41621274333738 0 0 0 0 1.1630730547495967 1.3620999262629354 0 1.3620999262629354 1.527147055406175 0 0 0 0 -13.724766351069604 101.49083376729504 0 101.49083376729504 144.3383576356282 0 0 0 0 -0.34297570074556916 58.619791251327115 0 58.619791251327115 21.072247839620104 0 0 0 0 -8.8349002058298396 113.47726852362985 0 113.47726852362985 47.285484912856191 0 0 0 0 -1.8194638064761079 -49.701937160723901 0 -49.701937160723901 198.88949512946419 0 0 0 0 -28.284859354037962 68.222411265029223 0 68.222411265029223 301.81317815416855 0 0 0 0 -20.278549121517244 82.904429716509185 0 82.904429716509185 123.22825750913762 0 0 0 0 -31.121836911321765 94.387894133424197 0 94.387894133424197 197.01276856684126 0 0 0 0 -29.125393558242649 74.315597503969911 0 74.315597503969911 118.73690143808017 0 0 0 0 -7.5102247947713749 100.36530875067001 0 100.36530875067001 50.371884711188613 0 0 0 0 -5.9008520380640164 25.667377384032989 0 25.667377384032989 168.39417875302024 0 0 0 0 -19.94459219628834 11.520561042598274 0 11.520561042598274 167.02040128829685 0 0 0 0 -8.3935730049945505 7.6201467376376968 0 7.6201467376376968 15.170311933943594 0 0 0 0 -21.876805468670682 14.496812540586689 0 14.496812540586689 165.49933679145033 0 0 0 0 -1.0542908793097494 -0.60502458275514925 0 -0.60502458275514925 -0.74036744941404109 0 0 0 0 4.0212836485798107 7.1541258222023316 0 7.1541258222023316 9.5832995041855611 0 0 0 0 -4.7315374858549148 7.5074826754789683 0 7.5074826754789683 14.243939380543452 0 0 0 0 24.394706136423849 13.714744785211224 0 13.714744785211224 62.983352463095798 0 0 0 0 17.537376999374828 -15.414597678609425 0 -15.414597678609425 132.81969435031351 0 0 0 0 -2.8524374892323294 32.532501493934888 0 32.532501493934888 98.369153635379917 0 0 0 0 23.785832412040691 59.765444867018232 0 59.765444867018232 98.348904855120054 0 0 0 0 74.314608898137976 61.177711637981702 0 61.177711637981702 25.320948756506368 0 0 0 0 35.387489269482103 40.765593669158989 0 40.765593669158989 26.904682490361665 0 0 0 0 41.349631235758807 28.756098832494899 0 28.756098832494899 34.047020068683196 0 0 0 0 0.32390176532497872 2.7885176842894737 0 2.7885176842894737 6.1552075184634276 0 0 0 0 -28.644224659227774 -18.929449473125487 0 -18.929449473125487 21.706680452472938 0 0 0 0 -31.460392924781445 3.5183939796625054 0 3.5183939796625054 69.948144691963535 0 0 0 0 3.2673698815406169 20.005961261951597 0 20.005961261951597 80.466347492336354 0 0 0 0 -11.433412860993485 -1.4134282470258768 0 -1.4134282470258768 17.856758394911594 0 0 0 0 -22.300913593623591 10.074857963030809 0 10.074857963030809 13.695011715812143 0 0 0 0 -2.9846372053994408 -0.141994341431257 0 -0.141994341431257 4.9829800174794769 0 0 0 0 3.0072241225179823 5.0470600166227086 0 5.0470600166227086 83.17761232342491 0 0 0 0 -4.4658584432200996 -1.8843074930337025 0 -1.8843074930337025 31.769626331275504 0 0 0 0 -20.414252704216779 8.4531387111564982 0 8.4531387111564982 88.59060822866013 0 0 0 0 -3.2227807998721119 24.961943090154818 0 24.961943090154818 50.675830162620741 0 0 0 0 -1.9467799274293611 16.830156398160398 0 16.830156398160398 58.762540427969498 0 0 0 0 -1.6131336017879789 18.319512709143964 0 18.319512709143964 64.037734824050858 0 0 0 0 65.652736647435603 -39.025451124036408 0 -39.025451124036408 -148.01319558467003 0 0 0 0 0.6012774125603273 13.615505156454589 0 13.615505156454589 -2.1689685554820102 0 0 0 0 74.319197357781093 132.97690669985423 0 132.97690669985423 -59.253618766117143 0 0 0 0 14.07523609307966 29.326033024612116 0 29.326033024612116 9.3959003539828245 0 0 0 0 -0.6122828179831532 14.293110778546549 0 14.293110778546549 -0.98687358192942831 0 0 0 0 14.871078633580279 66.121157381305693 0 66.121157381305693 77.536779182875762 0 0 0 0 -10.174193674856383 28.995937285009859 0 28.995937285009859 74.76982234593379 0 0 0 0 -16.33702260830961 13.778590761185114 0 13.778590761185114 75.159716884121735 0 0 0 0 -4.6783629563352065 -0.53439740716385131 0 -0.53439740716385131 92.299183021430508 0 0 0 0 -13.455762409032246 18.744591574930382 0 18.744591574930382 109.88007325971557 0 0 0 0 -20.499462885550969 27.171256824050943 0 27.171256824050943 130.49009676766582 0 0 0 0 -0.78250211932403602 39.8125370266971 0 39.8125370266971 140.2826249631471 0 0 0 0 -4.6436930704093697 -56.560859094919579 0 -56.560859094919579 182.72775927127259 0 0 0 0 -5.7820233145633182 -29.670713841805991 0 -29.670713841805991 88.539851215435192 0 0 0 0 -23.473910597943643 -39.261705201402947 0 -39.261705201402947 144.64111123733255 0 0 0 0 0.32320337205689226 -0.29389290239622312 0 -0.29389290239622312 0.1327168589141472 0 0 0 0 -13.446932328980608 -17.582026777035935 0 -17.582026777035935 68.769883144697815 0 0 0 0 -33.521563419857721 -47.632964439180796 0 -47.632964439180796 93.826176452375876 0 0 0 0 -2.7287203879510642 7.3112937662460808 0 7.3112937662460808 57.01507741770547 0 0 0 0 0.48318433721885867 0.50778284876105317 0 0.50778284876105317 66.875542318673979 0 0 0 0 1.2150445269133205 -0.42174189898875625 0 -0.42174189898875625 -0.64985781677332 0 0 0 0 30.715785661770155 -20.793474659576532 0 -20.793474659576532 22.376236812538991 0 0 0 0 57.466200360638368 -41.12627938580772 0 -41.12627938580772 23.887403420587361 0 0 0 0 57.705322359692573 4.6810613087813877 0 4.6810613087813877 16.602092283341335 0 0 0 0 5.3392103956711026 79.617474155642412 0 79.617474155642412 -87.517954538547201 0 0 0 0 -2.5496248683206204 59.869468246932229 0 59.869468246932229 188.63642915270611 0 0 0 0 -36.118234784715014 24.777559259127884 0 24.777559259127884 49.909602907951921 0 0 0 0 21.014733422133531 -27.118317089727498 0 -27.118317089727498 19.400414038726012 0 0 0 0 14.933760349538971 -48.26277667886734 0 -48.26277667886734 15.241960835861391 0 0 0 0 -87.413158185387587 43.134740279259859 0 43.134740279259859 9.6718340171173622 0 0 0 0 -31.450845848365418 9.8253108872086159 0 9.8253108872086159 36.876625643926673 0 0 0 0 19.968434082004961 5.9157182976487093 0 5.9157182976487093 -31.549440093047451 0 0 0 0 -61.035014968156759 5.3223735488718376 0 5.3223735488718376 68.104298280799412 0 0 0 0 24.169055598942776 -33.412009583447798 0 -33.412009583447798 -21.667045564390719 0 0 0 0 22.912346717720311 -46.468664441857982 0 -46.468664441857982 -2.8870686370064504 0 0 0 0 -63.015351462676911 37.695695122331017 0 37.695695122331017 50.980511582100007 0 0 0 0 -1.9291730479078395 -1.7267068882861025 0 -1.7267068882861025 -1.2361855642261474 0 0 0 0 2.1505211858872642 3.1321291216399203 0 3.1321291216399203 4.1643535222389687 0 0 0 0 -93.987131197280732 -39.17393283146157 0 -39.17393283146157 22.1432661796498 0 0 0 0 -47.417027829933716 -27.555075218833736 0 -27.555075218833736 -139.09805956073978 0 0 0 0 -2.4968361444317457 -2.5535099530944052 0 -2.5535099530944052 -1.7021544666194046 0 0 0 0 80.5210196288931 -144.0805464631776 0 -144.0805464631776 219.24224830867024 0 0 0 0 -38.686012919592883 10.720211952901082 0 10.720211952901082 36.094632395102963 0 0 0 0 90.128467993034874 -111.22749983057015 0 -111.22749983057015 150.30377378244884 0 0 0 0 90.239771601268771 -150.47189881524358 0 -150.47189881524358 191.75656342672301 0 0 0 0 19.010335561437159 -98.75374266574363 0 -98.75374266574363 185.7966402039383 0 0 0 0 -15.365345697154794 -65.802218451208319 0 -65.802218451208319 134.72151695580214 0 0 0 0 -24.855349783914448 -78.583301684400794 0 -78.583301684400794 132.83576448800159 0 0 0 0 46.454854312397629 -81.976071559489355 0 -81.976071559489355 138.1761253108707 0 0 0 0 1.3753031894231071 -61.521956779964967 0 -61.521956779964967 162.11715264491068 0 0 0 0 -36.920891924373677 -82.092170982652533 0 -82.092170982652533 178.41583532467484 0 0 0 0 -7.9845814453444746 -57.984180921746884 0 -57.984180921746884 158.55998514901148 0 0 0 0 -71.132788372218783 -50.45810787355731 0 -50.45810787355731 179.99320178721246 0 0 0 0 42.843967101732765 -108.62392794221523 0 -108.62392794221523 205.62226417286183 0 0 0 0 62.807488030371218 -131.23576640031024 0 -131.23576640031024 230.13523634831654 0 0 0 0 62.992854959481662 -126.08449283863229 0 -126.08449283863229 243.58740133122774 0 0 0 0 53.3237204302294 -99.194644063987653 0 -99.194644063987653 177.47665866324678 0 0 0 0 32.150725925711228 -75.09725270128547 0 -75.09725270128547 184.09570679797616 0 0 0 0 -11.938976988022819 -84.839079961218886 0 -84.839079961218886 210.79836220230209 0 0 0 0 69.366347606386626 -101.05139448846603 0 -101.05139448846603 212.89056974114283 0 0 0 0 30.127934617775423 -82.449454176967265 0 -82.449454176967265 248.51633309581666 0 0 0 0 116.92779285831944 -77.052203403080057 0 -77.052203403080057 247.51278456357977 0 0 0 0 88.956770379045793 -112.53195934463292 0 -112.53195934463292 267.67216680644196 0 0 0 0 88.733045143002897 -97.194702871930986 0 -97.194702871930986 343.89414585876511 0 0 0 0 67.939919062018021 -93.920791210643074 0 -93.920791210643074 259.4613904475118 0 0 0 0 70.377539197582792 -101.9122369937686 0 -101.9122369937686 284.41332254900772 0 0 0 0 84.029971140885777 -129.03061707390589 0 -129.03061707390589 275.77096827395144 0 0 0 0 93.53866592988561 -124.71046976369689 0 -124.71046976369689 233.55256425673724 0 0 0 0 83.808468322582939 -123.2963403017493 0 -123.2963403017493 236.27150290357531 0 0 0 0 111.93440720570538 -130.50233606145048 0 -130.50233606145048 228.94449813920073 0 0 0 0 -141.58431599934318 56.888424079799734 0 56.888424079799734 -118.69612153311937 0 0 0 0 10.988388648156615 399.00750280094508 0 399.00750280094508 -13.097179293603403 0 0 0 0 106.66216895664729 -193.04874058254063 0 -193.04874058254063 272.47336521020043 0 0 0 0 77.323610346457826 -224.07515755816712 0 -224.07515755816712 585.91473220888292 0 0 0 0 -0.63514633530031084 0.330097761816873 0 0.330097761816873 1.1872166804047168 0 0 0 0 136.86737661872621 -315.27239510505751 0 -315.27239510505751 573.4735701015743 0 0 0 0 -0.54693690314365906 -0.14652962442956152 0 -0.14652962442956152 0.54085708667531662 0 0 0 0 127.44561774642921 55.88324626985559 0 55.88324626985559 285.64014559454517 0 0 0 0 108.3919187418926 -36.722175410895943 0 -36.722175410895943 407.97448177839397 0 0 0 0 113.97575957611707 -82.136919275726541 0 -82.136919275726541 686.85569964644674 0 0 0 0 115.79868578745709 -73.761846196983242 0 -73.761846196983242 292.66126798136975 0 0 0 0 139.97748945476087 -37.890423520308104 0 -37.890423520308104 308.89565319861867 0 0 0 0 179.92796312583937 -46.337679509699228 0 -46.337679509699228 185.30454422156618 0 0 0 0 13.048345162918508 128.37018708281175 0 128.37018708281175 -160.89882678621507 0 0 0 0 -6.739317820024894 39.062382398025875 0 39.062382398025875 205.32435883791186 0 0 0 0 56.881260564059858 -45.899856953365088 0 -45.899856953365088 153.36503321566852 0 0 0 0 22.666779176648333 18.46582682592998 0 18.46582682592998 21.3575606609229 0 0 0 0 -73.571496650737572 -1.4396933252901363 0 -1.4396933252901363 18.224180069293652 0 0 0 0 0.46556367435188895 0.1671101701757749 0 0.1671101701757749 -0.31969110605579232 0 0 0 0 41.302993727677404 39.110826107871617 0 39.110826107871617 198.42786910777795 0 0 0 0 -85.763455169635108 176.47492965712445 0 176.47492965712445 94.541958334011724 0 0 0 0 2.4062037019059921 3.4379199237171107 0 3.4379199237171107 4.0418120213658284 0 0 0 0 9.9242182909624717 79.942864121563616 0 79.942864121563616 -127.40184365952882 0 0 0 0 680.25214484602066 -616.03244184815776 0 -616.03244184815776 279.40295785523631 0 0 0 0 1.5377034119467985 3.8423736870285552 0 3.8423736870285552 8.9267289243870493 0 0 0 0 -238.72276319330103 -430.05550122575823 0 -430.05550122575823 771.42779880180024 0 0 0 0 192.29980224870906 124.72694107753341 0 124.72694107753341 75.619653956578986 0 0 0 0 -115.68603709565355 217.71925544823171 0 217.71925544823171 422.00164383792435 0 0 0 0 -96.556796227403652 -213.29204192436009 0 -213.29204192436009 232.00610378361307 0 0 0 0 -235.62945542990565 -239.95778190604324 0 -239.95778190604324 1014.1016801923397 0 0 0 0 -123.26026650082258 611.34927432885161 0 611.34927432885161 817.56458727494828 0 0 0 0 -55.006454308798197 18.463685825929133 0 18.463685825929133 28.755646005869494 0 0 0 0 6.3907295765902301 9.595830617839745 0 9.595830617839745 16.943516549932752 0 0 0 0 -107.11747620302096 -1065.8666425514066 0 -1065.8666425514066 304.29654861571908 0 0 0 0 71.64709387873063 16.377342971420148 0 16.377342971420148 10.441194592871398 0 0 0 0 -43.205849295241705 -41.906476790702527 0 -41.906476790702527 0.084312169579789042 0 0 0 0 154.76099776162528 -11.772565078703337 0 -11.772565078703337 -60.017216736639966 0 0 0 0 145.8428439633044 74.082614343045861 0 74.082614343045861 0.59064652626693714 0 0 0 0 121.50907280185038 81.619050572371634 0 81.619050572371634 52.450982695885614 0 0 0 0 57.637102883634157 42.688434879848501 0 42.688434879848501 4.941447283650632 0 0 0 0 71.805626890103213 118.49059990622118 0 118.49059990622118 142.49942117222236 0 0 0 0 84.505269051060168 152.23935741698733 0 152.23935741698733 404.8692817674746 0 0 0 0 52.172582536674554 54.499832132190932 0 54.499832132190932 134.14768296912371 0 0 0 0 214.9858485858631 240.54671679984313 0 240.54671679984313 309.69905291128816 0 0 0 0 183.47048991933661 88.394962186735938 0 88.394962186735938 49.191364151018206 0 0 0 0 90.692820283190713 293.3944338885849 0 293.3944338885849 555.4786932853458 0 0 0 0 36.02185983290201 -358.63501445186557 0 -358.63501445186557 1008.0050031365608 0 0 0 0 -25.172330966558548 -105.33241874461237 0 -105.33241874461237 248.75677254927768 0 0 0 0 -38.766298291773182 109.82226947059098 0 109.82226947059098 266.31838331191148 0 0 0 0 47.39430138013438 56.489847534143337 0 56.489847534143337 8.1489452588211861 0 0 0 0 -114.11055679291553 33.691734347015881 0 33.691734347015881 191.21410748168273 0 0 0 0 52.359060543703549 108.61255413844174 0 108.61255413844174 16.419333882331557 0 0 0 0 -0.41474861294619902 -0.68354965796181233 0 -0.68354965796181233 -0.75080456018464758 0 0 0 0 26.844486475572566 -27.672268000071199 0 -27.672268000071199 -83.578414285497274 0 0 0 0 13.484591318333464 -20.964436274243781 0 -20.964436274243781 106.84515929475128 0 0 0 0 -30.917098958519546 -64.501368382858345 0 -64.501368382858345 100.16794341588866 0 0 0 0 -78.065839102257328 108.54567847863291 0 108.54567847863291 41.620664273767034 0 0 0 0 -47.904972280861557 -65.925474775747716 0 -65.925474775747716 160.20124637088156 0 0 0 0 -52.562933483617712 -58.313516818094286 0 -58.313516818094286 159.66962716581475 0 0 0 0 -58.681914506286148 -46.502119588076312 0 -46.502119588076312 128.03534298604791 0 0 0 0 -58.294920456827072 -18.965478723897832 0 -18.965478723897832 110.23346620232041 0 0 0 0 -62.147556783447953 -43.809232343061012 0 -43.809232343061012 149.87771382272149 0 0 0 0 -53.58331005735954 -65.592544259085116 0 -65.592544259085116 143.89921981842781 0 0 0 0 -5.6497574423974584 -67.47952191157674 0 -67.47952191157674 103.37948966634485 0 0 0 0 -17.896813059759552 -44.387405613881128 0 -44.387405613881128 106.04450772477139 0 0 0 0 -44.489863517880622 -16.207494831298391 0 -16.207494831298391 77.460064300874365 0 0 0 0 6.4562460294305311 -13.083724039905064 0 -13.083724039905064 45.68077941230149 0 0 0 0 -11.509768776544888 -15.031272694612653 0 -15.031272694612653 46.643796784017468 0 0 0 0 40.850545707359288 -53.593983604303503 0 -53.593983604303503 71.23570537642081 0 0 0 0 -69.416553348304205 -51.277248385642451 0 -51.277248385642451 162.8952005328174 0 0 0 0 -8.3933561874544012 -59.101892289099851 0 -59.101892289099851 80.99455765793391 0 0 0 0 63.837940335679832 -123.74352998414179 0 -123.74352998414179 125.89770660276554 0 0 0 0 -58.72514599543706 -80.619281204260915 0 -80.619281204260915 230.58227497397456 0 0 0 0 -50.11713435409365 -75.239018630183637 0 -75.239018630183637 168.76825998989807 0 0 0 0 252.84891068696243 -279.19218670354167 0 -279.19218670354167 215.17432372709663 0 0 0 0 -21.820992962351511 -95.063134464457107 0 -95.063134464457107 280.07627597499231 0 0 0 0 249.65421093924544 52.108562706423214 0 52.108562706423214 -330.60103547597828 0 0 0 0 722.95499647241468 -546.71711257918651 0 -546.71711257918651 -127.48268587412895 0 0 0 0 73.111002087096495 37.405866073362631 0 37.405866073362631 -5.5199006254260894 0 0 0 0 -58.480830126954061 112.88390304596396 0 112.88390304596396 -47.490200346706843 0 0 0 0 95.061906910937068 -50.131488252394774 0 -50.131488252394774 43.965821133853751 0 0 0 0 52.861756663904998 -74.631343961256789 0 -74.631343961256789 29.833023945066088 0 0 0 0 31.307448978220293 -9.5792856720645432 0 -9.5792856720645432 19.386707312412909 0 0 0 0 13.586091594111622 13.084350371311302 0 13.084350371311302 17.275581958736439 0 0 0 0 30.689278599762929 -4.0502073723473586 0 -4.0502073723473586 26.271626663430652 0 0 0 0 -5.9616343164107093 17.185504263092298 0 17.185504263092298 23.185926669371838 0 0 0 0 2.4634343400848593 18.051292089134222 0 18.051292089134222 23.178662508638809 0 0 0 0 23.513220925267433 30.642867841503175 0 30.642867841503175 19.650749457694474 0 0 0 0 -8.3302362396707395 29.562567344488343 0 29.562567344488343 24.150029307609657 0 0 0 0 -12.59496421145559 12.411811000758462 0 12.411811000758462 19.902681689622113 0 0 0 0 5.3669741382248777 6.8801536948985245 0 6.8801536948985245 10.203842487693464 0 0 0 0 15.392570893262018 3.4854841727355961 0 3.4854841727355961 8.0355133280099835 0 0 0 0 1.8069169377765453 1.6487954537385896 0 1.6487954537385896 2.2481346040175652 0 0 0 0 -13.551244901132122 14.46353451408504 0 14.46353451408504 21.483875681995414 0 0 0 0 -5.9571287825378931 17.215187663729012 0 17.215187663729012 23.371097975825251 0 0 0 0 -15.869552387016029 15.975989482765726 0 15.975989482765726 20.765760503592901 0 0 0 0 -6.3887532844528323 22.63402496209892 0 22.63402496209892 26.686088815054973 0 0 0 0 -21.211838972843907 6.7651693047810113 0 6.7651693047810113 19.457329987072626 0 0 0 0 -2.7805141191004146 -4.3638014881457465 0 -4.3638014881457465 9.6889909549102526 0 0 0 0 -1.7479038941532699 2.5081678051481173 0 2.5081678051481173 15.328243363604258 0 0 0 0 -10.166917618156972 -0.24407890082147787 0 -0.24407890082147787 10.285730797157157 0 0 0 0 23.879599111471634 3.8631915014557308 0 3.8631915014557308 27.088815256312955 0 0 0 0 -1.127714038345041 3.0455748758062171 0 3.0455748758062171 25.420227551594081 0 0 0 0 -91.269300981439301 68.6929966777152 0 68.6929966777152 72.829062390403124 0 0 0 0 -0.79479260400881913 7.943453356601097 0 7.943453356601097 31.561451911354652 0 0 0 0 9.945103449001067 -4.7028974988243135 0 -4.7028974988243135 15.110425142047461 0 0 0 0 -67.586685492532069 22.327098787165596 0 22.327098787165596 25.813009258263264 0 0 0 0 -1.7912602570691316 5.7736335460273125 0 5.7736335460273125 5.6484067073366617 0 0 0 0 -42.877620494665734 -0.02570322054089047 0 -0.02570322054089047 20.403873607883725 0 0 0 0 -0.27119765167469723 250.17563999953563 0 250.17563999953563 -154.12051540026732 0 0 0 0 7.695617412966044 1.1779005903517827 0 1.1779005903517827 -227.11580723230145 0 0 0 0 28.072150928627082 48.643131662400265 0 48.643131662400265 120.00786670847447 0 0 0 0 35.606420962259676 4.3281209251108521 0 4.3281209251108521 45.663753658125643 0 0 0 0 0.076865158476695339 0.28379556286000351 0 0.28379556286000351 0.86357687581619302 0 0 0 0 89.507861109150554 -64.768155516168918 0 -64.768155516168918 48.729758420740836 0 0 0 0 62.700581952132438 -77.04129895321239 0 -77.04129895321239 95.999716718390118 0 0 0 0 -7.3239735191700674 -49.762084133282769 0 -49.762084133282769 192.482251475667 0 0 0 0 20.060258377828632 33.510217115694104 0 33.510217115694104 193.29188016902481 0 0 0 0 24.739598971955786 -34.916658093079604 0 -34.916658093079604 55.783994938232354 0 0 0 0 25.722323543868242 -0.3708443344803527 0 -0.3708443344803527 -4.8288817037901026 0 0 0 0 20.023137520978025 4.4662544109451119 0 4.4662544109451119 -13.954555008269381 0 0 0 0 5.6518822900864336 2.9571063315124775 0 2.9571063315124775 4.4070779728644993 0 0 0 0 75.265495709971503 -31.706015506630138 0 -31.706015506630138 13.625212124112295 0 0 0 0 18.557657566865373 16.388472476850438 0 16.388472476850438 -60.167852647718973 0 0 0 0 -1.6352758092894524 1.1075764711717966 0 1.1075764711717966 2.6028167187001969 0 0 0 0 23.662054604042169 18.866270920072566 0 18.866270920072566 -130.57991478487384 0 0 0 0 9.1309164272249745 -34.975773511425359 0 -34.975773511425359 -67.156505044382357 0 0 0 0 -9.5163039918591039 -17.823323380074726 0 -17.823323380074726 15.892863799002953 0 0 0 0 4.3477542787381935 -43.11083890095324 0 -43.11083890095324 -21.060480487962195 0 0 0 0 8.956710266401311 8.9798233076118663 0 8.9798233076118663 7.0576570352067023 0 0 0 0 2.9516635000704809 26.617999717986095 0 26.617999717986095 -4.2293680009061063 0 0 0 0 12.246972015869233 4.1551054909650702 0 4.1551054909650702 7.0327314076566836 0 0 0 0 5.702471517852473 42.848985706972599 0 42.848985706972599 87.79479384048318 0 0 0 0 1.6018999047327593 0.13750440768105676 0 0.13750440768105676 -2.6878461999834258 0 0 0 0 54.599549963147183 18.456874731580683 0 18.456874731580683 -27.796476620773319 0 0 0 0 39.208884831459613 58.082482149802672 0 58.082482149802672 93.873956125593395 0 0 0 0 -45.210897721545734 -46.047627172210923 0 -46.047627172210923 198.66623368055298 0 0 0 0 -25.706270866263139 13.326436149160145 0 13.326436149160145 27.016184125895961 0 0 0 0 -19.827629197996885 12.779829383216565 0 12.779829383216565 25.802842749864794 0 0 0 0 -34.067738426233234 -10.320148858714674 0 -10.320148858714674 80.133418983910815 0 0 0 0 -23.715616217611625 7.6830311353105571 0 7.6830311353105571 -2.7102958747418597 0 0 0 0 -67.547839843989777 35.610023747271043 0 35.610023747271043 39.629396270662255 0 0 0 0 -82.069214231481936 -12.051445082120608 0 -12.051445082120608 118.43716997693264 0 0 0 0 68.292694640241905 128.390127589244 0 128.390127589244 359.67133083223598 0 0 0 0 -52.965102523504925 101.08695015407284 0 101.08695015407284 -79.830242134748914 0 0 0 0 -135.31050257640948 84.341212671250105 0 84.341212671250105 43.901995933039871 0 0 0 0 7.1235717579185174 7.5143473888559811 0 7.5143473888559811 5.6230721505621943 0 0 0 0 -112.71933160417763 55.46717377868481 0 55.46717377868481 421.93692628743884 0 0 0 0 41.922365739200131 306.6819265775157 0 306.6819265775157 824.10317625108837 0 0 0 0 -271.1085432252795 -0.80812774374680885 0 -0.80812774374680885 966.93945791421356 0 0 0 0 93.220193664249564 170.45600339357043 0 170.45600339357043 351.99690263768935 0 0 0 0 289.10073470086968 103.4882072348064 0 103.4882072348064 372.38192891518702 0 0 0 0 16.619201953536731 99.054798383138404 0 99.054798383138404 479.74070081210539 0 0 0 0 -47.948912924895808 -87.003907879863618 0 -87.003907879863618 435.73670830248739 0 0 0 0 54.722091193577853 -28.831717981825932 0 -28.831717981825932 122.27360408422828 0 0 0 0 49.180400604266197 -62.972629629621224 0 -62.972629629621224 211.75199117576085 0 0 0 0 112.05497735166318 368.91778456794418 0 368.91778456794418 783.26700546936854 0 0 0 0 84.422288904135485 -74.24929625806908 0 -74.24929625806908 809.31945577533043 0 0 0 0 -1.3409289590777576 -1.9612022900796546 0 -1.9612022900796546 530.84742234944133 0 0 0 0 5.1833199981700773 126.24569025332312 0 126.24569025332312 606.12695723121578 0 0 0 0 6.9274847334588685 76.678969215648976 0 76.678969215648976 442.95258847532386 0 0 0 0 -30.269377160165519 -2.9215402972979518 0 -2.9215402972979518 531.33815290743223 0 0 0 0 -17.6892961666465 94.938844113021332 0 94.938844113021332 376.72065617059707 0 0 0 0 69.250707485053681 28.462961350775004 0 28.462961350775004 377.07758500037744 0 0 0 0 32.165097314834384 128.70744015756281 0 128.70744015756281 132.45636405174446 0 0 0 0 59.0182109568361 -11.253682671125716 0 -11.253682671125716 327.87906064855633 0 0 0 0 117.74664671873393 271.91364604792398 0 271.91364604792398 491.3151431177248 0 0 0 0 156.85081269318636 87.82073801988372 0 87.82073801988372 741.97461690425553 0 0 0 0 43.061608007293898 307.72078012609563 0 307.72078012609563 979.76666087976628 0 0 0 0 30.386954568375444 -188.45459391565691 0 -188.45459391565691 284.92061979329446 0 0 0 0 0.03932491131035043 -1.3857641922405151 0 -1.3857641922405151 2.7838822551903206 0 0 0 0 -65.071387741690614 24.284470520819013 0 24.284470520819013 67.991132824718079 0 0 0 0 26.194979131935781 -151.50006900177686 0 -151.50006900177686 -24.244504857430002 0 0 0 0 122.59593645952577 -37.542147905733145 0 -37.542147905733145 88.201382294857467 0 0 0 0 145.40790263815643 -98.729718485446938 0 -98.729718485446938 218.38113710812468 0 0 0 0 121.53941351055704 -90.526120766535314 0 -90.526120766535314 300.30753592359542 0 0 0 0 28.045444963026284 16.429273160254525 0 16.429273160254525 717.50418998577152 0 0 0 0 86.888155904501673 3.8786176714147587 0 3.8786176714147587 286.98144023650093 0 0 0 0 85.65611189846004 -54.730556986716692 0 -54.730556986716692 266.97647615503229 0 0 0 0 27.965759147587477 -75.584075986171229 0 -75.584075986171229 230.16835216188338 0 0 0 0 84.656654835169803 -62.233455952111399 0 -62.233455952111399 211.01953222951852 0 0 0 0 -20.433649334951298 -30.004678983052145 0 -30.004678983052145 216.40392479712318 0 0 0 0 32.352554741082514 47.296536358615413 0 47.296536358615413 216.06069279136045 0 0 0 0 -95.147330889841783 19.077220802450029 0 19.077220802450029 154.44791610722496 0 0 0 0 -9.1417279549293653 -39.241095935612975 0 -39.241095935612975 129.57289679961104 0 0 0 0 -124.7056637584389 -18.119441947790165 0 -18.119441947790165 112.89997128836694 0 0 0 0 -58.676603411647186 -35.012877644971013 0 -35.012877644971013 40.010902837049798 0 0 0 0 113.70205585712387 289.81772645434467 0 289.81772645434467 -207.45803377483935 0 0 0 0 124.6368407248639 365.3914977939603 0 365.3914977939603 310.16258989337882 0 0 0 0 25.107830626227837 11.610947172903252 0 11.610947172903252 59.510834234366484 0 0 0 0 -90.968383937646649 -92.664543034466988 0 -92.664543034466988 1156.6450264990526 0 0 0 0 -65.634221119355345 253.77839945914457 0 253.77839945914457 939.61047652960951 0 0 0 0 2.9496072053648712 2.9818255212974236 0 2.9818255212974236 2.7302707399350652 0 0 0 0 285.38436384798109 135.35923565387748 0 135.35923565387748 386.39763159014547 0 0 0 0 70.613250943459093 38.757158351324506 0 38.757158351324506 783.66313807428014 0 0 0 0 54.466918341719406 294.93982654675892 0 294.93982654675892 669.41625324614142 0 0 0 0 27.244120222226684 68.163892190239494 0 68.163892190239494 514.80218194792542 0 0 0 0 5.0954200031424079 62.979494865652669 0 62.979494865652669 451.78203167689571 0 0 0 0 97.135351222516533 142.83552879766285 0 142.83552879766285 414.14138164985343 0 0 0 0 98.503642171340061 163.54561482540703 0 163.54561482540703 302.47877549358236 0 0 0 0 6.3634327663826298 32.024069409835647 0 32.024069409835647 381.84347676750622 0 0 0 0 13.770204868020256 -36.352881894015681 0 -36.352881894015681 59.930416206605472 0 0 0 0 114.0790658309088 203.4920260026156 0 203.4920260026156 416.49850812576187 0 0 0 0 112.47383492635254 222.43205990285423 0 222.43205990285423 555.82627294037138 0 0 0 0 16.477101155569926 163.92726182623755 0 163.92726182623755 744.94631800568823 0 0 0 0 16.218851183226434 99.980059906662063 0 99.980059906662063 524.44633476363742 0 0 0 0 49.293230136479906 253.53030833752564 0 253.53030833752564 705.25168968611069 0 0 0 0 543.18151419231799 607.85661704095764 0 607.85661704095764 713.86559778715309 0 0 0 0 110.86704752230276 290.67810084450775 0 290.67810084450775 718.05782426399674 0 0 0 0 16.424195040415725 145.63783000826879 0 145.63783000826879 893.23858277778345 0 0 0 0 124.83198720413384 275.14320539850451 0 275.14320539850451 686.08505804448214 0 0 0 0 141.69952604238097 304.69422432970532 0 304.69422432970532 690.97631726452937 0 0 0 0 135.04507352323753 323.0904848583159 0 323.0904848583159 721.60614144482815 0 0 0 0 -942.2114716792521 -1104.5866594956478 0 -1104.5866594956478 -434.39895215322031 0 0 0 0 -208.27546802897268 -475.07562096889887 0 -475.07562096889887 -656.66083169329613 0 0 0 0 11.318922964180484 -26.072882178571998 0 -26.072882178571998 41.385593835062835 0 0 0 0 -639.9966382465409 -200.94557835443993 0 -200.94557835443993 -202.145266583384 0 0 0 0 -886.07104919295284 -875.60711612613204 0 -875.60711612613204 -490.84042125081214 0 0 0 0 -394.39153051304493 -369.8715472676522 0 -369.8715472676522 -98.006006166197039 0 0 0 0 526.13075554617035 -280.19261206242436 0 -280.19261206242436 -17.521721058443291 0 0 0 0 183.54976544294914 167.50124098087144 0 167.50124098087144 129.29118469680998 0 0 0 0 487.63449679407745 -205.72586070793247 0 -205.72586070793247 -79.027953493399764 0 0 0 0 7.3698182100679919 -4.4098600704697972 0 -4.4098600704697972 1.4015579187461924 0 0 0 0 0.57280847725106532 -0.29630530979949654 0 -0.29630530979949654 30.221979674801055 0 0 0 0 397.88372543464232 -187.95359864923375 0 -187.95359864923375 218.68005755237209 0 0 0 0 475.61730450087271 -430.76297719408467 0 -430.76297719408467 127.03366703740903 0 0 0 0 640.08869650212637 -336.54863776075581 0 -336.54863776075581 50.358309086994268 0 0 0 0 303.30879128249632 62.875494877520396 0 62.875494877520396 37.219108028158644 0 0 0 0 3.0478362214257952 2.7682908185206783 0 2.7682908185206783 1.3838860402262512 0 0 0 0 1324.186673341902 -331.38299637873206 0 -331.38299637873206 102.66613059082192 0 0 0 0 -0.79348622340284969 2.6575180581441948 0 2.6575180581441948 2.8913025671922341 0 0 0 0 891.4328717602275 -329.01702952664346 0 -329.01702952664346 16.992265588887676 0 0 0 0 397.82782736596084 -312.69933290278004 0 -312.69933290278004 526.29856650900547 0 0 0 0 666.08375046456695 -0.056445114467351232 0 -0.056445114467351232 -319.40899993664061 0 0 0 0 216.90645633468898 -3.714064613550363 0 -3.714064613550363 -131.38565158243 0 0 0 0 357.03657570463901 190.30736055430862 0 190.30736055430862 110.55711390874058 0 0 0 0 398.51022851145262 -710.0854991557153 0 -710.0854991557153 -213.75080613416503 0 0 0 0 -523.41711399310407 -454.27122165468973 0 -454.27122165468973 378.1618973941213 0 0 0 0 -22.514541172606187 49.596452307711928 0 49.596452307711928 19.193705998832087 0 0 0 0 1.5536501605016459 12.801148781851886 0 12.801148781851886 33.493741246653968 0 0 0 0 7.5928713888442871 31.307503103207878 0 31.307503103207878 13.648941693020618 0 0 0 0 7.1140913821897271 14.602421663134146 0 14.602421663134146 13.068178549367333 0 0 0 0 -3.1168148987521818 11.229325116404652 0 11.229325116404652 41.482257008134184 0 0 0 0 7.2402015810584999 8.9554319175567798 0 8.9554319175567798 31.441355448219838 0 0 0 0 -1.4187056389451405 5.6609883073143683 0 5.6609883073143683 50.968111785080865 0 0 0 0 1.8898326690903011 4.3158511089825851 0 4.3158511089825851 41.189515796745042 0 0 0 0 -11.308705572973849 -2.8317006782308454 0 -2.8317006782308454 37.169112525735272 0 0 0 0 -20.22985006635281 41.441981115226099 0 41.441981115226099 29.266853325298484 0 0 0 0 7.0156717415313778 58.205736939158726 0 58.205736939158726 20.709492920052298 0 0 0 0 -66.870393028836588 44.56878915499442 0 44.56878915499442 82.098667814181226 0 0 0 0 -36.48829451380152 59.505016838902748 0 59.505016838902748 93.671861479048175 0 0 0 0 -36.507134675462112 60.643993232936388 0 60.643993232936388 87.153187887904096 0 0 0 0 -75.571146627258713 50.131723828977101 0 50.131723828977101 119.85706767962756 0 0 0 0 -67.805716045986173 47.99943048597072 0 47.99943048597072 86.554282305568904 0 0 0 0 -70.828460283642926 40.561032020026232 0 40.561032020026232 83.268091641514957 0 0 0 0 -16.948151986719086 -18.995769093105935 0 -18.995769093105935 23.401426724885894 0 0 0 0 -1095.6683499348692 -306.69943158606293 0 -306.69943158606293 58.07154391615768 0 0 0 0 -103.2450688061399 18.01480355883109 0 18.01480355883109 114.23824321866596 0 0 0 0 -122.881176733546 26.95389547811078 0 26.95389547811078 130.42220534633998 0 0 0 0 -1.8310888112983612 1.8967391103985474 0 1.8967391103985474 106.28661296363337 0 0 0 0 -77.110996829639589 32.055425151203963 0 32.055425151203963 226.23160510878665 0 0 0 0 -94.498063885547481 43.961702012891521 0 43.961702012891521 155.99964394053222 0 0 0 0 -56.245897177488587 53.032016588535953 0 53.032016588535953 120.08621123316743 0 0 0 0 -80.000402304902309 15.943852432284984 0 15.943852432284984 136.3925442464847 0 0 0 0 -56.149045732110608 55.608410270716377 0 55.608410270716377 150.56308836064181 0 0 0 0 126.23277090813463 -514.71790710863206 0 -514.71790710863206 -896.60690810233427 0 0 0 0 -595.83577415588138 -239.53663302567338 0 -239.53663302567338 -374.69640919395897 0 0 0 0 233.22295284986012 -341.43689000641825 0 -341.43689000641825 -495.8634042748854 0 0 0 0 236.51229646626416 -46.267574622259417 0 -46.267574622259417 -60.953167473489884 0 0 0 0 -297.15850882293216 -434.69284400965444 0 -434.69284400965444 56.851122237290838 0 0 0 0 23.816999834955823 -467.50156608245379 0 -467.50156608245379 -284.69722621035908 0 0 0 0 100.45289292972575 -460.01620335140615 0 -460.01620335140615 -387.18186428437184 0 0 0 0 -64.863118194294657 -984.71061148811714 0 -984.71061148811714 110.74188054239494 0 0 0 0 -696.71506210737857 -966.08380673342981 0 -966.08380673342981 691.4241077785191 0 0 0 0 -866.32609135721634 -752.31815104845009 0 -752.31815104845009 463.36831467501906 0 0 0 0 -363.83209489475666 -598.10220730873698 0 -598.10220730873698 -388.14748640649088 0 0 0 0 6.4579634066024383 -9.4581832638988921 0 -9.4581832638988921 13.817247917288228 0 0 0 0 439.23600831299063 1047.5529948734256 0 1047.5529948734256 1627.4291656751593 0 0 0 0 -63.919328120945465 -997.04271177389455 0 -997.04271177389455 -656.92147155887506 0 0 0 0 768.00177120288936 -267.43837656148025 0 -267.43837656148025 160.19959424786794 0 0 0 0 223.85129915352081 -169.55436696922152 0 -169.55436696922152 1612.3591594102254 0 0 0 0 -946.46297578340727 70.461501404342926 0 70.461501404342926 409.1162481588326 0 0 0 0 248.79263364576664 837.25623892888279 0 837.25623892888279 592.83728146879002 0 0 0 0 171.89006757235734 107.09703463620463 0 107.09703463620463 18.119863608982996 0 0 0 0 -52.898642273495625 385.45798156272213 0 385.45798156272213 47.459899536217563 0 0 0 0 97.925760141637824 -281.14130337869221 0 -281.14130337869221 12.273132479022024 0 0 0 0 435.09825476945548 -40.412161319861298 0 -40.412161319861298 -37.001799886638764 0 0 0 0 372.69185009399098 -283.81419091146927 0 -283.81419091146927 -52.939438524757861 0 0 0 0 184.94430904755791 137.04411756555419 0 137.04411756555419 86.357449888870178 0 0 0 0 -80.247379859304601 -14.045170287774909 0 -14.045170287774909 192.85856775130924 0 0 0 0 -105.35042283713847 5.2876588326034835 0 5.2876588326034835 169.62175750843562 0 0 0 0 -83.100944792121481 -27.597943790158297 0 -27.597943790158297 129.40809727223996 0 0 0 0 -2.0832778093560078 1.8217291484891458 0 1.8217291484891458 117.77389106484998 0 0 0 0 -157.9851460678251 -29.145472368873016 0 -29.145472368873016 149.26347051672883 0 0 0 0 -106.65800516981085 -12.294766356922111 0 -12.294766356922111 89.679438107184978 0 0 0 0 -126.89320846695819 -2.4292186911029603 0 -2.4292186911029603 137.91047329586945 0 0 0 0 -40.644185815100172 -67.397440533030476 0 -67.397440533030476 132.87846556730483 0 0 0 0 -62.994376673264924 -37.403152436073469 0 -37.403152436073469 102.43784640371177 0 0 0 0 -62.641856776723216 -49.727813638503449 0 -49.727813638503449 119.74772477315219 0 0 0 0 -25.970798390979553 -31.918717163683652 0 -31.918717163683652 78.657286506604578 0 0 0 0 -11.483029113246403 -70.788164727114633 0 -70.788164727114633 98.109929517182536 0 0 0 0 -35.391491644148118 -43.172208809597578 0 -43.172208809597578 71.603934321932229 0 0 0 0 -38.886195792552371 -38.002015829416905 0 -38.002015829416905 93.319574741122779 0 0 0 0 -32.658679199803373 -30.09893895300138 0 -30.09893895300138 87.103256734300885 0 0 0 0 -61.491724704717853 -44.275509977504043 0 -44.275509977504043 109.26946490899627 0 0 0 0 -3.7343017940236987 5.9643773153867485 0 5.9643773153867485 119.81035354468995 0 0 0 0 -352.85207880452401 143.7637187834207 0 143.7637187834207 190.69920340944373 0 0 0 0 -86.70420933057585 -24.072219612899062 0 -24.072219612899062 116.65661641994666 0 0 0 0 -46.283317442336738 -24.86072830017747 0 -24.86072830017747 121.4513163738593 0 0 0 0 -22.568254083904321 0.86651241891922837 0 0.86651241891922837 97.821951466459723 0 0 0 0 -258.87439361447855 309.3469000862242 0 309.3469000862242 106.01047501878929 0 0 0 0 -49.503265169059887 -33.733120977743965 0 -33.733120977743965 35.205444478080608 0 0 0 0 0.96588038267337106 16.570898232004101 0 16.570898232004101 57.47250829240658 0 0 0 0 -3.983282550503485 11.576845119163247 0 11.576845119163247 30.336380262399373 0 0 0 0 6.8519285405829464 24.091944797004544 0 24.091944797004544 46.848363860961399 0 0 0 0 22.533372699554093 22.142964523013688 0 22.142964523013688 72.691116596935899 0 0 0 0 -13.541712710147323 19.097713484478845 0 19.097713484478845 56.688867433367705 0 0 0 0 4.457506362781519 30.454279663295033 0 30.454279663295033 47.762188295418547 0 0 0 0 0.92157226726760655 14.48490866915381 0 14.48490866915381 41.396582911322184 0 0 0 0 2.9478946475610428 19.032966643052532 0 19.032966643052532 67.042823772295378 0 0 0 0 20.528511824721136 15.108821295474627 0 15.108821295474627 49.832216235668966 0 0 0 0 -2.2498777281489311 8.5778731774680637 0 8.5778731774680637 71.11485205813733 0 0 0 0 14.62628503128235 27.34341017462566 0 27.34341017462566 90.030613158298365 0 0 0 0 13.791788844311668 25.928920151513012 0 25.928920151513012 106.59888868173584 0 0 0 0 8.6745467811233539 12.854414266967069 0 12.854414266967069 127.42032544922768 0 0 0 0 -2.7139421499577256 9.6291658383516356 0 9.6291658383516356 22.293235356530026 0 0 0 0 -17.583724349933618 13.873517938536679 0 13.873517938536679 127.57221735158873 0 0 0 0 9.0472370111510827 12.691620543706222 0 12.691620543706222 97.553021273888589 0 0 0 0 -29.099238053637237 -9.1807622041433206 0 -9.1807622041433206 84.786447399932513 0 0 0 0 -30.105518496371587 -17.666156116567436 0 -17.666156116567436 100.1028459220779 0 0 0 0 -13.553033123074783 10.52616859479167 0 10.52616859479167 87.620150324388078 0 0 0 0 -12.081120797577569 13.384834388399213 0 13.384834388399213 56.803468732228794 0 0 0 0 -6.5028796828592021 6.8787346206881921 0 6.8787346206881921 51.870962308517846 0 0 0 0 -21.028578553243278 -4.522109076581728 0 -4.522109076581728 57.43205287929959 0 0 0 0 -28.742747226913707 -5.3840275830225437 0 -5.3840275830225437 69.887384203975671 0 0 0 0 -30.862661923294581 -22.931867205570597 0 -22.931867205570597 66.80604779208079 0 0 0 0 -101.57313866988261 288.42096320461133 0 288.42096320461133 77.244294324351358 0 0 0 0 102.59529135791243 -51.597814176805912 0 -51.597814176805912 7.479090827415348 0 0 0 0 49.797566405882208 2.2724225111051055 0 2.2724225111051055 134.81855373126746 0 0 0 0 -59.102650161162273 221.33537355044245 0 221.33537355044245 -25.961608486595651 0 0 0 0 -280.20941601788718 150.77341247041113 0 150.77341247041113 -25.492767137755436 0 0 0 0 136.78442708834064 239.9719518111815 0 239.9719518111815 25.42723554521217 0 0 0 0 -1.1762354881702994 11.90088844324109 0 11.90088844324109 4.9330930937994708 0 0 0 0 -1.4582668721715972 16.890575455544656 0 16.890575455544656 10.364010152357373 0 0 0 0 -32.415437680095238 231.12856798079156 0 231.12856798079156 -201.27041421390459 0 0 0 0 1.4125865832313593 15.878448485196714 0 15.878448485196714 15.951173971552635 0 0 0 0 -9.3218492490595963 14.123373664133396 0 14.123373664133396 29.327603475913747 0 0 0 0 0.52703854422634322 13.310820424023404 0 13.310820424023404 28.52506013515449 0 0 0 0 397.35850082360207 -139.64307545868087 0 -139.64307545868087 -374.13541357274516 0 0 0 0 6.7599679459861726 15.582656143777982 0 15.582656143777982 3.1419949407915837 0 0 0 0 7.7434666430433481 18.19029780611163 0 18.19029780611163 23.378289067939477 0 0 0 0 -100.97092164265996 10.774159839009371 0 10.774159839009371 325.24527751314599 0 0 0 0 -22.930055014606296 167.51344555453034 0 167.51344555453034 282.16472745186638 0 0 0 0 1.9478115173904751 -2.4571107786819226 0 -2.4571107786819226 2.4700347826946114 0 0 0 0 -78.164124136153077 -87.02955984049504 0 -87.02955984049504 45.435028042724298 0 0 0 0 -26.080471776142076 5.0047344134145533 0 5.0047344134145533 37.83806512101728 0 0 0 0 -47.934244678986033 22.082516973110614 0 22.082516973110614 177.64210817847925 0 0 0 0 -11.671826903900183 71.597810880557518 0 71.597810880557518 182.44639447679947 0 0 0 0 65.460892788897581 84.72390753581567 0 84.72390753581567 153.26754183839512 0 0 0 0 10.849712384572832 20.966017524672225 0 20.966017524672225 40.363240508948365 0 0 0 0 10.457679355450772 15.549059234985918 0 15.549059234985918 3.8173402184288072 0 0 0 0 20.177036749857962 -13.201160054108186 0 -13.201160054108186 -111.85917612879348 0 0 0 0 1.851860984103606 0.09323432166361556 0 0.09323432166361556 4.4729987419690644 0 0 0 0 8.8387804667246428 10.438645920148701 0 10.438645920148701 25.735076432436472 0 0 0 0 4.3574811850140804 8.0076234096904955 0 8.0076234096904955 22.969637017456989 0 0 0 0 5.9164191394136116 8.0649400625479899 0 8.0649400625479899 17.456034937078616 0 0 0 0 -0.070474056650709826 5.0628449649375398 0 5.0628449649375398 11.579489136471238 0 0 0 0 5.2236724505901293 12.580950441052281 0 12.580950441052281 17.932166591918218 0 0 0 0 6.4173304063741901 11.920597706737855 0 11.920597706737855 10.365899249117547 0 0 0 0 0.64533890715210873 -15.694215131174133 0 -15.694215131174133 -42.829844017949654 0 0 0 0 4.4907196885744725 10.069871564330242 0 10.069871564330242 19.371942501496051 0 0 0 0 2.0197247028636647 0.20962530072907271 0 0.20962530072907271 5.6101378239589721 0 0 0 0 -1.4905297099408017 4.0557625011369964 0 4.0557625011369964 19.758484543752274 0 0 0 0 0.026355539997338973 -0.75267034495947627 0 -0.75267034495947627 0.82726995837157347 0 0 0 0 -19.499372365094132 16.459826420072204 0 16.459826420072204 88.327593340065505 0 0 0 0 -15.690136414835479 37.089157473357773 0 37.089157473357773 197.42724619936416 0 0 0 0 2.5449096045355435 1.8596198457806601 0 1.8596198457806601 -0.46268705639883478 0 0 0 0 24.413830410122046 -23.863020295393653 0 -23.863020295393653 46.048671457981982 0 0 0 0 27.103959694211881 -34.117565375661798 0 -34.117565375661798 81.840906945304596 0 0 0 0 -10.826599573356589 -5.6106262252815213 0 -5.6106262252815213 136.81673480563768 0 0 0 0 -1.005857239747229 11.371959908799909 0 11.371959908799909 128.39517613129283 0 0 0 0 -14.652971668926625 -53.176861887273844 0 -53.176861887273844 152.57583292081108 0 0 0 0 0.45806149213871628 -0.53271671111514252 0 -0.53271671111514252 2.5242278131410103 0 0 0 0 -73.674694326502276 1.1022353355856467 0 1.1022353355856467 10.170250130504428 0 0 0 0 -48.471021316824135 36.816554403997543 0 36.816554403997543 4.3434121544923983 0 0 0 0 5.9616539686621763 8.401086454408869 0 8.401086454408869 56.793381932577176 0 0 0 0 0.39232559442086679 -3.7948926633978317 0 -3.7948926633978317 6.6278975595515561 0 0 0 0 -251.23804547317741 -99.280491108365823 0 -99.280491108365823 4.2056185565143096 0 0 0 0 3.266125404847541 -5.8066144011553362 0 -5.8066144011553362 6.8587575239776726 0 0 0 0 -137.92278202374837 114.24916759230837 0 114.24916759230837 -55.900425780764635 0 0 0 0 -1.0233023204006759 -0.88051880121562931 0 -0.88051880121562931 2.6034040076244622 0 0 0 0 -287.30142704342325 -19.840164251319948 0 -19.840164251319948 332.3910327903468 0 0 0 0 -45.947771922352786 259.90918187672469 0 259.90918187672469 170.02010183348466 0 0 0 0 -60.205096474060156 122.84159133401408 0 122.84159133401408 1205.7544850251688 0 0 0 0 313.6742490218835 2.3892640338672209 0 2.3892640338672209 193.07613822315761 0 0 0 0 197.26367319824794 -10.006335778452922 0 -10.006335778452922 -239.95936363015062 0 0 0 0 228.8601102394573 -358.94979749576851 0 -358.94979749576851 -189.78780966100749 0 0 0 0 200.94935104168871 -120.3700438281594 0 -120.3700438281594 287.69445504333635 0 0 0 0 30.028088815635783 -10.251051987212122 0 -10.251051987212122 94.129090405025636 0 0 0 0 38.981033441800719 33.506247291836189 0 33.506247291836189 148.62491631642843 0 0 0 0 3.6599381614381308 8.0139442711079028 0 8.0139442711079028 21.019311410142109 0 0 0 0 -3.6142510875524776 12.479713573447576 0 12.479713573447576 24.836522422865073 0 0 0 0 -4.1740602077145716 24.084657220664667 0 24.084657220664667 38.013367588355322 0 0 0 0 0.072898646675530768 -1.1375709371968696 0 -1.1375709371968696 41.930967361287912 0 0 0 0 0.43988463922049925 1.0014771511378058 0 1.0014771511378058 47.813340488995891 0 0 0 0 -0.025813222614382902 1.5424863740637988 0 1.5424863740637988 3.1138428196445886 0 0 0 0 1.589824760969119 -6.3169485934777185 0 -6.3169485934777185 25.788681602010911 0 0 0 0 61.144544156489189 -50.636180973626324 0 -50.636180973626324 81.263332106726011 0 0 0 0 28.831711056931624 -17.923177631673752 0 -17.923177631673752 75.441609724744922 0 0 0 0 -3.2490498337600329 -40.197817623964511 0 -40.197817623964511 155.87610080756713 0 0 0 0 46.317444137514286 -24.112515079177683 0 -24.112515079177683 102.98890162077441 0 0 0 0 122.23627428928376 -13.65458904037223 0 -13.65458904037223 -1.6671084613772109 0 0 0 0 0.34995678208994419 3.9259225697305631 0 3.9259225697305631 14.159028821013976 0 0 0 0 51.771079132795876 -74.267221035843249 0 -74.267221035843249 127.27730324608274 0 0 0 0 -54.771352619504626 59.514432151758228 0 59.514432151758228 44.112085644621402 0 0 0 0 212.68126463465072 77.41206175404659 0 77.41206175404659 4.5584041244146647 0 0 0 0 37.631385302650784 81.724616191399036 0 81.724616191399036 44.705681466817623 0 0 0 0 192.49057445908232 326.5287026958249 0 326.5287026958249 176.2040963153413 0 0 0 0 10.899866845341535 208.32367146891193 0 208.32367146891193 76.528772717079846 0 0 0 0 -86.180729884547418 157.94714979567652 0 157.94714979567652 117.1163354392047 0 0 0 0 1.4508136061358528 192.24616763700033 0 192.24616763700033 86.467595294685452 0 0 0 0 -3.1651347994479124 160.4499960232406 0 160.4499960232406 0.55408599937800318 0 0 0 0 -17.372605284508609 278.14088507679116 0 278.14088507679116 47.913070531834819 0 0 0 0 -23.816902365589499 264.29737268137978 0 264.29737268137978 221.38290798244998 0 0 0 0 -104.72698879236577 14.781845431178226 0 14.781845431178226 383.47106770394748 0 0 0 0 -2.8649959430358649 16.292045791509736 0 16.292045791509736 31.565734690520912 0 0 0 0 83.847355896179693 104.49214440871583 0 104.49214440871583 52.981603178675869 0 0 0 0 -7.7068529797225311 7.6464413966970994 0 7.6464413966970994 8.9421840253862968 0 0 0 0 -51.731709197888222 -47.207923574504093 0 -47.207923574504093 46.167100005302473 0 0 0 0 -70.14782374240076 27.767077667020203 0 27.767077667020203 88.277084010907856 0 0 0 0 -11.060261889949288 72.514467053857516 0 72.514467053857516 53.027503594734299 0 0 0 0 -9.2245272115996553 23.026066035676621 0 23.026066035676621 5.2206354736723917 0 0 0 0 -2.0811120437874706 103.14382885451778 0 103.14382885451778 101.36226700904081 0 0 0 0 -9.3688513819956825 59.525129262956398 0 59.525129262956398 102.82531116256723 0 0 0 0 -0.9501369943127429 15.425390871503623 0 15.425390871503623 -1.3766277905815514 0 0 0 0 1.5811610929696878 14.388136924136631 0 14.388136924136631 -1.3368759919372408 0 0 0 0 253.20044725578509 159.80071929908081 0 159.80071929908081 -47.273721626988845 0 0 0 0 -1.6731131932443102 14.881319369896261 0 14.881319369896261 -6.5173226544010845 0 0 0 0 8.6482762927680596 10.607640556729166 0 10.607640556729166 -49.087515780331159 0 0 0 0 -2.0916159939227281 19.604271921108705 0 19.604271921108705 12.468168687434456 0 0 0 0 -13.226998703686149 71.284084918908775 0 71.284084918908775 163.36990094716202 0 0 0 0 0.04610134308528302 1.3492227497742988 0 1.3492227497742988 -4.8898049286700811 0 0 0 0 20.771201157360792 52.70946143886249 0 52.70946143886249 75.309763223980553 0 0 0 0 0.32074756420226258 2.3425873937871273 0 2.3425873937871273 2.9474910479648884 0 0 0 0 35.825777877868177 33.59753351451036 0 33.59753351451036 -52.33723506264505 0 0 0 0 34.608842614431524 146.25991240740404 0 146.25991240740404 60.457463027429185 0 0 0 0 76.736468562841878 129.70871150971652 0 129.70871150971652 -55.504369882590254 0 0 0 0 8.7136360747936124 119.76474148049601 0 119.76474148049601 36.681463648259523 0 0 0 0 -1.1965688502123157 151.13880673013045 0 151.13880673013045 62.705900235981971 0 0 0 0 -0.75684111797636433 139.35290045995498 0 139.35290045995498 97.383533957443433 0 0 0 0 -99.349119885327127 49.912702163499489 0 49.912702163499489 110.49907896212244 0 0 0 0 -36.373865927483621 89.889807553703577 0 89.889807553703577 126.71415672881994 0 0 0 0 15.211290624316916 93.60753809990274 0 93.60753809990274 89.604773916013073 0 0 0 0 -45.62906616912187 113.7703578920482 0 113.7703578920482 83.192028293851763 0 0 0 0 -96.411212641982274 144.52904717898491 0 144.52904717898491 168.21802573974128 0 0 0 0 -167.02164451887711 64.419225479454326 0 64.419225479454326 132.38233665457665 0 0 0 0 -42.0713223336179 22.104290437753662 0 22.104290437753662 87.443495082203299 0 0 0 0 -85.017261248784962 26.242110954190139 0 26.242110954190139 100.63324218908383 0 0 0 0 -120.76797384136989 0.74229204795847181 0 0.74229204795847181 84.518193682204583 0 0 0 0 187.14803531825623 110.72338007574581 0 110.72338007574581 71.852221862063743 0 0 0 0 -80.074546265610024 31.499746410987427 0 31.499746410987427 105.96923359573702 0 0 0 0 -3.8820740526352759 -1.837702668641036 0 -1.837702668641036 73.404550257423409 0 0 0 0 1.1873223106822475 -266.997897955589 0 -266.997897955589 20.539551998375828 0 0 0 0 -9.3917999161711609 12.661870068011922 0 12.661870068011922 59.517125919941464 0 0 0 0 -1.3298937340979549 -0.39138171678251865 0 -0.39138171678251865 13.009799893668905 0 0 0 0 -1.4181680477166196 77.474970792325621 0 77.474970792325621 161.25042891881822 0 0 0 0 1.3145245704706905 -0.13151953829790841 0 -0.13151953829790841 0.0064831159692744222 0 0 0 0 -3.3477666558133419 4.6239879201269218 0 4.6239879201269218 12.286649401538568 0 0 0 0 221.26917594083235 43.909220006506075 0 43.909220006506075 45.764988363604061 0 0 0 0 -0.32973213935541951 119.85130236742953 0 119.85130236742953 1149.2928047340756 0 0 0 0 905.48851880430925 -147.76948042890217 0 -147.76948042890217 3498.6736974461164 0 0 0 0 -330.97378236767508 -72.890270588024578 0 -72.890270588024578 128.99747843688237 0 0 0 0 18.886749540001588 -59.714702915343878 0 -59.714702915343878 583.22256192479108 0 0 0 0 9.2482200499768918 -25.578298103649985 0 -25.578298103649985 54.855041748150654 0 0 0 0 3.2235272945298266 -9.878362371505478 0 -9.878362371505478 3.1837126946171566 0 0 0 0 344.21907038503929 472.23191241202585 0 472.23191241202585 521.32843987632077 0 0 0 0 -336.7294465674787 834.43236500416606 0 834.43236500416606 4005.925930206351 0 0 0 0 -102.53730649110193 229.49279020108406 0 229.49279020108406 2645.2891322888754 0 0 0 0 1332.0989421477179 2240.8221218538529 0 2240.8221218538529 2375.3209777988959 0 0 0 0 4.5530423882712796 -7.5463071182875439 0 -7.5463071182875439 17.16474224143542 0 0 0 0 1052.9320470650871 -1158.121360234778 0 -1158.121360234778 -191.03744153515436 0 0 0 0 559.18575957968619 -344.97616163532439 0 -344.97616163532439 486.89084584498778 0 0 0 0 -207.90783492133232 210.98181785485212 0 210.98181785485212 378.97291925207537 0 0 0 0 -607.26836489414495 -367.6090535852818 0 -367.6090535852818 126.49011973643792 0 0 0 0 8.479867676146835 -20.587064990024032 0 -20.587064990024032 40.665114913498229 0 0 0 0 264.01552842293393 392.7653965825084 0 392.7653965825084 1772.2614341476419 0 0 0 0 -179.74174935965812 104.37964773478598 0 104.37964773478598 183.21055865995004 0 0 0 0 -72.939281820655196 95.686147857290052 0 95.686147857290052 130.83774271627772 0 0 0 0 -41.00957897650585 227.92437482614332 0 227.92437482614332 508.38531099380634 0 0 0 0 -78.352965496691297 104.85896542905448 0 104.85896542905448 308.08645295642782 0 0 0 0 73.737164253408082 242.16383558236703 0 242.16383558236703 139.91991300191876 0 0 0 0 307.47692799271908 269.97048545994403 0 269.97048545994403 182.65473953942274 0 0 0 0 -0.33964654323205945 2.031038059133067 0 2.031038059133067 2.9798518518598769 0 0 0 0 169.67739985091049 -41.94104180985596 0 -41.94104180985596 38.257165382841777 0 0 0 0 -121.64803006358397 -96.901687496014347 0 -96.901687496014347 1323.9746035642711 0 0 0 0 297.27230929607845 -502.92947746108985 0 -502.92947746108985 1466.5406498299635 0 0 0 0 132.53357665452944 -349.43923406739486 0 -349.43923406739486 1412.0620728823778 0 0 0 0 -530.70688411087372 -551.47278620301222 0 -551.47278620301222 3912.9223059758951 0 0 0 0 605.71803242804162 -1909.7047334778026 0 -1909.7047334778026 2215.4256360980871 0 0 0 0 -570.70595849204415 -318.12229862689492 0 -318.12229862689492 2909.8536259535103 0 0 0 0 -431.73543852317647 -297.05762774415598 0 -297.05762774415598 2500.1435870556816 0 0 0 0 -231.83876331176987 38.896105696763698 0 38.896105696763698 1555.6501725306371 0 0 0 0 -339.4049941137722 -88.17881264643438 0 -88.17881264643438 2092.9745161940882 0 0 0 0 -420.13806278881646 -233.08965407916548 0 -233.08965407916548 2505.1412167795879 0 0 0 0 84.543096969279475 -429.48243959787033 0 -429.48243959787033 932.30127058376092 0 0 0 0 138.59225261324502 260.30265369296467 0 260.30265369296467 398.2884797355473 0 0 0 0 5.1302782077731237 9.6330439100402145 0 9.6330439100402145 53.666985930947703 0 0 0 0 1.9430751037084164 13.037115841999366 0 13.037115841999366 119.80012706112029 0 0 0 0 127.25607010374824 109.39919143277803 0 109.39919143277803 -48.201419492284913 0 0 0 0 3.744939912880981 20.600732439107105 0 20.600732439107105 -2.8834810989466462 0 0 0 0 3.8170451916674524 5.8198888541885196 0 5.8198888541885196 5.7557467504435991 0 0 0 0 4.4453866271987863 -3.8893055248336168 0 -3.8893055248336168 2.9526952878150041 0 0 0 0 4.8736467938785779 2.9966999454933472 0 2.9966999454933472 7.116551222849381 0 0 0 0 -0.71077662954568055 1.823545971037646 0 1.823545971037646 4.8012839835957948 0 0 0 0 5.0748880255218864 -11.951688915665727 0 -11.951688915665727 4.1999614490196109 0 0 0 0 5.7792697623502818 -17.008296806786348 0 -17.008296806786348 35.931301410979358 0 0 0 0 81.453437378262265 -41.795647225197172 0 -41.795647225197172 -19.452658620706643 0 0 0 0 101.9409711099357 91.420657521473458 0 91.420657521473458 43.22619677730836 0 0 0 0 -47.49774103168761 105.15560318490316 0 105.15560318490316 43.279089353149175 0 0 0 0 119.97301051549164 26.472657952741429 0 26.472657952741429 -103.29775632347446 0 0 0 0 6.1870445810438923 13.958950638123497 0 13.958950638123497 -13.094053732362227 0 0 0 0 3.4821246725802624 15.208685735636919 0 15.208685735636919 6.1541149649813391 0 0 0 0 -2.7922268496749894 9.4660017158021219 0 9.4660017158021219 -3.8619620578101603 0 0 0 0 -43.926627278324759 20.07189775378356 0 20.07189775378356 21.577959269139683 0 0 0 0 -2.7874811193651112 78.024335509751836 0 78.024335509751836 -87.66733419947559 0 0 0 0 7.1639901751786965 26.70267881907057 0 26.70267881907057 141.59247178664373 0 0 0 0 56.529442243315202 36.141196507625864 0 36.141196507625864 -65.447872354838182 0 0 0 0 3.5511086385768644 13.050828990044948 0 13.050828990044948 -6.2348672764663853 0 0 0 0 13.294219378606613 3.2241557362976891 0 3.2241557362976891 -51.627514453750337 0 0 0 0 2.4475754012758273 16.778180904810142 0 16.778180904810142 -43.189676385409257 0 0 0 0 10.681443475485615 27.260852656101406 0 27.260852656101406 1.6744195136401974 0 0 0 0 8.2838654235620197 23.668723732349463 0 23.668723732349463 115.47602583217667 0 0 0 0 12.764483386375105 -126.15292744465114 0 -126.15292744465114 -102.35610299246036 0 0 0 0 -1.0185592138751787 5.592350166589199 0 5.592350166589199 18.4110278173072 0 0 0 0 -80.767055665573935 -65.309938272868749 0 -65.309938272868749 410.10105576922069 0 0 0 0 -117.61558420543543 -41.682682635408128 0 -41.682682635408128 496.57863606906176 0 0 0 0 -58.651261412261192 94.2453507566388 0 94.2453507566388 194.94180363854684 0 0 0 0 34.128240887057473 -40.144977494288469 0 -40.144977494288469 109.31283080332651 0 0 0 0 5.3758927854987633 -21.754384295840282 0 -21.754384295840282 418.48284436875838 0 0 0 0 2.7704547772849404 0.71662361335415881 0 0.71662361335415881 0.45692307426259049 0 0 0 0 -159.5750577601334 -119.18135553110551 0 -119.18135553110551 745.1647489438983 0 0 0 0 111.02318439458304 84.751527995729703 0 84.751527995729703 256.52219609385065 0 0 0 0 3.2474650903186557 222.61416317752446 0 222.61416317752446 -187.00000266381539 0 0 0 0 -105.07732892461354 72.03837236862455 0 72.03837236862455 -41.203764078876702 0 0 0 0 -79.73984475148859 24.475912747670009 0 24.475912747670009 13.437102229654556 0 0 0 0 -96.53540141898111 20.314901188008662 0 20.314901188008662 17.520814080431592 0 0 0 0 7.9236828120700107 4.6253966140245666 0 4.6253966140245666 3.5696932593329223 0 0 0 0 -401.19036788456651 159.95191931808949 0 159.95191931808949 629.22646099767007 0 0 0 0 104.61579990546625 -97.65464658664132 0 -97.65464658664132 124.23011744202813 0 0 0 0 608.3988320610606 474.13049487440003 0 474.13049487440003 84.993375686899526 0 0 0 0 2.5490558005742692 1.164753645856706 0 1.164753645856706 2.6819749985903343 0 0 0 0 -7.8594168720761104 -76.271664522995707 0 -76.271664522995707 261.82130586454878 0 0 0 0 5.9649344063983536 5.4284230838849794 0 5.4284230838849794 1.6641898973773266 0 0 0 0 -191.41013828541327 -849.0244645375351 0 -849.0244645375351 152.5690775146395 0 0 0 0 -52.539436785723012 46.4282822501591 0 46.4282822501591 266.73393566704181 0 0 0 0 -38.424290713498294 75.773370900091322 0 75.773370900091322 135.39996124667232 0 0 0 0 194.36164357065263 8.4293423573253676 0 8.4293423573253676 20.453923690191004 0 0 0 0 -102.48687373283724 -35.219981462338183 0 -35.219981462338183 144.53717634023633 0 0 0 0 32.066120053027589 42.15479580804822 0 42.15479580804822 143.75494613260844 0 0 0 0 62.762837961847254 138.08051957130374 0 138.08051957130374 562.19492935881135 0 0 0 0 47.41981613634016 -109.71279565966688 0 -109.71279565966688 426.36431198341597 0 0 0 0 -32.521029391093634 -21.550027257435431 0 -21.550027257435431 112.93566615536838 0 0 0 0 -3.7618538039677181 4.4598921802512876 0 4.4598921802512876 99.617357047158492 0 0 0 0 -20.822447966634087 46.321662052796455 0 46.321662052796455 70.667933749806252 0 0 0 0 -54.089824262559205 35.729325056301604 0 35.729325056301604 129.92573271824222 0 0 0 0 -38.482073271429726 -5.725945421596407 0 -5.725945421596407 199.36177239930112 0 0 0 0 -37.804806375311884 24.694024758792466 0 24.694024758792466 106.26728734828066 0 0 0 0 -20.406738266095317 -33.456670923333149 0 -33.456670923333149 126.1820122217905 0 0 0 0 1.8297451856684006 -27.60611263426199 0 -27.60611263426199 152.95362940072664 0 0 0 0 -26.582720578747171 -20.494328589120414 0 -20.494328589120414 165.36516545002814 0 0 0 0 -26.691714180088184 -25.001278525014641 0 -25.001278525014641 144.78802011784865 0 0 0 0 -1.9622542345223803 6.203923243196094 0 6.203923243196094 106.9522233153441 0 0 0 0 -94.726777885779029 16.190652608092932 0 16.190652608092932 145.25275417717057 0 0 0 0 -23.876877711076531 -39.34348525198584 0 -39.34348525198584 149.74852068895416 0 0 0 0 -30.311759718955329 -38.588212915841723 0 -38.588212915841723 161.77605882701027 0 0 0 0 -56.352975443219179 -0.30126916775770951 0 -0.30126916775770951 98.352967738217558 0 0 0 0 -64.835002027142764 -41.9427513765404 0 -41.9427513765404 138.42762824860984 0 0 0 0 -1.3718506226712179 -143.00471474707956 0 -143.00471474707956 186.21219891463988 0 0 0 0 -50.164400877425066 -55.799288021364191 0 -55.799288021364191 147.91556442135334 0 0 0 0 98.360549025570435 -66.38720469425607 0 -66.38720469425607 106.96788711525824 0 0 0 0 -1.191109388693345 4.2000406977609259 0 4.2000406977609259 18.12827965568809 0 0 0 0 -15.40488064844422 13.684165377362433 0 13.684165377362433 25.813018047367223 0 0 0 0 48.148905538826511 -80.071232265203435 0 -80.071232265203435 105.01025314547405 0 0 0 0 -9.6666168139346951 0.8205142592565835 0 0.8205142592565835 19.426264882189198 0 0 0 0 34.176706561101128 -44.219924008881208 0 -44.219924008881208 93.998350590962218 0 0 0 0 -10.404620271398699 -24.139085669456108 0 -24.139085669456108 91.106078420569247 0 0 0 0 -0.53985834196833415 6.4523747340562778 0 6.4523747340562778 13.700603646026792 0 0 0 0 -1.356083669573761 -3.2687430520180243 0 -3.2687430520180243 16.916696418263466 0 0 0 0 -11.858789680120594 1.3893204354371846 0 1.3893204354371846 84.228060770627053 0 0 0 0 -9.5642902962409657 6.5760100667180268 0 6.5760100667180268 31.101516751155941 0 0 0 0 -10.637596785483765 4.7741509476982174 0 4.7741509476982174 20.430218456080183 0 0 0 0 1.4820520172481793 4.4178666623192839 0 4.4178666623192839 48.673456767835887 0 0 0 0 -7.7287811984891706 9.8151235190218671 0 9.8151235190218671 24.236670591591604 0 0 0 0 -10.21667997969514 5.3872563717277302 0 5.3872563717277302 33.337647219406136 0 0 0 0 -9.4389926589110473 8.1967332108106348 0 8.1967332108106348 12.804121305789067 0 0 0 0 -9.3278301165025148 2.0716059552658095 0 2.0716059552658095 53.186635157437891 0 0 0 0 -0.55628906168510639 3.8294569915597094 0 3.8294569915597094 49.398680975908064 0 0 0 0 -17.59766384189545 10.34926574183676 0 10.34926574183676 7.931947457381467 0 0 0 0 -53.008068789174104 11.291182346531059 0 11.291182346531059 141.2367695472858 0 0 0 0 -18.182220940515322 6.4395447378301469 0 6.4395447378301469 46.941126889098086 0 0 0 0 -13.450977621370415 12.32421874942996 0 12.32421874942996 16.72166388699884 0 0 0 0 -11.034283414193851 6.805309846669843 0 6.805309846669843 19.324547571709445 0 0 0 0 -22.34704569564019 -23.931052034167806 0 -23.931052034167806 59.98130443915943 0 0 0 0 8.9405479081005979 -22.139352564761793 0 -22.139352564761793 83.717311946755217 0 0 0 0 -24.740736662187373 -24.307366862085473 0 -24.307366862085473 83.994170935242437 0 0 0 0 -34.925602121958946 -37.051265585163492 0 -37.051265585163492 69.187639043244417 0 0 0 0 -101.56498734436445 -17.245331239399093 0 -17.245331239399093 80.079406134798774 0 0 0 0 -41.049681987220652 -2.7497383363624976 0 -2.7497383363624976 83.493414031836437 0 0 0 0 -2.2947610378211607 0.82760408745525638 0 0.82760408745525638 45.469283369719051 0 0 0 0 -6.3004354953845336 3.9721359610120999 0 3.9721359610120999 54.066571242408827 0 0 0 0 -16.116536902693383 0.7079303243853019 0 0.7079303243853019 68.055070098571377 0 0 0 0 0.014311412055576511 4.1660002776625333 0 4.1660002776625333 48.786014217097545 0 0 0 0 40.26854628363435 -30.48226182788494 0 -30.48226182788494 56.787121426677913 0 0 0 0 -24.817734301104565 -4.9607690795091912 0 -4.9607690795091912 2.9862337227677926 0 0 0 0 26.191079416716093 -31.366926010192401 0 -31.366926010192401 21.796185954270186 0 0 0 0 -1.3672014646127901 -7.7220950000195785 0 -7.7220950000195785 6.6002838837120521 0 0 0 0 2.0457014468111083 2.2437446279182041 0 2.2437446279182041 37.640140417744988 0 0 0 0 0.26379081501061707 -4.6677192658396649 0 -4.6677192658396649 23.334988063674814 0 0 0 0 2.2462483960443933 -6.3571184906541021 0 -6.3571184906541021 40.696173698939674 0 0 0 0 0.38658599715950004 0.95482504948449787 0 0.95482504948449787 45.103886439144844 0 0 0 0 3.1406354969940367 0.39155602535174694 0 0.39155602535174694 31.988949180507916 0 0 0 0 -0.38940695210339982 -0.97076627238129731 0 -0.97076627238129731 41.398898204104626 0 0 0 0 1.4988557007545751 4.1367153469618643 0 4.1367153469618643 42.963159088725661 0 0 0 0 -0.009825346880592889 3.282436734862813 0 3.282436734862813 45.653058679105015 0 0 0 0 -0.87001051925358297 5.8147232680930756 0 5.8147232680930756 50.771292444784194 0 0 0 0 1.9410987729797853 8.0370949631615076 0 8.0370949631615076 47.305160270923807 0 0 0 0 6.7881637030568527 9.3810864359256811 0 9.3810864359256811 86.603559577226406 0 0 0 0 7.3240705588282253 21.067402074055281 0 21.067402074055281 70.772814741118054 0 0 0 0 0.61565806865257855 2.8580464062870305 0 2.8580464062870305 43.148073564851074 0 0 0 0 -0.24746218822474475 7.6775148913729936 0 7.6775148913729936 3.9409178972709924 0 0 0 0 1.3076644865621558 9.3977809113848423 0 9.3977809113848423 17.030866035633281 0 0 0 0 5.7162528253352916 12.229590558054927 0 12.229590558054927 14.677346535716936 0 0 0 0 5.6661072033662094 7.150969080379582 0 7.150969080379582 35.315148657071404 0 0 0 0 -1.9614012101748131 -17.860467212874937 0 -17.860467212874937 97.135202167162788 0 0 0 0 -10.122676949943525 1.8376298682705965 0 1.8376298682705965 49.947182154661277 0 0 0 0 2.9839836924958432 9.6466939589143266 0 9.6466939589143266 40.544678201946567 0 0 0 0 1.3725650536281595 -1.583574405076476 0 -1.583574405076476 27.950915365754277 0 0 0 0 -1.0300847562052153 -0.56447835821121828 0 -0.56447835821121828 6.0225132833756163 0 0 0 0 3.1586452768575271 2.8052782914103318 0 2.8052782914103318 94.667970641217835 0 0 0 0 3.2478517996231964 4.2817802407310239 0 4.2817802407310239 8.2520786841718241 0 0 0 0 2.487164363129831 4.5400886255661987 0 4.5400886255661987 12.405617062668242 0 0 0 0 -1.7784886855295321 19.022072436714808 0 19.022072436714808 19.820442593152549 0 0 0 0 3.4975514551033484 -4.3381020716624334 0 -4.3381020716624334 49.941875071148388 0 0 0 0 5.743662600215707 6.9732357291250082 0 6.9732357291250082 46.67569821219513 0 0 0 0 2.2026104571104952 6.2888423727708869 0 6.2888423727708869 93.417059346669703 0 0 0 0 1.538352319361791 -4.2393931617794038 0 -4.2393931617794038 13.852183866243848 0 0 0 0 1.8082870133414986 -0.56044542751260451 0 -0.56044542751260451 16.262532427084807 0 0 0 0 1.1287200065163874 1.207958373701743 0 1.207958373701743 21.532704275394849 0 0 0 0 -586.59470616300428 236.48686628079122 0 236.48686628079122 3499.3133050027845 0 0 0 0 134.10585517904002 646.5010038651817 0 646.5010038651817 1029.4721211483848 0 0 0 0 69.485372233695301 -191.58688646417386 0 -191.58688646417386 87.460304219741374 0 0 0 0 80.658625032607915 -6.0799659683289065 0 -6.0799659683289065 33.826781820513133 0 0 0 0 2.6774745918798009 -12.445708438981086 0 -12.445708438981086 17.601386015531659 0 0 0 0 1.6079734468596598 -10.484515117510455 0 -10.484515117510455 24.193660954828374 0 0 0 0 2.375526274678597 -1.3550046120335537 0 -1.3550046120335537 9.1801784397430595 0 0 0 0 -42.505763138683278 248.56385515131296 0 248.56385515131296 2292.9574235740147 0 0 0 0 -29.373243722408006 291.14279814575639 0 291.14279814575639 2265.3778194594488 0 0 0 0 -117.89998287669954 736.18503830573172 0 736.18503830573172 2837.4955325043484 0 0 0 0 -38.616754990805362 258.18862679582526 0 258.18862679582526 2376.7081964301397 0 0 0 0 -186.00226831623888 553.18361125378215 0 553.18361125378215 2815.8865057693256 0 0 0 0 45.970059198241771 665.88887364765878 0 665.88887364765878 2933.9210077534808 0 0 0 0 32.262969651752329 608.92589172688167 0 608.92589172688167 2787.4572839433677 0 0 0 0 202.10472582853629 948.11302729390445 0 948.11302729390445 2190.9664714455212 0 0 0 0 -70.562134657971711 542.69516127174575 0 542.69516127174575 2155.1028593121155 0 0 0 0 -66.207672119825162 750.0135506864026 0 750.0135506864026 2795.7561702644452 0 0 0 0 189.40438474068742 1117.2307200658001 0 1117.2307200658001 3074.0799197848391 0 0 0 0 0.5242021969719115 -4.068735813254861 0 -4.068735813254861 8.1211021781630137 0 0 0 0 107.53008688316459 247.52394428409025 0 247.52394428409025 15.506255343567318 0 0 0 0 -190.03824426961023 -81.376994507743802 0 -81.376994507743802 205.45532234455823 0 0 0 0 107.07762283566554 38.074628517836572 0 38.074628517836572 1403.8250838290187 0 0 0 0 254.92773612254643 820.84735511185863 0 820.84735511185863 1763.7390987441031 0 0 0 0 27.356899353665085 21.084484295395669 0 21.084484295395669 50.282922076410614 0 0 0 0 61.543344368185103 -54.015698362753028 0 -54.015698362753028 -45.420140263348003 0 0 0 0 -6.8341068029249357 -68.222389578411821 0 -68.222389578411821 -7.9034370107838186 0 0 0 0 4.0015567667713094 -11.326631705252964 0 -11.326631705252964 17.445031326071359 0 0 0 0 78.067653316929409 13.306974782844918 0 13.306974782844918 -9.1628132832120173 0 0 0 0 -3.4873945933027244 -24.615834788681241 0 -24.615834788681241 40.86386928302818 0 0 0 0 4.7341031777766602 -31.625880377963767 0 -31.625880377963767 13.133453365851892 0 0 0 0 4.5855809094464348 -23.071541601646459 0 -23.071541601646459 51.057640065089799 0 0 0 0 9.4842232004267171 -22.392694871426514 0 -22.392694871426514 43.143905144439444 0 0 0 0 -29.154912740987129 -14.197706856215518 0 -14.197706856215518 49.985575552531373 0 0 0 0 -56.583429996826453 -48.624783215513162 0 -48.624783215513162 3.5652355318161426 0 0 0 0 103.31231624474151 -18.604847991482529 0 -18.604847991482529 -54.124832118555787 0 0 0 0 -29.039448589944456 -21.979923928218909 0 -21.979923928218909 11.553581486543408 0 0 0 0 -142.37982569001997 -60.754094723175513 0 -60.754094723175513 51.903807878428779 0 0 0 0 -177.76604521446643 45.488020888944448 0 45.488020888944448 103.12322866197064 0 0 0 0 -217.99111277006523 18.343972163238504 0 18.343972163238504 85.602572654788673 0 0 0 0 -334.55809583457994 18.023283178525162 0 18.023283178525162 122.92892507090437 0 0 0 0 -226.25544266887553 130.1094542193332 0 130.1094542193332 129.84852202280308 0 0 0 0 -218.27983574952304 -152.58104868309601 0 -152.58104868309601 -58.582408746005967 0 0 0 0 -11.727186238597369 163.58239575999323 0 163.58239575999323 60.890698560120654 0 0 0 0 -5.1586713941042035 180.06705649763899 0 180.06705649763899 102.15658403019188 0 0 0 0 -100.32398054941586 189.08277921038098 0 189.08277921038098 108.23708010955306 0 0 0 0 -138.87705386536436 115.91685437403794 0 115.91685437403794 91.684378968886449 0 0 0 0 -164.85119327733719 111.03030060736637 0 111.03030060736637 89.635289432204445 0 0 0 0 -183.34506484231042 173.33261031673464 0 173.33261031673464 152.13173052504862 0 0 0 0 -18.266052991175911 193.27745364855218 0 193.27745364855218 102.42134091976186 0 0 0 0 19.646560676789647 135.00057948460199 0 135.00057948460199 119.13818028189417 0 0 0 0 52.406881540809081 134.45339207582583 0 134.45339207582583 62.62518827891472 0 0 0 0 27.938789216940961 85.385741306678028 0 85.385741306678028 272.60107620604686 0 0 0 0 -279.21336694344359 79.280937719187932 0 79.280937719187932 58.609645110467682 0 0 0 0 -221.17947532263213 230.37748554411519 0 230.37748554411519 99.283050612051738 0 0 0 0 0.90157440164830405 15.974535474946606 0 15.974535474946606 -8.4910610751830973 0 0 0 0 -309.97160343405631 316.49576771532156 0 316.49576771532156 -285.28779845179815 0 0 0 0 86.656136184156367 72.346161838009721 0 72.346161838009721 -21.079366279242095 0 0 0 0 8.3772572179726765 -21.365185463908887 0 -21.365185463908887 36.028526942478294 0 0 0 0 -681.33285084796807 14.515460080991033 0 14.515460080991033 132.38901584420819 0 0 0 0 -531.63002634768418 -216.41377889080104 0 -216.41377889080104 23.460984758698032 0 0 0 0 11.135589512266961 -212.18600498243541 0 -212.18600498243541 -215.6997740551742 0 0 0 0 -329.52314268679584 -17.475432158906187 0 -17.475432158906187 51.098895778035512 0 0 0 0 -361.38238039657244 144.09497957632993 0 144.09497957632993 145.95808984793257 0 0 0 0 -624.43117713928223 261.03666298486132 0 261.03666298486132 30.533918149842066 0 0 0 0 1272.7751359636211 107.20369185363961 0 107.20369185363961 3501.1116080445136 0 0 0 0 815.39891508782557 280.60414983064402 0 280.60414983064402 -1039.7118533929461 0 0 0 0 327.64446087223132 1363.2741537259935 0 1363.2741537259935 3991.277190880508 0 0 0 0 131.7501443628089 -121.74519949431851 0 -121.74519949431851 -556.06941969329273 0 0 0 0 939.37795537559134 1629.6529423213087 0 1629.6529423213087 3209.6880787258851 0 0 0 0 4.320683016983299 -8.7125209441481388 0 -8.7125209441481388 18.305847524619878 0 0 0 0 249.8030688652924 -1059.1785349372585 0 -1059.1785349372585 145.89145083562107 0 0 0 0 323.99931286844776 -479.30564313595096 0 -479.30564313595096 102.92767127445586 0 0 0 0 276.20526202840495 -404.21656587872712 0 -404.21656587872712 612.37351142105763 0 0 0 0 385.51478376840458 -1485.3785046247613 0 -1485.3785046247613 1413.7943751374842 0 0 0 0 -1088.4111244846752 -132.31079305348067 0 -132.31079305348067 3499.4401652712186 0 0 0 0 -141.95912094778282 -633.9936172344751 0 -633.9936172344751 2512.4987726241743 0 0 0 0 95.723207941263098 190.83573819325102 0 190.83573819325102 5306.8199796689805 0 0 0 0 245.67171972981873 -1672.2306841609243 0 -1672.2306841609243 1796.2562357163988 0 0 0 0 258.14707272526238 -431.07313426201654 0 -431.07313426201654 889.7990200261047 0 0 0 0 337.90018116556683 -706.08138064637023 0 -706.08138064637023 1222.860463597448 0 0 0 0 214.04175642599591 -1102.9229677971671 0 -1102.9229677971671 2013.227917700824 0 0 0 0 301.13655341393519 -937.73545226643182 0 -937.73545226643182 400.15547453642648 0 0 0 0 444.01049217087234 -416.36877633259428 0 -416.36877633259428 271.29804061727191 0 0 0 0 -275.55121531844873 -280.84408396160143 0 -280.84408396160143 2424.2593201596173 0 0 0 0 121.07077848488856 -45.67539956633118 0 -45.67539956633118 838.97755944583332 0 0 0 0 205.25280640829942 -37.063812527416303 0 -37.063812527416303 478.08358527812379 0 0 0 0 265.43077177416905 -245.46922785094284 0 -245.46922785094284 444.18196712766076 0 0 0 0 360.32778571264191 -132.11801674239541 0 -132.11801674239541 304.95037566291285 0 0 0 0 202.83214506251375 105.61453455865558 0 105.61453455865558 228.23832397341175 0 0 0 0 142.96802069176624 164.09065386474686 0 164.09065386474686 106.04903853008 0 0 0 0 210.98333915951957 104.52032543710447 0 104.52032543710447 124.11034752337582 0 0 0 0 118.43894280722327 42.336748111214547 0 42.336748111214547 312.87378233403751 0 0 0 0 58.94668796897497 62.914771754600224 0 62.914771754600224 113.76272665158103 0 0 0 0 99.801907080631054 133.96972056709092 0 133.96972056709092 37.396030021292972 0 0 0 0 149.33982289320875 -65.407326385186025 0 -65.407326385186025 11.454395200074941 0 0 0 0 198.20580809327876 136.26921944978312 0 136.26921944978312 96.720303467423946 0 0 0 0 127.50390451835574 -34.526554909723927 0 -34.526554909723927 478.29738237551237 0 0 0 0 106.63327641853914 -1.8132696595457674 0 -1.8132696595457674 -164.72825212926909 0 0 0 0 17.670210704206191 42.524038941500976 0 42.524038941500976 -72.672031782320119 0 0 0 0 -5.3211039567788703 6.8791865894017974 0 6.8791865894017974 29.404960398692083 0 0 0 0 -4.3885367902021901 -1.0533803485865718 0 -1.0533803485865718 16.243882807131527 0 0 0 0 -2.6950696703859296 -2.3767615580457573 0 -2.3767615580457573 8.8100418871893709 0 0 0 0 -11.790601574774655 7.1907138945207407 0 7.1907138945207407 33.818494849158014 0 0 0 0 -5.6661684320426957 3.4995079101863666 0 3.4995079101863666 22.663880691456143 0 0 0 0 -6.1148089013600941 7.5025128380957398 0 7.5025128380957398 17.726668859239453 0 0 0 0 -2.2658065841145856 1.332933834209328 0 1.332933834209328 -1.2088355210711654 0 0 0 0 74.480721531965173 20.643752420022793 0 20.643752420022793 -61.090506541862851 0 0 0 0 -106.89730371709697 92.473746877982194 0 92.473746877982194 -93.635183204445639 0 0 0 0 111.79260424544479 120.56646301779256 0 120.56646301779256 10.463060628331732 0 0 0 0 67.419495875391817 37.471930822772265 0 37.471930822772265 -76.741881914083933 0 0 0 0 -56.109667341270097 114.64839482953539 0 114.64839482953539 35.920231047697598 0 0 0 0 -17.938282264241934 159.32662271651861 0 159.32662271651861 5.7362059924635105 0 0 0 0 -35.112176631937473 156.24150383975939 0 156.24150383975939 59.023664703883696 0 0 0 0 -101.19684794684872 127.813549072147 0 127.813549072147 95.411533239734126 0 0 0 0 -58.376879780435274 123.78551078535384 0 123.78551078535384 68.192125291316188 0 0 0 0 -34.453984802334617 89.405734350668354 0 89.405734350668354 38.877494188422133 0 0 0 0 -18.19135940193155 30.319341978873126 0 30.319341978873126 77.59068463965923 0 0 0 0 -76.830558623637671 -14.159400185109916 0 -14.159400185109916 120.55522267270135 0 0 0 0 -138.04248988021664 42.412821378195076 0 42.412821378195076 89.479022599196469 0 0 0 0 -13.905624996173856 9.948959964181995 0 9.948959964181995 41.509375946625369 0 0 0 0 -15.14099258658598 7.1029783160847728 0 7.1029783160847728 35.778408253010184 0 0 0 0 -17.49857244665327 69.40828742112717 0 69.40828742112717 61.315166813041287 0 0 0 0 -12.30080902356298 11.124480800596487 0 11.124480800596487 0.46943027211933508 0 0 0 0 -50.130944575538251 9.9651645456433471 0 9.9651645456433471 66.007010716784862 0 0 0 0 -19.281690154686657 77.147594071419007 0 77.147594071419007 84.939402306466945 0 0 0 0 -17.797078866259454 -34.384024659819829 0 -34.384024659819829 58.766359718138119 0 0 0 0 -1.6823698608843802 2.0739063743328785 0 2.0739063743328785 0.78762556268969774 0 0 0 0 23.647221707580684 32.264291816161858 0 32.264291816161858 8.7399460285605528 0 0 0 0 -15.855664984889303 9.3742914274152582 0 9.3742914274152582 4.0880725048654565 0 0 0 0 67.985609897652466 116.64302994422906 0 116.64302994422906 69.471954597379408 0 0 0 0 94.392934463318852 75.450699243399868 0 75.450699243399868 55.170267686567968 0 0 0 0 -97.440306083470205 22.453442330985126 0 22.453442330985126 72.569747438086779 0 0 0 0 -115.0786528819408 -22.10493726671848 0 -22.10493726671848 139.85505373549677 0 0 0 0 -69.81753390573158 -21.065914368002268 0 -21.065914368002268 -46.90899996090593 0 0 0 0 20.218446740550007 13.44982118839107 0 13.44982118839107 25.019526417986526 0 0 0 0 -88.262511353843365 -19.084886056443793 0 -19.084886056443793 58.175020085036522 0 0 0 0 6.813779118829931 -11.035780140589218 0 -11.035780140589218 25.008652808767778 0 0 0 0 14.369809074329623 -4.2978180019999854 0 -4.2978180019999854 18.430703209198327 0 0 0 0 10.579101897139935 0.14209046656105784 0 0.14209046656105784 28.753656074773062 0 0 0 0 5.6745619779296756 4.9941466136314361 0 4.9941466136314361 25.921827122096715 0 0 0 0 4.6976250616608013 -11.98275313105114 0 -11.98275313105114 35.155370001302799 0 0 0 0 3.1034311880575842 21.544796947891882 0 21.544796947891882 66.021967341323034 0 0 0 0 -8.0204821106458777 3.6579087636484431 0 3.6579087636484431 31.000646076873124 0 0 0 0 -8.0537306215064746 1.6986747658957029 0 1.6986747658957029 21.920327771775192 0 0 0 0 -7.965404904974057 0.22279738065597599 0 0.22279738065597599 27.610675915424224 0 0 0 0 -6.5480960318910446 0.89842410031097586 0 0.89842410031097586 33.341958124298742 0 0 0 0 -68.225964431192551 9.6448737997416174 0 9.6448737997416174 75.069294039227316 0 0 0 0 -14.098345554045128 8.7129943150726206 0 8.7129943150726206 7.9686115607779975 0 0 0 0 27.738389595848275 -0.6268278706484125 0 -0.6268278706484125 37.845947668989538 0 0 0 0 -120.11538099116603 211.19333672340872 0 211.19333672340872 407.54407273512334 0 0 0 0 26.14627347601072 188.36244004955734 0 188.36244004955734 331.86346609830798 0 0 0 0 -105.18797698342723 248.53970305829353 0 248.53970305829353 372.94402646827803 0 0 0 0 77.711842671233512 255.33190224712234 0 255.33190224712234 342.50020501538529 0 0 0 0 0.18101681825947091 0.16238653976762762 0 0.16238653976762762 9.3535090659914317 0 0 0 0 17.179740175906545 -72.094783830925735 0 -72.094783830925735 64.724465350380342 0 0 0 0 4.9097385918134693 -2.5695628634813943 0 -2.5695628634813943 8.386407678298454 0 0 0 0 1.7151726419995033 -431.13975121814633 0 -431.13975121814633 298.05048425288987 0 0 0 0 -17.211658678409094 1054.625102625927 0 1054.625102625927 373.83534943233826 0 0 0 0 190.03012007876714 280.75061039600769 0 280.75061039600769 232.57954729938501 0 0 0 0 28.098293629694581 10.397025015990948 0 10.397025015990948 9.5250527850730577 0 0 0 0 5.9793130599436672 -10.522836360248277 0 -10.522836360248277 15.47534880661982 0 0 0 0 23.381685330858886 0.96013724063914196 0 0.96013724063914196 107.94975509592041 0 0 0 0 -277.53414141411758 -210.22299978564843 0 -210.22299978564843 17.270059832188053 0 0 0 0 143.30228121994696 102.57369378609656 0 102.57369378609656 0.74576100119884359 0 0 0 0 -336.83123781270115 9.6917837007531489 0 9.6917837007531489 138.09844010494999 0 0 0 0 -102.62158128197416 273.60039511885407 0 273.60039511885407 238.46594731197547 0 0 0 0 666.19008398803362 -254.4391478094476 0 -254.4391478094476 -208.28195892881558 0 0 0 0 2.9539131687844424 -4.1113087031701099 0 -4.1113087031701099 6.4603424029006931 0 0 0 0 2.2274480692631187 284.21287216285054 0 284.21287216285054 866.83313306844502 0 0 0 0 313.6397482020916 -320.57305914621247 0 -320.57305914621247 -140.06264426367125 0 0 0 0 0.45587664181121035 -2.3782766775799757 0 -2.3782766775799757 3.0815783097114746 0 0 0 0 269.33588445121131 177.35192292662396 0 177.35192292662396 -59.134837955134572 0 0 0 0 -150.1320341738151 205.41809431046568 0 205.41809431046568 605.07063542508695 0 0 0 0 -156.5904730228749 -26.829150867451972 0 -26.829150867451972 612.96427171887467 0 0 0 0 -102.72344902583563 48.721101172613999 0 48.721101172613999 353.46863538434263 0 0 0 0 -133.22335097432972 1.0905352171594132 0 1.0905352171594132 387.59865680229268 0 0 0 0 -109.96524324309075 -143.95919766502675 0 -143.95919766502675 199.85110607960087 0 0 0 0 888.65256574354135 803.19095233055486 0 803.19095233055486 -330.3185683433403 0 0 0 0 -3.9095748597416531 -0.5053785669103803 0 -0.5053785669103803 -1.8803842095361887 0 0 0 0 165.78592288371885 461.22954612550257 0 461.22954612550257 489.57688297001005 0 0 0 0 33.489849060217239 -62.869920955323323 0 -62.869920955323323 411.54953304995433 0 0 0 0 -443.89128465374961 287.62770748181356 0 287.62770748181356 447.62398950049646 0 0 0 0 18.598584272800963 -61.881913712951246 0 -61.881913712951246 732.60398046473711 0 0 0 0 1.8417183320870869 0.48853281181717989 0 0.48853281181717989 -0.86225629569551643 0 0 0 0 -358.61787022236786 -207.79949238667177 0 -207.79949238667177 207.99055624943867 0 0 0 0 68.514036911464359 -81.192083680596625 0 -81.192083680596625 -123.64900431749993 0 0 0 0 -32.253409133043533 -3.8909746084245853 0 -3.8909746084245853 -3.8362511342565995 0 0 0 0 -46.343666214024779 130.1669039563858 0 130.1669039563858 34.090602350777772 0 0 0 0 -33.728904056440797 -61.511895208344868 0 -61.511895208344868 134.24508377962047 0 0 0 0 -64.054734649031161 -155.64400902055786 0 -155.64400902055786 -156.11012372949335 0 0 0 0 5.1349838135129175 -45.913534797804459 0 -45.913534797804459 -59.216035576497234 0 0 0 0 -28.627174298015916 -11.078406356107735 0 -11.078406356107735 135.43746784821269 0 0 0 0 -105.13151703312724 55.977920821467706 0 55.977920821467706 421.88724182617989 0 0 0 0 -24.565792767645917 70.596109129011893 0 70.596109129011893 94.202704225754132 0 0 0 0 0.946849215305551 0.41603120365899571 0 0.41603120365899571 2.8719870376105234 0 0 0 0 39.621141948002162 92.216956270048286 0 92.216956270048286 79.368028619697725 0 0 0 0 6.2021143250554474 -12.331740691581217 0 -12.331740691581217 10.420212534772872 0 0 0 0 -1.1020167088251185 0.5977678235321946 0 0.5977678235321946 8.5658651334742899 0 0 0 0 -1.0041705590462495 -7.5605983430350392 0 -7.5605983430350392 13.289635713938097 0 0 0 0 9.0072016616718145 -7.4236169007708668 0 -7.4236169007708668 10.594667174067581 0 0 0 0 -9.0953087322106683 -76.222205081635821 0 -76.222205081635821 -39.954068005805311 0 0 0 0 6.275184493143712 -10.416289736243925 0 -10.416289736243925 11.259365745780087 0 0 0 0 27.967158891899885 -5.5398120865356759 0 -5.5398120865356759 -6.119601242869976 0 0 0 0 14.624764586017989 -23.544256483532081 0 -23.544256483532081 30.816499184598797 0 0 0 0 3.351865679044622 -12.349862606311603 0 -12.349862606311603 15.505848861053579 0 0 0 0 -1.3955030633361361 -14.798888306209847 0 -14.798888306209847 26.540810021149809 0 0 0 0 -1.60175243028484 -14.828807923306158 0 -14.828807923306158 29.950261584410327 0 0 0 0 -1.6377673743132597 -11.334127925301118 0 -11.334127925301118 27.559970915041049 0 0 0 0 -1.5899154479629942 -10.823171252170141 0 -10.823171252170141 30.674208091289074 0 0 0 0 -1.5049930643871918 -1.1731487779413214 0 -1.1731487779413214 1.618131313654839 0 0 0 0 -0.415932547333 6.4573250467074104 0 6.4573250467074104 20.679785865509984 0 0 0 0 -1.1076131716818622 -13.744295899039571 0 -13.744295899039571 37.757308873042348 0 0 0 0 0.86592496387152096 -14.947799957706593 0 -14.947799957706593 29.447843713789553 0 0 0 0 19.851754975181848 -40.915318591647519 0 -40.915318591647519 63.543897753406782 0 0 0 0 -23.72895625638219 9.9029266970628669 0 9.9029266970628669 71.400481349861366 0 0 0 0 110.39217544458879 83.974593940201885 0 83.974593940201885 70.936987046044123 0 0 0 0 -131.79803543788859 121.9442277992348 0 121.9442277992348 451.38366538430273 0 0 0 0 1.4922838938906813 0.70684844757348486 0 0.70684844757348486 1.6007185411559419 0 0 0 0 -4.3418504964421132 -55.808247611563957 0 -55.808247611563957 271.73992102853663 0 0 0 0 -2.8148931760077858 -32.48697234096835 0 -32.48697234096835 535.65815625432879 0 0 0 0 9.4244815589606787 92.144400532724831 0 92.144400532724831 430.75851527456689 0 0 0 0 12.48108233540529 103.45011610736401 0 103.45011610736401 399.11976520690223 0 0 0 0 84.206368775576848 -4.5035413656296441 0 -4.5035413656296441 512.53929338320086 0 0 0 0 95.783879043983944 112.79418433970932 0 112.79418433970932 418.78291287989487 0 0 0 0 -21.984036845846958 48.622845610052536 0 48.622845610052536 418.58322404496357 0 0 0 0 1.670746119604928 99.372056449570664 0 99.372056449570664 362.12891221631799 0 0 0 0 -31.07886285003022 9.0082084303112708 0 9.0082084303112708 272.86393989893986 0 0 0 0 -30.180420362921495 63.775083019558224 0 63.775083019558224 435.4172066239953 0 0 0 0 -20.655807407275688 11.36813070133212 0 11.36813070133212 270.38067196830889 0 0 0 0 20.888356832524209 26.984755754594516 0 26.984755754594516 89.361707033473067 0 0 0 0 26.831308112683246 18.322108620577637 0 18.322108620577637 71.534030784729111 0 0 0 0 7.1503645333563099 23.375092865406259 0 23.375092865406259 233.67760028260818 0 0 0 0 4.0693059830222431 -9.7534482240638454 0 -9.7534482240638454 11.251938298910517 0 0 0 0 5.08331447030465 -6.0207761376275641 0 -6.0207761376275641 3.8931406855679356 0 0 0 0 3.4840921439981685 -9.1815076727107225 0 -9.1815076727107225 12.857642474325985 0 0 0 0 2.765747766086406 -5.9357393607897393 0 -5.9357393607897393 16.822506618539592 0 0 0 0 -2.02661628249836 -0.75551623851394112 0 -0.75551623851394112 11.112512714908007 0 0 0 0 4.3016023159367851 -4.4143022201541697 0 -4.4143022201541697 1.3062884389892062 0 0 0 0 4.6616538720691096 -19.52883322946218 0 -19.52883322946218 -150.63861967276716 0 0 0 0 6.723472805962956 -36.255473402899952 0 -36.255473402899952 -57.062183441948036 0 0 0 0 2.3166039908339311 -2.3935865668201188 0 -2.3935865668201188 4.3206271474726918 0 0 0 0 -20.42985181113545 -22.461413171098684 0 -22.461413171098684 16.723905726445082 0 0 0 0 -51.631668481642009 -28.701854625724081 0 -28.701854625724081 16.615698708941636 0 0 0 0 -49.73962741937612 -34.827635612884478 0 -34.827635612884478 32.90226568520302 0 0 0 0 -52.009881294809929 -33.343861952966108 0 -33.343861952966108 83.942926369534689 0 0 0 0 -34.469565153691292 5.7346702075446956 0 5.7346702075446956 58.883039665794058 0 0 0 0 -166.82980256964765 20.584918955370085 0 20.584918955370085 159.87580067494855 0 0 0 0 -11.09693604586937 102.83574160737771 0 102.83574160737771 194.57217507330279 0 0 0 0 -91.168235726621788 -22.630773618002422 0 -22.630773618002422 184.32318091935304 0 0 0 0 -82.499112247574885 -95.986063349570031 0 -95.986063349570031 24.307088326866506 0 0 0 0 -84.211418768578369 176.23231179662071 0 176.23231179662071 384.53387259840383 0 0 0 0 -292.46254536670858 -118.8929206495377 0 -118.8929206495377 396.89582217107318 0 0 0 0 4.9519539472471479 -6.4713386832008837 0 -6.4713386832008837 18.181735922298685 0 0 0 0 8.6576632623512211 -3.9928134629989245 0 -3.9928134629989245 0.30592038309227121 0 0 0 0 823.47477107024679 119.99338194855227 0 119.99338194855227 -615.49368835022324 0 0 0 0 7.2917094854042261 -3.9160623884308734 0 -3.9160623884308734 9.1340526127751218 0 0 0 0 7.6198103137354032 -8.9106401878970871 0 -8.9106401878970871 6.6459726494055218 0 0 0 0 -12.894171363243004 -131.39451266536707 0 -131.39451266536707 -210.92285324285331 0 0 0 0 4.5132032409410385 -12.480489921719709 0 -12.480489921719709 9.4954684018948683 0 0 0 0 6.528414125409892 -7.2069612981292863 0 -7.2069612981292863 2.3684145757679218 0 0 0 0 -12.802371661626466 -48.209162755423677 0 -48.209162755423677 -22.879296707658796 0 0 0 0 -212.30584359380737 -241.30028781427973 0 -241.30028781427973 15.996387936473184 0 0 0 0 37.591565440515751 9.7267003328997816 0 9.7267003328997816 30.918558359509916 0 0 0 0 6.6090605449044233 106.60861156380452 0 106.60861156380452 235.55110632632568 0 0 0 0 6.3061909892307995 -10.79226866755198 0 -10.79226866755198 1.9081157838700165 0 0 0 0 3.6209542814238436 -7.3417660212884215 0 -7.3417660212884215 9.2204431111447036 0 0 0 0 64.74821684506378 -25.681167740635829 0 -25.681167740635829 111.50271868880372 0 0 0 0 80.486285206822686 214.47859912541026 0 214.47859912541026 212.34562199184438 0 0 0 0 79.19475636430343 2.8261123720585601 0 2.8261123720585601 424.03086474756128 0 0 0 0 14.718198537801072 127.22367891508475 0 127.22367891508475 431.53920551680494 0 0 0 0 28.377149778612875 118.18617357181211 0 118.18617357181211 227.02713267945273 0 0 0 0 39.349182929086055 48.763482080594258 0 48.763482080594258 277.79906894376109 0 0 0 0 143.62537016600345 -91.599125081920647 0 -91.599125081920647 10.296545391905653 0 0 0 0 237.64485158751995 -242.52385981515908 0 -242.52385981515908 172.8739371239235 0 0 0 0 93.153916638793817 -19.922841338506259 0 -19.922841338506259 117.66996873127937 0 0 0 0 -2.6271038410677647 144.50604026029214 0 144.50604026029214 1067.6824195361478 0 0 0 0 5.1204397345362036 -5.2288039838442728 0 -5.2288039838442728 4.8809029319229182 0 0 0 0 120.42753550123257 125.32271516945457 0 125.32271516945457 571.5188652153156 0 0 0 0 2.3547919066566596 -3.1936268574476863 0 -3.1936268574476863 1.0362451220849493 0 0 0 0 1.8544896347038957 -7.1238344001321821 0 -7.1238344001321821 9.900297989093815 0 0 0 0 -28.639441284596614 58.717260380122752 0 58.717260380122752 10.642821400224221 0 0 0 0 1.2735190503848912 -6.2540628283323381 0 -6.2540628283323381 7.644521581461845 0 0 0 0 -139.27186449501824 34.988944753073156 0 34.988944753073156 48.25900891393394 0 0 0 0 -17.524811316387058 12.529535310946812 0 12.529535310946812 9.1744948031118838 0 0 0 0 -20.21927870725267 30.184592223296931 0 30.184592223296931 -31.385645409944118 0 0 0 0 26.822883238159193 41.259206566952344 0 41.259206566952344 10.811549469202873 0 0 0 0 118.76286633722339 -20.613507098008995 0 -20.613507098008995 3.3551142304204404 0 0 0 0 176.27256564453637 -51.510997648081684 0 -51.510997648081684 32.372055979873039 0 0 0 0 92.658426428401071 -10.957315049497993 0 -10.957315049497993 -19.895711136341561 0 0 0 0 62.571507613978611 -31.128268104403105 0 -31.128268104403105 42.73047681938624 0 0 0 0 20.97140660113655 -8.8611682874034159 0 -8.8611682874034159 -11.696811942965724 0 0 0 0 27.179783361147202 -0.10998294764067396 0 -0.10998294764067396 -11.264394246332813 0 0 0 0 2.467325025453647 30.22949174945461 0 30.22949174945461 -11.266120815504109 0 0 0 0 -15.115388999187417 4.6146819587156642 0 4.6146819587156642 -8.671100962379569 0 0 0 0 -14.660264996601654 6.9761406439065468 0 6.9761406439065468 0.97655189393844921 0 0 0 0 50.649870233828551 -17.460515411563392 0 -17.460515411563392 -22.386369278363418 0 0 0 0 9.0850256736189294 -26.619219105770753 0 -26.619219105770753 -17.077804172353353 0 0 0 0 -0.43959724271593004 -3.2569143921145827 0 -3.2569143921145827 11.769111518383568 0 0 0 0 10.027510764886756 -8.4308904738572892 0 -8.4308904738572892 9.9011863332598296 0 0 0 0 -41.229549589603266 20.41338015756628 0 20.41338015756628 3.4692873111052904 0 0 0 0 -61.282770917670859 32.561174101821962 0 32.561174101821962 12.683227313464158 0 0 0 0 -41.44569698717055 18.198490925034093 0 18.198490925034093 -13.223986093129497 0 0 0 0 0.10016726849718083 -0.6375570662308121 0 -0.6375570662308121 2.486433814613779 0 0 0 0 -24.903255120268113 0.33561663649743423 0 0.33561663649743423 -3.300216936851939 0 0 0 0 -24.4480586523905 -4.5018789645182551 0 -4.5018789645182551 10.98357111477435 0 0 0 0 -434.88329071098815 -181.54568543447749 0 -181.54568543447749 619.09352152155407 0 0 0 0 0.76506320859485388 -1.2214955792925686 0 -1.2214955792925686 6.8402634331584125 0 0 0 0 -24.647094424943589 -3.1976312105252873 0 -3.1976312105252873 9.2033523791324114 0 0 0 0 -52.08295997823825 -31.791590186709072 0 -31.791590186709072 -10.727330659763538 0 0 0 0 -21.815447221170871 3.951144112739712 0 3.951144112739712 5.4919212371169124 0 0 0 0 -70.862450569566462 8.1183400294719945 0 8.1183400294719945 11.908681843560771 0 0 0 0 -45.306989759525095 -283.34074194424102 0 -283.34074194424102 209.73972439312092 0 0 0 0 -81.517108324820128 45.506120688693045 0 45.506120688693045 36.419978086152696 0 0 0 0 -2.7299336896463524 -1.3361433157365452 0 -1.3361433157365452 29.355122760893721 0 0 0 0 -32.691113700097048 -116.42083417699541 0 -116.42083417699541 310.65866916759842 0 0 0 0 494.22898108248751 -194.64318137317332 0 -194.64318137317332 -212.21059491223423 0 0 0 0 109.76492359990698 -178.29841778586342 0 -178.29841778586342 106.20954532819451 0 0 0 0 -0.58528538976451383 -1.2192698853745014 0 -1.2192698853745014 3.3583198079532792 0 0 0 0 45.770396864782924 196.75603355890053 0 196.75603355890053 167.34952308427455 0 0 0 0 0.83710809897304728 1.7669909783058806 0 1.7669909783058806 9.2469594587348354 0 0 0 0 6.6828079598126351 130.00585860953288 0 130.00585860953288 66.925628717042855 0 0 0 0 -5.9712346589058143 31.222430355635879 0 31.222430355635879 246.74266129008174 0 0 0 0 -9.2184084870041261 -22.735362525483652 0 -22.735362525483652 -9.0977922443089483 0 0 0 0 6.6240029969558236 -128.60090963853872 0 -128.60090963853872 672.28885183026432 0 0 0 0 -65.769295200292618 -0.17276944182958687 0 -0.17276944182958687 142.85599901892419 0 0 0 0 6.9105505981763145 125.44485383129813 0 125.44485383129813 158.24914029285719 0 0 0 0 9.6150267795164837 121.34639737670659 0 121.34639737670659 153.85021640039486 0 0 0 0 -7.7234154311100838 23.39183880364908 0 23.39183880364908 459.19983885499823 0 0 0 0 -44.373130757870967 156.62745435315446 0 156.62745435315446 197.91400792479908 0 0 0 0 57.351367845087225 -220.85319314304797 0 -220.85319314304797 510.6827366943071 0 0 0 0 117.22646895222488 -122.19866358721811 0 -122.19866358721811 109.16662796937453 0 0 0 0 -595.69923620331247 -666.14278561508399 0 -666.14278561508399 -167.69248986458479 0 0 0 0 -44.613657563314518 -47.096811161150981 0 -47.096811161150981 75.097223183549431 0 0 0 0 -445.2644509653249 231.52496473995961 0 231.52496473995961 38.464105292398017 0 0 0 0 -95.179303607405018 -76.591558758322208 0 -76.591558758322208 87.321632783987297 0 0 0 0 -17.07327163918854 -10.559815833858082 0 -10.559815833858082 10.444646354654665 0 0 0 0 -135.12534052831992 116.35578865742355 0 116.35578865742355 -16.251108414042392 0 0 0 0 -150.02164639905271 13.607814928378502 0 13.607814928378502 39.350959437462734 0 0 0 0 -180.58670664087597 3.7507591432040499 0 3.7507591432040499 88.309570603116299 0 0 0 0 -167.83830631010096 57.24384492552781 0 57.24384492552781 81.970940453036746 0 0 0 0 334.89095025224265 -269.12999527050488 0 -269.12999527050488 -69.372926187264966 0 0 0 0 -537.33627331933803 -159.69162091774342 0 -159.69162091774342 128.95168147359072 0 0 0 0 36.423562004166342 -79.355382253714197 0 -79.355382253714197 136.25649877393153 0 0 0 0 -238.01237120622909 -96.899355623565498 0 -96.899355623565498 258.80668773292564 0 0 0 0 59.717939170633599 2.7124914919731964 0 2.7124914919731964 360.66105145447364 0 0 0 0 326.65993369256171 -296.74043873981645 0 -296.74043873981645 173.58530975300528 0 0 0 0 -9.5045987107541805 -224.32831268618611 0 -224.32831268618611 401.66686744528215 0 0 0 0 -0.075632241078295692 0.54264291803695031 0 0.54264291803695031 6.817799920787138 0 0 0 0 70.068229177901458 -153.72953679776765 0 -153.72953679776765 187.75109001547389 0 0 0 0 -189.48478361388698 14.602789432625286 0 14.602789432625286 174.40375448366103 0 0 0 0 -137.68092524539384 -71.609395279789169 0 -71.609395279789169 220.38950331835076 0 0 0 0 -158.61887169595639 -53.198681620707248 0 -53.198681620707248 196.9032410934451 0 0 0 0 -109.9416159027819 -43.188962269821786 0 -43.188962269821786 140.11391601495416 0 0 0 0 -169.57943152552846 76.180875440940326 0 76.180875440940326 115.01604965244769 0 0 0 0 -3.9713963961915368 -0.68804827839355198 0 -0.68804827839355198 39.534746672382255 0 0 0 0 -318.76464458499368 -252.70274473896279 0 -252.70274473896279 1105.1367645897553 0 0 0 0 -153.80802698033625 -52.210103468136367 0 -52.210103468136367 130.48055322891378 0 0 0 0 26.56875435875304 112.14065810626198 0 112.14065810626198 733.16183279242978 0 0 0 0 6.8490660743503753 -6.6630251805539871 0 -6.6630251805539871 -3.4541018163854176 0 0 0 0 -244.70619463496575 -808.96061548995203 0 -808.96061548995203 1219.7904939032887 0 0 0 0 50.056741874269278 -312.30191112172906 0 -312.30191112172906 485.04662305022066 0 0 0 0 71.207834047207712 -203.3585284751025 0 -203.3585284751025 53.797641133889556 0 0 0 0 490.0314890501686 -615.04944682773203 0 -615.04944682773203 -558.32889778887329 0 0 0 0 426.57241761611203 -1423.8790456228307 0 -1423.8790456228307 -257.55711826944025 0 0 0 0 107.35114286224518 -1955.9499179031591 0 -1955.9499179031591 438.63698979088804 0 0 0 0 1.0239902944274206 8.4970028775887272 0 8.4970028775887272 22.24222295694338 0 0 0 0 5.1380895056909139 -22.068638889468275 0 -22.068638889468275 312.19340799623751 0 0 0 0 307.13407620817634 178.49086240120232 0 178.49086240120232 -397.85696981518413 0 0 0 0 -32.253636087525251 -35.236053846572759 0 -35.236053846572759 167.66320900411847 0 0 0 0 0.0475171757777062 1.9290204434217912 0 1.9290204434217912 23.559854683870753 0 0 0 0 33.773090303411664 63.433273834816646 0 63.433273834816646 144.83685684291413 0 0 0 0 125.61106789105202 -18.256440547120292 0 -18.256440547120292 43.715874035013258 0 0 0 0 -13.460438317015132 85.430820042049163 0 85.430820042049163 253.15535627328791 0 0 0 0 109.5319652064328 -55.190747027052566 0 -55.190747027052566 -38.698454446537653 0 0 0 0 98.481896736590443 484.49911585985683 0 484.49911585985683 -41.69639439281309 0 0 0 0 -52.162325353521737 662.56973339425167 0 662.56973339425167 313.16167125606444 0 0 0 0 60.295544647584393 375.66910441051004 0 375.66910441051004 55.169201123644598 0 0 0 0 -5.660783250180657 125.67486127174925 0 125.67486127174925 352.40671934734564 0 0 0 0 190.69757693288193 -79.630299568918417 0 -79.630299568918417 1031.216444619582 0 0 0 0 -59.296196558789234 538.1179532930837 0 538.1179532930837 500.57962598616723 0 0 0 0 163.23658807984611 -407.21440458582947 0 -407.21440458582947 214.15246963608661 0 0 0 0 -131.02093950126346 100.9967467810784 0 100.9967467810784 601.94369832953817 0 0 0 0 -21.882228480204503 55.488355118199252 0 55.488355118199252 299.74912570783636 0 0 0 0 13.345454180155684 -8.0649785082932794 0 -8.0649785082932794 333.66938297587694 0 0 0 0 56.1557946821531 -183.88650003867224 0 -183.88650003867224 169.56267715082504 0 0 0 0 -29.182747375725739 -59.083659577881917 0 -59.083659577881917 321.14221760880901 0 0 0 0 -14.438444983354202 28.415364188491367 0 28.415364188491367 222.80907180343638 0 0 0 0 -14.846691527008716 -2.0285963837013696 0 -2.0285963837013696 89.560874450049596 0 0 0 0 -4.7464968231943203 14.518264603146235 0 14.518264603146235 76.995394915953511 0 0 0 0 -19.629265333630592 -24.859100544864887 0 -24.859100544864887 91.615812718046186 0 0 0 0 -28.059657914152012 65.554996207210934 0 65.554996207210934 -109.68296239417396 0 0 0 0 -13.779140664321034 -8.9014724289805542 0 -8.9014724289805542 110.82997739286265 0 0 0 0 -158.89498129535946 3.0428101084435184 0 3.0428101084435184 -14.027957107056864 0 0 0 0 -26.958660569724387 -43.988024470662694 0 -43.988024470662694 17.370432464134382 0 0 0 0 -10.147485785849312 12.928970749766449 0 12.928970749766449 96.587241641205765 0 0 0 0 -3.7788989550795122 21.32568837684812 0 21.32568837684812 99.253955445354222 0 0 0 0 2.953413608154138 3.3046574571632448 0 3.3046574571632448 0.79375612311096688 0 0 0 0 176.93301787432461 42.827859163543508 0 42.827859163543508 6.9115779298153939 0 0 0 0 -9.5121152665379611 3.9570814797587843 0 3.9570814797587843 0.47360694340508758 0 0 0 0 -116.83736701187445 -665.69451518761343 0 -665.69451518761343 250.96043499064399 0 0 0 0 0.22204861195364067 0.24255024440432749 0 0.24255024440432749 2.4927121751417474 0 0 0 0 593.69618136585041 272.09221355143382 0 272.09221355143382 955.12286350893555 0 0 0 0 418.60949077571422 545.10287117486587 0 545.10287117486587 2233.8132527068956 0 0 0 0 -1217.515467372833 -131.69350922534068 0 -131.69350922534068 445.0419016382948 0 0 0 0 665.17250041536863 -30.840863551144139 0 -30.840863551144139 446.04876699767192 0 0 0 0 136.85701569297589 178.23485710849309 0 178.23485710849309 58.163159884745255 0 0 0 0 -3.3930640299868582 -0.52806679201292184 0 -0.52806679201292184 9.5415954710513233 0 0 0 0 -223.01593612993963 -166.53500577414707 0 -166.53500577414707 70.121791265366483 0 0 0 0 -114.53768307738437 -14.062442966089293 0 -14.062442966089293 -46.106148157763528 0 0 0 0 -3.4299763736078246 -3.0406438736869035 0 -3.0406438736869035 9.2166037238345666 0 0 0 0 -328.33077988809214 -249.85181683499104 0 -249.85181683499104 27.375010195333743 0 0 0 0 5.0543473870196323 55.93804119788274 0 55.93804119788274 169.98213803108956 0 0 0 0 33.291427755747009 132.52289380566799 0 132.52289380566799 51.419106838783591 0 0 0 0 -8.0604318295398123 2.6578133389784568 0 2.6578133389784568 0.16012378809239181 0 0 0 0 -10.912101281009882 146.5401417651301 0 146.5401417651301 170.36786362050771 0 0 0 0 -13.022410242507306 20.352803679044882 0 20.352803679044882 150.63685568138317 0 0 0 0 -5.6360061654914109 1.386295818387822 0 1.386295818387822 1.1949006441999188 0 0 0 0 16.362067604371973 104.11116164741543 0 104.11116164741543 329.01787899024202 0 0 0 0 56.138222244121607 69.29463493564981 0 69.29463493564981 170.83567049022531 0 0 0 0 77.511866232908517 68.705663226210163 0 68.705663226210163 249.85473556697252 0 0 0 0 1.0572909939078272 -4.4732130160045926 0 -4.4732130160045926 204.08160531696194 0 0 0 0 27.048229071753155 111.85999088977042 0 111.85999088977042 239.6713470488321 0 0 0 0 -55.040272617173514 29.562775296315522 0 29.562775296315522 164.44674992724322 0 0 0 0 -16.453488625830374 17.354417637789084 0 17.354417637789084 112.32990661423537 0 0 0 0 -9.6045405545060021 71.567518365547585 0 71.567518365547585 192.56970399695274 0 0 0 0 -14.151334437556869 3.9916180072314091 0 3.9916180072314091 113.49869046203094 0 0 0 0 -21.273664118745728 11.368919409738737 0 11.368919409738737 127.88276406089972 0 0 0 0 -160.05049471662778 -54.075945237324049 0 -54.075945237324049 38.864102120089228 0 0 0 0 -14.47994414203033 -25.878057844301296 0 -25.878057844301296 106.5789780235429 0 0 0 0 -93.109608213452702 -38.617976180110418 0 -38.617976180110418 134.67756185474082 0 0 0 0 -28.741074157331241 -60.600135207627318 0 -60.600135207627318 18.230743239320873 0 0 0 0 -71.728667503012403 -52.40614967561956 0 -52.40614967561956 22.495436434008298 0 0 0 0 -71.169330491485425 -70.310335496535117 0 -70.310335496535117 103.14048016093147 0 0 0 0 -208.83340050126401 -121.08574967621098 0 -121.08574967621098 158.79225731630868 0 0 0 0 -10.906283716201798 -32.681637180987735 0 -32.681637180987735 111.36380974591196 0 0 0 0 -74.175226531283897 -197.29949343782209 0 -197.29949343782209 -37.051169553844375 0 0 0 0 -59.531132866772168 -84.386384286481189 0 -84.386384286481189 2.1668354819557862 0 0 0 0 20.950545080527945 -94.781548346155432 0 -94.781548346155432 -36.384842653176747 0 0 0 0 79.757257735855546 -55.135492603352759 0 -55.135492603352759 62.067642084337422 0 0 0 0 130.09199076708137 -74.853536465860088 0 -74.853536465860088 -34.430827896534538 0 0 0 0 117.50364767446376 -149.66730767125409 0 -149.66730767125409 229.99807357758982 0 0 0 0 61.769388355578485 -232.8113758245272 0 -232.8113758245272 82.816787100491638 0 0 0 0 -110.17899589165881 -86.985691797981417 0 -86.985691797981417 9.7965791220431129 0 0 0 0 -240.53483186193716 -303.89292878924789 0 -303.89292878924789 131.41482706589159 0 0 0 0 146.48934259327734 14.497051336780714 0 14.497051336780714 248.39334293767024 0 0 0 0 74.944213145941376 -305.97001537093092 0 -305.97001537093092 190.16083238824649 0 0 0 0 32.447404967597777 -56.745971911806919 0 -56.745971911806919 814.19116744094208 0 0 0 0 99.428426743167165 -334.78669841152077 0 -334.78669841152077 918.6409931355447 0 0 0 0 61.571694778496749 -118.5264928531833 0 -118.5264928531833 240.90802262936268 0 0 0 0 -152.88965687592685 26.988452659217728 0 26.988452659217728 151.70401456646505 0 0 0 0 -170.29973592941883 -10.087347784377926 0 -10.087347784377926 135.66319777873287 0 0 0 0 -270.41200808847452 -139.90078569543402 0 -139.90078569543402 -16.665981187368743 0 0 0 0 -14.233269324402022 14.185316445604542 0 14.185316445604542 26.641155857793649 0 0 0 0 -174.38709944874995 -29.250215551961446 0 -29.250215551961446 110.58116334245329 0 0 0 0 -131.61906030545407 -24.462750685110223 0 -24.462750685110223 110.59157363070864 0 0 0 0 -686.76367389469215 -51.04770460560394 0 -51.04770460560394 424.11950300035824 0 0 0 0 -3.3650349129279724 5.7021781947388446 0 5.7021781947388446 148.81216653489884 0 0 0 0 -213.31204845075445 -120.28180950982642 0 -120.28180950982642 -50.156058166350704 0 0 0 0 -214.1235123576007 -113.26339917848964 0 -113.26339917848964 181.92284043758991 0 0 0 0 -238.43772839917892 -303.23276246604655 0 -303.23276246604655 65.134011488509714 0 0 0 0 -7.2193843038266126 -29.449276762983914 0 -29.449276762983914 124.76779230885029 0 0 0 0 -0.40881026584549796 -12.732971725455517 0 -12.732971725455517 2.4841534704081027 0 0 0 0 -287.60761140531815 -12.659168371807027 0 -12.659168371807027 158.41017369633482 0 0 0 0 -169.12844161153731 -2.3772779595456086 0 -2.3772779595456086 28.099870933667262 0 0 0 0 -110.49389651709654 -42.392864845682197 0 -42.392864845682197 39.14601392718032 0 0 0 0 -172.03147690342871 -3.0901066004298627 0 -3.0901066004298627 93.270328062120825 0 0 0 0 -156.16137173124162 -117.58102843045344 0 -117.58102843045344 170.86331329688255 0 0 0 0 56.923475550125602 -227.24968180915312 0 -227.24968180915312 39.589954857729026 0 0 0 0 -103.3434161281366 -6.9585485509451246 0 -6.9585485509451246 142.89740022514161 0 0 0 0 -7.7999214633489373 -64.796842880285112 0 -64.796842880285112 165.09019966892083 0 0 0 0 -61.461767837339799 23.331497659245088 0 23.331497659245088 203.59540559063316 0 0 0 0 5.4014779690688499 -37.411281801249061 0 -37.411281801249061 192.48848357428506 0 0 0 0 -10.872808561170302 -58.902026942319935 0 -58.902026942319935 235.25387758698344 0 0 0 0 10.589017831421167 65.691714380760459 0 65.691714380760459 312.3536498749163 0 0 0 0 74.478711952689025 9.1333873606345151 0 9.1333873606345151 212.7917997831828 0 0 0 0 -23.347304280101156 -2.3579308594780741 0 -2.3579308594780741 387.73200641824951 0 0 0 0 41.924671691985488 29.521194386292336 0 29.521194386292336 233.7631768946012 0 0 0 0 73.625524506959437 39.061229221857502 0 39.061229221857502 252.65149277271121 0 0 0 0 86.821799770632254 -73.339072966628009 0 -73.339072966628009 332.9117191132791 0 0 0 0 12.519512634797366 23.113954677421134 0 23.113954677421134 316.17997718547849 0 0 0 0 19.754555478293874 -16.39045779958542 0 -16.39045779958542 147.3630460875429 0 0 0 0 19.031830612555154 27.253616839900758 0 27.253616839900758 110.66738751163939 0 0 0 0 -27.146076848457881 -15.837917746408493 0 -15.837917746408493 208.45944924904325 0 0 0 0 -40.070656015304507 14.354188714940392 0 14.354188714940392 169.43405882459774 0 0 0 0 -30.872506962018363 -14.593013114099449 0 -14.593013114099449 103.59607395698549 0 0 0 0 4.0911862858409478 16.404652413410076 0 16.404652413410076 101.64892155944835 0 0 0 0 -118.71857339132336 -48.072425892074534 0 -48.072425892074534 100.66657202274655 0 0 0 0 -35.729723827737601 -9.7475213410507422 0 -9.7475213410507422 66.122525370039511 0 0 0 0 -107.87579499909572 -30.726759121504074 0 -30.726759121504074 89.702033641107846 0 0 0 0 -41.691571822122775 -5.6486824925996189 0 -5.6486824925996189 97.103566165649681 0 0 0 0 -6.6630739092716427 22.76974620744295 0 22.76974620744295 110.01365488390729 0 0 0 0 0.51231220418815226 14.286045505068614 0 14.286045505068614 87.309252465856844 0 0 0 0 -26.545298493890712 12.002433649577142 0 12.002433649577142 103.82627544488059 0 0 0 0 -40.229440799814725 -11.782034003117587 0 -11.782034003117587 91.938281824412115 0 0 0 0 -61.875967148064063 -9.0530032982860575 0 -9.0530032982860575 101.48119116353701 0 0 0 0 -130.94268731411492 -22.466384494280646 0 -22.466384494280646 113.3030316894874 0 0 0 0 -66.268884720910307 -27.46320312723401 0 -27.46320312723401 81.918514889388462 0 0 0 0 0.077748248238753079 11.068794679777056 0 11.068794679777056 130.28105553803471 0 0 0 0 10.3233107364065 18.89482841683639 0 18.89482841683639 100.21427369193407 0 0 0 0 -10.829938806068313 -0.45986757347418461 0 -0.45986757347418461 109.50228338058059 0 0 0 0 12.139371393954592 38.161103385791648 0 38.161103385791648 114.8769293477344 0 0 0 0 2.2582112122392637 59.045483402151149 0 59.045483402151149 183.26521681368467 0 0 0 0 -0.013236470488748334 -0.015465974793102077 0 -0.015465974793102077 0.40454968950530201 0 0 0 0 0.045075964076725539 5.2088517723313998 0 5.2088517723313998 112.12318526601302 0 0 0 0 -7.516517035552857 62.665434191494569 0 62.665434191494569 202.36270360775961 0 0 0 0 -0.054811646931770604 -0.054489580040467445 0 -0.054489580040467445 0.39699281369468054 0 0 0 0 6.7695493449509172 38.402957642756519 0 38.402957642756519 234.62103004779783 0 0 0 0 0.033481453934644634 29.433210809758748 0 29.433210809758748 224.99171667901101 0 0 0 0 -1.632527244098549 34.535805789972073 0 34.535805789972073 268.9797764251125 0 0 0 0 -8.7548656319250036 -1.0155728411045857 0 -1.0155728411045857 210.6656915784115 0 0 0 0 4.4053065490704082 20.442869325721404 0 20.442869325721404 191.63283097122621 0 0 0 0 16.080840447646132 -14.936890853394289 0 -14.936890853394289 179.40574987448417 0 0 0 0 -0.030554554605573669 1.0385902928126798 0 1.0385902928126798 196.95467627380276 0 0 0 0 95.902391498406061 49.968001065572025 0 49.968001065572025 163.04603131873955 0 0 0 0 0.09521380877770981 54.412508322653593 0 54.412508322653593 276.14915173768532 0 0 0 0 84.706453027638446 -13.695266782546241 0 -13.695266782546241 76.968133701986517 0 0 0 0 -47.928340431417467 -132.18891499069287 0 -132.18891499069287 13.017333000083454 0 0 0 0 83.959146423023753 -14.664537825199659 0 -14.664537825199659 81.686843469011365 0 0 0 0 -39.004510993763404 -118.41391025447228 0 -118.41391025447228 123.37250038408092 0 0 0 0 24.154311757736796 -44.473205525035155 0 -44.473205525035155 200.15945637554978 0 0 0 0 -8.7268416513574323 -4.6734760428807931 0 -4.6734760428807931 259.23125294334022 0 0 0 0 -81.573534336380973 22.107376322936034 0 22.107376322936034 319.83722483873134 0 0 0 0 -47.438369695116549 -51.260211231860012 0 -51.260211231860012 208.8248965885432 0 0 0 0 55.644197539059206 -5.4793324890779331 0 -5.4793324890779331 186.56342601554934 0 0 0 0 -187.73140128991039 -255.29048588370279 0 -255.29048588370279 649.78685287807457 0 0 0 0 19.619789705074794 149.83992161224887 0 149.83992161224887 470.68125951464754 0 0 0 0 255.65902304136489 91.855127943534171 0 91.855127943534171 179.45694316009758 0 0 0 0 -37.960002755377673 -119.14087094312708 0 -119.14087094312708 110.32344244315755 0 0 0 0 -503.1505830503902 -347.1044586300668 0 -347.1044586300668 211.34061280163587 0 0 0 0 -389.22522637745192 -124.45126806438202 0 -124.45126806438202 344.71814874294796 0 0 0 0 -2.1443715677939683 0.32897950111245677 0 0.32897950111245677 1.2188384620950501 0 0 0 0 -14.346356164563105 152.01603647352385 0 152.01603647352385 689.04807235839689 0 0 0 0 79.398188063651219 157.13269028183277 0 157.13269028183277 364.75893310700667 0 0 0 0 140.26361713581241 271.09782111304958 0 271.09782111304958 228.16199572437472 0 0 0 0 -37.590136427058951 -383.71934073882585 0 -383.71934073882585 -424.25087546758004 0 0 0 0 -272.50322139875641 -558.19919215016125 0 -558.19919215016125 -137.97597475626389 0 0 0 0 -1.1365269232099986 -1.5948190195636585 0 -1.5948190195636585 4.3334747004617782 0 0 0 0 -265.93057025087501 -325.490293085546 0 -325.490293085546 -6.153829496121034 0 0 0 0 46.212422760780157 -199.82665559044108 0 -199.82665559044108 -40.237496840927633 0 0 0 0 -91.764752137587038 -263.4417111562143 0 -263.4417111562143 -17.774324836500455 0 0 0 0 240.84839247108599 -3.7972324151196517 0 -3.7972324151196517 6.2858991110924762 0 0 0 0 128.09725015255904 -234.87813861453105 0 -234.87813861453105 -118.57806859840639 0 0 0 0 -45.006999854954529 -10.990191572505864 0 -10.990191572505864 84.279220367192465 0 0 0 0 314.17861882525665 -228.47215886630147 0 -228.47215886630147 215.95964416171773 0 0 0 0 -408.6607534952019 -75.457561987037479 0 -75.457561987037479 255.33974324562587 0 0 0 0 -24.503387535886077 -37.042423024060554 0 -37.042423024060554 -292.23851066017232 0 0 0 0 -205.34956927055373 -4.0397721660992829 0 -4.0397721660992829 154.9397963504216 0 0 0 0 -103.27643079624113 68.89773943187538 0 68.89773943187538 112.36777682873071 0 0 0 0 605.93792596478306 301.63045333632544 0 301.63045333632544 124.77741780516226 0 0 0 0 -110.58582063094804 40.132872379603214 0 40.132872379603214 353.22140072996262 0 0 0 0 15.570133123500796 297.10377213968604 0 297.10377213968604 830.80101955258579 0 0 0 0 0.81600618684633552 1.8976316803069473 0 1.8976316803069473 5.0053290541967499 0 0 0 0 -27.173608399334171 -112.18015628644935 0 -112.18015628644935 499.2712367966451 0 0 0 0 76.861713938928062 -194.6476120255611 0 -194.6476120255611 209.25735243456438 0 0 0 0 33.90395111781956 199.95982112728234 0 199.95982112728234 640.42779147638066 0 0 0 0 -7.1197132069082647 49.320439527000417 0 49.320439527000417 339.91693471567123 0 0 0 0 49.265940400192363 -11.176699092815397 0 -11.176699092815397 159.72117807279574 0 0 0 0 -0.14225040935279465 1.0857085293682758 0 1.0857085293682758 158.37608061771084 0 0 0 0 -3.5651379936286958 73.485544086637674 0 73.485544086637674 290.76943054722506 0 0 0 0 418.83820876898312 210.99498199218488 0 210.99498199218488 141.13840481401712 0 0 0 0 79.715546636824385 24.42593512313033 0 24.42593512313033 159.09327283292077 0 0 0 0 6.3171700885164981 -7.4851603071547288 0 -7.4851603071547288 238.40379652589036 0 0 0 0 -0.098805973246949952 0.012437285604050885 0 0.012437285604050885 0.35217538964922035 0 0 0 0 -0.026330117703023348 7.0590819233038928 0 7.0590819233038928 238.32042374263983 0 0 0 0 -12.297726153898626 19.81697552766127 0 19.81697552766127 335.06333444568372 0 0 0 0 -30.125457925066698 3.6835451810402446 0 3.6835451810402446 349.22310640306387 0 0 0 0 -41.305430972081801 11.29218822619805 0 11.29218822619805 449.52424474809959 0 0 0 0 -26.613224754432167 -2.1537781801307574 0 -2.1537781801307574 358.35780327465181 0 0 0 0 -67.29039115020268 -45.299315271363184 0 -45.299315271363184 464.97820320674509 0 0 0 0 -64.790415060869122 -5.7092807494409499 0 -5.7092807494409499 571.80944151002041 0 0 0 0 26.072179030192274 -188.41170405821322 0 -188.41170405821322 302.53444678746746 0 0 0 0 -33.847399529792312 -13.190865068379935 0 -13.190865068379935 245.6397911492968 0 0 0 0 32.615065167688414 -37.880996123702062 0 -37.880996123702062 202.10259900772508 0 0 0 0 -36.780145070955513 -31.85858350633498 0 -31.85858350633498 352.28197431254193 0 0 0 0 -0.44757555416912909 0.082387674447886639 0 0.082387674447886639 0.41713632175757276 0 0 0 0 -15.853725231352229 -1.6932795490065473 0 -1.6932795490065473 200.34774390027724 0 0 0 0 27.563920782451476 -11.177492170223559 0 -11.177492170223559 97.54076460323995 0 0 0 0 -63.114465951892043 46.798451016475155 0 46.798451016475155 118.41128526254033 0 0 0 0 -3.2021841627577352 21.439463459355466 0 21.439463459355466 130.76940643817397 0 0 0 0 10.860461096990987 -19.24904316357788 0 -19.24904316357788 143.32638762732677 0 0 0 0 -12.6120612836487 -5.2567399557192402 0 -5.2567399557192402 206.10335417008901 0 0 0 0 7.5118927995707807 -16.041031695334823 0 -16.041031695334823 193.77527015621308 0 0 0 0 4.1996627301665548 -2.805764909953723 0 -2.805764909953723 122.65971845296008 0 0 0 0 0.014006263163911899 12.86385345446979 0 12.86385345446979 157.66988061224401 0 0 0 0 0.0061058457810816286 15.854857964346593 0 15.854857964346593 107.47600337285985 0 0 0 0 -18.366539075927992 29.165301395791175 0 29.165301395791175 104.23406152232201 0 0 0 0 -7.9428903880022652 6.4730134670135158 0 6.4730134670135158 96.869551100266108 0 0 0 0 -0.014754412735680587 11.061723277147394 0 11.061723277147394 93.858320652947441 0 0 0 0 -11.685153041318147 11.532498577641945 0 11.532498577641945 102.01805256999796 0 0 0 0 -13.119392199198542 1.4510433359855597 0 1.4510433359855597 92.949579539053957 0 0 0 0 -87.335378743208238 -0.63003848223888781 0 -0.63003848223888781 117.31642434332753 0 0 0 0 -101.99126785823979 -20.251004495759844 0 -20.251004495759844 113.02797458560963 0 0 0 0 -54.866698212959783 15.094430004308379 0 15.094430004308379 106.84484034434718 0 0 0 0 -84.678335434535541 -2.9286981544428272 0 -2.9286981544428272 116.39405778390937 0 0 0 0 -85.935542498334712 46.467838418317115 0 46.467838418317115 111.52666277901153 0 0 0 0 -42.603175745036545 12.188365208203322 0 12.188365208203322 105.99902663949797 0 0 0 0 -11.732171494426098 5.4263580789338448 0 5.4263580789338448 106.93477462012379 0 0 0 0 -65.571667585744251 31.795152069484175 0 31.795152069484175 113.32814676607086 0 0 0 0 -19.08949988486847 45.391516429923286 0 45.391516429923286 98.281226649618475 0 0 0 0 -97.236951047443313 63.126245894563908 0 63.126245894563908 105.96161218713986 0 0 0 0 -138.46146882731495 51.540317588980542 0 51.540317588980542 110.06627467856742 0 0 0 0 -126.95433133345725 35.597207680817519 0 35.597207680817519 122.93077467536204 0 0 0 0 -1053.819616728777 -556.6959352101585 0 -556.6959352101585 57.682539561959857 0 0 0 0 0.17639213550633726 15.098323524513834 0 15.098323524513834 139.05641740813726 0 0 0 0 -156.30673771674552 51.761943083416554 0 51.761943083416554 128.12379053162294 0 0 0 0 1016.8632026967844 -273.85774876716459 0 -273.85774876716459 -1067.3732084142903 0 0 0 0 -186.42592394908024 88.360369293633994 0 88.360369293633994 -31.579069779938436 0 0 0 0 -85.694292273803967 -15.683554564697261 0 -15.683554564697261 -90.458767731717671 0 0 0 0 -103.13676833309401 25.625907081082914 0 25.625907081082914 129.49600223149173 0 0 0 0 -150.35380476866601 44.572896809382655 0 44.572896809382655 128.62985323006433 0 0 0 0 -137.45144070586451 21.204366065860086 0 21.204366065860086 141.3329075712536 0 0 0 0 -96.97944467776955 21.905333434451677 0 21.905333434451677 129.4066338314733 0 0 0 0 -121.76339547633933 25.763201201989432 0 25.763201201989432 130.6764626691438 0 0 0 0 0.84242868087096112 15.154789180342149 0 15.154789180342149 145.45436246917814 0 0 0 0 -620.20819588284735 120.13255345181324 0 120.13255345181324 150.5923059930501 0 0 0 0 -449.44215773006817 -276.02945582145185 0 -276.02945582145185 561.36818059778307 0 0 0 0 -113.92807253388582 354.00306244653257 0 354.00306244653257 220.62665032896984 0 0 0 0 -124.34535337363327 13.076180654948985 0 13.076180654948985 137.77291642373893 0 0 0 0 -135.20126586704967 5.9024958798690932 0 5.9024958798690932 139.8445828769909 0 0 0 0 -94.995905318474797 101.16184644182431 0 101.16184644182431 1111.8232413193473 0 0 0 0 4.0648396262017208 3.3213061778788813 0 3.3213061778788813 2.8751546914046742 0 0 0 0 -77.033760597326363 67.290818563920766 0 67.290818563920766 771.17017805511932 0 0 0 0 147.22675168963008 69.830502882507062 0 69.830502882507062 -133.24739000074624 0 0 0 0 -65.629507168053351 47.286009846469824 0 47.286009846469824 -43.334825075980916 0 0 0 0 55.646319169192793 27.377480137001839 0 27.377480137001839 -125.31988333373556 0 0 0 0 -28.656201330465592 8.2104321969018201 0 8.2104321969018201 -21.343062430532882 0 0 0 0 86.389320745342317 146.19215907400303 0 146.19215907400303 66.013800633954816 0 0 0 0 46.002354114005811 122.00642954862269 0 122.00642954862269 104.81880171397643 0 0 0 0 73.18946939702704 -5.2348423810174154 0 -5.2348423810174154 -37.665571844088845 0 0 0 0 23.524262494542199 131.06071478808008 0 131.06071478808008 102.25434352043521 0 0 0 0 -74.032575282435573 -67.878551727426384 0 -67.878551727426384 -71.802429520495934 0 0 0 0 377.76985059997241 231.57733062580519 0 231.57733062580519 -159.71222399242833 0 0 0 0 1017.7665851172878 1006.2296105907444 0 1006.2296105907444 494.20733434249996 0 0 0 0 242.84072505016502 86.073857808274624 0 86.073857808274624 -235.64771884129004 0 0 0 0 219.73433809069991 490.15046850392719 0 490.15046850392719 489.31044869063771 0 0 0 0 -132.18192433955664 244.05479892216681 0 244.05479892216681 930.96633764968283 0 0 0 0 -35.904005179758315 -13.787128919924726 0 -13.787128919924726 685.25362012927144 0 0 0 0 -28.421650368817097 81.516739577045428 0 81.516739577045428 425.56444211950293 0 0 0 0 -27.905226428560582 57.35675152551994 0 57.35675152551994 435.84103555224101 0 0 0 0 26.507479809739426 30.314424869479723 0 30.314424869479723 32.765935409572762 0 0 0 0 393.12207811540839 514.36523107409448 0 514.36523107409448 -807.61637600245376 0 0 0 0 416.73127630988006 186.04870742913045 0 186.04870742913045 -748.80828865370495 0 0 0 0 -47.949356009728888 -46.242319490386308 0 -46.242319490386308 2093.9368385086127 0 0 0 0 13.30449352646513 11.095147137989414 0 11.095147137989414 8.7474299350696469 0 0 0 0 517.49918273012372 958.04825294289185 0 958.04825294289185 465.51464744316763 0 0 0 0 0.63960289843282014 19.100645917638587 0 19.100645917638587 114.78271945501899 0 0 0 0 -1012.2999900596606 1397.8288150808148 0 1397.8288150808148 2889.6810412580089 0 0 0 0 -1279.6262305171331 864.7838548007785 0 864.7838548007785 1847.1149679738737 0 0 0 0 -252.33047591625404 75.83306410646037 0 75.83306410646037 135.47543924031197 0 0 0 0 -69.95619073729614 36.186447329804651 0 36.186447329804651 105.9975929045125 0 0 0 0 -184.61583326435357 25.31301756000903 0 25.31301756000903 119.36583303525913 0 0 0 0 -126.64372836903274 90.323591160900833 0 90.323591160900833 103.71380003156082 0 0 0 0 -193.37991434127355 86.201633731587208 0 86.201633731587208 147.53309173227171 0 0 0 0 -18.784945200159967 95.351456448041063 0 95.351456448041063 65.246961012933752 0 0 0 0 -167.69148975442886 65.206990366787068 0 65.206990366787068 114.85755857952608 0 0 0 0 -173.22300658776641 95.424426088683504 0 95.424426088683504 76.956471219367813 0 0 0 0 -75.590756039386179 117.77860425902327 0 117.77860425902327 -724.77890767260396 0 0 0 0 -363.63817863055874 -35.088700441716355 0 -35.088700441716355 77.95672235400923 0 0 0 0 405.02255752186352 78.817980601117597 0 78.817980601117597 -723.6809761232405 0 0 0 0 -376.70619400649343 108.2342988019318 0 108.2342988019318 144.53490075818263 0 0 0 0 1010.5250793274304 411.69035833825365 0 411.69035833825365 -605.35573906391801 0 0 0 0 -364.03558998371204 143.18948222180188 0 143.18948222180188 56.539434265723685 0 0 0 0 2.4123610379665159 16.341119563082486 0 16.341119563082486 70.67130636154144 0 0 0 0 36.562085866063626 -42.419635528407525 0 -42.419635528407525 99.161147172869278 0 0 0 0 -0.37195561163310442 0.34682516712854294 0 0.34682516712854294 0.23900652998922212 0 0 0 0 141.16518601682026 -179.77029005011354 0 -179.77029005011354 -58.854255886864848 0 0 0 0 -13.947753758508725 -245.41338432028351 0 -245.41338432028351 667.20243146579014 0 0 0 0 2387.1949253270786 710.4539148322292 0 710.4539148322292 125.75607586427941 0 0 0 0 2.450493820653731 6.9920070245989852 0 6.9920070245989852 23.18108202795861 0 0 0 0 -48.967481742026962 -417.96423400113781 0 -417.96423400113781 772.32491621379449 0 0 0 0 -170.89001940699291 687.60198073412175 0 687.60198073412175 1071.7495319586596 0 0 0 0 925.06922910144158 3.2678013614240626 0 3.2678013614240626 180.70662228684523 0 0 0 0 -281.96168242346084 335.53435316911055 0 335.53435316911055 -41.753436719809542 0 0 0 0 -616.77677875312384 262.69130758625579 0 262.69130758625579 578.37981974326249 0 0 0 0 -250.64805360740183 1001.5812026244676 0 1001.5812026244676 -686.74207764898892 0 0 0 0 -876.29292606971831 374.26245908370765 0 374.26245908370765 53.058214694232447 0 0 0 0 294.30326631890762 642.23643563865335 0 642.23643563865335 -11.282327852179151 0 0 0 0 -259.57454316844843 294.18345749785362 0 294.18345749785362 -186.57529579645779 0 0 0 0 74.327630364920196 45.440704741951777 0 45.440704741951777 2.2882535068929428 0 0 0 0 87.422016810086518 90.194106866862967 0 90.194106866862967 60.939703374562669 0 0 0 0 104.69732291906121 53.478254246438155 0 53.478254246438155 85.888368328909564 0 0 0 0 37.982367099591784 46.63751217561969 0 46.63751217561969 41.645283470488209 0 0 0 0 79.226943260435746 49.711101414352015 0 49.711101414352015 45.91538744882746 0 0 0 0 48.454826572041839 122.22679267860076 0 122.22679267860076 37.396548982634613 0 0 0 0 -918.72818509404715 496.89353281129297 0 496.89353281129297 -472.4302398943255 0 0 0 0 -778.78764993434015 880.9620345729054 0 880.9620345729054 -319.38291568527347 0 0 0 0 3.4663476268459732 4.3414873929436055 0 4.3414873929436055 2.7582913115860208 0 0 0 0 -417.9271322177301 377.4599700816616 0 377.4599700816616 -611.70928019407438 0 0 0 0 -692.15894873529214 317.5312062453886 0 317.5312062453886 350.32618142152205 0 0 0 0 -569.99639149806171 419.32827327729319 0 419.32827327729319 -273.64229371031979 0 0 0 0 -834.62159505166164 350.91049149817263 0 350.91049149817263 161.08620847124257 0 0 0 0 -625.50091938542391 76.743703364380053 0 76.743703364380053 -332.00613177672494 0 0 0 0 -175.76763940961246 505.68303264478163 0 505.68303264478163 -1055.1877513171494 0 0 0 0 16.200701438100989 3.8151909271435329 0 3.8151909271435329 -11.815564179043122 0 0 0 0 -347.18832750681759 350.06456613230694 0 350.06456613230694 130.99964547637501 0 0 0 0 42.843703870760784 23.766219828040789 0 23.766219828040789 -24.322415709872757 0 0 0 0 205.29430920315878 206.60499851212478 0 206.60499851212478 -10.893887945683673 0 0 0 0 209.49842335715221 -42.803918565958156 0 -42.803918565958156 -33.107892874904792 0 0 0 0 520.45836166075969 -23.198390112578636 0 -23.198390112578636 -36.922269913880882 0 0 0 0 566.74233706620362 357.80974471007357 0 357.80974471007357 16.656581851057126 0 0 0 0 192.50302561686476 197.16561229981016 0 197.16561229981016 7.602061467099702 0 0 0 0 -81.399712133305002 274.44540771299216 0 274.44540771299216 92.836146361361898 0 0 0 0 172.48750122618367 338.74072532760329 0 338.74072532760329 10.961168426772929 0 0 0 0 18.078044065633733 58.99284145567681 0 58.99284145567681 155.18365996478215 0 0 0 0 -92.404391207055596 107.91331384013756 0 107.91331384013756 195.03018982796493 0 0 0 0 -315.05612374115663 419.82060835931043 0 419.82060835931043 -215.3188425489061 0 0 0 0 -209.99727180458285 173.86583452104242 0 173.86583452104242 195.72095953472308 0 0 0 0 -31.302971968693157 12.259182016187339 0 12.259182016187339 50.304841258871079 0 0 0 0 -12.184127548772494 76.965191480194335 0 76.965191480194335 138.93215115420026 0 0 0 0 -35.811089531221114 69.659239318467371 0 69.659239318467371 193.80858236023778 0 0 0 0 -92.099484518887721 -24.497608133970061 0 -24.497608133970061 113.93728334664047 0 0 0 0 53.070952133582573 20.97419075549783 0 20.97419075549783 0.67238186706188685 0 0 0 0 27.892377705840772 163.99896231993625 0 163.99896231993625 63.150192148852511 0 0 0 0 67.628246493124095 -21.407377555488893 0 -21.407377555488893 51.371464333322365 0 0 0 0 156.20548134192086 30.059065912369988 0 30.059065912369988 70.35066810713397 0 0 0 0 36.338050788486925 62.395349050091681 0 62.395349050091681 114.03983456267451 0 0 0 0 10.775970850678585 7.2038139871000659 0 7.2038139871000659 72.864799345288986 0 0 0 0 92.557106390706622 25.891185104777833 0 25.891185104777833 137.6433119472058 0 0 0 0 548.7771495652886 181.67595653111675 0 181.67595653111675 34.995298711350188 0 0 0 0 3.3370625489883423 60.906439222435438 0 60.906439222435438 223.04011261129199 0 0 0 0 6.5784904893732721 6.4487322611941806 0 6.4487322611941806 23.804635633853266 0 0 0 0 -7.0936478326125325 -35.763263962991914 0 -35.763263962991914 173.71544470197114 0 0 0 0 33.567858010560258 -35.366385756075033 0 -35.366385756075033 95.295880301887337 0 0 0 0 229.50991256301972 -19.195203792151005 0 -19.195203792151005 204.63135006392986 0 0 0 0 -146.28304694742872 172.08417580722016 0 172.08417580722016 614.20632023272628 0 0 0 0 4.5637535633827646 -31.776186028563835 0 -31.776186028563835 32.290699679958834 0 0 0 0 -83.885438690081884 200.46529747828754 0 200.46529747828754 669.00556528447487 0 0 0 0 1.6061392521456281 -14.52734684742186 0 -14.52734684742186 7.6515794391613099 0 0 0 0 324.93633632468141 225.81035825003346 0 225.81035825003346 446.97357639450638 0 0 0 0 307.19481663169245 208.66650735394796 0 208.66650735394796 558.60415658084457 0 0 0 0 109.03348360407313 190.03054344362681 0 190.03054344362681 344.84498256987717 0 0 0 0 33.816298534909265 250.0942129195937 0 250.0942129195937 571.42952913718182 0 0 0 0 179.8212886093936 324.14556070925755 0 324.14556070925755 587.9133334287144 0 0 0 0 98.778527953659022 139.39970634312158 0 139.39970634312158 262.52245393827616 0 0 0 0 79.938312939531443 107.02756148129993 0 107.02756148129993 282.58786823960691 0 0 0 0 66.803956727174182 95.690370223524951 0 95.690370223524951 251.31894846900832 0 0 0 0 136.64773426970368 137.97642478439775 0 137.97642478439775 228.89547234441852 0 0 0 0 -30.803757930950709 9.6206718559501496 0 9.6206718559501496 308.35682826675475 0 0 0 0 -18.977811733021554 113.79903386074147 0 113.79903386074147 414.04865645951941 0 0 0 0 -13.287409368035242 139.26608700380893 0 139.26608700380893 421.9812003628831 0 0 0 0 -35.538044697877694 56.581308534449818 0 56.581308534449818 570.54233536050015 0 0 0 0 -105.24801093348242 181.73975747154327 0 181.73975747154327 631.06673944324939 0 0 0 0 -102.88727125205514 157.49911786668235 0 157.49911786668235 686.38789114693645 0 0 0 0 -133.40645308647814 215.88896690861907 0 215.88896690861907 629.91107285731414 0 0 0 0 -135.28757040118126 185.40589670250483 0 185.40589670250483 662.53750265104463 0 0 0 0 -114.00815874153113 124.31304584214377 0 124.31304584214377 497.47303038986138 0 0 0 0 7.8297020772418193 261.67070632391824 0 261.67070632391824 678.08230335210101 0 0 0 0 125.86031763959227 276.81181252471288 0 276.81181252471288 674.16715838239179 0 0 0 0 -4.0956884606507629 203.45319112663128 0 203.45319112663128 614.71139409380703 0 0 0 0 -84.63124289224703 125.81945727538323 0 125.81945727538323 494.15226371018798 0 0 0 0 -91.315091843145183 197.29078224497061 0 197.29078224497061 827.7649501447595 0 0 0 0 -122.3468876183365 -35.107242134297849 0 -35.107242134297849 638.81067875197186 0 0 0 0 -23.960556500828602 133.0676621609382 0 133.0676621609382 923.57279489017674 0 0 0 0 -122.84935158855814 -108.13158148727626 0 -108.13158148727626 477.82753904316633 0 0 0 0 22.171599202105426 -25.311969484162546 0 -25.311969484162546 1.0667927042231895 0 0 0 0 -22.482581096550803 206.24461279327079 0 206.24461279327079 421.08889242480291 0 0 0 0 6.9206721615146307 185.48947379883975 0 185.48947379883975 -67.882697167871811 0 0 0 0 98.646375472143518 187.79004823134164 0 187.79004823134164 -82.841850533586694 0 0 0 0 8.8604310321099753 6.8417934465664132 0 6.8417934465664132 4.8640734471973843 0 0 0 0 35.958958250270371 -186.36179197628371 0 -186.36179197628371 479.65590448312287 0 0 0 0 -281.67646330589696 -199.169549677139 0 -199.169549677139 484.53686561546056 0 0 0 0 -42.181112224647222 -379.31669090407377 0 -379.31669090407377 301.36173178718309 0 0 0 0 89.034109571366571 -128.01516904995515 0 -128.01516904995515 395.606113544447 0 0 0 0 100.33784280442205 -178.00262715228018 0 -178.00262715228018 476.87559984948166 0 0 0 0 51.706583820050582 -227.52662071057421 0 -227.52662071057421 434.00673689674295 0 0 0 0 40.055820707749263 -260.86242377536837 0 -260.86242377536837 711.75319732559728 0 0 0 0 35.939278849624941 5.069841715298935 0 5.069841715298935 803.47150266804965 0 0 0 0 -7.6755373781784328 -356.13042558663074 0 -356.13042558663074 1056.3793845111213 0 0 0 0 418.77005093247953 -429.77042012328457 0 -429.77042012328457 156.03731150669955 0 0 0 0 9.3640184755055316 23.080834406348004 0 23.080834406348004 568.23225537022518 0 0 0 0 134.56601915392912 83.877456291294948 0 83.877456291294948 428.65859720330445 0 0 0 0 186.75460763514002 -96.558737048144394 0 -96.558737048144394 552.16231796019565 0 0 0 0 39.541492257870317 38.69136564129235 0 38.69136564129235 453.57356519153109 0 0 0 0 225.52057577602716 187.82211650452609 0 187.82211650452609 692.65093448458356 0 0 0 0 450.66809153353006 -273.2254277810207 0 -273.2254277810207 304.22312367631821 0 0 0 0 4.0154795046519043 -0.40905962964961873 0 -0.40905962964961873 0.5581679070896115 0 0 0 0 -77.050741287456788 46.721032631059643 0 46.721032631059643 753.11925920129579 0 0 0 0 526.87458110445095 140.29032352804643 0 140.29032352804643 -147.91713475387405 0 0 0 0 498.23769403949973 124.85649724832911 0 124.85649724832911 -7.3421667954380467 0 0 0 0 5.3161848050014839 3.0967486221101694 0 3.0967486221101694 2.1042471919517567 0 0 0 0 227.08879576698519 441.99657393506641 0 441.99657393506641 849.96325409618294 0 0 0 0 592.46950802771812 381.84894889108728 0 381.84894889108728 511.34551813596045 0 0 0 0 45.211151121678711 106.24413100699894 0 106.24413100699894 625.12893615478242 0 0 0 0 309.40751342800343 -78.127015944710365 0 -78.127015944710365 729.42260206196079 0 0 0 0 1.0463568078585919 -0.81357552837437197 0 -0.81357552837437197 12.512026243222074 0 0 0 0 -50.071048115159783 127.71442716558158 0 127.71442716558158 900.01167387634632 0 0 0 0 43.326086729410008 131.02543474064259 0 131.02543474064259 816.42019005125621 0 0 0 0 -63.428362379101372 248.0437447640943 0 248.0437447640943 744.97105166471738 0 0 0 0 -42.811011197860353 64.198227250366472 0 64.198227250366472 785.91090203565182 0 0 0 0 3.423414213936363 -8.7207074947901191 0 -8.7207074947901191 3.2426003814516804 0 0 0 0 2.9576504102230956 272.43955150729562 0 272.43955150729562 869.34389506837033 0 0 0 0 108.76871512792354 164.16559237580077 0 164.16559237580077 785.75432695333438 0 0 0 0 -56.556513524796401 11.145878749259282 0 11.145878749259282 610.03473374142413 0 0 0 0 -114.36976588825996 171.97265106352916 0 171.97265106352916 868.27775892683712 0 0 0 0 -110.32854284886926 203.41882917148723 0 203.41882917148723 656.37367027351866 0 0 0 0 54.832680834973075 168.68128340989279 0 168.68128340989279 236.18672640367731 0 0 0 0 9.2191800201002536 1.3751792679722996 0 1.3751792679722996 0.79436478369688268 0 0 0 0 -18.653816883222817 68.719410486006382 0 68.719410486006382 545.56916305324535 0 0 0 0 11.366030860793273 62.674636104777164 0 62.674636104777164 425.07813786251791 0 0 0 0 -24.903712070325156 98.141353885799617 0 98.141353885799617 422.32142111536086 0 0 0 0 41.106698741874226 77.874785421891829 0 77.874785421891829 431.37307214452449 0 0 0 0 43.939569445250413 54.872191687523809 0 54.872191687523809 414.11933980340837 0 0 0 0 60.233033158896376 89.618126147059229 0 89.618126147059229 398.05403418375499 0 0 0 0 9.729814252344239 1.9857585691795805 0 1.9857585691795805 0.9531381067723611 0 0 0 0 6.2500672666244803 89.701917731625144 0 89.701917731625144 363.46099031991616 0 0 0 0 -24.2510115977414 67.9989023645212 0 67.9989023645212 392.60626778357801 0 0 0 0 24.09002747591083 -18.339682250301848 0 -18.339682250301848 298.6907701624732 0 0 0 0 -234.15854160051845 110.49214791340455 0 110.49214791340455 1480.6689538564751 0 0 0 0 -69.978870178143097 529.35206195807405 0 529.35206195807405 1521.9579373643792 0 0 0 0 0.90970306503935383 -1.8963982524851701 0 -1.8963982524851701 3.5648043241048981 0 0 0 0 167.15820948349483 165.35148161093821 0 165.35148161093821 544.7975542238114 0 0 0 0 8.39227538670184 -41.856512589216436 0 -41.856512589216436 871.83364676384372 0 0 0 0 145.53435062543758 151.92753207751957 0 151.92753207751957 797.95790384252905 0 0 0 0 321.64594987898317 459.89672065414197 0 459.89672065414197 936.58310963732583 0 0 0 0 -14.640241043818712 -20.691805674441412 0 -20.691805674441412 7.4905971863444734 0 0 0 0 -34.111385917800362 -40.980115716578439 0 -40.980115716578439 8.5527077266779088 0 0 0 0 17.563271118516923 -0.49536211961458321 0 -0.49536211961458321 -63.860300954533159 0 0 0 0 -30.875940641397847 -33.232144563738984 0 -33.232144563738984 64.557848619002471 0 0 0 0 17.853443593942757 -77.748323939922557 0 -77.748323939922557 -75.381710064204526 0 0 0 0 -21.023669263644862 -19.706882118924611 0 -19.706882118924611 -1.8298447721470663 0 0 0 0 -24.789765158238879 -26.726602859831473 0 -26.726602859831473 -26.318192849619663 0 0 0 0 -83.780612857587585 12.2237404987427 0 12.2237404987427 109.77887544588884 0 0 0 0 -72.731197970221274 -70.811820680351957 0 -70.811820680351957 132.73685027327883 0 0 0 0 -71.509366735176059 -68.355999589422936 0 -68.355999589422936 97.047944191283023 0 0 0 0 -88.661567987115632 -36.683609562835045 0 -36.683609562835045 247.51720321017274 0 0 0 0 -167.60788084288743 -111.08912464377136 0 -111.08912464377136 219.12849716869459 0 0 0 0 -40.675652820967855 -28.528315577432295 0 -28.528315577432295 169.70589362430474 0 0 0 0 86.316173171082937 -17.97734913280874 0 -17.97734913280874 -80.63373673184924 0 0 0 0 -37.233141814635019 -35.197131063308916 0 -35.197131063308916 110.53956825233763 0 0 0 0 -94.096064370179192 -49.313742874761374 0 -49.313742874761374 107.05122381454566 0 0 0 0 198.86167714817199 140.33960663269681 0 140.33960663269681 66.379126163818 0 0 0 0 -257.6159545211313 -146.1729072702783 0 -146.1729072702783 528.0437669449675 0 0 0 0 14.28332184328292 -44.403882643262477 0 -44.403882643262477 69.950650247920407 0 0 0 0 -2.2460788099299407 -154.0866021235779 0 -154.0866021235779 50.351017333843629 0 0 0 0 -78.648998605521228 230.92269588443742 0 230.92269588443742 494.98753118809645 0 0 0 0 66.431796872878863 7.4356437839633145 0 7.4356437839633145 97.241294699379068 0 0 0 0 -2.6480138073044346 -31.888082354137836 0 -31.888082354137836 23.762053544406527 0 0 0 0 139.73998164000091 185.96945603190034 0 185.96945603190034 119.93871898382531 0 0 0 0 36.498964361790058 74.196438931394368 0 74.196438931394368 -37.434367820947955 0 0 0 0 1.0011752734176904 -2.0496898550309979 0 -2.0496898550309979 -1.712719835343421 0 0 0 0 72.699371396078106 -296.21261924747887 0 -296.21261924747887 -117.94176322730345 0 0 0 0 -86.473632937292734 -129.38687541863328 0 -129.38687541863328 152.4841108446999 0 0 0 0 118.44714086051522 76.665065025954391 0 76.665065025954391 213.11554434802747 0 0 0 0 195.44825054240991 -144.03721166529067 0 -144.03721166529067 117.08360367554269 0 0 0 0 236.77048270687351 391.44273257131863 0 391.44273257131863 462.89968916106045 0 0 0 0 3.4575267554132418 -3.3553897299177038 0 -3.3553897299177038 0.52095322039383518 0 0 0 0 -203.81448452165353 -201.84689806412462 0 -201.84689806412462 127.46014568934334 0 0 0 0 -13.217955670875426 -79.903835341039667 0 -79.903835341039667 554.79156786656677 0 0 0 0 -134.52122181722538 78.074281878183683 0 78.074281878183683 339.5147193173907 0 0 0 0 92.455363583400413 112.38286683692058 0 112.38286683692058 169.87911711623019 0 0 0 0 -2.1731268321377684 101.14634529536124 0 101.14634529536124 179.34079289784131 0 0 0 0 28.832860151811929 132.84293933242225 0 132.84293933242225 157.09117305504333 0 0 0 0 -136.20637707450339 53.849322886424488 0 53.849322886424488 80.469618100058142 0 0 0 0 -178.47417776837756 -26.507935658431961 0 -26.507935658431961 9.4880613999321213 0 0 0 0 -169.91671301722135 -184.09000803744493 0 -184.09000803744493 318.40400704211606 0 0 0 0 -285.94932798619766 29.096430244844669 0 29.096430244844669 161.9195963125967 0 0 0 0 -182.38126921514657 -69.216876467750126 0 -69.216876467750126 246.77317710888019 0 0 0 0 -296.1422154906686 -73.827092706844269 0 -73.827092706844269 354.45003699009249 0 0 0 0 -68.452563335042214 -276.15311569293044 0 -276.15311569293044 313.98500773433625 0 0 0 0 -282.04790328463059 -114.51875261375608 0 -114.51875261375608 282.78960538780666 0 0 0 0 -265.25218768670601 -255.58305371701113 0 -255.58305371701113 441.50194261463184 0 0 0 0 -106.49078012104337 -174.31327459553904 0 -174.31327459553904 283.89120422292399 0 0 0 0 -182.0213759837452 -208.14073965056741 0 -208.14073965056741 273.6483965186344 0 0 0 0 -201.04430143258332 -92.802657330805232 0 -92.802657330805232 225.889702168246 0 0 0 0 -113.79207704190708 8.1290737749368418 0 8.1290737749368418 466.14115034242059 0 0 0 0 -237.6115865983719 -195.48397748454045 0 -195.48397748454045 390.54555062937288 0 0 0 0 -33.166508869904924 22.313448624452995 0 22.313448624452995 44.539189621068061 0 0 0 0 -43.145268311563086 61.701956923461694 0 61.701956923461694 -80.216213769669594 0 0 0 0 -37.513291160780682 6.1274700979301997 0 6.1274700979301997 114.74254591117642 0 0 0 0 -220.29200001155425 224.3529427780777 0 224.3529427780777 -64.119542531017942 0 0 0 0 -393.28433602265363 191.70315480366116 0 191.70315480366116 154.30425714413286 0 0 0 0 -8.4079943490293054 9.1191990251597161 0 9.1191990251597161 -6.4234291058104134 0 0 0 0 -531.20001073578715 232.41123902754134 0 232.41123902754134 36.753908829072316 0 0 0 0 -677.38049528857937 472.870482522354 0 472.870482522354 -136.41753265853185 0 0 0 0 -283.88442223770301 4.9756930008466043 0 4.9756930008466043 -33.778316301679297 0 0 0 0 -234.3076299221957 236.12881987910077 0 236.12881987910077 -267.2692564478366 0 0 0 0 -351.68772960530714 -179.67465242986873 0 -179.67465242986873 389.13722290643636 0 0 0 0 -329.25645190797786 -124.31145900212141 0 -124.31145900212141 402.20055776869776 0 0 0 0 -528.57693827226387 68.822167262610492 0 68.822167262610492 284.92348156903608 0 0 0 0 -463.35046152074938 -157.31871561058506 0 -157.31871561058506 428.68123987723811 0 0 0 0 -343.1212554211977 146.58490879397868 0 146.58490879397868 136.53742606347805 0 0 0 0 -259.65341995079552 69.842960846672213 0 69.842960846672213 191.40637635266467 0 0 0 0 -111.33858608706078 13.733806336698763 0 13.733806336698763 78.813218279147804 0 0 0 0 -220.55771516840431 100.46937294819691 0 100.46937294819691 61.801406544152997 0 0 0 0 -56.440011415844538 91.1515753158601 0 91.1515753158601 36.174044687992136 0 0 0 0 -149.87326025317532 34.771026041327787 0 34.771026041327787 73.108569489246293 0 0 0 0 -6.351365967584389 3.8696875550445924 0 3.8696875550445924 20.561892208224251 0 0 0 0 -54.104751112160557 36.543241144783678 0 36.543241144783678 59.765708919032477 0 0 0 0 -64.262648244257264 35.173945457042237 0 35.173945457042237 95.580616354491212 0 0 0 0 -64.033652125925073 31.169553386396728 0 31.169553386396728 83.158610060971114 0 0 0 0 -42.251744108836156 20.548627368414515 0 20.548627368414515 41.621120364021515 0 0 0 0 -49.021420525801659 15.356482835813949 0 15.356482835813949 75.915065953449812 0 0 0 0 -42.007009126278717 -0.44375385710372939 0 -0.44375385710372939 111.42470884505019 0 0 0 0 -60.318250631094998 35.627514618645364 0 35.627514618645364 98.036097620406508 0 0 0 0 -66.077339129655229 31.135044559494418 0 31.135044559494418 131.46489597711479 0 0 0 0 -71.685740164711206 21.406716637940917 0 21.406716637940917 119.19871859092382 0 0 0 0 -53.914086081153073 3.148983452214452 0 3.148983452214452 137.91732587400838 0 0 0 0 -72.50216345980698 9.3376640908318223 0 9.3376640908318223 86.673174775409279 0 0 0 0 -61.998087343661609 19.271406148625829 0 19.271406148625829 105.89996092110232 0 0 0 0 -60.99643007211489 18.935663987453154 0 18.935663987453154 90.60160566459308 0 0 0 0 -55.26986280512574 39.122770771493379 0 39.122770771493379 98.304554572474444 0 0 0 0 -43.544656262842182 67.69925359316403 0 67.69925359316403 93.381763397148461 0 0 0 0 -33.662479032353076 27.074708238826133 0 27.074708238826133 73.368827880796744 0 0 0 0 -51.694545035465126 12.6872077636217 0 12.6872077636217 62.157732032384956 0 0 0 0 65.943546900954971 107.16026554640848 0 107.16026554640848 43.870453643845394 0 0 0 0 68.212717110948688 95.463326618233623 0 95.463326618233623 55.839467577636242 0 0 0 0 22.239629495132249 43.015735018721898 0 43.015735018721898 4.6630653463071212 0 0 0 0 40.37758544558892 167.0337447609345 0 167.0337447609345 153.00286673818482 0 0 0 0 -79.838618363701244 73.839334877855435 0 73.839334877855435 150.64644384864368 0 0 0 0 -66.209727886831388 120.01669688343827 0 120.01669688343827 177.06132182406145 0 0 0 0 -17.168593161062745 111.6930522784678 0 111.6930522784678 100.56189214560436 0 0 0 0 -11.723434539868322 90.557688110951858 0 90.557688110951858 108.86433795609628 0 0 0 0 -88.714852587982023 92.671962662090664 0 92.671962662090664 169.69212622111081 0 0 0 0 -118.21368310892649 104.10963949580764 0 104.10963949580764 234.88963101015543 0 0 0 0 -211.19975599452846 25.942215647864941 0 25.942215647864941 213.6950809803966 0 0 0 0 -157.01682138878277 126.48023324841051 0 126.48023324841051 355.07599598032539 0 0 0 0 -34.837246349532506 195.50590966904565 0 195.50590966904565 256.89558652738924 0 0 0 0 -110.44826536919572 117.43497829526314 0 117.43497829526314 177.43426431371336 0 0 0 0 -2.5877452445056406 160.90674376061361 0 160.90674376061361 158.49118665306742 0 0 0 0 43.967587094171904 214.84149380888266 0 214.84149380888266 213.56934501233627 0 0 0 0 99.186206368700368 187.02079870695889 0 187.02079870695889 200.42208301792562 0 0 0 0 185.02921122080443 184.71484090095328 0 184.71484090095328 91.041895426315023 0 0 0 0 -103.79378834391036 10.10658312189571 0 10.10658312189571 146.13011940931028 0 0 0 0 -69.488968501529598 -3.0415226934856037 0 -3.0415226934856037 146.40437167346681 0 0 0 0 -96.31220235841829 45.421258447051514 0 45.421258447051514 136.39105069091238 0 0 0 0 -100.41746444577439 34.190225918995566 0 34.190225918995566 166.19570607904461 0 0 0 0 -139.85422430607832 28.65426659050172 0 28.65426659050172 166.81862015399383 0 0 0 0 -181.71349564562115 21.461284221841197 0 21.461284221841197 179.85835656597192 0 0 0 0 -154.65113842297433 64.442992481170222 0 64.442992481170222 192.64497958479478 0 0 0 0 -158.40596852243107 40.044108367867011 0 40.044108367867011 156.55049507087097 0 0 0 0 -140.65725976240719 -21.526682509822422 0 -21.526682509822422 142.08641687969794 0 0 0 0 -42.531815645370443 -53.035972436642624 0 -53.035972436642624 157.19443297692487 0 0 0 0 -61.093939663493074 -6.8971480055843131 0 -6.8971480055843131 128.35883061633649 0 0 0 0 -69.001165370184026 -15.077786738082068 0 -15.077786738082068 145.87054904919933 0 0 0 0 -14.470455259528535 -25.479213099162735 0 -25.479213099162735 136.96905868987233 0 0 0 0 9.5374328443394916 -2.4563042410409253 0 -2.4563042410409253 108.79538332864468 0 0 0 0 -54.631063897384593 -1.2952488148002885 0 -1.2952488148002885 130.53509007969114 0 0 0 0 -9.2739434213108325 5.0525620447006077 0 5.0525620447006077 113.37981273097103 0 0 0 0 -480.81626430520919 563.11870653347796 0 563.11870653347796 -342.42875877120969 0 0 0 0 -191.57666766884086 17.596685414955573 0 17.596685414955573 135.00532510001358 0 0 0 0 -27.776526393166208 -12.959543852445471 0 -12.959543852445471 7.0511023463601532 0 0 0 0 41.436762332941726 -54.353659279745443 0 -54.353659279745443 111.16380811621639 0 0 0 0 -5.2954159534067831 18.950509650821765 0 18.950509650821765 65.453354913509884 0 0 0 0 250.90497248519841 -228.45635554177716 0 -228.45635554177716 73.525927081922418 0 0 0 0 2.4946400552854264 8.6711683659119014 0 8.6711683659119014 41.4978201642068 0 0 0 0 66.672031155032528 -13.348642199667665 0 -13.348642199667665 115.23979242155474 0 0 0 0 -124.02039812673274 -117.38758930351287 0 -117.38758930351287 141.29469450187753 0 0 0 0 -186.53709460775417 41.607702117419649 0 41.607702117419649 131.68736769303359 0 0 0 0 -112.65007695188069 53.654584845669888 0 53.654584845669888 24.47259610337278 0 0 0 0 -101.85303332874162 -155.60171075528444 0 -155.60171075528444 266.93180594778823 0 0 0 0 308.79868290159993 -22.715146377413475 0 -22.715146377413475 58.19718805589946 0 0 0 0 -348.92834275368841 -339.30980581026233 0 -339.30980581026233 410.06117136617104 0 0 0 0 -384.30981670787514 24.254966183718352 0 24.254966183718352 216.09687079957075 0 0 0 0 65.955648330655094 -78.666602650086134 0 -78.666602650086134 196.59395096943626 0 0 0 0 14.24076494541805 -171.09562293175259 0 -171.09562293175259 353.0825254926458 0 0 0 0 0.98021254550393877 -0.70778845723503991 0 -0.70778845723503991 0.28064651497346915 0 0 0 0 -786.22654964518733 575.20461902338866 0 575.20461902338866 -448.12153558124555 0 0 0 0 109.66146694180497 -186.07632317920798 0 -186.07632317920798 334.8741525018122 0 0 0 0 2.1739481478416636 -4.8329017760431157 0 -4.8329017760431157 -0.81939267614895073 0 0 0 0 144.82878857242395 143.36629347345297 0 143.36629347345297 668.76091523355717 0 0 0 0 -1272.8840425231174 526.03611072221975 0 526.03611072221975 1275.0484460012085 0 0 0 0 126.2519874192476 -125.1416554719799 0 -125.1416554719799 244.855128269337 0 0 0 0 211.89083397059221 -44.321442391395976 0 -44.321442391395976 254.08809792753527 0 0 0 0 -228.47250208229525 335.56659049239533 0 335.56659049239533 -10.027406263558078 0 0 0 0 -255.16876203309221 436.71099797966599 0 436.71099797966599 -201.70746376860188 0 0 0 0 -90.383036069193622 441.98957445480482 0 441.98957445480482 -659.01486563393701 0 0 0 0 -860.93775361522421 39.796001618044102 0 39.796001618044102 1423.0825913265217 0 0 0 0 5.2808890493840579 1.1749699148388402 0 1.1749699148388402 0.19802593390455314 0 0 0 0 -157.10670874892298 68.351018808173649 0 68.351018808173649 690.59842125579598 0 0 0 0 -406.46823499513994 452.23457749074441 0 452.23457749074441 242.38290259250425 0 0 0 0 -21.405620392288256 152.18255193351069 0 152.18255193351069 -53.102269781491486 0 0 0 0 -1.936529864409315 15.986805860485557 0 15.986805860485557 51.586637751932102 0 0 0 0 -138.12095873983708 -8.6282250914737233 0 -8.6282250914737233 166.16008553926804 0 0 0 0 -88.339135593454557 35.991058818257443 0 35.991058818257443 407.99954449315555 0 0 0 0 -100.26339708387968 140.65935842900944 0 140.65935842900944 135.44150504521645 0 0 0 0 -18.432014430080017 -96.266925671774516 0 -96.266925671774516 134.52307287102272 0 0 0 0 -15.779924505275417 0.5468500022116487 0 0.5468500022116487 16.884722989566995 0 0 0 0 14.957389312890882 -75.736514702293789 0 -75.736514702293789 75.008902353496524 0 0 0 0 -21.626959715929843 -110.62991333908576 0 -110.62991333908576 262.5223368916304 0 0 0 0 10.428803237674956 -7.852939562017184 0 -7.852939562017184 -9.4032357891948237 0 0 0 0 -136.68602954361268 -47.201201279520319 0 -47.201201279520319 156.76111111023783 0 0 0 0 84.431784213654623 -1.3535387124288718 0 -1.3535387124288718 83.099353258279734 0 0 0 0 -7.2700361060500338 12.508389681493757 0 12.508389681493757 86.288110332918706 0 0 0 0 -28.259496825163296 -68.500653672053886 0 -68.500653672053886 105.92175093333935 0 0 0 0 -19.302645024546109 -31.14274371499414 0 -31.14274371499414 76.313801342730585 0 0 0 0 -2.7029666733795921 15.655230706793233 0 15.655230706793233 30.593069938391807 0 0 0 0 -193.01915726748666 -11.304486957258632 0 -11.304486957258632 17.543444007955259 0 0 0 0 -337.70289684472505 315.26128770580522 0 315.26128770580522 -142.31854793627281 0 0 0 0 91.017387020932802 -8.2169468221545685 0 -8.2169468221545685 63.465471569244983 0 0 0 0 -21.009805362325494 -20.56573749859254 0 -20.56573749859254 4.2883784633247615 0 0 0 0 -80.419945675255804 -24.418878046044483 0 -24.418878046044483 122.52308186331356 0 0 0 0 -208.42092335216012 93.46548293702017 0 93.46548293702017 56.622411214688327 0 0 0 0 -34.91558533542775 115.88959263093057 0 115.88959263093057 -521.82206864602631 0 0 0 0 -148.82807429247259 -29.043064030774985 0 -29.043064030774985 79.429660670859448 0 0 0 0 -272.79953226989892 -31.055046158260666 0 -31.055046158260666 262.33375712125417 0 0 0 0 -1013.5780862909451 -2749.9433983790805 0 -2749.9433983790805 1909.9270632594562 0 0 0 0 178.91784321090745 362.99386741288617 0 362.99386741288617 567.20723351201741 0 0 0 0 -110.87235423101447 377.65265203289891 0 377.65265203289891 973.09848096566566 0 0 0 0 -196.64271353897857 205.30708842034073 0 205.30708842034073 734.68819822452497 0 0 0 0 -422.91968004216108 706.80300553828693 0 706.80300553828693 1470.9111135624553 0 0 0 0 -9.7196756232947337 5.834598377772636 0 5.834598377772636 62.588139937084634 0 0 0 0 -212.28557231694867 112.27694904571399 0 112.27694904571399 213.5530014577671 0 0 0 0 -11.429283241213852 0.70652699873971869 0 0.70652699873971869 53.388206767500378 0 0 0 0 -17.344137431939792 22.987682970993532 0 22.987682970993532 32.18676941286013 0 0 0 0 -51.48459343149284 -58.078634849545779 0 -58.078634849545779 215.67121510230936 0 0 0 0 49.462646231896542 -100.38094085160265 0 -100.38094085160265 119.25510188540648 0 0 0 0 -44.60876863075282 -3.3266351101410692 0 -3.3266351101410692 107.89476485556952 0 0 0 0 -65.752207650340097 -20.232559693169605 0 -20.232559693169605 123.42913366474386 0 0 0 0 -10.311733525128663 25.019731823294578 0 25.019731823294578 40.987783172838888 0 0 0 0 19.970131487301842 1.5475191810146498 0 1.5475191810146498 62.283217835429241 0 0 0 0 -23.517569163937878 13.117424721605403 0 13.117424721605403 69.54581873092684 0 0 0 0 -46.945601010644168 5.8740181666362332 0 5.8740181666362332 71.817836581991287 0 0 0 0 -44.417630168278265 40.520097708649701 0 40.520097708649701 45.141161155683221 0 0 0 0 -40.611682440885488 -17.921175562936696 0 -17.921175562936696 120.08664086569479 0 0 0 0 -31.931358155543421 14.774828691734001 0 14.774828691734001 31.014538783620083 0 0 0 0 -19.934298472602677 -14.02389760537335 0 -14.02389760537335 48.317218227603007 0 0 0 0 -22.290778815158774 17.047656944414484 0 17.047656944414484 29.012895634426968 0 0 0 0 -22.80142710106611 -5.8803465136006707 0 -5.8803465136006707 26.028498302126536 0 0 0 0 -35.390057495460496 12.113824736996321 0 12.113824736996321 71.836605828837492 0 0 0 0 -1.2571534768611317 3.3171995306719637 0 3.3171995306719637 9.6593148150432455 0 0 0 0 -22.229096531989398 18.889686478280055 0 18.889686478280055 -0.99824733444256708 0 0 0 0 -15.863434928050083 13.880201540639973 0 13.880201540639973 26.30442347773112 0 0 0 0 21.994556704672107 6.3946047088275009 0 6.3946047088275009 1.3509593310009222 0 0 0 0 -7.1959612382581639 11.388657502018106 0 11.388657502018106 33.833966478123315 0 0 0 0 -21.376483916625148 58.352875726050115 0 58.352875726050115 -66.759960062709297 0 0 0 0 -1.4516079168884843 3.6338220231511258 0 3.6338220231511258 6.6317068203612113 0 0 0 0 -26.030225708775106 -16.197753276654112 0 -16.197753276654112 8.3355943719652714 0 0 0 0 -28.180706307564833 -33.447979296935955 0 -33.447979296935955 34.024589028413175 0 0 0 0 -106.93623014596278 84.64405676775641 0 84.64405676775641 26.75236257823417 0 0 0 0 -8.8063639260378448 0.35880664836673759 0 0.35880664836673759 4.7375639766589064 0 0 0 0 -11.841234109520883 6.4799122064214316 0 6.4799122064214316 34.918063417619578 0 0 0 0 -3.8954052224668434 11.05860695338518 0 11.05860695338518 13.760211667352932 0 0 0 0 202.15374474744021 43.459713637072127 0 43.459713637072127 -104.77898028312143 0 0 0 0 -1.9463260756490843 11.307559614944196 0 11.307559614944196 31.145206979934159 0 0 0 0 27.544268348921264 69.311268011349966 0 69.311268011349966 -34.941988295380725 0 0 0 0 -15.96632054588008 9.5395539999808534 0 9.5395539999808534 32.857644805684686 0 0 0 0 -139.51125264955681 90.478790346027381 0 90.478790346027381 81.28210688825493 0 0 0 0 -7.4619028096041209 2.1015899984636732 0 2.1015899984636732 41.763339903027543 0 0 0 0 -4.5966030133873295 3.1345746494175017 0 3.1345746494175017 29.564631690788303 0 0 0 0 -22.44458350200199 -5.3975557652720454 0 -5.3975557652720454 26.524077032823698 0 0 0 0 -56.482956826711188 -5.952897368799313 0 -5.952897368799313 35.087670741871989 0 0 0 0 -1.3717058454025564 -1.0639315451347713 0 -1.0639315451347713 4.9668466172842898 0 0 0 0 140.77044756186433 -55.931740626707324 0 -55.931740626707324 -147.22024244440399 0 0 0 0 61.702643970927966 -89.126248871383723 0 -89.126248871383723 446.28022911841981 0 0 0 0 -41.231089855245955 -58.623496036172583 0 -58.623496036172583 116.52236531993549 0 0 0 0 -6.2079810462138223 2.9685532710449891 0 2.9685532710449891 53.403005761794759 0 0 0 0 9.006492935442111 324.92530352882022 0 324.92530352882022 -120.35133612529171 0 0 0 0 -32.990885077916595 -9.691305854453006 0 -9.691305854453006 35.689717475898107 0 0 0 0 -201.88227650889985 -29.780426010140218 0 -29.780426010140218 41.368433006951818 0 0 0 0 -5.531386403956466 -4.6136435026676565 0 -4.6136435026676565 8.7610301375398763 0 0 0 0 228.70056911182564 -298.4481295733749 0 -298.4481295733749 -50.50678551029705 0 0 0 0 -64.966817425217982 122.52087236491752 0 122.52087236491752 32.945069806781248 0 0 0 0 -187.96433044586377 25.6511310867063 0 25.6511310867063 271.30061662961089 0 0 0 0 -152.13419440855949 -132.32052676094008 0 -132.32052676094008 260.82970507575374 0 0 0 0 -161.28872517621846 -86.757442048456141 0 -86.757442048456141 38.766304303600919 0 0 0 0 -65.642470324824899 -42.962160935465363 0 -42.962160935465363 52.556718324405665 0 0 0 0 -36.782346697673347 -13.463853529727203 0 -13.463853529727203 597.50410863706202 0 0 0 0 -126.89317546114762 34.50652670126874 0 34.50652670126874 32.611986219719256 0 0 0 0 -31.321254470915726 -12.585591983885905 0 -12.585591983885905 1.1105434051925442 0 0 0 0 -10.090880715815523 -4.2762618260188603 0 -4.2762618260188603 -0.65762509124112967 0 0 0 0 -22.568950503969063 -38.867064352209127 0 -38.867064352209127 463.67176956843468 0 0 0 0 -56.390249031189796 -19.662080105099449 0 -19.662080105099449 69.564613503229339 0 0 0 0 -13.666262648547637 -17.223549098647542 0 -17.223549098647542 45.367267960600032 0 0 0 0 -12.312113052477798 -38.430823778697231 0 -38.430823778697231 11.613266502230545 0 0 0 0 -41.824249820532714 -73.376526446503703 0 -73.376526446503703 12.364018477790523 0 0 0 0 -4.14948045140377 -3.2381115631923478 0 -3.2381115631923478 15.317627984843654 0 0 0 0 -38.299500076358527 -1.2813058238098165 0 -1.2813058238098165 60.050795000279322 0 0 0 0 -39.253830682375337 -5.1961149213821045 0 -5.1961149213821045 50.339685838160221 0 0 0 0 -54.357792343766278 -12.890787832351634 0 -12.890787832351634 92.11258417944191 0 0 0 0 -9.2608763826439944 -0.20257520366759252 0 -0.20257520366759252 37.851775621756303 0 0 0 0 -49.545369622120234 -4.819225371000357 0 -4.819225371000357 62.307501856674207 0 0 0 0 -25.804045234197019 -51.102336236552219 0 -51.102336236552219 79.036396121402504 0 0 0 0 -33.096318821268 -30.401033645361338 0 -30.401033645361338 56.821929856719436 0 0 0 0 -16.490153550027436 -4.2655292595999583 0 -4.2655292595999583 26.90228702321258 0 0 0 0 -4.0590745296700224 -1.6533155812073712 0 -1.6533155812073712 17.568045541723109 0 0 0 0 -36.832608827478907 13.968580532942724 0 13.968580532942724 -9.647788932925323 0 0 0 0 221.66506407826955 192.96936382937929 0 192.96936382937929 192.20827756435028 0 0 0 0 -6.8424475795866524 17.002558731490836 0 17.002558731490836 48.265166006316093 0 0 0 0 -66.972394613741926 -53.858591456577415 0 -53.858591456577415 15.033175556942297 0 0 0 0 -39.944002520173512 -5.6131653541882116 0 -5.6131653541882116 51.362918823492706 0 0 0 0 146.01806159367698 77.090770907085243 0 77.090770907085243 17.067464938620105 0 0 0 0 85.858462184467498 2.8211988521052263 0 2.8211988521052263 -68.045527337439125 0 0 0 0 -15.325491727087584 11.817335973874737 0 11.817335973874737 71.39760011258565 0 0 0 0 -45.124083658685777 9.1355961748704431 0 9.1355961748704431 58.550919860565045 0 0 0 0 -136.41740624090744 -8.6062272249437228 0 -8.6062272249437228 92.89684278149798 0 0 0 0 -39.052731869594027 -67.028650443277911 0 -67.028650443277911 -9.4931220158468932 0 0 0 0 -29.033144023352992 16.794711289041643 0 16.794711289041643 90.661728273334518 0 0 0 0 -163.84715573832727 -114.51167470709333 0 -114.51167470709333 150.43150893936399 0 0 0 0 -80.971725659303047 22.077962559695152 0 22.077962559695152 103.95105979983055 0 0 0 0 -81.923919165688858 -74.502208306410466 0 -74.502208306410466 78.38947114275652 0 0 0 0 -56.538228474147985 -33.763794331392859 0 -33.763794331392859 10.361239868204635 0 0 0 0 -39.16103485418779 -20.937016651718295 0 -20.937016651718295 63.657169539481401 0 0 0 0 92.352652243273042 -202.20444880971627 0 -202.20444880971627 138.44922857303754 0 0 0 0 -160.10453809913452 -62.261021017518942 0 -62.261021017518942 376.9814356584684 0 0 0 0 86.414646941157116 17.048490727043827 0 17.048490727043827 220.07773889262171 0 0 0 0 -157.77104952233276 -33.680300545835053 0 -33.680300545835053 122.23864628230513 0 0 0 0 -108.08178686220708 -59.877114833048836 0 -59.877114833048836 107.50959719417733 0 0 0 0 10.074778733940548 99.471803456362977 0 99.471803456362977 266.12600840057712 0 0 0 0 -9.6226144229428119 33.047970272149165 0 33.047970272149165 98.949223518679048 0 0 0 0 -429.98779868579368 15.535741009058256 0 15.535741009058256 259.17107379731897 0 0 0 0 -23.160909006047376 31.784517109529553 0 31.784517109529553 65.191746536410392 0 0 0 0 -22.879876826482814 62.818273598390078 0 62.818273598390078 84.239008602322428 0 0 0 0 1.8888814032638868 48.085615869309706 0 48.085615869309706 78.069303963801929 0 0 0 0 21.171866971495454 54.027363622012203 0 54.027363622012203 77.117379557568995 0 0 0 0 -44.023546910846562 38.686977435594599 0 38.686977435594599 104.32247500652738 0 0 0 0 18.342474295196553 111.24738549681933 0 111.24738549681933 126.05032600281902 0 0 0 0 -513.15681620832402 222.90282171188301 0 222.90282171188301 326.10455567447934 0 0 0 0 -8.7831183301041165 -32.029988022448379 0 -32.029988022448379 473.6032469876518 0 0 0 0 -182.92133791315428 271.95072212573723 0 271.95072212573723 109.07525159639766 0 0 0 0 157.81346636963644 466.45085289264534 0 466.45085289264534 398.52926421011216 0 0 0 0 400.21387034251893 143.05406852819578 0 143.05406852819578 197.98633051790239 0 0 0 0 234.37365391629646 383.49869708497135 0 383.49869708497135 331.2040198759787 0 0 0 0 -377.25139368751843 493.42464544129325 0 493.42464544129325 305.36944837775081 0 0 0 0 -147.53264745567503 514.63630396853841 0 514.63630396853841 307.32206351301284 0 0 0 0 -392.89937323921185 240.76027474773582 0 240.76027474773582 187.47382098410162 0 0 0 0 -507.40731219473673 326.78627553554543 0 326.78627553554543 364.91194522775186 0 0 0 0 -493.98300597598063 8.1694342439441243 0 8.1694342439441243 431.85990313077127 0 0 0 0 -442.87325725838946 90.189809743322257 0 90.189809743322257 544.57547762448667 0 0 0 0 -341.98822641017159 181.64991502277917 0 181.64991502277917 484.686274890817 0 0 0 0 -341.11767253865037 -39.052090821278398 0 -39.052090821278398 642.62749878023897 0 0 0 0 -137.46344008816232 226.82335283738212 0 226.82335283738212 493.366962919863 0 0 0 0 -112.33217682915711 98.496433882894053 0 98.496433882894053 560.25364542788884 0 0 0 0 108.63767415541588 -47.305318478116533 0 -47.305318478116533 555.32399081360927 0 0 0 0 64.512697180667601 -34.057444416030194 0 -34.057444416030194 451.94699954552925 0 0 0 0 86.97816212206817 56.829804211622104 0 56.829804211622104 239.15730844538484 0 0 0 0 68.947032334734104 100.3872345448508 0 100.3872345448508 334.52313979185419 0 0 0 0 -175.53708270231073 265.48023107556219 0 265.48023107556219 460.91428498883033 0 0 0 0 49.081423717856524 118.28788795965374 0 118.28788795965374 495.29281066430849 0 0 0 0 -91.518248096242587 -485.15839499061985 0 -485.15839499061985 286.66983253835497 0 0 0 0 -99.702387418341914 283.425888511214 0 283.425888511214 -218.59171054647595 0 0 0 0 -249.92645053045737 -484.79916222855354 0 -484.79916222855354 989.45249300826981 0 0 0 0 -10.36267691528956 -4.5982912597408188 0 -4.5982912597408188 -2.0685909492101899 0 0 0 0 -507.2680448230094 -191.99015282040637 0 -191.99015282040637 820.09080352064484 0 0 0 0 -360.11899733088512 -216.92025216977163 0 -216.92025216977163 536.28987112133473 0 0 0 0 -553.93158751603119 -154.56524532620824 0 -154.56524532620824 909.11008493228292 0 0 0 0 143.31787146999261 1076.9736024853955 0 1076.9736024853955 2032.7045158087712 0 0 0 0 -41.084294572452336 -42.623841022454144 0 -42.623841022454144 680.72062227759989 0 0 0 0 -221.269448430632 -16.322206590724818 0 -16.322206590724818 1736.2040032470686 0 0 0 0 179.70634700078918 348.53631607709912 0 348.53631607709912 532.88343893468846 0 0 0 0 178.74596884376399 290.26503882060933 0 290.26503882060933 521.9712405866303 0 0 0 0 933.8591387666014 1024.8549067389031 0 1024.8549067389031 1213.9610073848744 0 0 0 0 1624.8692634729548 -587.32015856970247 0 -587.32015856970247 120.80829716884182 0 0 0 0 758.31239100396488 -203.8760335652114 0 -203.8760335652114 32.483027031310485 0 0 0 0 354.4765404811568 385.6889071781261 0 385.6889071781261 414.41196701843728 0 0 0 0 268.45916303639592 234.95958205376883 0 234.95958205376883 163.87481254240265 0 0 0 0 -30.08989181924585 84.952391347374942 0 84.952391347374942 197.53982551228546 0 0 0 0 207.99294031232125 -6.3771344893502828 0 -6.3771344893502828 -131.71682228716236 0 0 0 0 -202.29584600855816 -107.41560042901983 0 -107.41560042901983 113.69266038487331 0 0 0 0 -0.44832585002337749 -0.15678452907871687 0 -0.15678452907871687 0.849428111821112 0 0 0 0 309.63201993568697 -196.73429272767316 0 -196.73429272767316 65.974398717487929 0 0 0 0 61.584142577257921 -50.987514704138448 0 -50.987514704138448 93.413873680008692 0 0 0 0 199.41896443427311 -138.73673905523174 0 -138.73673905523174 149.27682827028912 0 0 0 0 12.310126896677957 -228.97295962758653 0 -228.97295962758653 218.46694496483542 0 0 0 0 -527.59103145063716 -18.993216446539009 0 -18.993216446539009 269.89263945867424 0 0 0 0 61.931420154791113 -340.31728940741959 0 -340.31728940741959 233.5085895487864 0 0 0 0 -491.84811794048528 253.63972493538313 0 253.63972493538313 290.28470252349507 0 0 0 0 -0.061791265245825233 0.49438735063529293 0 0.49438735063529293 0.59661800100326445 0 0 0 0 -71.651380216243524 310.7041892913112 0 310.7041892913112 121.43876618985087 0 0 0 0 277.3588093581493 41.163996882911306 0 41.163996882911306 -55.713044388743583 0 0 0 0 -291.33716779792121 -198.90455200754513 0 -198.90455200754513 233.69961114131729 0 0 0 0 12.166933254833566 -296.93984612321947 0 -296.93984612321947 304.2906959373795 0 0 0 0 -111.03327556938166 -156.8378915512003 0 -156.8378915512003 570.47115036391187 0 0 0 0 201.10002435173828 -65.484096208849223 0 -65.484096208849223 19.939613207126968 0 0 0 0 0.27829913233656178 -0.13292663588546816 0 -0.13292663588546816 -0.035897683021445914 0 0 0 0 0.44603583560505111 -0.27449721987375142 0 -0.27449721987375142 0.023632469780977772 0 0 0 0 -88.340781964402595 -183.08946683578688 0 -183.08946683578688 -36.351899929140927 0 0 0 0 99.608741638691754 -147.11056786084373 0 -147.11056786084373 -114.96148627303046 0 0 0 0 87.023238324450176 170.17693482250615 0 170.17693482250615 146.80756789742372 0 0 0 0 269.74627234642003 -5.3075123621820239 0 -5.3075123621820239 -85.471499259758275 0 0 0 0 45.421744354843213 -72.938729650166351 0 -72.938729650166351 -77.553377980351797 0 0 0 0 102.26219160785695 -23.150653416785644 0 -23.150653416785644 -43.440281015937217 0 0 0 0 19.670461985254406 -64.917345899062639 0 -64.917345899062639 -25.676623229432153 0 0 0 0 2.6466815534117796 -2.3696577959173339 0 -2.3696577959173339 0.056555974616230742 0 0 0 0 84.03387772429204 35.94676417447306 0 35.94676417447306 -3.4209952622477431 0 0 0 0 49.47590324709563 15.240088816863135 0 15.240088816863135 13.090494828553346 0 0 0 0 0.22802480168525108 -4.4685988019627985 0 -4.4685988019627985 -0.88151696538989199 0 0 0 0 2.6266352901497081 -4.5899828300099461 0 -4.5899828300099461 2.9402248462089915 0 0 0 0 -0.89878466352527742 -2.0764085587154 0 -2.0764085587154 1.3370777504090228 0 0 0 0 24.98288253983219 -9.1805720600532368 0 -9.1805720600532368 -6.490298138873186 0 0 0 0 24.386415107868515 -10.890145660632697 0 -10.890145660632697 -1.3814432727958774 0 0 0 0 2.2866488298174419 -3.1224475254096866 0 -3.1224475254096866 -3.4317286509490827 0 0 0 0 -50.020777370446922 -61.97623091188143 0 -61.97623091188143 -0.066073002759367228 0 0 0 0 16.488877073074491 -39.069227038002282 0 -39.069227038002282 -19.556420354034344 0 0 0 0 22.667623025454304 -65.79034327797126 0 -65.79034327797126 -27.335988580642152 0 0 0 0 20.477279381399967 -32.602642826444935 0 -32.602642826444935 -13.701741922515794 0 0 0 0 -5.6530017132308785 -17.958371756860288 0 -17.958371756860288 12.588984637457543 0 0 0 0 -7.678250306993732 -27.28877049881703 0 -27.28877049881703 14.465795296680881 0 0 0 0 3.9887253735478225 -10.129831653248402 0 -10.129831653248402 -0.018470901166438125 0 0 0 0 615.17158548076168 -0.17968745756661519 0 -0.17968745756661519 -216.13732013721312 0 0 0 0 -3.0474175513540649 -3.0612697734745495 0 -3.0612697734745495 0.9262915956166502 0 0 0 0 -1.5227304371036325 -12.021385020379967 0 -12.021385020379967 10.60325871114037 0 0 0 0 -23.725791815388675 -4.4675465961518057 0 -4.4675465961518057 32.535612708728877 0 0 0 0 68.093728513367182 279.07061600968882 0 279.07061600968882 -231.53651680951862 0 0 0 0 -21.600577172770954 62.889900714551914 0 62.889900714551914 73.722092386218719 0 0 0 0 -33.895799275704576 -333.86128635787463 0 -333.86128635787463 1039.2533281659901 0 0 0 0 0.33023300126987598 -1.1414377250472398 0 -1.1414377250472398 0.56919510862258349 0 0 0 0 318.20440707314879 -195.49360262189293 0 -195.49360262189293 157.47262839136351 0 0 0 0 -0.54238374147161128 -2.684395132128401 0 -2.684395132128401 1.7941965947038856 0 0 0 0 10.495407239271117 13.369703747783205 0 13.369703747783205 38.592267224562647 0 0 0 0 11.581560289548861 5.3225161677037249 0 5.3225161677037249 -2.3672917113872245 0 0 0 0 -0.29139467730192803 -3.2552872829411452 0 -3.2552872829411452 1.5918328896902949 0 0 0 0 18.821949944438472 3.7085121041809543 0 3.7085121041809543 -6.9541069919941947 0 0 0 0 -7.4890937492266403 -18.97530591879331 0 -18.97530591879331 -20.376318678434473 0 0 0 0 2.1934139105024997 -39.379953818603099 0 -39.379953818603099 -54.941879985912237 0 0 0 0 4.2185891830867792 -5.1223306702728451 0 -5.1223306702728451 5.4636855107034705 0 0 0 0 20.249664609004157 -2.1924487405467517 0 -2.1924487405467517 -54.646781109331641 0 0 0 0 24.125760059958566 25.726116698162514 0 25.726116698162514 -7.9302539936616085 0 0 0 0 -77.021845368544234 -62.88782822034409 0 -62.88782822034409 -17.544836278855655 0 0 0 0 -25.614484302001017 -2.138916630863605 0 -2.138916630863605 20.878989880235167 0 0 0 0 4.6986599986169111 -6.8230712625411911 0 -6.8230712625411911 6.2610989214281574 0 0 0 0 -18.734024197369536 -22.223910034910659 0 -22.223910034910659 10.38331073410518 0 0 0 0 13.472585323420446 -15.791536209424066 0 -15.791536209424066 -18.860846589363064 0 0 0 0 2.7675472817826474 -1.6868384948584207 0 -1.6868384948584207 7.701445936516393 0 0 0 0 -17.710024850864784 -5.8937085761717753 0 -5.8937085761717753 24.197984244994586 0 0 0 0 -2.122694024589765 -0.11750012967630141 0 -0.11750012967630141 0.42065799633360257 0 0 0 0 5.8586038092017816 -4.284289358110982 0 -4.284289358110982 16.792944088047079 0 0 0 0 101.96282953517749 198.61725020327867 0 198.61725020327867 133.36759988418817 0 0 0 0 -0.033339890434382236 0.45865274668236111 0 0.45865274668236111 -0.046216836650359028 0 0 0 0 -5.907410552293527 14.921722294384381 0 14.921722294384381 19.659547780525827 0 0 0 0 96.026623471915826 72.63835874902361 0 72.63835874902361 73.452636874106247 0 0 0 0 56.795921096877976 19.656372811055917 0 19.656372811055917 9.5903400400711689 0 0 0 0 -103.43972910983928 25.699856036102574 0 25.699856036102574 84.962987774022622 0 0 0 0 54.151150373485237 39.852714472035586 0 39.852714472035586 -66.700669645724702 0 0 0 0 176.0699405766421 -116.46713106395327 0 -116.46713106395327 99.646184265793636 0 0 0 0 104.11006371134499 -84.399261026577733 0 -84.399261026577733 301.60375409356493 0 0 0 0 199.10808224503205 -428.93121329188762 0 -428.93121329188762 457.5459844176512 0 0 0 0 158.24494468753824 -232.106472425221 0 -232.106472425221 -45.757264660562214 0 0 0 0 -6.3823137949038937 -56.779489021151676 0 -56.779489021151676 948.90441756624205 0 0 0 0 1.6838739349037515 -2.1968171385457822 0 -2.1968171385457822 2.7164190584950632 0 0 0 0 83.708498167366542 -324.68603070662357 0 -324.68603070662357 1007.6133751179441 0 0 0 0 -0.022740512248584387 -39.750495359810884 0 -39.750495359810884 514.47116198726144 0 0 0 0 -42.051475442946376 -110.87668483995913 0 -110.87668483995913 710.7189240541411 0 0 0 0 -28.707804079988648 -71.126432998338714 0 -71.126432998338714 829.00120684284047 0 0 0 0 105.96696490482978 -38.512009332713205 0 -38.512009332713205 190.37995893889456 0 0 0 0 85.895650412025432 -114.47016005339538 0 -114.47016005339538 458.8703831885141 0 0 0 0 0.13350912696392939 14.095716817428183 0 14.095716817428183 293.01896981528262 0 0 0 0 107.6260664768279 13.040801108139021 0 13.040801108139021 241.17144157415896 0 0 0 0 92.559981155580516 63.932072200048424 0 63.932072200048424 169.25910103825299 0 0 0 0 0.075222298295009579 71.106359621535375 0 71.106359621535375 279.55910190987197 0 0 0 0 90.761803679846977 37.097780010487895 0 37.097780010487895 286.40084696684789 0 0 0 0 -15.255574015394302 124.04818742430507 0 124.04818742430507 352.79101991806283 0 0 0 0 28.101244847873602 121.82798342836031 0 121.82798342836031 352.80382119712885 0 0 0 0 59.914993719032339 146.51081838613754 0 146.51081838613754 238.5648507670594 0 0 0 0 60.647028757895853 153.71526470199569 0 153.71526470199569 289.0251034162211 0 0 0 0 34.589658274241174 230.09628909382081 0 230.09628909382081 481.88864580164955 0 0 0 0 57.144524603039201 235.23528525474103 0 235.23528525474103 301.10934647694012 0 0 0 0 -7.7988702957207323 159.70782088438864 0 159.70782088438864 510.59658416305319 0 0 0 0 -85.870327526005738 119.91473047379804 0 119.91473047379804 496.0102832505072 0 0 0 0 -66.697292042413551 203.70623111982422 0 203.70623111982422 855.40697641801671 0 0 0 0 -90.694849215593734 -95.463199819198053 0 -95.463199819198053 704.83801751029387 0 0 0 0 -74.275888726586814 62.031252156106348 0 62.031252156106348 563.36375968115317 0 0 0 0 -61.883989862558678 49.618535759938823 0 49.618535759938823 435.73470766013997 0 0 0 0 -0.031000555663764865 49.469823010407708 0 49.469823010407708 409.2414590923363 0 0 0 0 -44.20148620078092 64.300207750358823 0 64.300207750358823 430.89776501394954 0 0 0 0 -0.075469593567070808 77.264204628369043 0 77.264204628369043 433.67983672249829 0 0 0 0 -12.223229023736167 20.457925282096767 0 20.457925282096767 25.618379359932987 0 0 0 0 -28.336457264769024 14.385177169671806 0 14.385177169671806 23.350099963556204 0 0 0 0 -18.99626260817702 15.42345232387585 0 15.42345232387585 -7.7553709684670711 0 0 0 0 -21.268961132832828 21.052851490955618 0 21.052851490955618 9.4176768699326203 0 0 0 0 -26.589994122761503 9.0594690775677513 0 9.0594690775677513 5.4708317247221299 0 0 0 0 -33.427829500552889 9.4147790875576902 0 9.4147790875576902 32.125585531253819 0 0 0 0 -31.135952477245155 -21.280868749993715 0 -21.280868749993715 50.408213683391295 0 0 0 0 -48.250772989460529 95.01489530210597 0 95.01489530210597 -19.088922770171848 0 0 0 0 -58.654562025036284 95.132489771633118 0 95.132489771633118 309.78326952744101 0 0 0 0 -123.17680658969039 294.57508142531424 0 294.57508142531424 8.2392392236815795 0 0 0 0 -202.47378340299474 -80.560887782041391 0 -80.560887782041391 456.37600416365467 0 0 0 0 -3.6358348031808418 -150.21454904574466 0 -150.21454904574466 94.438784194702748 0 0 0 0 -16.696006842619681 -33.691943122672456 0 -33.691943122672456 413.38815334273568 0 0 0 0 74.400570029290975 354.34218461370983 0 354.34218461370983 647.31359666519165 0 0 0 0 -5.6851188252691074 -3.9542368277054889 0 -3.9542368277054889 6.7886303058695194 0 0 0 0 230.9970437736265 134.21004476404414 0 134.21004476404414 101.29449137402844 0 0 0 0 -86.774595656788733 177.43324630066445 0 177.43324630066445 375.69127710911016 0 0 0 0 168.85950627277452 52.305139535046692 0 52.305139535046692 88.470171978417056 0 0 0 0 102.13417550572012 -158.97589802883431 0 -158.97589802883431 -223.08223452291895 0 0 0 0 -19.517022373725922 -199.58144352466843 0 -199.58144352466843 54.573970192159095 0 0 0 0 336.21021020745502 415.89142632574294 0 415.89142632574294 236.15375034578301 0 0 0 0 -70.684496223082533 267.57512522694924 0 267.57512522694924 -5.6084150751280504 0 0 0 0 176.72472394146189 277.57950623139914 0 277.57950623139914 169.95104744484797 0 0 0 0 12.67101431230185 270.21638566050024 0 270.21638566050024 252.69175210674439 0 0 0 0 -39.280687706969275 140.58379377465963 0 140.58379377465963 165.6223300996644 0 0 0 0 142.38014701416796 308.23205920142937 0 308.23205920142937 179.16129289345554 0 0 0 0 114.37901865258368 146.8577275450541 0 146.8577275450541 149.05592873749993 0 0 0 0 215.88745589444443 269.27613079348521 0 269.27613079348521 165.99699703396254 0 0 0 0 3.8910206337775257 -18.488343804625039 0 -18.488343804625039 35.74755609864981 0 0 0 0 -18.129585122109347 49.230843058208848 0 49.230843058208848 52.491066047392906 0 0 0 0 310.85676350489302 161.62311861816124 0 161.62311861816124 150.79116818885086 0 0 0 0 156.21332287507903 188.05018620171177 0 188.05018620171177 165.51490522001404 0 0 0 0 -9.7348114962731955 18.704754440362791 0 18.704754440362791 10.082116522298536 0 0 0 0 237.52108829019926 177.00976106915186 0 177.00976106915186 519.03638593648793 0 0 0 0 -1.0258865434767195 0.58318605565126092 0 0.58318605565126092 4.5340213502463271 0 0 0 0 -129.50302895244567 -79.576958434934113 0 -79.576958434934113 127.14467917623188 0 0 0 0 -21.008524517284059 15.049422911331021 0 15.049422911331021 48.111905724471399 0 0 0 0 -17.249804093343116 12.808701947643698 0 12.808701947643698 6.7810112076022691 0 0 0 0 559.06476566470735 857.70813121121409 0 857.70813121121409 -1122.2718683005005 0 0 0 0 -16.455867707814885 29.118518951293819 0 29.118518951293819 19.605637530965002 0 0 0 0 -341.64223556549746 -28.404994510182405 0 -28.404994510182405 -308.63690899202629 0 0 0 0 -4.8775489454546701 11.648501903022783 0 11.648501903022783 -3.1880950674322861 0 0 0 0 466.31175948457826 -1025.8395063188982 0 -1025.8395063188982 -726.47871469214806 0 0 0 0 4.0112522207978145 19.70795597070537 0 19.70795597070537 28.091773536370965 0 0 0 0 265.72518582755129 -898.68459450345017 0 -898.68459450345017 2525.5171654669321 0 0 0 0 1946.7068519922909 -38.185441443534728 0 -38.185441443534728 -310.96055093104644 0 0 0 0 -457.52324485963277 156.96392955305237 0 156.96392955305237 230.34811661408457 0 0 0 0 432.58188634909448 1313.3354370885954 0 1313.3354370885954 1590.9165199394884 0 0 0 0 -450.43791430851707 464.14059770859228 0 464.14059770859228 -9.565771271380072 0 0 0 0 -31.949377578218883 24.095907766583171 0 24.095907766583171 23.679362197595399 0 0 0 0 -34.493831227726105 14.758022093991713 0 14.758022093991713 50.550964967778782 0 0 0 0 -32.889658187491023 12.694089945068299 0 12.694089945068299 34.43407309520353 0 0 0 0 -325.84455441267073 -120.13140007577931 0 -120.13140007577931 119.89267824014223 0 0 0 0 -311.48501329339979 32.524427219550489 0 32.524427219550489 468.4930305698972 0 0 0 0 -47.098444852920423 11.525408703121744 0 11.525408703121744 31.97790029820408 0 0 0 0 -30.560129726034802 6.3483037495952885 0 6.3483037495952885 42.042320111848312 0 0 0 0 0.58282873521443435 -3.5982047472135497 0 -3.5982047472135497 19.493659834590307 0 0 0 0 72.286200219639795 -8.7169501956628892 0 -8.7169501956628892 69.868057092032728 0 0 0 0 1.0043313713576936 -22.056114623959274 0 -22.056114623959274 70.463912200900552 0 0 0 0 3.6225905154278735 89.510265211094293 0 89.510265211094293 172.34138008889727 0 0 0 0 31.611316722331139 26.084312922185973 0 26.084312922185973 30.926050620527349 0 0 0 0 -3.053152693557422 30.761266843603153 0 30.761266843603153 30.446643161243628 0 0 0 0 -6.7820373065767647 -4.4874178429798928 0 -4.4874178429798928 6.022724252252516 0 0 0 0 -10.581769911118311 -8.4508900716472155 0 -8.4508900716472155 22.616784234135817 0 0 0 0 -5.2633202055367292 -7.0630674021540472 0 -7.0630674021540472 58.122270532576294 0 0 0 0 -30.61937046753178 5.1264507749074255 0 5.1264507749074255 30.542827605433558 0 0 0 0 -26.705648902542009 9.4447825119059416 0 9.4447825119059416 33.313192299497132 0 0 0 0 -16.627364449769601 15.213092863539032 0 15.213092863539032 13.567747947104181 0 0 0 0 -9.5033610395321677 5.7790575325757665 0 5.7790575325757665 22.254931285390704 0 0 0 0 -27.65397326109192 11.016094297477139 0 11.016094297477139 33.858179269975153 0 0 0 0 -33.678471262996709 12.836069344477437 0 12.836069344477437 37.819059608449606 0 0 0 0 -13.99146368305089 1.3935814400525661 0 1.3935814400525661 12.351307238667527 0 0 0 0 -112.29245943054593 27.938787950371079 0 27.938787950371079 66.892029273103617 0 0 0 0 -367.6185205705624 81.248398928759855 0 81.248398928759855 -56.43752558925371 0 0 0 0 32.691270947175326 -24.214738158389082 0 -24.214738158389082 31.393966944429849 0 0 0 0 29.731276279000667 -31.272393381637812 0 -31.272393381637812 19.642140314651442 0 0 0 0 10.20469021493625 -45.726603230861542 0 -45.726603230861542 45.284883408199676 0 0 0 0 18.922850761980953 -34.244465702584421 0 -34.244465702584421 48.302765638745768 0 0 0 0 -68.966886909165623 51.154536840217304 0 51.154536840217304 44.805643069953021 0 0 0 0 -20.768762852996588 9.8305783831597182 0 9.8305783831597182 12.030403396900056 0 0 0 0 -45.475086088128592 27.886438998733865 0 27.886438998733865 51.766614155510069 0 0 0 0 -55.035164796045137 15.901041099518807 0 15.901041099518807 41.329184726131643 0 0 0 0 -60.792249896170688 26.908892088324137 0 26.908892088324137 58.075758150133424 0 0 0 0 -68.14980802986247 30.39695137268609 0 30.39695137268609 59.493040500444749 0 0 0 0 -58.4344195310332 23.659657217439872 0 23.659657217439872 60.278396167101164 0 0 0 0 -57.643734812185357 19.797226283998384 0 19.797226283998384 63.223865763515278 0 0 0 0 -61.361614965871013 22.746097018888122 0 22.746097018888122 63.82637943932059 0 0 0 0 -71.315278376423521 20.795858593119632 0 20.795858593119632 89.555032785362528 0 0 0 0 -54.376402630899975 -2.1712352903684859 0 -2.1712352903684859 92.291500788320946 0 0 0 0 -56.344573428130388 17.055780549970223 0 17.055780549970223 68.607584636638649 0 0 0 0 -53.930173604102038 5.2600627810990943 0 5.2600627810990943 103.29498983723943 0 0 0 0 -49.134745334225954 27.37811257110576 0 27.37811257110576 160.11519302339241 0 0 0 0 -39.690275021934212 28.497477599400781 0 28.497477599400781 98.659521860431823 0 0 0 0 -6.9490013328559144 48.278050033230102 0 48.278050033230102 92.230197754816004 0 0 0 0 -1.4654435617740091 15.336050126856207 0 15.336050126856207 22.145141802152921 0 0 0 0 -20.594587754925669 24.100442153182939 0 24.100442153182939 51.660998057110191 0 0 0 0 -45.979581843541382 38.026603790124682 0 38.026603790124682 91.705535610905599 0 0 0 0 -43.25828594873019 14.09752932934407 0 14.09752932934407 47.619883753740851 0 0 0 0 -34.337610135189607 15.722051658660348 0 15.722051658660348 23.291402727532841 0 0 0 0 -15.906964282826323 9.8885340826647212 0 9.8885340826647212 4.2476131150245902 0 0 0 0 -14.427012574560273 9.1848125553374302 0 9.1848125553374302 20.232165126339169 0 0 0 0 -11.359327820240262 13.448705513493458 0 13.448705513493458 7.7816194208017047 0 0 0 0 -34.775606816619074 -1.9278493256933871 0 -1.9278493256933871 -38.564006415719632 0 0 0 0 -79.740982232441638 19.497495819984351 0 19.497495819984351 51.698890941028367 0 0 0 0 -39.127174100475713 24.087687443125617 0 24.087687443125617 8.8037130707471078 0 0 0 0 -83.143742795979733 -5.9912461453589003 0 -5.9912461453589003 24.103953636062215 0 0 0 0 -69.260439903293445 9.1408045499429136 0 9.1408045499429136 38.11665382049614 0 0 0 0 35.061680765566052 -33.478140292663738 0 -33.478140292663738 1.1822240306928506 0 0 0 0 -15.115494010846612 -24.910917818468462 0 -24.910917818468462 30.645007417124329 0 0 0 0 38.46669094562435 -27.451992260364932 0 -27.451992260364932 10.047970916857594 0 0 0 0 -22.971444441041495 -4.0241969618775348 0 -4.0241969618775348 25.051657986164063 0 0 0 0 -45.829552138126218 16.85353591116035 0 16.85353591116035 27.78759960487605 0 0 0 0 -10.446279623181908 -3.9681290968908343 0 -3.9681290968908343 14.998619124855708 0 0 0 0 -14.247052837529166 1.7109871733562929 0 1.7109871733562929 12.998169327584218 0 0 0 0 -12.080606591834407 -6.086066335700429 0 -6.086066335700429 17.614490706490727 0 0 0 0 -11.384198216537527 -3.898371755178232 0 -3.898371755178232 3.2718432286001189 0 0 0 0 -8.1235648016443065 -93.370005592287271 0 -93.370005592287271 15.505728024276323 0 0 0 0 10.535736466872194 -7.0628002461834898 0 -7.0628002461834898 4.5042407606530404 0 0 0 0 -0.23422208255205534 -3.040134984293184 0 -3.040134984293184 0.64955250039302603 0 0 0 0 93.025373252950374 -107.8945874692696 0 -107.8945874692696 121.10532958124804 0 0 0 0 -0.51755079327928 -2.0753118659633678 0 -2.0753118659633678 1.2220633941374723 0 0 0 0 -14.294643909680872 -35.714450466537983 0 -35.714450466537983 8.6145975583237373 0 0 0 0 -35.608596842997486 -0.46839169200779907 0 -0.46839169200779907 2.0049446030291165 0 0 0 0 -46.515106294433508 -12.772111023382308 0 -12.772111023382308 -6.934298128303908 0 0 0 0 45.126277143795505 -18.17366151580984 0 -18.17366151580984 -43.482673360606213 0 0 0 0 -3.7418517364094441 9.8827192867171334 0 9.8827192867171334 -53.423929066555274 0 0 0 0 -8.5227223500390323 35.279608077424427 0 35.279608077424427 50.457802011702256 0 0 0 0 -43.681232048741549 -4.504107658003818 0 -4.504107658003818 236.31077814443597 0 0 0 0 31.857223854352867 -6.5116499075424272 0 -6.5116499075424272 337.33791903754354 0 0 0 0 -32.470116178228409 13.406934059889977 0 13.406934059889977 32.676396987502812 0 0 0 0 -27.375699412919044 7.9312461188472767 0 7.9312461188472767 13.590110386817539 0 0 0 0 -12.271902555467022 42.635434269346206 0 42.635434269346206 26.992725945060329 0 0 0 0 -7.8410142485181495 53.642405779389492 0 53.642405779389492 -50.634209262983063 0 0 0 0 58.927408671400372 -21.321004074416805 0 -21.321004074416805 -7.738127129566692 0 0 0 0 -13.450960465971979 9.8337232677886242 0 9.8337232677886242 14.328265199427204 0 0 0 0 118.74643178834413 -33.711667463442609 0 -33.711667463442609 38.085555120849222 0 0 0 0 -61.296407118080424 88.4390938858852 0 88.4390938858852 90.374416163104343 0 0 0 0 -2.5345291640328913 8.6341569130721929 0 8.6341569130721929 14.959283989638749 0 0 0 0 83.644775105763529 -333.96689649936889 0 -333.96689649936889 583.82643465166257 0 0 0 0 -16.571823082559604 -46.700309557309083 0 -46.700309557309083 600.71707406153655 0 0 0 0 43.828565748874553 -223.83543896249353 0 -223.83543896249353 297.51331744890376 0 0 0 0 7.5087134888162836 -36.025360858340264 0 -36.025360858340264 380.06512981029118 0 0 0 0 26.482179036558819 -127.55779377577608 0 -127.55779377577608 416.71470979043625 0 0 0 0 -1.7668216532092629 -33.527984792043753 0 -33.527984792043753 725.31097252969721 0 0 0 0 174.33945920246833 8.5463847125834036 0 8.5463847125834036 534.25919519706531 0 0 0 0 26.470175092965292 58.443581247119255 0 58.443581247119255 710.48428259227876 0 0 0 0 -135.04049437825915 -214.73779987053115 0 -214.73779987053115 764.82822150776337 0 0 0 0 -227.30616762698992 56.313750202399206 0 56.313750202399206 1051.5447594611924 0 0 0 0 -794.62726632278827 -341.91654420701434 0 -341.91654420701434 842.11437971688429 0 0 0 0 -181.05284011978074 -74.567358106858592 0 -74.567358106858592 635.98144080519887 0 0 0 0 89.549301326119178 -246.37596015471399 0 -246.37596015471399 523.85361235184882 0 0 0 0 129.22576359052164 -144.02667944184077 0 -144.02667944184077 270.54543137402891 0 0 0 0 39.83521120754682 -72.868177686092622 0 -72.868177686092622 458.80630269975518 0 0 0 0 151.38452327594246 -192.47045341397916 0 -192.47045341397916 661.78466929467413 0 0 0 0 147.61948633787756 -243.58479990440361 0 -243.58479990440361 631.44142848673528 0 0 0 0 228.99405824903769 -126.72440608269318 0 -126.72440608269318 626.52136117473492 0 0 0 0 -5.2040532878097565 -138.18134445476426 0 -138.18134445476426 701.18278128168458 0 0 0 0 42.597972834149175 -244.03795851959921 0 -244.03795851959921 844.29797571515337 0 0 0 0 121.78898140256547 -156.2399762512814 0 -156.2399762512814 123.1571786029599 0 0 0 0 127.31543446585874 -225.69607276875195 0 -225.69607276875195 601.97755054169647 0 0 0 0 -99.901157766416873 38.961024464104412 0 38.961024464104412 690.16186642598404 0 0 0 0 488.88809391646282 -424.8424302030935 0 -424.8424302030935 821.01333514331236 0 0 0 0 6.7208999425414939 -0.45949241209851266 0 -0.45949241209851266 -0.70492298753718785 0 0 0 0 707.96092915247118 -0.67015310174247134 0 -0.67015310174247134 -61.715833516597741 0 0 0 0 -29.920788419165206 -186.01677310680225 0 -186.01677310680225 1192.1206291050439 0 0 0 0 95.276688935961829 14.997731411427594 0 14.997731411427594 52.691796811024687 0 0 0 0 -67.454109678173154 25.916060928193474 0 25.916060928193474 138.95272434327126 0 0 0 0 605.89601758431127 -116.89352903428517 0 -116.89352903428517 80.872773745217273 0 0 0 0 56.344990220310592 80.338707470036752 0 80.338707470036752 69.094529479809353 0 0 0 0 -17.111617772896807 -78.902764972626755 0 -78.902764972626755 33.91481632625073 0 0 0 0 -57.396781150524475 5.703169679209168 0 5.703169679209168 75.764920013196388 0 0 0 0 12.465342209151453 -3.3610649107568804 0 -3.3610649107568804 4.7922228875529207 0 0 0 0 4.6639893552402967 7.8801987130401701 0 7.8801987130401701 17.843278052438329 0 0 0 0 5.8809203442861939 15.273760355675844 0 15.273760355675844 10.687175685620616 0 0 0 0 5.2905408442184125 7.3173833589989954 0 7.3173833589989954 12.153096596882733 0 0 0 0 13.352888701248048 80.784281247299077 0 80.784281247299077 621.94764783657229 0 0 0 0 -66.971804608671846 285.94695871917429 0 285.94695871917429 1081.3847339150379 0 0 0 0 486.65737397287467 165.21115866554464 0 165.21115866554464 793.53460987111066 0 0 0 0 772.75006012131962 -318.35943469500853 0 -318.35943469500853 183.50039949585334 0 0 0 0 29.960264694373109 -8.8230262559136463 0 -8.8230262559136463 1070.581061036919 0 0 0 0 538.24793945762895 166.99900718778508 0 166.99900718778508 -401.12003525646287 0 0 0 0 667.13332336976055 -80.925130500920204 0 -80.925130500920204 16.469627268066688 0 0 0 0 603.80356286250026 -137.1565423435386 0 -137.1565423435386 -27.822304987876123 0 0 0 0 686.36215169085358 -359.91914565890715 0 -359.91914565890715 295.64472112126532 0 0 0 0 1205.692691023135 -571.78915817163215 0 -571.78915817163215 14.56270660986047 0 0 0 0 750.10911043327542 -262.32826805186778 0 -262.32826805186778 -348.46996469840087 0 0 0 0 645.51514528480038 -498.70651573706709 0 -498.70651573706709 46.579294808761915 0 0 0 0 669.68792156748054 -176.98520042266409 0 -176.98520042266409 -85.423225815437036 0 0 0 0 -6.6434256427928631 -158.96498369948313 0 -158.96498369948313 -76.54125124146708 0 0 0 0 360.65685965131979 -681.26331785845969 0 -681.26331785845969 -157.85598524573834 0 0 0 0 -368.48880590859335 336.94048816420764 0 336.94048816420764 498.11423446485151 0 0 0 0 -99.333425678034473 -6.1060372899155482 0 -6.1060372899155482 136.59701394571948 0 0 0 0 -36.319109252475755 130.1466298067553 0 130.1466298067553 -24.019778219293812 0 0 0 0 11.344236374839863 -13.959455211621529 0 -13.959455211621529 11.694160674760582 0 0 0 0 -6.9058200501384839 3.7334497908949373 0 3.7334497908949373 1.3707317812524735 0 0 0 0 -356.29033995727514 -426.38989698434216 0 -426.38989698434216 -201.33554755826117 0 0 0 0 -308.1561962390233 -325.21927968410819 0 -325.21927968410819 -533.44324639352271 0 0 0 0 -471.03297134659533 -218.39988688713129 0 -218.39988688713129 -15.352411978297823 0 0 0 0 -4.1910682716150269 -3.90741633677926 0 -3.90741633677926 6.9438000588071915 0 0 0 0 -38.022544598119566 4.0667290188066545 0 4.0667290188066545 49.093911288629897 0 0 0 0 -633.29579160976471 -121.32939362681032 0 -121.32939362681032 602.48585322884173 0 0 0 0 0.90348897070371947 -7.0790477325519507 0 -7.0790477325519507 9.4673002421612722 0 0 0 0 -477.44085084337348 787.23923089569325 0 787.23923089569325 1894.1116761603225 0 0 0 0 1277.6284330241106 -306.65956585960657 0 -306.65956585960657 -111.80401132469342 0 0 0 0 2.9296005450607225 -5.2416691267352409 0 -5.2416691267352409 10.479852495371937 0 0 0 0 219.91089857080806 -1044.6797006395391 0 -1044.6797006395391 928.40257289904548 0 0 0 0 278.16709365687711 1515.7368196103143 0 1515.7368196103143 1345.940487696218 0 0 0 0 591.28270429831537 943.03555861951827 0 943.03555861951827 664.93021667069252 0 0 0 0 821.93276123587384 820.32303801988201 0 820.32303801988201 712.3423763361825 0 0 0 0 201.38121105599294 751.31922012840732 0 751.31922012840732 946.98495659614127 0 0 0 0 233.87303332739702 626.26881795497093 0 626.26881795497093 1258.5981279107364 0 0 0 0 594.68784714217327 547.69929640709051 0 547.69929640709051 1040.9352134185101 0 0 0 0 4.7392521686446329 -14.851992751658543 0 -14.851992751658543 26.371970028707427 0 0 0 0 -206.5188171100981 -426.2670460066447 0 -426.2670460066447 -28.940543712601084 0 0 0 0 377.12490562632956 125.22905630802052 0 125.22905630802052 803.0879391802373 0 0 0 0 463.42078752085035 182.48666000645062 0 182.48666000645062 753.97797514305967 0 0 0 0 -457.30139326572134 -150.79759544184617 0 -150.79759544184617 239.68716987069638 0 0 0 0 149.79781719715538 -60.068138258174258 0 -60.068138258174258 -10.870348336376139 0 0 0 0 -87.533761201437301 493.17027874762607 0 493.17027874762607 -1273.180330664477 0 0 0 0 155.42353429009256 3.6130508653737365 0 3.6130508653737365 -344.86033553041125 0 0 0 0 -0.32100533150677002 0.18648392889155119 0 0.18648392889155119 8.147642036978521 0 0 0 0 -121.88122210476695 -32.93553561697513 0 -32.93553561697513 369.22238372895663 0 0 0 0 -135.25092371427672 252.43616395384561 0 252.43616395384561 387.85171020912821 0 0 0 0 73.678507973718297 249.38737227801175 0 249.38737227801175 230.40871968559259 0 0 0 0 88.049612090294886 331.90099075652097 0 331.90099075652097 603.17820514885534 0 0 0 0 381.55079759497676 -78.897799773920269 0 -78.897799773920269 1514.5375616032543 0 0 0 0 494.70730777776407 191.90294049245858 0 191.90294049245858 607.67528391243616 0 0 0 0 -96.965398734939299 176.80299271040531 0 176.80299271040531 974.08311382579632 0 0 0 0 59.615684658367172 -63.942213943159004 0 -63.942213943159004 -4.0800369713106193 0 0 0 0 60.534349252977336 -258.7486161320121 0 -258.7486161320121 860.61484412618847 0 0 0 0 0.40311758755242977 -1.9618537086784062 0 -1.9618537086784062 5.5893150851709024 0 0 0 0 -2.0256096699408808 -1.5948438320922129 0 -1.5948438320922129 0.72160034547315988 0 0 0 0 -577.41600068702792 -150.62209879323382 0 -150.62209879323382 773.44501984999806 0 0 0 0 -83.371282249307114 -100.2408989157384 0 -100.2408989157384 691.14186646468806 0 0 0 0 -775.8425520082892 -688.92041689645521 0 -688.92041689645521 -611.65547091348708 0 0 0 0 -603.83758800325995 -797.01866908474767 0 -797.01866908474767 -678.69491427807225 0 0 0 0 -414.07825884453905 -201.4583628042119 0 -201.4583628042119 -257.84431305820908 0 0 0 0 13.613052302852347 -41.213081332782032 0 -41.213081332782032 70.552986835915064 0 0 0 0 -62.250539132907079 -72.142948709215489 0 -72.142948709215489 189.64200533649273 0 0 0 0 92.561845962002963 -23.566888566525449 0 -23.566888566525449 157.19350930882501 0 0 0 0 123.20849102606837 -20.156959096857463 0 -20.156959096857463 14.250261168424913 0 0 0 0 -7.6906847475040649 -118.14826635894133 0 -118.14826635894133 37.790578673906566 0 0 0 0 39.799739363039123 15.484477322372186 0 15.484477322372186 191.16869406725891 0 0 0 0 105.14807349584009 -35.69944642464543 0 -35.69944642464543 80.122680441600096 0 0 0 0 173.20046931796946 -29.360261755427928 0 -29.360261755427928 206.02598782178393 0 0 0 0 70.248095191987758 117.18060584184877 0 117.18060584184877 413.16589421365643 0 0 0 0 55.220503612231084 -43.792788828326593 0 -43.792788828326593 196.19435982445066 0 0 0 0 51.506440600104312 148.49182824055003 0 148.49182824055003 76.913311867043376 0 0 0 0 113.45758346677883 76.355177897432441 0 76.355177897432441 55.480416695048916 0 0 0 0 -177.87927249365285 12.386329314496834 0 12.386329314496834 45.336263747936755 0 0 0 0 -1.4850613129768817 57.949028199920576 0 57.949028199920576 57.078331705950404 0 0 0 0 59.164349234173187 39.045222100376122 0 39.045222100376122 48.334429678743618 0 0 0 0 37.612643278580407 89.001969166633899 0 89.001969166633899 -77.840575315029128 0 0 0 0 151.10383507510772 200.3073076312794 0 200.3073076312794 -65.728408188559115 0 0 0 0 0.29966229011910372 1.5195019646183852 0 1.5195019646183852 6.0632893719715639 0 0 0 0 149.4746688278849 292.20680173695291 0 292.20680173695291 77.024782368695014 0 0 0 0 -24.216684224008759 223.47021620426312 0 223.47021620426312 1130.1361491153366 0 0 0 0 -34.096340001127373 119.591482706237 0 119.591482706237 118.03009270705479 0 0 0 0 -380.65171804561271 -56.975222835928435 0 -56.975222835928435 145.87668963338001 0 0 0 0 -37.874005825418521 268.76712117922943 0 268.76712117922943 161.9273065768939 0 0 0 0 -278.91596102672372 286.94291958974554 0 286.94291958974554 83.422882303813822 0 0 0 0 5.4727445494655171 -39.523966311012892 0 -39.523966311012892 77.158448329444283 0 0 0 0 -715.14701714364128 -350.46898857422457 0 -350.46898857422457 63.404376926338273 0 0 0 0 -576.2457072888626 -524.68755250491631 0 -524.68755250491631 -129.25992861579653 0 0 0 0 -559.26204244092969 -115.45814822696775 0 -115.45814822696775 124.27622627911205 0 0 0 0 -288.11678163726174 -76.898839444002078 0 -76.898839444002078 59.60627559031127 0 0 0 0 -365.45738587322376 77.290589314756289 0 77.290589314756289 307.48096293577328 0 0 0 0 10.819803375285646 -42.222484070426233 0 -42.222484070426233 76.10843740765948 0 0 0 0 -458.11249459372334 -469.15032716524593 0 -469.15032716524593 -387.50152395273471 0 0 0 0 -773.77892277779574 -895.43484343334853 0 -895.43484343334853 -148.59523200661897 0 0 0 0 -13.208661781446608 8.7528822168460465 0 8.7528822168460465 65.116170132103434 0 0 0 0 4.5260361768587227 0.98438977465623623 0 0.98438977465623623 0.92537997132484717 0 0 0 0 183.98975394984404 9.0121777105741785 0 9.0121777105741785 183.30782858025486 0 0 0 0 151.26696516422308 129.67411779585211 0 129.67411779585211 265.47591429832391 0 0 0 0 151.70177639287601 68.364263861476502 0 68.364263861476502 356.58786769692961 0 0 0 0 84.110418934123572 249.11533809938192 0 249.11533809938192 383.02962855939768 0 0 0 0 276.54271822886494 265.87357722228444 0 265.87357722228444 479.61274478764972 0 0 0 0 420.86471710180399 146.21244220097287 0 146.21244220097287 229.67475722948438 0 0 0 0 170.34241750379874 9.8830957504942489 0 9.8830957504942489 -72.503417964406253 0 0 0 0 0.70326714938461055 2.5292836563214109 0 2.5292836563214109 5.801807939207805 0 0 0 0 155.19344558696332 571.97142990508655 0 571.97142990508655 120.79129697967437 0 0 0 0 -126.29263760263524 -107.78330044631366 0 -107.78330044631366 392.28259012260605 0 0 0 0 0.8310256566387082 4.3244917044010904 0 4.3244917044010904 11.663307951639524 0 0 0 0 -537.30369694786407 153.12544206321945 0 153.12544206321945 352.86525505707687 0 0 0 0 -235.70858147905398 128.93441342738151 0 128.93441342738151 91.138385587109951 0 0 0 0 4.9308521147572719 -463.04356406879742 0 -463.04356406879742 509.53699430953566 0 0 0 0 -212.59257167028227 -343.37376204930115 0 -343.37376204930115 577.30136325379135 0 0 0 0 -202.41139636455244 -505.28161642897931 0 -505.28161642897931 989.55602978757815 0 0 0 0 86.544984005885453 -256.23140786317163 0 -256.23140786317163 397.73643900196475 0 0 0 0 -7.0014535417775825 -6.0335981354638548 0 -6.0335981354638548 5.4354024661447227 0 0 0 0 398.33822444687894 -439.01421063127054 0 -439.01421063127054 383.75883960132342 0 0 0 0 -218.95436201782445 24.377753735967417 0 24.377753735967417 550.54961477892107 0 0 0 0 152.87548314917376 92.11718159218799 0 92.11718159218799 156.86403282541141 0 0 0 0 205.08268030435215 -263.94913865754279 0 -263.94913865754279 427.06613897634816 0 0 0 0 90.734205188985385 -256.59920300656904 0 -256.59920300656904 542.46295678373281 0 0 0 0 109.983871883647 -125.9622599878885 0 -125.9622599878885 29.556682249956793 0 0 0 0 -106.83421016927264 -38.515604061765771 0 -38.515604061765771 595.05666771937103 0 0 0 0 -23.720126033363954 -80.098770183898523 0 -80.098770183898523 8.4683912510445225 0 0 0 0 105.06510746803542 117.12459420844243 0 117.12459420844243 1011.3686722383671 0 0 0 0 304.51071046170955 241.02509445156784 0 241.02509445156784 725.58263420390722 0 0 0 0 -22.92231634364407 -79.407945259770713 0 -79.407945259770713 61.424048948087147 0 0 0 0 -28.73171846256048 -39.981139739717491 0 -39.981139739717491 -16.351728932626429 0 0 0 0 4.4084034031548072 -36.882652861842871 0 -36.882652861842871 -49.726484389349935 0 0 0 0 -29.843190428984208 -21.831205391013825 0 -21.831205391013825 -1.6087779269063018 0 0 0 0 57.115740669448314 -132.40242884298277 0 -132.40242884298277 69.432414554510615 0 0 0 0 25.058159781554423 -20.630403482737165 0 -20.630403482737165 -39.532278178250635 0 0 0 0 67.619310072271901 -22.16476279883409 0 -22.16476279883409 -78.290466463207849 0 0 0 0 -9.3181628688845475 -26.039142959604384 0 -26.039142959604384 -29.582234857190087 0 0 0 0 -67.566641752189753 -15.728825347461679 0 -15.728825347461679 -18.812144024657755 0 0 0 0 4.0439974171946673 -5.5127252489254488 0 -5.5127252489254488 -4.9202416791115819 0 0 0 0 4.5528048861383468 4.9226684752102301 0 4.9226684752102301 9.4973586704873014 0 0 0 0 29.875319552172868 -23.786339793869047 0 -23.786339793869047 -78.637349331067526 0 0 0 0 -170.67130542445261 -41.825423598536872 0 -41.825423598536872 -54.820307753718225 0 0 0 0 -2.1138528693262515 14.999241703659209 0 14.999241703659209 -85.986093999548757 0 0 0 0 -28.211211007669846 -126.07675090141811 0 -126.07675090141811 -95.353288998128846 0 0 0 0 -149.12795776347843 -170.34155158546855 0 -170.34155158546855 0.40117690880288137 0 0 0 0 -13.540397594671774 -21.947511045887012 0 -21.947511045887012 55.57700894855207 0 0 0 0 -91.840897492902968 136.24579182336311 0 136.24579182336311 239.87937224768757 0 0 0 0 -54.010782453521188 -78.894414291686189 0 -78.894414291686189 -62.157616419550322 0 0 0 0 -2.1386574207394782 -3.622918459058539 0 -3.622918459058539 7.7156751545292366 0 0 0 0 258.1061463296503 -271.123419786677 0 -271.123419786677 224.21802851425673 0 0 0 0 3.4876921391097362 -15.518992882797264 0 -15.518992882797264 10.101203869603282 0 0 0 0 12.248965285984923 -104.63437182823691 0 -104.63437182823691 -22.958779009735736 0 0 0 0 -6.6303441287200098 -31.222614187304409 0 -31.222614187304409 -30.023344654297787 0 0 0 0 -3.9685855154716592 -81.006641226907959 0 -81.006641226907959 29.833207342540845 0 0 0 0 -70.419405735050532 -13.219097485092789 0 -13.219097485092789 30.156276454028557 0 0 0 0 161.87836540854005 -48.591152265806159 0 -48.591152265806159 -6.0934357818587159 0 0 0 0 723.12281066879314 -175.79052166010661 0 -175.79052166010661 -108.80858282350528 0 0 0 0 391.12091944055101 -711.81698109215722 0 -711.81698109215722 587.82798392744735 0 0 0 0 21.114015809817374 -67.927556978332632 0 -67.927556978332632 87.405074679554673 0 0 0 0 -69.034431332391705 -282.35726877503657 0 -282.35726877503657 248.33936062403154 0 0 0 0 -25.450869085449085 -166.00344861305348 0 -166.00344861305348 132.97501026808729 0 0 0 0 -30.974463719411233 -148.77689269950679 0 -148.77689269950679 80.326750354841352 0 0 0 0 194.5559460687345 -296.65278084672241 0 -296.65278084672241 165.14016476591496 0 0 0 0 -266.57660531309011 -52.004532951039437 0 -52.004532951039437 202.27374221785976 0 0 0 0 -255.57548803335158 -32.917992031916583 0 -32.917992031916583 111.90010070781864 0 0 0 0 -107.99144950158188 12.349726247077342 0 12.349726247077342 155.64493535175097 0 0 0 0 243.26998943106628 196.28075447753326 0 196.28075447753326 166.46589180299452 0 0 0 0 -51.03878748565694 137.57636381148041 0 137.57636381148041 239.79902606581086 0 0 0 0 188.32231225239502 33.627637611352839 0 33.627637611352839 231.53660712005512 0 0 0 0 -30.354362543133902 93.01935483629677 0 93.01935483629677 335.25025010516038 0 0 0 0 -37.25798680738626 104.93038934409378 0 104.93038934409378 206.70791065011872 0 0 0 0 6.0929444364483061 50.909347682500083 0 50.909347682500083 240.22303296156315 0 0 0 0 -150.26239896897914 20.127889950243116 0 20.127889950243116 144.94064749195968 0 0 0 0 -151.96464106697931 5.8463727189264318 0 5.8463727189264318 238.03196901031674 0 0 0 0 -279.11332166726243 -75.472243897276712 0 -75.472243897276712 160.53495591112733 0 0 0 0 -163.91693439588835 38.165130585703082 0 38.165130585703082 133.55713142934837 0 0 0 0 -33.807874202059793 196.43577513158743 0 196.43577513158743 197.90437741494679 0 0 0 0 -133.40114318023916 2.7605797967698891 0 2.7605797967698891 165.01701751355995 0 0 0 0 -369.20787306000966 -42.695417236212961 0 -42.695417236212961 186.62932205747347 0 0 0 0 -382.27162525055525 -201.17922150481502 0 -201.17922150481502 56.496088627136487 0 0 0 0 -395.76141663157068 -187.08555208199323 0 -187.08555208199323 41.83366200601904 0 0 0 0 -279.54512574063119 -57.940714317843231 0 -57.940714317843231 110.17914717096392 0 0 0 0 -352.65873238149629 -179.32801997283514 0 -179.32801997283514 61.73275575023581 0 0 0 0 -341.52706601033333 -147.61802384161274 0 -147.61802384161274 -17.143772871655528 0 0 0 0 -485.69580600317568 -309.93726136436362 0 -309.93726136436362 -4.2312495640435372 0 0 0 0 -326.64939205349037 -349.75416098678215 0 -349.75416098678215 -288.6049607420573 0 0 0 0 -288.4063224203378 -219.20485126594212 0 -219.20485126594212 -18.849669715458731 0 0 0 0 -292.82231753192173 -186.68855634356441 0 -186.68855634356441 -178.54865306264037 0 0 0 0 -359.28654387769348 -154.71277093770186 0 -154.71277093770186 49.395070532107638 0 0 0 0 -298.71563173689788 -155.20351420007682 0 -155.20351420007682 -64.198606324847788 0 0 0 0 -370.43914001671828 -234.51942500053701 0 -234.51942500053701 -35.265483635565033 0 0 0 0 624.92748684353091 -555.18530183578696 0 -555.18530183578696 -43.716331849151175 0 0 0 0 1.5291557512584477 0.84495918747285259 0 0.84495918747285259 0.60012884694626711 0 0 0 0 -181.44062517186512 -135.49897716742271 0 -135.49897716742271 -120.34409933492316 0 0 0 0 1161.7449933154194 -256.8875781337847 0 -256.8875781337847 947.61221789192496 0 0 0 0 -1.097428446635794 -31.764442251486805 0 -31.764442251486805 69.800276233314577 0 0 0 0 -130.63490771350712 -395.90897887010942 0 -395.90897887010942 -59.551241703742562 0 0 0 0 -196.9899867749624 -161.85262296788824 0 -161.85262296788824 -69.866149955377296 0 0 0 0 -244.51288206385573 -55.880736379220252 0 -55.880736379220252 130.03307794281682 0 0 0 0 -300.78456889489996 -149.96092669805921 0 -149.96092669805921 35.391498649347341 0 0 0 0 -193.63530382197996 -48.921476033054205 0 -48.921476033054205 102.96017353637217 0 0 0 0 -176.22721055221655 -16.854156588406113 0 -16.854156588406113 125.96517087712709 0 0 0 0 -196.69864784259198 -15.171534558628991 0 -15.171534558628991 189.14741288586083 0 0 0 0 -100.3991711969843 -49.006423760522011 0 -49.006423760522011 43.521117603320818 0 0 0 0 -177.37397393607989 -82.689572928180496 0 -82.689572928180496 57.875591569172684 0 0 0 0 -185.18644335009878 -64.949017144594109 0 -64.949017144594109 160.38054984842893 0 0 0 0 -89.940773380101547 7.5978017202805859 0 7.5978017202805859 155.37540149402776 0 0 0 0 -140.29243979573812 -19.142481350296293 0 -19.142481350296293 229.9257766712617 0 0 0 0 -134.10541345326516 12.232677282615896 0 12.232677282615896 232.08214778772526 0 0 0 0 -216.22394484629785 -39.515715070341685 0 -39.515715070341685 345.28283059500245 0 0 0 0 -156.87115135937393 78.545194458019978 0 78.545194458019978 288.51977445832563 0 0 0 0 -193.99536361636365 -64.267616589805584 0 -64.267616589805584 176.77417930681986 0 0 0 0 -203.14900646692786 -75.511485513405205 0 -75.511485513405205 251.8889063973802 0 0 0 0 -212.33497584726979 -39.558626897227441 0 -39.558626897227441 294.87343874530779 0 0 0 0 -174.76022113333647 -59.904932710835965 0 -59.904932710835965 74.7879591263154 0 0 0 0 27.366087304993016 -71.156219918386341 0 -71.156219918386341 274.58322303673049 0 0 0 0 -578.80395433859394 -729.57954035249168 0 -729.57954035249168 402.93961417991522 0 0 0 0 -0.49967964849762758 0.92549633630708428 0 0.92549633630708428 -0.42592726880366172 0 0 0 0 -1.9585334550418327 -0.14882183737952914 0 -0.14882183737952914 0.80480365354883077 0 0 0 0 -208.64108245688305 17.154976607273056 0 17.154976607273056 183.45294992901108 0 0 0 0 52.969178441449912 25.627241599406261 0 25.627241599406261 82.386286498757045 0 0 0 0 34.425086296783775 190.14045858378813 0 190.14045858378813 201.63138032629649 0 0 0 0 -6.9366302452902815 1.8499750954572463 0 1.8499750954572463 14.571583030348705 0 0 0 0 194.02680825239258 -452.55633926475275 0 -452.55633926475275 437.66085729227052 0 0 0 0 -599.45670496550429 243.81086726058857 0 243.81086726058857 -143.96294400695842 0 0 0 0 275.04603868168942 679.76450918035152 0 679.76450918035152 685.65828215620786 0 0 0 0 -372.16084330509693 539.71118983447377 0 539.71118983447377 1709.4433269559668 0 0 0 0 -540.59374860781872 -3.7098645230562397 0 -3.7098645230562397 599.16578576726897 0 0 0 0 52.797245012429812 492.24494566123758 0 492.24494566123758 538.26314960265518 0 0 0 0 49.188891371342834 446.59744792791571 0 446.59744792791571 487.58183424751405 0 0 0 0 197.49383557139663 458.24941843592387 0 458.24941843592387 391.27993563885684 0 0 0 0 -136.32578953614029 371.67229607263289 0 371.67229607263289 769.51467036188114 0 0 0 0 -128.15977671847412 51.814280317412084 0 51.814280317412084 571.35730031372805 0 0 0 0 -210.61880094058165 8.9363617204962793 0 8.9363617204962793 501.37198858887859 0 0 0 0 -453.88722672556469 181.33262208600718 0 181.33262208600718 812.63187271646621 0 0 0 0 -282.72228694890327 37.19224143413885 0 37.19224143413885 330.00270994040602 0 0 0 0 -453.69061743762086 40.146095075475387 0 40.146095075475387 498.16466417835909 0 0 0 0 -351.30931511865674 -128.10638181150352 0 -128.10638181150352 385.69959078720603 0 0 0 0 -306.73303901999043 3.1936940579835209 0 3.1936940579835209 320.25878140479836 0 0 0 0 -289.98130676149856 -30.304340201168088 0 -30.304340201168088 499.57689436318469 0 0 0 0 -197.03128454048692 -88.521783870557556 0 -88.521783870557556 506.70045425685521 0 0 0 0 -347.14130763463936 24.655845728970235 0 24.655845728970235 611.4168877459997 0 0 0 0 -250.12203335498953 -101.48985954041382 0 -101.48985954041382 551.12225169632802 0 0 0 0 -231.22427546596401 -5.656320299316576 0 -5.656320299316576 605.95189332460723 0 0 0 0 -218.05340453032295 -40.455495247038925 0 -40.455495247038925 344.83620682901528 0 0 0 0 -180.20076744639709 -127.45150461281082 0 -127.45150461281082 537.09139703607252 0 0 0 0 6.4093845719363003 -161.1259919056447 0 -161.1259919056447 545.36160336438661 0 0 0 0 -152.13549083080034 -21.49514490079855 0 -21.49514490079855 500.57280420869211 0 0 0 0 116.29027234272371 13.46590445253787 0 13.46590445253787 434.81131587641175 0 0 0 0 28.574784921196866 307.2296035908933 0 307.2296035908933 239.22062313129572 0 0 0 0 4.0291487707796421 -1.0312820235186635 0 -1.0312820235186635 -0.40888010128678332 0 0 0 0 73.833543921785122 -120.53334369249285 0 -120.53334369249285 81.924744162904972 0 0 0 0 250.27090505853516 130.21332764454201 0 130.21332764454201 357.13068726594975 0 0 0 0 209.92596858951401 216.77935294516465 0 216.77935294516465 173.22351483394232 0 0 0 0 -80.23707105229505 241.48023026397095 0 241.48023026397095 152.32635533098073 0 0 0 0 110.34285823655773 67.473229593166252 0 67.473229593166252 217.70093133961927 0 0 0 0 26.320472058956568 402.1498166784454 0 402.1498166784454 430.05136885269167 0 0 0 0 -26.455762399054947 177.09731499376585 0 177.09731499376585 173.18020052619249 0 0 0 0 214.92876896566213 331.03133471227557 0 331.03133471227557 407.12245719723796 0 0 0 0 -669.85390174548957 158.00139108570511 0 158.00139108570511 579.11525287217955 0 0 0 0 -352.75813953731722 702.67538016520848 0 702.67538016520848 295.38142585544847 0 0 0 0 -0.24077148768161827 0.52338449491917771 0 0.52338449491917771 0.81121624860271524 0 0 0 0 -269.96438705980086 -241.51276482613184 0 -241.51276482613184 1074.2392485116834 0 0 0 0 -131.89890256861054 127.7746049037487 0 127.7746049037487 238.80728158078819 0 0 0 0 -216.15456368346713 -177.47661184341632 0 -177.47661184341632 366.52893879156181 0 0 0 0 -261.01489727905391 285.8728295218425 0 285.8728295218425 848.82964029347022 0 0 0 0 886.0910954236042 -605.3147463899586 0 -605.3147463899586 427.32049543116591 0 0 0 0 4.5201188127024441 -4.4449069985692233 0 -4.4449069985692233 4.18624526448545 0 0 0 0 -309.63691741591811 -591.84199196350892 0 -591.84199196350892 445.18636692849577 0 0 0 0 4.7869437183799999 -2.1041482253679149 0 -2.1041482253679149 -0.75625793936996288 0 0 0 0 423.03223393983899 34.91725858184509 0 34.91725858184509 -51.178579411587634 0 0 0 0 -108.43123963685275 -74.321198610468855 0 -74.321198610468855 983.10362171434099 0 0 0 0 -190.54926463275069 -105.26904574029516 0 -105.26904574029516 1004.3745202496139 0 0 0 0 -186.13705273265896 -191.34574997575146 0 -191.34574997575146 1610.86618358333 0 0 0 0 -184.67912129542333 67.535148115999618 0 67.535148115999618 708.46362914983911 0 0 0 0 -212.18994946939506 -207.54316946120116 0 -207.54316946120116 903.10694674288243 0 0 0 0 -9.0986935308646935 -216.05460794394003 0 -216.05460794394003 375.37688212610738 0 0 0 0 116.38923251796405 -415.44840081158327 0 -415.44840081158327 554.9480980479093 0 0 0 0 405.39910266823495 80.452566450605445 0 80.452566450605445 -205.44389104680249 0 0 0 0 8.1991937646727884 -2.0933285542078863 0 -2.0933285542078863 -1.3002627376498026 0 0 0 0 548.25462998706075 469.38552392293968 0 469.38552392293968 466.11736003080659 0 0 0 0 32.083333057127675 -99.126868716426543 0 -99.126868716426543 -26.967231731467109 0 0 0 0 867.214243606678 -211.20224710703769 0 -211.20224710703769 -197.53552162402775 0 0 0 0 303.38494854179135 -170.8216555121403 0 -170.8216555121403 -166.82630225065441 0 0 0 0 284.64414573325939 -360.72273169342589 0 -360.72273169342589 -171.89964364562911 0 0 0 0 -1388.2466647017727 -21.175529547261249 0 -21.175529547261249 -34.520495627988566 0 0 0 0 -842.47422433279189 438.75222777430827 0 438.75222777430827 252.95774335399256 0 0 0 0 -57.035732547478119 -450.31033615077786 0 -450.31033615077786 -988.10362235772482 0 0 0 0 -514.39015814721461 -542.9911328310518 0 -542.9911328310518 -28.006993014234467 0 0 0 0 -6.6769665367625208 -4.5490202814715204 0 -4.5490202814715204 -4.5257252609640588 0 0 0 0 -150.38878420884203 -10.589714908847782 0 -10.589714908847782 13.136561220744625 0 0 0 0 -705.23658969070766 1080.5170314435709 0 1080.5170314435709 -1087.8646991011992 0 0 0 0 -508.22850614282038 314.67437737635851 0 314.67437737635851 -249.0734452596007 0 0 0 0 -774.96531639060822 13.785611492271528 0 13.785611492271528 63.535838473690092 0 0 0 0 -838.52334108425657 78.498344868875392 0 78.498344868875392 513.18796535663569 0 0 0 0 -1115.5416077652399 -177.98542461000034 0 -177.98542461000034 283.34261841911939 0 0 0 0 -282.10283440098101 478.92221241606967 0 478.92221241606967 296.94595176371877 0 0 0 0 -305.44235783722525 316.44121583299057 0 316.44121583299057 -79.543537907273276 0 0 0 0 163.72884439752636 876.09777940761523 0 876.09777940761523 650.71012982020693 0 0 0 0 -429.44232759194978 -101.6634900862482 0 -101.6634900862482 940.20141367001997 0 0 0 0 319.04417951068285 296.35596612866175 0 296.35596612866175 -14.872993968056107 0 0 0 0 9.3361698432613487 8.4226040694211974 0 8.4226040694211974 7.619502518427737 0 0 0 0 112.14615446953485 -352.24224375312042 0 -352.24224375312042 781.68173545411446 0 0 0 0 -107.62751900197645 80.504979983843441 0 80.504979983843441 -57.680659542646026 0 0 0 0 -168.07674153283551 88.63248089685294 0 88.63248089685294 57.493979644925275 0 0 0 0 -238.80447608420582 74.67419104732835 0 74.67419104732835 59.366608499607537 0 0 0 0 -191.02900609539478 127.2467132925558 0 127.2467132925558 -1.8928776038592332 0 0 0 0 -211.96418131897212 135.63630044641104 0 135.63630044641104 28.077376532552989 0 0 0 0 -153.60286359558643 242.65337776853266 0 242.65337776853266 147.11479926812899 0 0 0 0 -61.160655097667359 499.27934593498776 0 499.27934593498776 248.75189157249406 0 0 0 0 65.21614271201679 235.69828986539505 0 235.69828986539505 39.691485455485235 0 0 0 0 -350.06225284791071 352.84517074254472 0 352.84517074254472 176.87058189511663 0 0 0 0 -378.58015326256555 378.25594916126101 0 378.25594916126101 820.51124058624555 0 0 0 0 -133.74541576202137 -334.97824240837872 0 -334.97824240837872 423.96712185180149 0 0 0 0 725.76454460683726 678.41564657282288 0 678.41564657282288 -225.09760662668486 0 0 0 0 -171.80047467990596 -88.332236807224263 0 -88.332236807224263 1080.4137772774338 0 0 0 0 671.29975230216542 -616.95902300126181 0 -616.95902300126181 465.36565201700432 0 0 0 0 1.8307743406365145 4.9764780800804811 0 4.9764780800804811 13.018136224721843 0 0 0 0 -398.58230619726328 613.42280125213074 0 613.42280125213074 261.62786917870471 0 0 0 0 482.71904395085448 182.54781301109324 0 182.54781301109324 423.31257641006596 0 0 0 0 235.43303803006393 -200.36573711033634 0 -200.36573711033634 901.12999781027611 0 0 0 0 464.207234293488 -471.7376291118635 0 -471.7376291118635 768.93112474960435 0 0 0 0 62.96345046161241 78.366389147222435 0 78.366389147222435 602.26344405806594 0 0 0 0 -418.4205325971709 5.6512362990542897 0 5.6512362990542897 408.90002891194672 0 0 0 0 -191.49249168154574 -192.32057831022757 0 -192.32057831022757 351.26776106484613 0 0 0 0 -299.50292150587802 203.41501868599516 0 203.41501868599516 38.068130872452457 0 0 0 0 43.063828668194674 229.36241029170924 0 229.36241029170924 264.88129125886917 0 0 0 0 -203.14595347516297 -3.5077576985841006 0 -3.5077576985841006 200.51721982769232 0 0 0 0 176.42831244049603 6.7258817236543109 0 6.7258817236543109 336.52082221863384 0 0 0 0 -4.0176463198567944 82.599006598506094 0 82.599006598506094 425.72703664126675 0 0 0 0 -8.682751315564019 27.390169529493505 0 27.390169529493505 993.4339711134653 0 0 0 0 79.703601902323499 -155.51637207802196 0 -155.51637207802196 583.40690637545777 0 0 0 0 94.301384103166129 -130.33275709375448 0 -130.33275709375448 147.02565763996972 0 0 0 0 200.41090214146016 -122.20160629694874 0 -122.20160629694874 563.13792714213196 0 0 0 0 431.59595666334826 -311.23859265850842 0 -311.23859265850842 574.78636657745665 0 0 0 0 121.0296430836479 -20.156114665011046 0 -20.156114665011046 176.23750379940611 0 0 0 0 -4.1129263107259248 -89.042781222735357 0 -89.042781222735357 718.85856843262081 0 0 0 0 214.42926283977704 97.099560387089696 0 97.099560387089696 -43.964956987729238 0 0 0 0 4.4992508028167322 8.1364402168092056 0 8.1364402168092056 182.73273305068278 0 0 0 0 4.204257472345037 6.2649581716595764 0 6.2649581716595764 1.1494714055339585 0 0 0 0 60.510786987355914 78.191307604894973 0 78.191307604894973 269.60548818118332 0 0 0 0 -175.5977172532987 62.168695934924472 0 62.168695934924472 48.851671811382403 0 0 0 0 53.011115427332925 87.550225237842824 0 87.550225237842824 128.63674964210509 0 0 0 0 16.781844889571271 21.993901220569775 0 21.993901220569775 28.833600469754103 0 0 0 0 -151.7365997756533 89.754100264108274 0 89.754100264108274 59.435771505195589 0 0 0 0 -179.97689118986 51.210647909170802 0 51.210647909170802 23.680403442660463 0 0 0 0 -5.1184860345333618 -81.990437492730052 0 -81.990437492730052 128.92372223512757 0 0 0 0 -0.14544444835744574 1.9625038688551903 0 1.9625038688551903 27.429889306779501 0 0 0 0 -616.81457635477955 -764.93909770443861 0 -764.93909770443861 19.529446315023506 0 0 0 0 33.166107368440862 672.9059455790848 0 672.9059455790848 167.90617733615909 0 0 0 0 0.6953618522515157 -0.31002301103864482 0 -0.31002301103864482 7.1476194847875405 0 0 0 0 879.86475616929238 556.69338051195155 0 556.69338051195155 -69.480062531554722 0 0 0 0 1348.7010066480493 -236.16140351624381 0 -236.16140351624381 6.51370434933051 0 0 0 0 207.35426587670554 -166.49264683970978 0 -166.49264683970978 274.92858997728035 0 0 0 0 -876.63997059485609 -187.38813368622141 0 -187.38813368622141 393.71017505053896 0 0 0 0 -191.27267251249032 -73.463640213063627 0 -73.463640213063627 461.18023175768758 0 0 0 0 468.27429167567516 -227.60208233663434 0 -227.60208233663434 423.30853864233359 0 0 0 0 -206.11621128401339 -249.50136039577046 0 -249.50136039577046 109.22650121721017 0 0 0 0 -206.52455527331216 -236.92676698732532 0 -236.92676698732532 105.93762232736844 0 0 0 0 -36.967172199967536 165.35214466367688 0 165.35214466367688 75.98359099739173 0 0 0 0 -11.797396289863709 -11.170360746234913 0 -11.170360746234913 21.309964546711214 0 0 0 0 -135.35780476723812 -224.75543552283489 0 -224.75543552283489 -171.87219711518901 0 0 0 0 -278.65520644004664 -446.30952272956165 0 -446.30952272956165 -220.73265452727355 0 0 0 0 -147.5822024606282 -218.89866490642271 0 -218.89866490642271 -97.570154320841539 0 0 0 0 -22.78910977634996 31.043936626747382 0 31.043936626747382 37.747434664699995 0 0 0 0 -148.57059353137311 44.524099623806251 0 44.524099623806251 243.27147922077552 0 0 0 0 -6.0418606418358234 -6.170014453039224 0 -6.170014453039224 126.94336397167027 0 0 0 0 0.6053191140940104 -0.7855624645379109 0 -0.7855624645379109 3.7104445097318468 0 0 0 0 98.543937620346242 142.27872880087739 0 142.27872880087739 126.14239947209762 0 0 0 0 286.62695942605319 -109.44448912284759 0 -109.44448912284759 29.229032985011145 0 0 0 0 204.32586232328913 -29.291583270758338 0 -29.291583270758338 -10.073774627794137 0 0 0 0 -46.495875910731229 -56.697205429619316 0 -56.697205429619316 466.59695159278408 0 0 0 0 -49.054235786875779 -16.891597685454599 0 -16.891597685454599 38.477342162579816 0 0 0 0 -300.96641425605321 -113.90284859544408 0 -113.90284859544408 -11.783438747304899 0 0 0 0 -293.22500226303191 -215.89915591459794 0 -215.89915591459794 1.6310254531708779 0 0 0 0 -72.339683322898964 85.456479753571784 0 85.456479753571784 -21.859702025693878 0 0 0 0 -2.403270897819735 -1.6894839299187456 0 -1.6894839299187456 52.536208734154769 0 0 0 0 -607.32777723116294 -213.91222983448097 0 -213.91222983448097 380.01028369937558 0 0 0 0 -383.56294781126849 -152.46548534466854 0 -152.46548534466854 302.80820415638709 0 0 0 0 40.970161764018485 225.8457195420749 0 225.8457195420749 77.373920556430846 0 0 0 0 -167.61533613950451 -266.06770107267425 0 -266.06770107267425 292.67852840606361 0 0 0 0 202.01824109211839 -154.91368615280498 0 -154.91368615280498 -294.16383059994041 0 0 0 0 -832.04125999127109 3.8071234767503483 0 3.8071234767503483 53.165473502318491 0 0 0 0 -0.15377308109155124 -3.2216351667813488 0 -3.2216351667813488 3.5371547146533331 0 0 0 0 -289.20603036603688 -28.373808305278544 0 -28.373808305278544 269.32023215698791 0 0 0 0 -2.2908907847799638 -2.2116992508712769 0 -2.2116992508712769 49.6586328443002 0 0 0 0 -187.19307942197827 -3.0567959210625872 0 -3.0567959210625872 -11.737614989259782 0 0 0 0 -158.5815007978897 81.289603433894683 0 81.289603433894683 -7.2751833231777709 0 0 0 0 76.299352038723555 95.649713449301544 0 95.649713449301544 -84.186921990447559 0 0 0 0 132.30009597961111 -66.360054112164903 0 -66.360054112164903 -59.377288083387384 0 0 0 0 118.58860037300519 -33.166995551247112 0 -33.166995551247112 -139.68794918885081 0 0 0 0 -12.748790692119883 -268.57370675909544 0 -268.57370675909544 -50.301396232295701 0 0 0 0 -53.189153545751196 -28.143663500296952 0 -28.143663500296952 -137.6135791466063 0 0 0 0 -72.214624092468057 15.668999537371917 0 15.668999537371917 -75.370536009646003 0 0 0 0 -1468.1264844907018 183.13448299841821 0 183.13448299841821 162.66987957582751 0 0 0 0 -2.6919295156252621 -0.00033104312235154865 0 -0.00033104312235154865 40.48863070796564 0 0 0 0 -375.94652847680447 -328.38683433898507 0 -328.38683433898507 58.594525822033575 0 0 0 0 -29.240644770151903 -97.762040031324432 0 -97.762040031324432 -119.81231673307138 0 0 0 0 -0.25872014860529302 -7.8742595803987339 0 -7.8742595803987339 10.92661203338789 0 0 0 0 -242.53795013574791 -39.435523094960331 0 -39.435523094960331 -36.379842730858854 0 0 0 0 -0.12002448979456837 -5.4870120285466637 0 -5.4870120285466637 125.22924878031709 0 0 0 0 -210.54851037407479 -25.403208096703224 0 -25.403208096703224 166.88243071481702 0 0 0 0 -645.21062196489311 -240.04448727241106 0 -240.04448727241106 278.87986265630752 0 0 0 0 -15.617060139511523 65.536178352506141 0 65.536178352506141 40.570485191131411 0 0 0 0 -24.148713590227089 98.980106860591263 0 98.980106860591263 -77.388181942244842 0 0 0 0 65.244791119039519 135.00504645199308 0 135.00504645199308 -223.10969300273018 0 0 0 0 268.62235381550818 61.766603452401 0 61.766603452401 -233.31472764836872 0 0 0 0 -682.33181578415042 13.699159837919069 0 13.699159837919069 282.35098895430565 0 0 0 0 -706.5570489905881 275.3717499835459 0 275.3717499835459 -1.4929944541305531 0 0 0 0 -1.5405677411598868 -3.9250615226446044 0 -3.9250615226446044 118.64929092827418 0 0 0 0 -239.1764952146068 -91.00957249637122 0 -91.00957249637122 15.210020537087985 0 0 0 0 -103.76428714275698 260.54805138034862 0 260.54805138034862 129.06022742326513 0 0 0 0 -0.84076326477978669 -5.4745280676046377 0 -5.4745280676046377 90.485711486949668 0 0 0 0 -294.84556618559463 115.01836485648164 0 115.01836485648164 296.47281789273256 0 0 0 0 -1232.3874234358645 -535.0045305346498 0 -535.0045305346498 3330.2003061951273 0 0 0 0 12.352875280600355 -10.657203395158175 0 -10.657203395158175 10.671652991144226 0 0 0 0 -5.6074104441149757 1127.4179001940117 0 1127.4179001940117 3085.0337239052124 0 0 0 0 58.593523515871311 -637.40557398725196 0 -637.40557398725196 2473.6112611668314 0 0 0 0 284.22466294176047 69.009081572639758 0 69.009081572639758 64.765187616129992 0 0 0 0 269.12298334238471 -9.9935082223295666 0 -9.9935082223295666 -89.143034411751614 0 0 0 0 158.90028338052571 681.19356694306293 0 681.19356694306293 -580.99523675469879 0 0 0 0 364.80333734651094 -373.10040284574819 0 -373.10040284574819 221.37703179188611 0 0 0 0 534.15023131990506 -1288.0968744299041 0 -1288.0968744299041 -761.75302035809386 0 0 0 0 412.72082081480949 -122.44934341288635 0 -122.44934341288635 -49.25338107066122 0 0 0 0 -41.701084625391559 -169.24478247503828 0 -169.24478247503828 72.631914733686244 0 0 0 0 129.5158426734879 267.66994054709744 0 267.66994054709744 439.29616046963292 0 0 0 0 219.32545155046114 -171.80313179598954 0 -171.80313179598954 -119.29913650145568 0 0 0 0 156.5546086913057 -73.484310453099653 0 -73.484310453099653 466.19500405679196 0 0 0 0 -154.66189182075868 -4.0905035315308851 0 -4.0905035315308851 95.378697931300849 0 0 0 0 -25.565803207399341 -443.24380358641065 0 -443.24380358641065 -202.95022820232316 0 0 0 0 166.52931187215654 167.62451409245273 0 167.62451409245273 -342.89431703921059 0 0 0 0 -1510.7670809926017 -395.27469591736326 0 -395.27469591736326 934.08975183594157 0 0 0 0 0.10270269694071343 -14.435285432465914 0 -14.435285432465914 8.504593745793386 0 0 0 0 -32.160252267737405 541.00526660746607 0 541.00526660746607 938.00486342145632 0 0 0 0 -4.4464242473340043 6.0532642718742125 0 6.0532642718742125 24.014114443961837 0 0 0 0 -130.38127397936273 -51.506426743960901 0 -51.506426743960901 -20.308020417277476 0 0 0 0 -173.00543108062789 434.07300022425852 0 434.07300022425852 1390.0296145444113 0 0 0 0 441.67888377363033 863.82258477266305 0 863.82258477266305 1489.9633306589915 0 0 0 0 258.94888480931445 463.45399641529576 0 463.45399641529576 1250.9638237052827 0 0 0 0 47.08838532987329 -132.41404569373543 0 -132.41404569373543 1763.6058124281071 0 0 0 0 159.06441287558664 98.181543133452664 0 98.181543133452664 408.79211349429193 0 0 0 0 57.4253467850167 55.21364808955579 0 55.21364808955579 985.55954119711919 0 0 0 0 -30.130678581095708 626.61012989377662 0 626.61012989377662 1196.7525671254771 0 0 0 0 31.139121206154272 -32.459742344552389 0 -32.459742344552389 31.234424670113853 0 0 0 0 223.39535822019843 1098.6575061733283 0 1098.6575061733283 4459.4818683592821 0 0 0 0 -127.96621856843558 46.490387540194888 0 46.490387540194888 1316.9360811378817 0 0 0 0 -25.314715415376668 412.75302893167986 0 412.75302893167986 1378.1111305215095 0 0 0 0 -613.47755001074086 -649.51895515933245 0 -649.51895515933245 -109.2747126589129 0 0 0 0 -550.9844403073788 -254.59257316015851 0 -254.59257316015851 307.75871631309565 0 0 0 0 -359.13570896079227 -1000.0459547108976 0 -1000.0459547108976 2025.1654873214757 0 0 0 0 533.1372898668169 -1125.8410076477658 0 -1125.8410076477658 -144.89353217112875 0 0 0 0 1.4106519302742182 -4.2278176096647515 0 -4.2278176096647515 33.470883406778292 0 0 0 0 287.56006339710461 1073.4578250670575 0 1073.4578250670575 1710.4282719970906 0 0 0 0 1239.1425529792014 754.92892803613904 0 754.92892803613904 372.03488801870844 0 0 0 0 122.05372872571502 61.04932959674943 0 61.04932959674943 -7.6338905190787045 0 0 0 0 -714.34237682932326 -439.7587463232976 0 -439.7587463232976 -1135.3839812396764 0 0 0 0 623.14327157334174 -712.51091728995561 0 -712.51091728995561 -1102.4656819869588 0 0 0 0 -160.6405009529044 -161.88087826658102 0 -161.88087826658102 133.33061829539383 0 0 0 0 -107.4689537873237 -199.49146657607889 0 -199.49146657607889 26.767140319065163 0 0 0 0 -93.625100119254057 -165.48607508469468 0 -165.48607508469468 110.25707438735844 0 0 0 0 -195.65585154638393 11.334169466699677 0 11.334169466699677 -253.59136885890621 0 0 0 0 -244.62950766131871 -42.091619066558451 0 -42.091619066558451 42.089186720591897 0 0 0 0 186.3626543026221 48.389232179930787 0 48.389232179930787 -224.02224974614182 0 0 0 0 -13.516055213264851 -22.246546838269637 0 -22.246546838269637 42.32736119531156 0 0 0 0 -308.02546263993281 17.192317777076369 0 17.192317777076369 437.4704428595287 0 0 0 0 6.1197981995828741 -261.66252105277408 0 -261.66252105277408 81.515887294389358 0 0 0 0 -254.77384947733754 57.694064944005731 0 57.694064944005731 -164.55474109718489 0 0 0 0 133.64352061064938 -190.2380943275067 0 -190.2380943275067 26.617749048624319 0 0 0 0 -347.88183331521759 17.769920303103163 0 17.769920303103163 142.19150374397304 0 0 0 0 11.908899122855928 -48.264131081110463 0 -48.264131081110463 38.26868329433637 0 0 0 0 -13.201779721991642 -22.671829122526272 0 -22.671829122526272 36.528690382910582 0 0 0 0 0.41370105605725982 -4.17374224076414 0 -4.17374224076414 5.1342179568101898 0 0 0 0 49.708783003650751 -72.178375287218387 0 -72.178375287218387 49.473860302698085 0 0 0 0 -19.921502357388817 -24.841254617896993 0 -24.841254617896993 27.534503590397662 0 0 0 0 -68.129429926193552 -56.424664194756588 0 -56.424664194756588 152.43740068129273 0 0 0 0 -10.211618562974763 -59.701479212910272 0 -59.701479212910272 81.56920995159885 0 0 0 0 -135.17591545826144 -103.78691841336081 0 -103.78691841336081 151.65543664817278 0 0 0 0 -4.5671415381202678 -177.47271022401469 0 -177.47271022401469 111.51429907642887 0 0 0 0 -275.60297599799924 -147.91165232138724 0 -147.91165232138724 209.55164580810742 0 0 0 0 -108.92460808626129 -60.817717952092835 0 -60.817717952092835 221.92952302391677 0 0 0 0 -83.158869274567678 4.9090449629001967 0 4.9090449629001967 238.42166327349514 0 0 0 0 -94.680123130181528 -32.592738361790907 0 -32.592738361790907 137.63177990627855 0 0 0 0 -106.39589426577641 116.73886338947659 0 116.73886338947659 188.49405797878217 0 0 0 0 -128.98515416775899 -39.578452742680838 0 -39.578452742680838 199.71568791053551 0 0 0 0 -105.00129644056869 268.78767060864152 0 268.78767060864152 17.312756300548699 0 0 0 0 -177.45756128403491 181.1780981143896 0 181.1780981143896 303.28653464679246 0 0 0 0 40.608070804283393 -46.160741038211981 0 -46.160741038211981 42.941415965329945 0 0 0 0 483.94404305940873 -385.30875600071317 0 -385.30875600071317 -523.28610780107647 0 0 0 0 -161.62141472702024 249.91106682406212 0 249.91106682406212 233.58279868346835 0 0 0 0 60.578297878401415 541.02175589859871 0 541.02175589859871 673.28334855912726 0 0 0 0 -171.05751871742325 139.52280114836159 0 139.52280114836159 326.07896805761447 0 0 0 0 1648.9050382844612 785.08122389395385 0 785.08122389395385 -416.83198944624274 0 0 0 0 -540.28254143161143 -913.20991639304884 0 -913.20991639304884 3520.2665069261184 0 0 0 0 218.71318360943968 1087.6102834300677 0 1087.6102834300677 2424.5665492111766 0 0 0 0 -432.264800464372 -343.52008065026348 0 -343.52008065026348 1531.5727311741975 0 0 0 0 -348.66546135128124 -771.9607368266179 0 -771.9607368266179 714.19295402427997 0 0 0 0 -243.02664910958856 -1086.1574588433195 0 -1086.1574588433195 899.21473923778285 0 0 0 0 -57.113777283643685 -913.05437747400674 0 -913.05437747400674 1052.4111592149166 0 0 0 0 -231.65574607723011 -67.108566944825725 0 -67.108566944825725 -381.87737724513909 0 0 0 0 862.25510589772739 -2810.1031847426075 0 -2810.1031847426075 15.592851951532793 0 0 0 0 -2.8948753960893967 -4.3335068589779127 0 -4.3335068589779127 6.5306389637316968 0 0 0 0 124.92007240242674 -411.08229660170036 0 -411.08229660170036 -976.65826285649655 0 0 0 0 -283.81970773054218 -228.36850379556836 0 -228.36850379556836 14.87237020034263 0 0 0 0 -347.40449798807003 -90.099335425189565 0 -90.099335425189565 472.09768842264839 0 0 0 0 -357.23012005105056 -214.20834075197649 0 -214.20834075197649 204.83486847686618 0 0 0 0 -202.95535841428409 -1123.2725614228475 0 -1123.2725614228475 -24.491251666655444 0 0 0 0 -404.81252199399478 -698.96101843547513 0 -698.96101843547513 2892.4004459432163 0 0 0 0 5.5003976917416431 -1.1331226115304958 0 -1.1331226115304958 1.0724341594932389 0 0 0 0 -222.9965224217276 -311.70259954937683 0 -311.70259954937683 1171.2807709526378 0 0 0 0 341.3136620390726 -1174.2561291400252 0 -1174.2561291400252 1009.2234157210369 0 0 0 0 -598.80575623748177 -547.29583770615318 0 -547.29583770615318 886.11876322788157 0 0 0 0 -1413.1019758990906 -2.7297295881271566 0 -2.7297295881271566 991.22257616693241 0 0 0 0 -122.18152536232014 -121.14329568749963 0 -121.14329568749963 885.81879793403459 0 0 0 0 -890.05385745574245 -254.61606610023046 0 -254.61606610023046 973.60713430223768 0 0 0 0 -1214.7538468349278 -732.54388224816739 0 -732.54388224816739 283.46071245168423 0 0 0 0 -1219.2778368249724 -772.80416966494704 0 -772.80416966494704 -17.6198937161098 0 0 0 0 -489.95810371771523 -151.04241192433983 0 -151.04241192433983 -539.23320814707404 0 0 0 0 -908.80664424168526 -512.27840216947516 0 -512.27840216947516 -907.2533352986984 0 0 0 0 -833.71487076191659 -215.43325913163153 0 -215.43325913163153 216.1295570987495 0 0 0 0 -525.74680928536679 -198.99288338627684 0 -198.99288338627684 370.36200527804613 0 0 0 0 -164.58603555716218 -528.03226970354262 0 -528.03226970354262 85.568574478584196 0 0 0 0 -246.88358704247048 183.3254655763194 0 183.3254655763194 -54.393881999334553 0 0 0 0 -571.21318920456577 58.005565408751863 0 58.005565408751863 23.853161618004378 0 0 0 0 -1172.9056309422399 493.90156818128162 0 493.90156818128162 -269.69332626670439 0 0 0 0 -780.39728438315433 86.578047887054709 0 86.578047887054709 -59.902715697578969 0 0 0 0 -609.96950255140518 276.90618564636679 0 276.90618564636679 -278.95066096366645 0 0 0 0 -758.32226700408432 188.66780695662237 0 188.66780695662237 -1043.3388639181085 0 0 0 0 86.770889683503356 -176.76006999549827 0 -176.76006999549827 883.34905740263639 0 0 0 0 118.37227096255083 -601.4356489033371 0 -601.4356489033371 1097.5181908367085 0 0 0 0 216.27822112790091 -77.305444907726269 0 -77.305444907726269 339.60071484482069 0 0 0 0 237.6253720886474 -490.21522796615136 0 -490.21522796615136 573.64580629335978 0 0 0 0 -31.301521227727335 -98.445770679185443 0 -98.445770679185443 18.789107481235988 0 0 0 0 -92.606951223690885 -155.83658550086329 0 -155.83658550086329 343.22605359575755 0 0 0 0 199.50741183361606 -12.664961899954505 0 -12.664961899954505 428.52845834184882 0 0 0 0 305.79872544078626 -309.4019077576686 0 -309.4019077576686 529.32329081095577 0 0 0 0 273.67876440282089 -206.58770247712528 0 -206.58770247712528 344.53033266310013 0 0 0 0 163.01880569102104 -99.742531992313161 0 -99.742531992313161 640.81191336893244 0 0 0 0 244.1181707744754 -272.47054843787191 0 -272.47054843787191 708.40736639213719 0 0 0 0 121.66464905519661 -233.19802040968898 0 -233.19802040968898 1075.2882295840609 0 0 0 0 265.58533615071246 -377.21893254352108 0 -377.21893254352108 1319.8479114512957 0 0 0 0 366.17538421803874 -169.47045408989106 0 -169.47045408989106 1091.7322582180514 0 0 0 0 150.18465655937416 32.949462874250457 0 32.949462874250457 1745.7337640012638 0 0 0 0 46.745600897045733 -335.94890372231748 0 -335.94890372231748 1726.7659580048203 0 0 0 0 19.341714030726973 -12.525137302978495 0 -12.525137302978495 4.2642200190040063 0 0 0 0 -48.396893539787925 -251.15193708018705 0 -251.15193708018705 1803.8583750894652 0 0 0 0 60.209116170772177 -230.04492812755961 0 -230.04492812755961 1767.7505230158058 0 0 0 0 36.547744848785442 -224.02813991352014 0 -224.02813991352014 1307.1313355430393 0 0 0 0 -49.303860630141571 -52.301006162822887 0 -52.301006162822887 1768.3690706798463 0 0 0 0 -13.952115413752836 -161.96900701829327 0 -161.96900701829327 1681.4352390155764 0 0 0 0 119.78238296150448 -99.456726628777687 0 -99.456726628777687 1565.0200946586992 0 0 0 0 15.958117614412004 -53.846987939128667 0 -53.846987939128667 1574.8529842447533 0 0 0 0 91.036999962707341 -113.48653685264435 0 -113.48653685264435 1282.7593660062685 0 0 0 0 41.582816923069913 -90.187646332688018 0 -90.187646332688018 1284.7107662259882 0 0 0 0 120.63879704198916 -128.71255358294366 0 -128.71255358294366 1021.0120323218507 0 0 0 0 90.64412720326618 -128.39227818611471 0 -128.39227818611471 1021.0733541327791 0 0 0 0 150.41325494113516 -104.17401755586252 0 -104.17401755586252 761.46607043682889 0 0 0 0 159.45964187549362 -106.10912277512762 0 -106.10912277512762 940.85624453349374 0 0 0 0 196.10987170544286 -102.78522964697913 0 -102.78522964697913 756.95526180732122 0 0 0 0 159.58707405603309 -226.45311207157829 0 -226.45311207157829 1004.7780439504604 0 0 0 0 64.142658145521636 -113.89820630313989 0 -113.89820630313989 1295.1304745070133 0 0 0 0 121.01151581206796 -129.62987676534976 0 -129.62987676534976 755.68005506838381 0 0 0 0 223.06740091112079 -185.38558982166978 0 -185.38558982166978 468.73934229270162 0 0 0 0 82.171955902458649 -111.46422017022269 0 -111.46422017022269 762.50141119634918 0 0 0 0 196.86946721333152 -141.30503138059066 0 -141.30503138059066 510.28021471577813 0 0 0 0 171.75842350992207 -143.44406048655219 0 -143.44406048655219 342.75628359847906 0 0 0 0 117.3607723645946 -103.40209659365428 0 -103.40209659365428 501.00476508977954 0 0 0 0 219.37981831075558 -142.42834069722448 0 -142.42834069722448 320.38634072702553 0 0 0 0 114.02211898499081 -96.493592363605785 0 -96.493592363605785 307.62195243829774 0 0 0 0 79.29626883763467 -108.8326583256312 0 -108.8326583256312 331.79849087964249 0 0 0 0 174.29262581372495 -140.13986399907662 0 -140.13986399907662 170.94580651749857 0 0 0 0 79.184792363694214 -135.32659066740962 0 -135.32659066740962 170.72122953746248 0 0 0 0 180.28469027715255 -108.80256462711623 0 -108.80256462711623 30.279811532331223 0 0 0 0 123.5498395054874 -62.614057225735451 0 -62.614057225735451 118.26280737821799 0 0 0 0 140.12696063527983 -116.57336102808404 0 -116.57336102808404 43.920789895888447 0 0 0 0 223.79882912081121 -111.86182840220135 0 -111.86182840220135 131.82389055502063 0 0 0 0 189.20568311424086 -145.47469004652339 0 -145.47469004652339 289.39983382860373 0 0 0 0 168.46718396266942 -62.895960841209671 0 -62.895960841209671 388.6698757883496 0 0 0 0 157.41180786492441 -37.576325939387971 0 -37.576325939387971 276.80272424414579 0 0 0 0 223.60640941996508 -42.711965364637763 0 -42.711965364637763 164.59861144005845 0 0 0 0 139.05535775460521 39.739440154780823 0 39.739440154780823 94.740975224063732 0 0 0 0 160.82050390325912 -168.9156550299158 0 -168.9156550299158 242.49107057618676 0 0 0 0 297.69749449362098 -114.53246343827777 0 -114.53246343827777 143.53469154912091 0 0 0 0 58.218385265767211 5.8197346503657172 0 5.8197346503657172 80.593627390640904 0 0 0 0 153.98201952961062 -61.708567977833809 0 -61.708567977833809 -20.566127211692219 0 0 0 0 134.48846348601728 2.5220855524457875 0 2.5220855524457875 88.854727192596329 0 0 0 0 122.3777342735666 -23.48753687406861 0 -23.48753687406861 41.68991384669971 0 0 0 0 247.41368300341856 -90.194999913288484 0 -90.194999913288484 65.216441559870873 0 0 0 0 77.080764117126819 -17.688544163065671 0 -17.688544163065671 -78.598271764094534 0 0 0 0 181.75065620120381 32.469639715918674 0 32.469639715918674 -128.77469341614051 0 0 0 0 63.9103036873164 51.780585728594815 0 51.780585728594815 -115.50712904304601 0 0 0 0 46.59662545856736 5.1159970366907146 0 5.1159970366907146 -208.03077965059128 0 0 0 0 129.64947337333524 -37.685046616057662 0 -37.685046616057662 -163.9072628463764 0 0 0 0 102.52840255958472 7.5443813471138128 0 7.5443813471138128 -206.66483008929026 0 0 0 0 29.685556916071619 -65.446156510208311 0 -65.446156510208311 -141.98591795571701 0 0 0 0 87.083527899028923 -82.466316856523918 0 -82.466316856523918 -201.34652232880762 0 0 0 0 100.03093315443039 -113.06925193491406 0 -113.06925193491406 -253.09988601309942 0 0 0 0 49.996836408939089 -127.66142423928068 0 -127.66142423928068 -155.09418977830501 0 0 0 0 130.30655826616749 -102.5883098178092 0 -102.5883098178092 -159.95218941983148 0 0 0 0 70.93734119957935 -115.15739583445975 0 -115.15739583445975 -81.142436554619053 0 0 0 0 120.2788011143266 -95.121537835473646 0 -95.121537835473646 -78.9970461736375 0 0 0 0 94.518521557612985 -105.4978128224684 0 -105.4978128224684 30.205631618812731 0 0 0 0 162.25681026140319 -81.886887386473973 0 -81.886887386473973 -77.373611779235944 0 0 0 0 192.26363955385295 -42.136723040441211 0 -42.136723040441211 -74.748870416282443 0 0 0 0 144.59116856985202 -50.450044433055155 0 -50.450044433055155 -141.46542693470678 0 0 0 0 80.596268608054743 -92.806172393080487 0 -92.806172393080487 -77.899016682509682 0 0 0 0 -1206.1123165215211 -121.67297082745245 0 -121.67297082745245 58.783589766069781 0 0 0 0 -943.70822149705714 213.41422942121426 0 213.41422942121426 67.369872676841624 0 0 0 0 -715.84893729197552 165.19121676475334 0 165.19121676475334 -8.8613206981535768 0 0 0 0 -1067.9845397758147 226.26964934577518 0 226.26964934577518 46.02098272627336 0 0 0 0 -607.82218602569628 287.68171321634873 0 287.68171321634873 -12.197433527697285 0 0 0 0 -422.82424772064724 58.620927048206795 0 58.620927048206795 -3.9000154996756464 0 0 0 0 -613.00827017614347 41.833793026104104 0 41.833793026104104 -61.238243653075187 0 0 0 0 -436.29527037481466 209.18394471635838 0 209.18394471635838 -44.264997753940406 0 0 0 0 -233.43635770160108 179.30443454528358 0 179.30443454528358 -109.36443288402916 0 0 0 0 -282.41588435957055 54.480167059176893 0 54.480167059176893 -56.828652762858837 0 0 0 0 -257.78520019439657 185.56087740182738 0 185.56087740182738 -9.085368075138831 0 0 0 0 -96.432735229737773 -20.38181739198626 0 -20.38181739198626 31.047823582659476 0 0 0 0 -111.33683114720679 149.21889288660896 0 149.21889288660896 -45.687092477179249 0 0 0 0 202.58960256687169 -27.002189796336097 0 -27.002189796336097 26.386169435500051 0 0 0 0 -64.894342175932707 16.127351679898311 0 16.127351679898311 61.752361283703067 0 0 0 0 7.8634973621446989 93.759498859857558 0 93.759498859857558 150.35551994289199 0 0 0 0 79.817968293079502 80.0430140784174 0 80.0430140784174 -99.529236917514936 0 0 0 0 -94.829796866469451 127.94550017484562 0 127.94550017484562 -143.70267099639022 0 0 0 0 -135.03550605141254 30.204226964828194 0 30.204226964828194 -81.333289909380255 0 0 0 0 -249.97429864053765 8.8968235425600142 0 8.8968235425600142 -125.61143647721474 0 0 0 0 -643.91207049693685 168.29938918949483 0 168.29938918949483 -58.172993105890612 0 0 0 0 -442.39367482555804 45.432701762229044 0 45.432701762229044 -98.715936420398066 0 0 0 0 -424.93625008293429 140.57860408727538 0 140.57860408727538 -110.22234609023508 0 0 0 0 -625.09127122433574 13.395703369535113 0 13.395703369535113 -60.485881882850663 0 0 0 0 -643.36748663659773 55.052878677277477 0 55.052878677277477 -136.51715720320226 0 0 0 0 -778.68836606682999 -103.56734872563175 0 -103.56734872563175 -162.47362272545797 0 0 0 0 -696.89719745113507 -93.040706174220759 0 -93.040706174220759 50.261837113481306 0 0 0 0 -390.89541047762123 1.4676974428621179 0 1.4676974428621179 -74.755759773664977 0 0 0 0 -0.33986569731233374 0.65151927229324258 0 0.65151927229324258 -0.18602099637807756 0 0 0 0 -56.778039624669873 60.308799155109227 0 60.308799155109227 -39.929646254739055 0 0 0 0 -138.1549617942369 -42.488407440638184 0 -42.488407440638184 -191.60783626864213 0 0 0 0 -394.40612181848064 44.809622993981975 0 44.809622993981975 -124.61331939104889 0 0 0 0 -362.42065017302139 -227.98748165179677 0 -227.98748165179677 -32.665016682118335 0 0 0 0 -378.62386034001929 -188.70802257094692 0 -188.70802257094692 76.603837924782056 0 0 0 0 -398.96844664211721 -141.77171061589524 0 -141.77171061589524 -28.45744526769704 0 0 0 0 3.8654601613870909 -20.722879764383833 0 -20.722879764383833 9.8898063196075245 0 0 0 0 65.541034406222025 -192.12297635158211 0 -192.12297635158211 -300.35009323103429 0 0 0 0 -87.377560617675044 -65.697082363978552 0 -65.697082363978552 -61.276192697216175 0 0 0 0 0.67801852951408925 -0.30843826512817785 0 -0.30843826512817785 -2.1108319454309878 0 0 0 0 -1.8916480447141168 -5.36778873403658 0 -5.36778873403658 8.5114927323164462 0 0 0 0 -5.872285839518554 -180.96787651341765 0 -180.96787651341765 -238.24605022490914 0 0 0 0 -64.556643201283805 -109.04837004362344 0 -109.04837004362344 -199.16596210319017 0 0 0 0 -0.52425041457599519 0.46283451736059789 0 0.46283451736059789 0.39100084115201483 0 0 0 0 -12.816428509842808 -5.5469890576896432 0 -5.5469890576896432 -0.54179175410536118 0 0 0 0 -32.716147037577684 5.4691096578389988 0 5.4691096578389988 -205.36625237705175 0 0 0 0 57.530524235456596 31.191088364961615 0 31.191088364961615 -253.69186997471479 0 0 0 0 9.4282559867233431 59.490844315130744 0 59.490844315130744 -216.76912683195542 0 0 0 0 -0.87874984256149347 -0.52913427454212325 0 -0.52913427454212325 0.3283649738401806 0 0 0 0 -26.010271215521243 19.752988175643623 0 19.752988175643623 35.78811267639685 0 0 0 0 70.560341059488564 -128.77355949050616 0 -128.77355949050616 12.575699027205701 0 0 0 0 18.194359050449748 -16.763163526375138 0 -16.763163526375138 -23.406655937516916 0 0 0 0 5.7900263101371365 -2.3691627385796892 0 -2.3691627385796892 1.9549541777483928 0 0 0 0 4.7103156952985712 -8.4165313462848452 0 -8.4165313462848452 9.3712496197858854 0 0 0 0 -2.3609830492797137 -1.8457191726938902 0 -1.8457191726938902 4.7245059667274916 0 0 0 0 266.49533775704185 649.200399489544 0 649.200399489544 686.65859189357434 0 0 0 0 186.33954939722298 373.22019815081876 0 373.22019815081876 109.24119586819143 0 0 0 0 260.04449064130768 756.80159921556151 0 756.80159921556151 997.48729938067845 0 0 0 0 77.837119284843084 45.586756752214569 0 45.586756752214569 -3.7129529929461569 0 0 0 0 -50.148885193474143 -64.237104179490416 0 -64.237104179490416 27.099756509397594 0 0 0 0 3.5221595310126759 -63.532009161447604 0 -63.532009161447604 -16.983874807883694 0 0 0 0 -0.25927990014458402 -0.0058095807117339859 0 -0.0058095807117339859 3.9396888952606446 0 0 0 0 -45.203179423652273 -2.8802641353395302 0 -2.8802641353395302 57.499571784330328 0 0 0 0 4.5354899333415153 -6.2915739359728136 0 -6.2915739359728136 8.4581733615263204 0 0 0 0 119.13025049273847 -15.462715222151928 0 -15.462715222151928 -76.777513469482074 0 0 0 0 362.49265182221825 584.3008158142693 0 584.3008158142693 1120.9804535660151 0 0 0 0 1011.8119272870481 322.55091199537128 0 322.55091199537128 1218.4352215101862 0 0 0 0 -22.147440936085786 505.23899602100755 0 505.23899602100755 1420.5459174515345 0 0 0 0 341.09642740255504 710.07991422176565 0 710.07991422176565 1507.9765862610147 0 0 0 0 -37.403431309567623 435.143196500675 0 435.143196500675 1104.8145960901529 0 0 0 0 -82.440369694385481 548.68775926162562 0 548.68775926162562 1178.772680291775 0 0 0 0 -0.48896060893193471 0.18300609665033107 0 0.18300609665033107 -0.088680928382125046 0 0 0 0 13.586060342244991 -9.6505882615165319 0 -9.6505882615165319 237.25414886556246 0 0 0 0 8.629513855600635 69.697637693800061 0 69.697637693800061 -37.760207091891061 0 0 0 0 1.7525016342289117 -2.5965654537637946 0 -2.5965654537637946 4.1576270793583205 0 0 0 0 54.04409616342673 421.76281465700231 0 421.76281465700231 1207.6699740758468 0 0 0 0 -59.190139978712523 70.94604269048159 0 70.94604269048159 1290.3971807852431 0 0 0 0 34.345025549360798 -174.61092926262427 0 -174.61092926262427 32.966093883641861 0 0 0 0 62.794305239728345 -379.25705513528385 0 -379.25705513528385 335.46101599360554 0 0 0 0 -398.34353502038175 -130.6190185330961 0 -130.6190185330961 201.73038008577441 0 0 0 0 -255.95373391927865 472.30937072079269 0 472.30937072079269 932.8822018189785 0 0 0 0 238.89317618254086 336.06942519642598 0 336.06942519642598 310.50968409317102 0 0 0 0 114.9701267686637 371.37812832198506 0 371.37812832198506 1147.4768232636507 0 0 0 0 320.65020835860014 424.24607473046672 0 424.24607473046672 270.54783780692014 0 0 0 0 152.80839653334306 248.02588812559952 0 248.02588812559952 81.125131104396132 0 0 0 0 182.92083144374101 466.02516842526347 0 466.02516842526347 372.75146304514237 0 0 0 0 -118.82462852562639 434.69025955284087 0 434.69025955284087 454.04860225685479 0 0 0 0 -86.425583231154633 506.50021329077026 0 506.50021329077026 484.15370734365933 0 0 0 0 -89.915513509829907 88.635575093519947 0 88.635575093519947 1544.6539132373146 0 0 0 0 4.8929361257823167 5.7013446401448888 0 5.7013446401448888 6.6405797017116655 0 0 0 0 342.02598122958449 588.63631997555501 0 588.63631997555501 14.578515304914617 0 0 0 0 270.51311050728054 44.008340173430042 0 44.008340173430042 1866.6092953645639 0 0 0 0 283.44180282965635 791.31206284201289 0 791.31206284201289 1200.2579328320408 0 0 0 0 287.35672163515608 123.22245215307025 0 123.22245215307025 -199.37512765089195 0 0 0 0 280.77876183796388 421.17415476125461 0 421.17415476125461 273.82180181740841 0 0 0 0 -59.931958380026799 -17.672003868856336 0 -17.672003868856336 -0.51919825970162492 0 0 0 0 -40.961581939245789 36.456178595277379 0 36.456178595277379 8.3674284185253782 0 0 0 0 -38.333906388001651 28.527200592272493 0 28.527200592272493 107.62695476317367 0 0 0 0 -38.519005943494562 46.491599831280837 0 46.491599831280837 49.094905540481705 0 0 0 0 163.83290568792063 194.10440784406001 0 194.10440784406001 128.08037741453154 0 0 0 0 38.439769115794206 81.752641201406732 0 81.752641201406732 64.175017790924358 0 0 0 0 25.684510258553019 210.24846466211784 0 210.24846466211784 313.19604498019726 0 0 0 0 -148.35315202578658 434.15704289588575 0 434.15704289588575 459.58372879667513 0 0 0 0 -76.582010056469699 283.23206306557768 0 283.23206306557768 261.65030683335408 0 0 0 0 -78.879829335305629 343.57743819960444 0 343.57743819960444 561.9327021970239 0 0 0 0 -133.88825878523858 204.96427935889551 0 204.96427935889551 365.95977533586392 0 0 0 0 -47.839991649677131 -9.8293194965394832 0 -9.8293194965394832 6.3138079365307931 0 0 0 0 -117.68757453777698 -44.124746709394458 0 -44.124746709394458 437.43449605140995 0 0 0 0 -61.294172495378007 6.966487164989303 0 6.966487164989303 210.31032426259299 0 0 0 0 6.1836644650420709 -2.5132172238677413 0 -2.5132172238677413 41.804667068310664 0 0 0 0 12.23865843603329 49.114022125731367 0 49.114022125731367 17.626992500259803 0 0 0 0 -43.578848407840724 28.070585608949841 0 28.070585608949841 11.816656394847087 0 0 0 0 -42.437928580846993 104.01805953127533 0 104.01805953127533 -69.081341688382963 0 0 0 0 2.3821215671015636 4.2991075757231396 0 4.2991075757231396 6.419646283777368 0 0 0 0 237.31755419290039 348.56751631334555 0 348.56751631334555 -257.44068138150033 0 0 0 0 -119.33762438576809 -2.6377484656306933 0 -2.6377484656306933 137.20025773408634 0 0 0 0 -143.87964355114445 111.79087806407369 0 111.79087806407369 -14.254250293135556 0 0 0 0 -117.09815084437469 9.2762718432713882 0 9.2762718432713882 -30.28021906583308 0 0 0 0 -30.335286394261857 78.075803858340805 0 78.075803858340805 194.9765740234252 0 0 0 0 -15.011224605408643 46.550873190699349 0 46.550873190699349 -40.306253482396642 0 0 0 0 -18.157066216059434 27.195896387371818 0 27.195896387371818 2.533327179869957 0 0 0 0 -91.750561242004096 36.798516074821237 0 36.798516074821237 -25.642902332096128 0 0 0 0 -78.075110938854323 9.030722942178727 0 9.030722942178727 -67.067091665059706 0 0 0 0 -37.815609385263997 57.13610750816224 0 57.13610750816224 -35.594474745463231 0 0 0 0 6.0401423387561408 54.643445578527462 0 54.643445578527462 -74.639559570685378 0 0 0 0 -13.869084457092185 62.456411831095465 0 62.456411831095465 40.057161301447195 0 0 0 0 -15.836577067945882 50.290197199731665 0 50.290197199731665 -31.651084286324476 0 0 0 0 -47.824272939321986 33.828513461599869 0 33.828513461599869 18.287348632755311 0 0 0 0 -49.191864516365399 32.591270874229622 0 32.591270874229622 36.795116360306565 0 0 0 0 -12.233564418185779 16.474883757857242 0 16.474883757857242 26.078701153948714 0 0 0 0 -11.177109240308255 32.467159622787221 0 32.467159622787221 6.2318660384135001 0 0 0 0 -3.1806201307886326 0.21914868025751844 0 0.21914868025751844 2.2095878240611952 0 0 0 0 206.54739652474575 290.99097444415986 0 290.99097444415986 247.36361476511229 0 0 0 0 202.91923743705956 314.65610894966176 0 314.65610894966176 218.64632820398583 0 0 0 0 13.909630516981451 24.768781623089126 0 24.768781623089126 68.642480649752088 0 0 0 0 45.806942025251374 45.692486726130483 0 45.692486726130483 77.237450643651755 0 0 0 0 -8.281696633995125 -0.64310920674142835 0 -0.64310920674142835 71.408161675710446 0 0 0 0 -4.4523607207347595 -4.4611343621327251 0 -4.4611343621327251 71.442312776036999 0 0 0 0 -39.023973736994776 -18.394127149364067 0 -18.394127149364067 77.805219141380917 0 0 0 0 -2.5312270073900436 -12.844259403178512 0 -12.844259403178512 77.379615895216716 0 0 0 0 63.601205516370555 98.179416329336163 0 98.179416329336163 -161.67344381941166 0 0 0 0 -70.95284904775167 -93.892346563687624 0 -93.892346563687624 -15.866487154617062 0 0 0 0 39.670534905592831 111.4935340152897 0 111.4935340152897 101.4865979328988 0 0 0 0 -1.3760341194910808 -0.44965735371021864 0 -0.44965735371021864 1.4858194486817773 0 0 0 0 36.226193092836979 4.0456324277502063 0 4.0456324277502063 23.446420461508751 0 0 0 0 128.81479182091425 29.781778462966031 0 29.781778462966031 308.24664551204842 0 0 0 0 -13.868505968769568 376.26267745640507 0 376.26267745640507 472.73684194276848 0 0 0 0 -59.702610251235456 209.43577909289888 0 209.43577909289888 254.10287699614855 0 0 0 0 -115.30660245264585 -22.465625218599143 0 -22.465625218599143 563.23902868556615 0 0 0 0 1.5847953610058134 2.2946927807939268 0 2.2946927807939268 2.6364579168615307 0 0 0 0 -176.4776141114844 298.46482506038774 0 298.46482506038774 628.44337613586322 0 0 0 0 -133.4788161464532 220.57139120514483 0 220.57139120514483 793.46765855134799 0 0 0 0 54.086174491571001 357.51065666711474 0 357.51065666711474 626.98817706356749 0 0 0 0 -23.559487240283488 98.628599786330597 0 98.628599786330597 834.88418834447657 0 0 0 0 -62.468430913158045 47.556960484047522 0 47.556960484047522 814.25255933050175 0 0 0 0 -45.676402878547378 141.80384518488609 0 141.80384518488609 659.77237456825605 0 0 0 0 -98.646265749250233 27.37523604333478 0 27.37523604333478 1009.2973683335294 0 0 0 0 354.14586097823394 -281.74366177310822 0 -281.74366177310822 902.17387797262745 0 0 0 0 391.57851761743632 285.85251247830092 0 285.85251247830092 172.26642355938384 0 0 0 0 -4.7963186631413919 85.629191671534045 0 85.629191671534045 536.60560228173199 0 0 0 0 106.36475601090751 -6.1302923821567674 0 -6.1302923821567674 526.48990469516139 0 0 0 0 182.40829413138181 261.49048846044207 0 261.49048846044207 309.20692965404851 0 0 0 0 282.75404648920221 490.2066009270211 0 490.2066009270211 38.081652156837663 0 0 0 0 -248.99779345266234 434.50872344596519 0 434.50872344596519 1355.1185070039774 0 0 0 0 1205.3873972566198 251.50078605357703 0 251.50078605357703 228.82013673438178 0 0 0 0 209.95548765084732 -809.64148821933759 0 -809.64148821933759 626.28665146168714 0 0 0 0 2.8775780711117447 -3.0651331216814892 0 -3.0651331216814892 16.286862449423623 0 0 0 0 1038.8716585408906 -208.31897207806378 0 -208.31897207806378 3.2507962416893861 0 0 0 0 222.18132838317661 -236.07161868374396 0 -236.07161868374396 129.39885210352804 0 0 0 0 105.72016684818118 95.474493938178057 0 95.474493938178057 316.25984466587033 0 0 0 0 143.81906787032858 275.93756907418538 0 275.93756907418538 369.76042653770492 0 0 0 0 -26.611596434880994 249.4424355747542 0 249.4424355747542 806.05339124280363 0 0 0 0 20.702586845010046 182.09787444958056 0 182.09787444958056 342.89855365287804 0 0 0 0 -10.97716471035892 108.23722728376742 0 108.23722728376742 317.76625696803512 0 0 0 0 113.55306365958859 19.743482352634601 0 19.743482352634601 -162.27070220810856 0 0 0 0 36.385852790752324 -40.724534828703327 0 -40.724534828703327 -28.068524112968589 0 0 0 0 123.02937712191158 122.99325419094953 0 122.99325419094953 51.731640251739009 0 0 0 0 -14.855652112800726 -56.347956580360915 0 -56.347956580360915 61.286330665017886 0 0 0 0 -14.156640499917557 -71.825025154175819 0 -71.825025154175819 50.798131769828615 0 0 0 0 -37.624761200217108 -159.52012970826399 0 -159.52012970826399 -67.465674517527077 0 0 0 0 -197.28482731929489 -814.02890447357731 0 -814.02890447357731 -303.27052575319249 0 0 0 0 -2.7614115726217854 0.93792044310377953 0 0.93792044310377953 18.125499726927682 0 0 0 0 208.97294851973129 -403.127050930314 0 -403.127050930314 -827.36051497190056 0 0 0 0 -53.028136192966485 21.76717765828289 0 21.76717765828289 56.208713707547304 0 0 0 0 -596.52132587461165 -262.15826383179592 0 -262.15826383179592 -350.85914813248382 0 0 0 0 2.9944980318344898 -18.010717244148644 0 -18.010717244148644 -2.9191236828024785 0 0 0 0 -164.79973275928933 -469.3967485631656 0 -469.3967485631656 -298.16379141915968 0 0 0 0 -256.97677219238176 -128.36964565441667 0 -128.36964565441667 -582.76978600946313 0 0 0 0 -105.29193759038753 -244.70861549307301 0 -244.70861549307301 -542.58814294652075 0 0 0 0 -79.995289890852291 -395.47294209503525 0 -395.47294209503525 -253.36139947469201 0 0 0 0 -88.225361958833673 -324.25871201261361 0 -324.25871201261361 -96.294671963154542 0 0 0 0 -224.01743495350092 -389.82940849497027 0 -389.82940849497027 179.44367193134167 0 0 0 0 -174.24360917551348 -250.85957797049014 0 -250.85957797049014 449.14588106587689 0 0 0 0 -690.15603876398609 246.1441955909213 0 246.1441955909213 548.64523888426447 0 0 0 0 -238.58320022688258 361.65212056508244 0 361.65212056508244 573.39938189008535 0 0 0 0 -173.70920045153071 140.74458620403675 0 140.74458620403675 429.13398675426106 0 0 0 0 -126.25553279303517 88.517786321877793 0 88.517786321877793 451.62254516578105 0 0 0 0 -144.13486926122823 174.22295700216637 0 174.22295700216637 663.7234033607433 0 0 0 0 -28.505199864684528 54.259199300237015 0 54.259199300237015 157.11085769400961 0 0 0 0 -12.05875673396713 -128.25740536614467 0 -128.25740536614467 163.77028973172128 0 0 0 0 -53.537370348279183 18.523359829250694 0 18.523359829250694 146.23664266644482 0 0 0 0 69.042894837091808 -66.931924128126411 0 -66.931924128126411 67.463934106957822 0 0 0 0 47.945887796332045 -2.787923322424831 0 -2.787923322424831 87.758566876225814 0 0 0 0 -141.48307678195147 -121.74889614135918 0 -121.74889614135918 165.02220810730432 0 0 0 0 -474.37859321340284 -93.275568274844773 0 -93.275568274844773 295.48487149825087 0 0 0 0 -403.09801789938365 639.52564980872921 0 639.52564980872921 440.84701803192002 0 0 0 0 -441.49720910295218 30.308473891564063 0 30.308473891564063 -16.691914695693413 0 0 0 0 -382.84900368519209 -161.40914275526711 0 -161.40914275526711 108.42096510116971 0 0 0 0 -914.08743047701546 253.13359039726492 0 253.13359039726492 324.06629380834784 0 0 0 0 -578.54133981864243 -139.33545995296299 0 -139.33545995296299 349.76638565409326 0 0 0 0 -706.47072144770539 427.37404256229183 0 427.37404256229183 -101.70801626831962 0 0 0 0 -6.449740184286977 -3.3713353622744791 0 -3.3713353622744791 3.8977297043330594 0 0 0 0 -672.58722277936567 48.336157178096983 0 48.336157178096983 82.409457431473129 0 0 0 0 -562.15840676474545 127.77803948109067 0 127.77803948109067 -94.396661870499884 0 0 0 0 60.172398519822309 -46.645450668140256 0 -46.645450668140256 157.21247902288451 0 0 0 0 -0.95132721556133593 -4.9144802968768895 0 -4.9144802968768895 -2.1053807191857317 0 0 0 0 -155.19060393578457 -115.75126197862528 0 -115.75126197862528 32.494427097764856 0 0 0 0 -492.62053658643856 37.206283482887557 0 37.206283482887557 18.460989070481446 0 0 0 0 -7.3141056721743603 -3.6925599298352854 0 -3.6925599298352854 45.427995903478106 0 0 0 0 -92.608444225726998 -139.2459947776606 0 -139.2459947776606 -31.55203939043713 0 0 0 0 -533.87021029422863 -56.607776640596057 0 -56.607776640596057 132.9180758241564 0 0 0 0 -447.08186771926239 -60.276897151248704 0 -60.276897151248704 -7.0559051868040115 0 0 0 0 -377.94514220271731 -200.50631202706791 0 -200.50631202706791 11.22212894178665 0 0 0 0 -383.83642507910463 -161.88992928257358 0 -161.88992928257358 108.68894800495764 0 0 0 0 -77.632131020305678 43.535901542377587 0 43.535901542377587 163.22468549157247 0 0 0 0 -37.310738116792891 57.864274294988945 0 57.864274294988945 109.25380778261365 0 0 0 0 -9.0524581936415007 -13.036917244935408 0 -13.036917244935408 102.84170726238145 0 0 0 0 -84.178486236043682 20.703994205406389 0 20.703994205406389 104.80258783085083 0 0 0 0 -6.5887494502315525 -15.303490173876195 0 -15.303490173876195 50.803497920727452 0 0 0 0 181.79903461180584 -136.72347113884348 0 -136.72347113884348 -479.24937323048107 0 0 0 0 -165.26573956672019 -118.82973684236458 0 -118.82973684236458 89.090401617675525 0 0 0 0 -142.70901681853957 -47.749806735835591 0 -47.749806735835591 95.329895663038769 0 0 0 0 27.112555568948665 -9.6651435274397954 0 -9.6651435274397954 76.783409999814467 0 0 0 0 -105.69463266595994 -92.388672685927304 0 -92.388672685927304 104.05588869621715 0 0 0 0 67.212425783511662 -143.90573801620849 0 -143.90573801620849 57.083741583388473 0 0 0 0 -65.227150551527302 -25.955486981736613 0 -25.955486981736613 136.09932812472107 0 0 0 0 -27.464020356469572 -36.409613309457136 0 -36.409613309457136 -13.346051594768337 0 0 0 0 -86.516893791402254 -21.513342775306228 0 -21.513342775306228 33.574455755328927 0 0 0 0 -114.91677202899336 -47.300331106544036 0 -47.300331106544036 39.001963267954125 0 0 0 0 84.890739645877829 -43.612534131315897 0 -43.612534131315897 -67.226671868695121 0 0 0 0 9.1982924587573507 -127.42510178072098 0 -127.42510178072098 -92.704613180284923 0 0 0 0 -44.888977121959897 0.5093542785217835 0 0.5093542785217835 57.230496726996989 0 0 0 0 -11.627719573772454 -9.0860259793969362 0 -9.0860259793969362 9.8663786940554665 0 0 0 0 -23.784159101671321 -27.747986001209938 0 -27.747986001209938 24.389064238356696 0 0 0 0 -8.2563635958563406 -2.6741882037966089 0 -2.6741882037966089 100.25402564524025 0 0 0 0 -84.736778461478025 -82.389998441403122 0 -82.389998441403122 210.0608029793691 0 0 0 0 -153.93938567695588 -38.379215436113554 0 -38.379215436113554 104.91985472891247 0 0 0 0 -36.683777158425571 -19.337568303679163 0 -19.337568303679163 39.128424004510549 0 0 0 0 -92.306108142411105 -29.132564446648757 0 -29.132564446648757 55.564889395382579 0 0 0 0 -95.507226748171661 -42.322513874742071 0 -42.322513874742071 202.39434812153922 0 0 0 0 -66.244380554475583 -9.8362578457945347 0 -9.8362578457945347 69.833005995504209 0 0 0 0 -130.6562752470609 -12.391875767549209 0 -12.391875767549209 131.33175608067177 0 0 0 0 -83.657926589189117 -55.705787953922481 0 -55.705787953922481 129.26325406914111 0 0 0 0 -18.9897219861341 -41.515836865786696 0 -41.515836865786696 94.477239153951814 0 0 0 0 -29.461898220605462 -135.41440856040253 0 -135.41440856040253 163.41200581102748 0 0 0 0 121.08821639199095 -103.32429426043382 0 -103.32429426043382 82.210922885151376 0 0 0 0 141.66400692289108 84.995128394344647 0 84.995128394344647 45.94909717302653 0 0 0 0 115.22329795952999 145.22275735645871 0 145.22275735645871 816.29406385804759 0 0 0 0 1.6587487125666716 -3.9376858889646371 0 -3.9376858889646371 57.482217738958951 0 0 0 0 529.05225355732773 -221.71285259776232 0 -221.71285259776232 -41.993434197727765 0 0 0 0 197.90227365328246 -290.61786888939241 0 -290.61786888939241 -450.07487639519968 0 0 0 0 -15.154510786995161 -54.844901762873633 0 -54.844901762873633 129.96662018935604 0 0 0 0 0.23193695864759611 0.709825819606273 0 0.709825819606273 5.0936117045745419 0 0 0 0 -0.094059827184119982 14.169833300533163 0 14.169833300533163 56.007429444590485 0 0 0 0 -14.267248195845241 -58.036081891926187 0 -58.036081891926187 99.43375671870308 0 0 0 0 -218.62694271706755 -10.742593325445341 0 -10.742593325445341 128.08037940357463 0 0 0 0 -77.104637596753491 89.006013267302478 0 89.006013267302478 -17.01246078182885 0 0 0 0 -367.57081006395265 115.53185325483719 0 115.53185325483719 88.778207477795149 0 0 0 0 -4.8478399068063007 4.4265071872990793 0 4.4265071872990793 79.234579193683999 0 0 0 0 -168.65059321774299 -67.525781844138692 0 -67.525781844138692 162.10844593459478 0 0 0 0 -49.613954835003369 44.843923439182618 0 44.843923439182618 103.30109215636912 0 0 0 0 -12.095025054021789 33.203035562113655 0 33.203035562113655 186.62603791279253 0 0 0 0 -11.912392720471871 22.254037321079522 0 22.254037321079522 44.716325748533563 0 0 0 0 20.642897235011787 -2.8278699004758892 0 -2.8278699004758892 142.34716067856789 0 0 0 0 24.591217444723952 -11.273844406608987 0 -11.273844406608987 133.76894598244689 0 0 0 0 13.498212734599427 -12.149262040945956 0 -12.149262040945956 34.925281706848665 0 0 0 0 36.494644584442199 35.076091590437954 0 35.076091590437954 45.574549795848725 0 0 0 0 -354.80225790095994 -289.90923054475206 0 -289.90923054475206 -96.649616175614938 0 0 0 0 -10.394624906451808 -2.4511836804833536 0 -2.4511836804833536 27.336326013462639 0 0 0 0 -237.03688605222132 74.486919480900724 0 74.486919480900724 125.88261080670054 0 0 0 0 -0.67710719086075244 -13.659371685103602 0 -13.659371685103602 115.7791017043163 0 0 0 0 -651.23427997915564 65.871996377194591 0 65.871996377194591 144.22721546724642 0 0 0 0 0.68660424898507699 -27.610991187847048 0 -27.610991187847048 130.17255060472235 0 0 0 0 51.782018428841184 6.5262726475193631 0 6.5262726475193631 93.540135013012332 0 0 0 0 37.538438343062808 10.184214616572717 0 10.184214616572717 153.89572010509437 0 0 0 0 44.169034754828317 21.638488414770109 0 21.638488414770109 157.46988394889922 0 0 0 0 6.7443519968999297 33.209399640758825 0 33.209399640758825 164.77537744552856 0 0 0 0 42.904456271286108 6.7112922225605871 0 6.7112922225605871 145.83471147378441 0 0 0 0 49.587979498937784 1.9246688751700276 0 1.9246688751700276 134.06298291537314 0 0 0 0 69.094016486742476 40.193431521562161 0 40.193431521562161 170.56108781390867 0 0 0 0 45.321707718848529 23.260735369214217 0 23.260735369214217 171.01201146557287 0 0 0 0 -552.73590460857395 -170.36954216350887 0 -170.36954216350887 255.71939783242851 0 0 0 0 -321.1348045028717 -142.81354968276901 0 -142.81354968276901 53.829527720181432 0 0 0 0 -360.71883705449181 -170.42516463561697 0 -170.42516463561697 363.31480070865791 0 0 0 0 -106.01474605850672 -486.04596684880562 0 -486.04596684880562 313.20371531828982 0 0 0 0 -290.31842922288888 -248.53442221223577 0 -248.53442221223577 164.45295709226775 0 0 0 0 -426.89797261128115 -337.72602342683058 0 -337.72602342683058 262.88558984520751 0 0 0 0 -17.6605109837495 -40.923549864877451 0 -40.923549864877451 47.59743412478111 0 0 0 0 -155.12642413769072 -99.101116288862613 0 -99.101116288862613 101.88566463456482 0 0 0 0 -4.0087239776985371 -35.640242336985466 0 -35.640242336985466 101.1990678322436 0 0 0 0 -369.28984977340065 -121.46268684408642 0 -121.46268684408642 110.8697475514 0 0 0 0 -176.44164633153014 -305.7592030265605 0 -305.7592030265605 177.03166955715824 0 0 0 0 -84.896322982108813 -338.31057461351884 0 -338.31057461351884 -39.429919795431488 0 0 0 0 319.74406093833045 -128.95583808120364 0 -128.95583808120364 -231.88159758161783 0 0 0 0 30.637797632857769 -3.5711611577062286 0 -3.5711611577062286 -23.472952914671623 0 0 0 0 19.710395118587364 -10.219287109696552 0 -10.219287109696552 36.430554229040823 0 0 0 0 42.699294975242992 10.656783282051038 0 10.656783282051038 133.2635451252354 0 0 0 0 35.356769497766891 111.14266283580764 0 111.14266283580764 -75.930035271521774 0 0 0 0 -82.127919275932072 167.59295978678347 0 167.59295978678347 -95.329994851366791 0 0 0 0 107.67316902790662 361.68260701010149 0 361.68260701010149 -3.4560476850674604 0 0 0 0 10.354497788497536 4.7387727572121747 0 4.7387727572121747 1.171337846034092 0 0 0 0 -120.61905646657033 246.78799124288344 0 246.78799124288344 -327.9626400230336 0 0 0 0 50.070175957672291 160.54516572442662 0 160.54516572442662 -294.80755979343667 0 0 0 0 8.6190603150935985 2.8109277146119354 0 2.8109277146119354 0.40094475311025235 0 0 0 0 -63.336629041520837 30.540258119515784 0 30.540258119515784 -424.6148635370555 0 0 0 0 -31.181878157883148 321.66648181157143 0 321.66648181157143 124.85073380480026 0 0 0 0 6.0879269870133612 150.56827807500304 0 150.56827807500304 435.49465240800055 0 0 0 0 -38.206234430342874 375.82154006215933 0 375.82154006215933 48.99481368164561 0 0 0 0 -118.29061045281395 89.796151230541 0 89.796151230541 34.434553626793786 0 0 0 0 -151.29159955268779 233.70138810692515 0 233.70138810692515 -491.00279805158061 0 0 0 0 -359.75994346424886 257.02592791607822 0 257.02592791607822 -29.94487915337686 0 0 0 0 -1025.3482190584427 281.91054955172876 0 281.91054955172876 897.36943427337974 0 0 0 0 -619.96242100892505 -122.25178146396865 0 -122.25178146396865 1142.1280658987889 0 0 0 0 3.9352998490898501 -1.2039148983907637 0 -1.2039148983907637 -1.1252441605526826 0 0 0 0 -654.3769379399555 344.45107783689309 0 344.45107783689309 -7.327518414574115 0 0 0 0 -924.68446795149873 -101.1529328690267 0 -101.1529328690267 345.34044839022681 0 0 0 0 -547.02310570940517 -35.526798008933838 0 -35.526798008933838 353.73249300471434 0 0 0 0 -530.63834150204571 35.542722017082269 0 35.542722017082269 607.97261797888495 0 0 0 0 -251.2569982844484 304.4937212803834 0 304.4937212803834 553.63684525690041 0 0 0 0 -326.37921030753114 31.590487182278594 0 31.590487182278594 -336.64803738577757 0 0 0 0 -421.34684785600359 647.94698223136947 0 647.94698223136947 -115.74534335712087 0 0 0 0 75.371933730313231 324.43613534301403 0 324.43613534301403 57.82832433420117 0 0 0 0 111.31350918770113 472.33087980901473 0 472.33087980901473 111.05913126313681 0 0 0 0 -216.56440392555578 23.577900576754473 0 23.577900576754473 1325.0558154319333 0 0 0 0 -207.23748056370505 -13.674482317219372 0 -13.674482317219372 343.83935414030566 0 0 0 0 243.76493456063258 235.78864144282215 0 235.78864144282215 -255.0612356030615 0 0 0 0 418.6031798588001 764.38261087883438 0 764.38261087883438 442.69239785480022 0 0 0 0 337.50919687179658 -243.44973483627109 0 -243.44973483627109 138.27300218713935 0 0 0 0 544.35625583121373 -237.09770390196763 0 -237.09770390196763 493.50522190975607 0 0 0 0 469.4284276830432 330.70950727435229 0 330.70950727435229 923.04095859530207 0 0 0 0 -71.042736901198623 -196.09130209963041 0 -196.09130209963041 589.89267235896477 0 0 0 0 -74.100107225614352 -161.17446513650884 0 -161.17446513650884 275.92397929415165 0 0 0 0 -480.70660332743 -140.78126754667755 0 -140.78126754667755 352.52311767248466 0 0 0 0 -481.81923582288482 -307.46008298548259 0 -307.46008298548259 210.72218136038282 0 0 0 0 -629.1625371232808 -188.46081843128923 0 -188.46081843128923 364.15644050145056 0 0 0 0 -423.12416558857535 -281.29322915718876 0 -281.29322915718876 580.43111016198236 0 0 0 0 -492.8012316577308 -130.24243232245863 0 -130.24243232245863 306.66004636947764 0 0 0 0 -672.40999746904595 -109.25995621376205 0 -109.25995621376205 273.33757099619834 0 0 0 0 -727.7643201960725 -48.726596409069316 0 -48.726596409069316 446.21990959397226 0 0 0 0 -600.93169311022609 -195.13243419540959 0 -195.13243419540959 376.25043942793855 0 0 0 0 -746.23047506042224 10.982952298199962 0 10.982952298199962 294.84523153366172 0 0 0 0 -680.8563143155294 -115.9991857825953 0 -115.9991857825953 299.62466115201823 0 0 0 0 -597.02703820146075 -260.96488205544301 0 -260.96488205544301 2.8628417662257561 0 0 0 0 8.0045413060528183 -35.606082834298896 0 -35.606082834298896 101.12542315911384 0 0 0 0 -798.74181937689832 -457.63821187031817 0 -457.63821187031817 149.37047147308476 0 0 0 0 -670.12588531163942 -272.9263257063285 0 -272.9263257063285 263.33477839602347 0 0 0 0 -752.65651208520319 -216.52387460599584 0 -216.52387460599584 224.81750643267878 0 0 0 0 206.66633440128135 126.7661328148024 0 126.7661328148024 71.02026326883788 0 0 0 0 153.94741084909282 171.75959357559418 0 171.75959357559418 142.19322968208871 0 0 0 0 136.14350622110888 -51.599502228170877 0 -51.599502228170877 -184.81126195722754 0 0 0 0 133.50730104003287 162.47835821288027 0 162.47835821288027 204.26686346897623 0 0 0 0 -1018.7894573633694 -686.79993836273206 0 -686.79993836273206 -164.57632162333175 0 0 0 0 -1150.7249614815373 -444.47984778898535 0 -444.47984778898535 -203.64276455310755 0 0 0 0 11.67195386134803 -40.939209606705916 0 -40.939209606705916 90.898148452329735 0 0 0 0 -629.3754334427083 -221.0692737419904 0 -221.0692737419904 369.99724903051538 0 0 0 0 -767.69677073599451 -722.26211396266081 0 -722.26211396266081 -316.93362300923036 0 0 0 0 109.36518886047634 -102.09602834537145 0 -102.09602834537145 108.63979133619432 0 0 0 0 -320.94223778742162 -514.36374716697901 0 -514.36374716697901 -248.59725922485813 0 0 0 0 -0.34462882217293966 -1.5967072316343263 0 -1.5967072316343263 -1.0678394535662932 0 0 0 0 83.662795379520503 108.96717657242334 0 108.96717657242334 -66.074054094933672 0 0 0 0 -199.01198243759245 -234.70700690737431 0 -234.70700690737431 -267.10820293612778 0 0 0 0 149.19841556479059 6.4893208390967629 0 6.4893208390967629 9.7796021048125112 0 0 0 0 47.003912440038675 -2.5212482173192257 0 -2.5212482173192257 244.19608911179239 0 0 0 0 1.165415806320123 -1.2601435458541346 0 -1.2601435458541346 -0.97842147511666155 0 0 0 0 160.43299523055384 -206.75766722302069 0 -206.75766722302069 131.45448683598079 0 0 0 0 -34.458837374771463 -25.956685432161265 0 -25.956685432161265 162.2475525274769 0 0 0 0 71.727792143808983 77.536505414394924 0 77.536505414394924 221.44040526184835 0 0 0 0 73.460072552087695 62.063537284965605 0 62.063537284965605 209.15169604832772 0 0 0 0 -374.13138413317301 400.74973728752866 0 400.74973728752866 275.02976334873711 0 0 0 0 -421.98546592165894 -112.90655308000714 0 -112.90655308000714 194.23070648420617 0 0 0 0 -123.59153347516076 -164.26657242459078 0 -164.26657242459078 136.05036519931309 0 0 0 0 -16.430505973415961 -43.228796635776959 0 -43.228796635776959 16.133512753640019 0 0 0 0 -1504.0304879260916 555.20487371997706 0 555.20487371997706 49.761043816768506 0 0 0 0 -691.06626471299751 -310.15954730984049 0 -310.15954730984049 344.96650595300207 0 0 0 0 -2.5462205480959139 44.626232726419204 0 44.626232726419204 181.39403299904319 0 0 0 0 67.712934555004722 27.465689034098432 0 27.465689034098432 200.11653168978228 0 0 0 0 -1622.8487280807294 34.836279992026903 0 34.836279992026903 811.27876887551975 0 0 0 0 56.311480452459364 55.296043737038417 0 55.296043737038417 233.42468910670141 0 0 0 0 60.191047353218892 63.276036586863484 0 63.276036586863484 210.672915729534 0 0 0 0 64.024953296586318 49.912310142130082 0 49.912310142130082 182.19738815532764 0 0 0 0 50.773512313204265 32.776401317041746 0 32.776401317041746 190.16022234006232 0 0 0 0 63.063775745948078 27.233222815593763 0 27.233222815593763 150.2173348145152 0 0 0 0 60.287049789576486 52.056024844147032 0 52.056024844147032 166.14604075254465 0 0 0 0 53.585816661790886 14.788941979839365 0 14.788941979839365 144.93698561289057 0 0 0 0 122.30420219042935 17.756501245239633 0 17.756501245239633 168.91677891005384 0 0 0 0 46.255265101533723 5.8924652320138193 0 5.8924652320138193 167.15031750880007 0 0 0 0 64.306792984323693 42.045106094024959 0 42.045106094024959 177.99563609599136 0 0 0 0 -522.40646135229599 -9.180750912251824 0 -9.180750912251824 165.12598660409276 0 0 0 0 1.7506598670653912 -18.980284616066132 0 -18.980284616066132 114.65515587148545 0 0 0 0 -4.8526721374960289 -44.16596825293891 0 -44.16596825293891 158.61817443609471 0 0 0 0 7.9144904111362848 33.364173733305506 0 33.364173733305506 149.40074532572544 0 0 0 0 -15.003017960270922 12.899922283911039 0 12.899922283911039 23.662692576270217 0 0 0 0 -597.05850627799646 -98.477135559602175 0 -98.477135559602175 128.8194658417051 0 0 0 0 4.8707852924137667 -11.678689289363419 0 -11.678689289363419 -2.0243238073892655 0 0 0 0 219.90873864299829 156.24762049764104 0 156.24762049764104 203.4149278968107 0 0 0 0 99.472889511889662 -28.875325570945279 0 -28.875325570945279 73.681300884098164 0 0 0 0 161.00178238183435 75.07873001840926 0 75.07873001840926 95.657629858327709 0 0 0 0 57.993663579902204 65.485667703054787 0 65.485667703054787 234.92973240764331 0 0 0 0 63.573766542658632 61.12652403314496 0 61.12652403314496 231.05388269614923 0 0 0 0 83.203590715151222 72.313226443540771 0 72.313226443540771 200.90841542837006 0 0 0 0 79.181816182701368 47.501695161477983 0 47.501695161477983 150.18054649206169 0 0 0 0 57.192994699043993 78.484089258257882 0 78.484089258257882 298.14164358814014 0 0 0 0 140.62764993519068 122.12155000908206 0 122.12155000908206 218.66047966372571 0 0 0 0 34.0308540741662 35.902052098837885 0 35.902052098837885 258.07372137631319 0 0 0 0 -41.153841028949486 -33.655469213567621 0 -33.655469213567621 160.14036725616978 0 0 0 0 50.40423778915283 93.396193011507421 0 93.396193011507421 241.07457804787555 0 0 0 0 21.841488527646106 -58.030930157725379 0 -58.030930157725379 320.66811585104733 0 0 0 0 114.11163065118762 32.313551157916663 0 32.313551157916663 447.30725264507782 0 0 0 0 110.70388737271333 58.414058798080077 0 58.414058798080077 248.69497474884338 0 0 0 0 246.20789271382546 47.651071151682117 0 47.651071151682117 166.17333432348823 0 0 0 0 63.932200168699637 -14.705471105873585 0 -14.705471105873585 210.55702568354172 0 0 0 0 53.286600158731744 112.02794746541622 0 112.02794746541622 318.5223969638464 0 0 0 0 116.66902388577546 109.47443465435572 0 109.47443465435572 144.41151275749326 0 0 0 0 7.9191188423751555 40.49426746839481 0 40.49426746839481 271.01538117571363 0 0 0 0 -33.627964161397742 -24.934878981676718 0 -24.934878981676718 172.89828479934414 0 0 0 0 15.852807214046607 72.846917799581774 0 72.846917799581774 221.51060800477717 0 0 0 0 -7.2011704315600582 42.254646054598197 0 42.254646054598197 322.96299788150827 0 0 0 0 59.136412201333769 112.29738058703879 0 112.29738058703879 248.66472672559848 0 0 0 0 -110.58267184591023 -45.654439210324199 0 -45.654439210324199 239.16177103219161 0 0 0 0 -94.79286930389361 94.549148256396336 0 94.549148256396336 320.60100585431974 0 0 0 0 -5.0396023758065382 -0.53632918525851636 0 -0.53632918525851636 -1.2039342623135525 0 0 0 0 -69.056367384246187 264.60859629697507 0 264.60859629697507 486.82201061608339 0 0 0 0 15.144148368107381 46.342710598303711 0 46.342710598303711 105.13172275813122 0 0 0 0 10.765652087739454 33.748655444245287 0 33.748655444245287 90.662576327071292 0 0 0 0 6.8797060773144949 23.263089699912143 0 23.263089699912143 94.126479282445871 0 0 0 0 16.773558787991533 27.136370192707545 0 27.136370192707545 67.129958263940352 0 0 0 0 7.2109394326635083 16.682860572431309 0 16.682860572431309 128.32760147902081 0 0 0 0 7.1789880234749077 31.420247176879123 0 31.420247176879123 62.301624575566635 0 0 0 0 23.866790656598823 136.07999244738676 0 136.07999244738676 343.87521678599842 0 0 0 0 21.302212033410797 58.696201532194209 0 58.696201532194209 133.42399420106722 0 0 0 0 -2.9945479578057785 9.7834322216367315 0 9.7834322216367315 30.733024892095074 0 0 0 0 37.377876040369756 87.925986107450058 0 87.925986107450058 240.67983266415831 0 0 0 0 35.939802812167919 94.53847985698718 0 94.53847985698718 153.93868935213234 0 0 0 0 38.502317135830708 141.1029770472669 0 141.1029770472669 302.94147321807395 0 0 0 0 48.457705156607517 285.21907524041308 0 285.21907524041308 147.79787126348674 0 0 0 0 -17.720369149675896 -6.7456896343868351 0 -6.7456896343868351 44.816443548260366 0 0 0 0 -415.39842506837067 66.062930528671131 0 66.062930528671131 232.8314789258875 0 0 0 0 -4.0767141533834774 23.761444745577869 0 23.761444745577869 35.90210940224793 0 0 0 0 -31.849628322809959 -29.438363191733231 0 -29.438363191733231 96.87473847385273 0 0 0 0 -0.73689424215262989 -3.4750085256873717 0 -3.4750085256873717 126.64421777858115 0 0 0 0 -151.06792632047473 125.95740846430272 0 125.95740846430272 301.73794698375968 0 0 0 0 -199.0614178097494 9.2208443563995388 0 9.2208443563995388 474.73248355129908 0 0 0 0 5.4753928224718038 -8.5533144254504805 0 -8.5533144254504805 114.98749427925577 0 0 0 0 5.1895214214846419 -10.623203502531794 0 -10.623203502531794 133.8113789781728 0 0 0 0 -8.7341806000374618 -29.95021205541741 0 -29.95021205541741 126.59521734178088 0 0 0 0 -5.5052480370413832 -18.745533486424392 0 -18.745533486424392 148.45737102229214 0 0 0 0 -11.714624448265567 -8.9008665782721437 0 -8.9008665782721437 135.80242500141412 0 0 0 0 -14.505980983743939 -3.1456201527944359 0 -3.1456201527944359 144.16262779258795 0 0 0 0 -5.5985146012239966 -0.65468838626020442 0 -0.65468838626020442 139.48871778439388 0 0 0 0 -25.369498446239504 -5.0402602753438259 0 -5.0402602753438259 156.11190736848766 0 0 0 0 -33.658613433088249 -16.580036234474392 0 -16.580036234474392 148.30407652278018 0 0 0 0 -12.443907741098883 -25.303447833593964 0 -25.303447833593964 130.67436902101235 0 0 0 0 -59.484070759222959 -9.3733648251572959 0 -9.3733648251572959 150.73630506743211 0 0 0 0 -20.527403768835029 -37.868122939365094 0 -37.868122939365094 163.73994538561237 0 0 0 0 -2.3329784375064264 -47.636150751691275 0 -47.636150751691275 140.51664716813866 0 0 0 0 80.169765788837594 -75.274864792414974 0 -75.274864792414974 64.319614580461348 0 0 0 0 26.073511294576747 -86.888421925123112 0 -86.888421925123112 164.08566435830699 0 0 0 0 -23.040477708475009 -65.82812526816997 0 -65.82812526816997 157.80870329113623 0 0 0 0 182.61490017858341 -220.51042076206113 0 -220.51042076206113 142.46400886346237 0 0 0 0 21.015231382671118 -148.52361740225297 0 -148.52361740225297 311.38178441349737 0 0 0 0 89.839495725886081 134.88106975810069 0 134.88106975810069 251.63776704876727 0 0 0 0 298.54607749342813 -28.617839333131087 0 -28.617839333131087 -84.223856298856845 0 0 0 0 -34.47339021103835 10.030844651375446 0 10.030844651375446 28.717418638241725 0 0 0 0 84.11908596572539 -75.26006130559108 0 -75.26006130559108 25.804354505000447 0 0 0 0 78.310728935546649 -47.193897475686754 0 -47.193897475686754 52.128403505494134 0 0 0 0 8.4142275053891353 27.967027039396271 0 27.967027039396271 67.227859049970789 0 0 0 0 5.158776576618699 29.589567356372132 0 29.589567356372132 42.049732634100238 0 0 0 0 50.984619959061092 -14.392934589366632 0 -14.392934589366632 104.173733499636 0 0 0 0 68.225517461087293 -60.097733654697549 0 -60.097733654697549 82.70296054998289 0 0 0 0 -0.77756270665421567 0.31946407587902215 0 0.31946407587902215 13.196725180544945 0 0 0 0 84.19054901544223 -27.114645176350678 0 -27.114645176350678 -133.19096312022884 0 0 0 0 2.9833691188969169 16.888777662303255 0 16.888777662303255 60.789633176173083 0 0 0 0 40.653522826407425 -30.290236076666588 0 -30.290236076666588 82.643430527838063 0 0 0 0 40.584037803046158 -25.479445804350689 0 -25.479445804350689 123.07227234920902 0 0 0 0 -313.03063761101964 -292.02355880332971 0 -292.02355880332971 182.25682433895417 0 0 0 0 -338.32859725059893 -824.55898488025196 0 -824.55898488025196 -147.58568861943786 0 0 0 0 -308.29423200443387 -410.52127714153062 0 -410.52127714153062 -710.60215499422338 0 0 0 0 -370.02544652338702 -260.07120066040989 0 -260.07120066040989 -77.645172448712401 0 0 0 0 412.30195858489424 -383.03342467088078 0 -383.03342467088078 -0.50816489169665147 0 0 0 0 -420.52138279211613 -199.7509056597919 0 -199.7509056597919 379.07320543474634 0 0 0 0 171.041089328422 -60.902437925666163 0 -60.902437925666163 96.344406505231746 0 0 0 0 192.1009493686488 -141.96977773628896 0 -141.96977773628896 407.66486919258023 0 0 0 0 229.16412139280919 42.675717623163109 0 42.675717623163109 -138.98340250884939 0 0 0 0 35.9918234230895 138.49510652012759 0 138.49510652012759 -19.506554584368132 0 0 0 0 -398.14762106749913 -206.65463736184756 0 -206.65463736184756 83.751598600225407 0 0 0 0 -558.73111296387833 -83.782132483247551 0 -83.782132483247551 99.893931085724034 0 0 0 0 -1014.2310371453277 -557.36989878693566 0 -557.36989878693566 -34.307722369678231 0 0 0 0 -730.22112626645139 -831.08507241699044 0 -831.08507241699044 -451.54085476011096 0 0 0 0 -528.1772255138967 -195.47361046999868 0 -195.47361046999868 -59.570705450663809 0 0 0 0 -478.7370095526822 -545.75835231077781 0 -545.75835231077781 -538.2212066748325 0 0 0 0 -1424.2067736615127 -888.04207785381459 0 -888.04207785381459 -11.896811066646478 0 0 0 0 7.8329691686603429 -30.729133933013401 0 -30.729133933013401 71.920959213857486 0 0 0 0 -1220.4445675559364 -169.37657642676641 0 -169.37657642676641 -48.663923990287003 0 0 0 0 1029.2410090411604 645.97959687432012 0 645.97959687432012 260.62707572309864 0 0 0 0 -23.528329961712188 65.635066449314763 0 65.635066449314763 1823.0696175978665 0 0 0 0 -2.1445382367557104 3.0933052456155465 0 3.0933052456155465 17.060032857481048 0 0 0 0 293.2435660124811 -314.0815285585013 0 -314.0815285585013 413.40928681552032 0 0 0 0 192.68433827294029 52.863606143786456 0 52.863606143786456 -99.190368141891668 0 0 0 0 -24.235913725742648 -323.69696133460093 0 -323.69696133460093 1862.5651023001847 0 0 0 0 985.3658537942465 406.69308493785502 0 406.69308493785502 -703.50219616061804 0 0 0 0 452.88694035368644 1287.4347564991767 0 1287.4347564991767 1651.4227957723633 0 0 0 0 1535.5736742226545 1355.828261282295 0 1355.828261282295 -327.7020335846064 0 0 0 0 115.59329137580016 549.94546158520825 0 549.94546158520825 330.39663979623583 0 0 0 0 117.10724932167705 560.91697073405521 0 560.91697073405521 215.86421258909104 0 0 0 0 117.87261421712901 482.55071237283119 0 482.55071237283119 274.85512062718044 0 0 0 0 116.36417054021558 482.60922804637994 0 482.60922804637994 303.32164030866988 0 0 0 0 -37.130564531440541 344.67219828794623 0 344.67219828794623 201.80669306757648 0 0 0 0 -140.46183158358872 286.63288933906733 0 286.63288933906733 321.15646163618658 0 0 0 0 -162.64855890833132 263.08940428192727 0 263.08940428192727 875.62162164508482 0 0 0 0 -70.814509564407672 -16.529305297357496 0 -16.529305297357496 283.88790198277275 0 0 0 0 -28.220210857399252 -314.43298959859749 0 -314.43298959859749 159.51544446085973 0 0 0 0 -29.10745621238587 -48.667291120919728 0 -48.667291120919728 63.765413766721586 0 0 0 0 -56.845828722513033 -122.3807764968733 0 -122.3807764968733 621.36270119914843 0 0 0 0 19.963946785162989 -39.904370284413744 0 -39.904370284413744 482.68490649509476 0 0 0 0 -84.655226303763811 -274.12973930160297 0 -274.12973930160297 511.65825494757792 0 0 0 0 -9.4204359271479916 5.3346116219090618 0 5.3346116219090618 133.68739262024974 0 0 0 0 -50.603580617576768 35.897014108109829 0 35.897014108109829 154.39942941476693 0 0 0 0 -22.273051567659422 -19.432544381206753 0 -19.432544381206753 197.96728028933285 0 0 0 0 -10.395460437101065 -31.817640951633621 0 -31.817640951633621 159.84166596974433 0 0 0 0 -8.7309934738132142 -39.358189502981077 0 -39.358189502981077 167.35506568270739 0 0 0 0 -27.286806731152865 -37.691899004247716 0 -37.691899004247716 167.77225708016704 0 0 0 0 8.3378977347106229 -100.09467463992769 0 -100.09467463992769 274.32739642566594 0 0 0 0 32.052278526854934 -22.393592850688947 0 -22.393592850688947 107.94475173356705 0 0 0 0 78.27612938592938 -56.467866239517207 0 -56.467866239517207 95.197140421340009 0 0 0 0 -0.77248904245815719 9.1265120221568097 0 9.1265120221568097 19.444374503986147 0 0 0 0 104.44261024956268 -93.569313351787059 0 -93.569313351787059 119.7318416186356 0 0 0 0 -84.133477996917463 236.76516020448253 0 236.76516020448253 226.49805329345065 0 0 0 0 223.44441570944036 -125.39670859746002 0 -125.39670859746002 240.36637159762904 0 0 0 0 -2.7153194791111721 -21.385844785565656 0 -21.385844785565656 31.886560004823565 0 0 0 0 -24.280840567080752 -45.429702765416479 0 -45.429702765416479 88.882025759096152 0 0 0 0 -15.948652023681461 -40.322048779165925 0 -40.322048779165925 -140.81112881374429 0 0 0 0 -41.85161337388945 -11.404647647254819 0 -11.404647647254819 255.29979105790699 0 0 0 0 111.88603835775251 374.40247814074246 0 374.40247814074246 474.18853726697853 0 0 0 0 951.38983612124366 623.87101634352439 0 623.87101634352439 202.86866068650852 0 0 0 0 591.76159160845418 334.71880838069046 0 334.71880838069046 217.78672165926946 0 0 0 0 478.62024516223619 696.82697940698927 0 696.82697940698927 483.77204238534614 0 0 0 0 -12.613038638556645 -28.445666988453922 0 -28.445666988453922 83.336950454387988 0 0 0 0 -11.465435479270628 -42.846118427269502 0 -42.846118427269502 78.45949488650507 0 0 0 0 268.42324835857562 -111.00250719273754 0 -111.00250719273754 326.11534345800919 0 0 0 0 -17.661366384953908 -28.909154066044721 0 -28.909154066044721 83.660540920398489 0 0 0 0 -5.5091966563640771 -39.738109591288271 0 -39.738109591288271 61.673195557175355 0 0 0 0 -48.019731941413738 46.549139747257868 0 46.549139747257868 53.174320886912938 0 0 0 0 -11.171933631462579 -6.6470891059340644 0 -6.6470891059340644 73.791750132678587 0 0 0 0 -13.633211678524276 -3.7393542027566582 0 -3.7393542027566582 39.549467252960312 0 0 0 0 -8.5286257289012308 -7.0691650187880803 0 -7.0691650187880803 50.403294609125467 0 0 0 0 -806.10996130235071 -95.198907849902753 0 -95.198907849902753 2743.5311286898504 0 0 0 0 -4.5178729516137537 -13.352187221957138 0 -13.352187221957138 46.356194477375539 0 0 0 0 0.24942554587656218 -15.773144423691804 0 -15.773144423691804 37.292632898162609 0 0 0 0 1896.4469605075683 1141.5841179817726 0 1141.5841179817726 -2583.7337566798233 0 0 0 0 -735.15432360342402 -666.63501051000094 0 -666.63501051000094 -101.20667446679727 0 0 0 0 -623.50757624610105 -1164.7260111429714 0 -1164.7260111429714 -354.70116555102868 0 0 0 0 2.7679449246013466 -10.966075836259179 0 -10.966075836259179 27.037893756160173 0 0 0 0 782.90161836380071 1149.7632291932141 0 1149.7632291932141 788.37091327262169 0 0 0 0 -301.22518811592636 -903.10710569108778 0 -903.10710569108778 -733.50605377405554 0 0 0 0 69.002887439008191 -35.143689904849452 0 -35.143689904849452 31.082956123672375 0 0 0 0 0.25503697275636572 -11.488965286028677 0 -11.488965286028677 7.9063110184122394 0 0 0 0 0.3114179639452388 -14.78394372064745 0 -14.78394372064745 41.686326991803341 0 0 0 0 -2.1328302455074208 -25.245621637252952 0 -25.245621637252952 69.952431202509615 0 0 0 0 -4.7649714915005461 -18.383414377996814 0 -18.383414377996814 71.426505912051653 0 0 0 0 -4.0752970859888027 -16.282259520455739 0 -16.282259520455739 52.887647491454999 0 0 0 0 3.0952319929145879 -20.998932820940141 0 -20.998932820940141 38.589853339439742 0 0 0 0 -6.3471349848790517 -5.8276275117658685 0 -5.8276275117658685 54.001475261572466 0 0 0 0 2.3239025659393384 -16.104391134363617 0 -16.104391134363617 67.224250876293766 0 0 0 0 -6.1400431252154704 -18.322170026496678 0 -18.322170026496678 65.485693580500993 0 0 0 0 -6.7586808293953382 -13.239776878829602 0 -13.239776878829602 103.6558768976152 0 0 0 0 -17.401788358652993 38.78164786600064 0 38.78164786600064 45.431619735954882 0 0 0 0 -4.9768269765593232 -33.889938879300871 0 -33.889938879300871 60.62264558012248 0 0 0 0 -5.2460547127257087 -49.355457566186033 0 -49.355457566186033 39.326119346962059 0 0 0 0 -11.483361333265293 -33.184144281092358 0 -33.184144281092358 60.599171995216238 0 0 0 0 0.69177313669725748 -1.1432861221440316 0 -1.1432861221440316 15.867574611018046 0 0 0 0 -7.3072237482008404 -32.044245718769616 0 -32.044245718769616 71.742996457222034 0 0 0 0 33.935240445113777 -24.612304973938535 0 -24.612304973938535 109.77683537831126 0 0 0 0 19.098173334875128 -29.172819128100627 0 -29.172819128100627 -4.5949490426482953 0 0 0 0 16.676933137703145 -31.20195007305847 0 -31.20195007305847 51.147952622760386 0 0 0 0 9.1281615112973213 -74.741057968612495 0 -74.741057968612495 11.227364013986517 0 0 0 0 9.869013714645348 -82.022018682763246 0 -82.022018682763246 69.110848667201026 0 0 0 0 35.495151461831483 -143.76197473920911 0 -143.76197473920911 95.651249641534378 0 0 0 0 -22.425069766513388 -76.26891181534711 0 -76.26891181534711 110.93732182962412 0 0 0 0 -21.719691836781749 -68.744160310201551 0 -68.744160310201551 172.66260336891355 0 0 0 0 -49.145938450471931 -54.918747328610152 0 -54.918747328610152 94.087198217057448 0 0 0 0 -40.897023224059353 -42.547726815645319 0 -42.547726815645319 102.99427205233951 0 0 0 0 -37.441934445852439 -38.191776088097868 0 -38.191776088097868 80.921054875936534 0 0 0 0 3.7272609424258585 -16.544960711069397 0 -16.544960711069397 72.401137167978774 0 0 0 0 -48.529495974517658 -27.996361236817847 0 -27.996361236817847 76.071513161855364 0 0 0 0 -33.459342235285476 -15.710244640852579 0 -15.710244640852579 82.036653601637227 0 0 0 0 0.97506638728963679 -17.835351297946261 0 -17.835351297946261 74.168181686741619 0 0 0 0 -34.285559109758651 -41.192155262719098 0 -41.192155262719098 59.472139230769244 0 0 0 0 -72.261804857422248 -137.6183177542498 0 -137.6183177542498 1.4055446736820159 0 0 0 0 111.12762505479986 83.71004423814702 0 83.71004423814702 73.868128318659728 0 0 0 0 2.910460812336396 -41.038792663067397 0 -41.038792663067397 259.84335678879143 0 0 0 0 -238.84308820255865 -7.5912017402861238 0 -7.5912017402861238 384.54138770173449 0 0 0 0 188.39779153453492 -48.391769043813838 0 -48.391769043813838 -169.3311667579801 0 0 0 0 2.5495358033866111 -2.1548957077323703 0 -2.1548957077323703 1.3206684551467482 0 0 0 0 -115.27322428616822 -155.79814317144337 0 -155.79814317144337 93.322843979714889 0 0 0 0 86.701493093127738 189.25339736390015 0 189.25339736390015 -302.0828484375852 0 0 0 0 144.9972407309433 -4.8057761229069911 0 -4.8057761229069911 -36.755211678491378 0 0 0 0 333.47631104141328 -73.817583111975182 0 -73.817583111975182 -20.234967686071286 0 0 0 0 1.8041042889414403 -2.2038289844080889 0 -2.2038289844080889 1.3675958708908986 0 0 0 0 176.03049498621158 -121.58497490058983 0 -121.58497490058983 12.619125060964507 0 0 0 0 155.26553422836878 -119.69719271061058 0 -119.69719271061058 19.571374393195583 0 0 0 0 288.23637842012795 -209.24682554465562 0 -209.24682554465562 48.257470413998817 0 0 0 0 2.1403136490656642 -1.1838093220237376 0 -1.1838093220237376 0.32433653637566806 0 0 0 0 368.22754509162041 -308.41589326841495 0 -308.41589326841495 254.87666754604288 0 0 0 0 -31.123128102490227 -6.3400937163078197 0 -6.3400937163078197 262.20823330452367 0 0 0 0 101.28021057201659 -178.03595747227791 0 -178.03595747227791 249.69332429114365 0 0 0 0 3.5543493286240846 -21.895822436896196 0 -21.895822436896196 226.47808963353054 0 0 0 0 -0.802892978550517 -37.688762412129108 0 -37.688762412129108 174.63901877690296 0 0 0 0 -3.4218695796853353 -8.5238110620057341 0 -8.5238110620057341 -50.446754238622816 0 0 0 0 -45.456393518130881 46.049099270692523 0 46.049099270692523 107.73828456002593 0 0 0 0 -34.469654173929484 -52.275432597891268 0 -52.275432597891268 197.1359997377549 0 0 0 0 -16.452009259343868 -12.065700867808118 0 -12.065700867808118 89.150301690466222 0 0 0 0 -53.233976643676215 -9.3348937402815864 0 -9.3348937402815864 92.696310598138552 0 0 0 0 -7.408267187977799 -24.264557395128577 0 -24.264557395128577 23.801790623765328 0 0 0 0 -14.812846096624526 -24.878007304231232 0 -24.878007304231232 150.23032534678896 0 0 0 0 -0.020220317704804813 0.92671453814844895 0 0.92671453814844895 -1.7508279307729753 0 0 0 0 34.209030498327593 -61.717346533257114 0 -61.717346533257114 14.355062795071262 0 0 0 0 -53.877883287154873 -93.209541030708351 0 -93.209541030708351 -24.593231582618273 0 0 0 0 12.175089333094547 -31.277790192270913 0 -31.277790192270913 -0.54814127975441806 0 0 0 0 -73.291609653039814 -11.600587361829184 0 -11.600587361829184 -3.7763530358238313 0 0 0 0 -0.63620552986154166 -1.4316496312277485 0 -1.4316496312277485 3.1441871332860867 0 0 0 0 4.4987570192402018 0.92978438737304714 0 0.92978438737304714 30.457662412597074 0 0 0 0 11.978966355605735 -17.708735166291262 0 -17.708735166291262 -70.251619044529434 0 0 0 0 1.5091471816479061 -0.86947610039654855 0 -0.86947610039654855 0.074921807995265155 0 0 0 0 38.003226191302929 -101.53981325315635 0 -101.53981325315635 -43.128623060014434 0 0 0 0 -101.9643551566769 75.763662030430169 0 75.763662030430169 23.249829496046004 0 0 0 0 100.86140315372268 -153.13442666456785 0 -153.13442666456785 101.56899024848917 0 0 0 0 -92.452965244944608 -17.900309270803518 0 -17.900309270803518 185.06971967492063 0 0 0 0 127.2190807097918 -121.0292580836292 0 -121.0292580836292 110.12649534695629 0 0 0 0 -82.733847042442108 67.422618940109118 0 67.422618940109118 -6.29942990427935 0 0 0 0 -57.127196320455369 -55.711537872044119 0 -55.711537872044119 65.050103720093603 0 0 0 0 3.1018060066753605 -8.2586761209607857 0 -8.2586761209607857 -12.977860224871847 0 0 0 0 1.6666215695264359 1.6281584253197101 0 1.6281584253197101 5.5980089384017937 0 0 0 0 1.1484233005934712 -3.5487305642094995 0 -3.5487305642094995 7.9847216745972558 0 0 0 0 2.8643802509122906 -1.8593802574350775 0 -1.8593802574350775 25.967041133928547 0 0 0 0 1.8608996441387715 -4.3620095954581846 0 -4.3620095954581846 7.2343248917365823 0 0 0 0 -49.60876559239523 -26.658235617269611 0 -26.658235617269611 51.70264602138559 0 0 0 0 30.876303819000896 -49.325647124808029 0 -49.325647124808029 32.152232802209255 0 0 0 0 152.1694782272225 -112.80900434964997 0 -112.80900434964997 15.142393441488821 0 0 0 0 26.448314019729423 -55.441093743476472 0 -55.441093743476472 57.093118995961049 0 0 0 0 -38.832827508971604 54.643564012042773 0 54.643564012042773 4.9561697360029768 0 0 0 0 -30.260231627523353 -53.918352998419692 0 -53.918352998419692 119.85240093948549 0 0 0 0 150.91794298985769 -183.59952422367132 0 -183.59952422367132 169.49011008439206 0 0 0 0 -0.51539124454039564 -2.392373516509906 0 -2.392373516509906 16.332790926686037 0 0 0 0 393.06129805451383 -141.20772822874665 0 -141.20772822874665 -4.3652947987980042 0 0 0 0 5.2284761105593134 -19.939719292641826 0 -19.939719292641826 -1.6236282643940285 0 0 0 0 -202.20339080027043 26.224480318760129 0 26.224480318760129 12.749700551533806 0 0 0 0 -20.901220147801723 -88.509398661172781 0 -88.509398661172781 -85.422021660867699 0 0 0 0 42.926362945466508 -91.548932599602779 0 -91.548932599602779 57.201877244772732 0 0 0 0 96.75643856440297 107.48891981774563 0 107.48891981774563 -123.33023197818056 0 0 0 0 254.74414563778191 -40.957599963894268 0 -40.957599963894268 35.139234381986171 0 0 0 0 165.27746770029626 -144.37125248826487 0 -144.37125248826487 84.892264023577127 0 0 0 0 153.77200647442987 -84.695129731102043 0 -84.695129731102043 52.033141565078495 0 0 0 0 86.029971955973451 -115.76282464373708 0 -115.76282464373708 46.110398201877615 0 0 0 0 -155.79149646257702 -0.95414146228563368 0 -0.95414146228563368 93.897660675213501 0 0 0 0 -0.9294606411790971 -3.171459099748418 0 -3.171459099748418 27.608071656909576 0 0 0 0 145.43558938629212 -146.28957874221646 0 -146.28957874221646 14.76344857483673 0 0 0 0 -1.6288543664524369 1.6682005624734302 0 1.6682005624734302 5.3152168635742267 0 0 0 0 46.004374956894026 26.770397192359866 0 26.770397192359866 -3.874971143539824 0 0 0 0 -4.3554066822580353 -190.09639002189374 0 -190.09639002189374 193.31156039369375 0 0 0 0 -14.396877794859392 23.957220796123352 0 23.957220796123352 97.064809219751169 0 0 0 0 13.869760911799631 -0.69581655524845587 0 -0.69581655524845587 32.79730691335817 0 0 0 0 -12.450533639100286 -24.057664168574661 0 -24.057664168574661 26.557109705630808 0 0 0 0 13.109228085330756 -11.402030324517995 0 -11.402030324517995 -4.597042121137747 0 0 0 0 42.691247968457901 -9.6704176003236171 0 -9.6704176003236171 21.364577645752888 0 0 0 0 -27.267785518720302 -37.495109263448967 0 -37.495109263448967 21.349631917484317 0 0 0 0 -159.38259546380141 15.427547132843756 0 15.427547132843756 212.64339531972291 0 0 0 0 -2.5449688969031805 0.48477059984039705 0 0.48477059984039705 34.828904267940374 0 0 0 0 -92.000299199066831 61.803996978632767 0 61.803996978632767 143.66760287864963 0 0 0 0 68.356188574162843 -22.249196620197381 0 -22.249196620197381 -22.247559512446969 0 0 0 0 -2.565875178677743 -2.9017384959424817 0 -2.9017384959424817 -1.0149625368158013 0 0 0 0 -8.1134393776574143 -7.1389108989606029 0 -7.1389108989606029 -3.6011680044521199 0 0 0 0 -0.035492988627389366 -1.1450194808660754 0 -1.1450194808660754 0.3992866424590904 0 0 0 0 -3.3442577713159691 -2.109851375432604 0 -2.109851375432604 16.639330661256281 0 0 0 0 -7.8412929078282332 1.3505846328254165 0 1.3505846328254165 10.713906859150484 0 0 0 0 15.912090126514613 -38.489526402774118 0 -38.489526402774118 26.983762778925666 0 0 0 0 -18.26500089842375 -17.21645322002405 0 -17.21645322002405 13.897277008752098 0 0 0 0 1.2846228281129957 -7.2083476980832639 0 -7.2083476980832639 15.233831723472486 0 0 0 0 -47.129773213788212 2.9301904036428823 0 2.9301904036428823 46.034168874924944 0 0 0 0 12.204636920073426 14.515672413083848 0 14.515672413083848 28.136410418362573 0 0 0 0 -0.72414693540743169 -0.43580326129909608 0 -0.43580326129909608 25.224241322245486 0 0 0 0 3.3378751510776965 -35.959319757326966 0 -35.959319757326966 80.220008480639081 0 0 0 0 -14.3913540177291 -10.823436645023321 0 -10.823436645023321 126.1165005321418 0 0 0 0 -0.095866741370628006 6.3164464719666285 0 6.3164464719666285 77.273147549356509 0 0 0 0 -5.1204065394631471 -8.9842950166603259 0 -8.9842950166603259 79.804443387159154 0 0 0 0 0.66529210257613158 -4.2963548152893054 0 -4.2963548152893054 38.0240449488374 0 0 0 0 5.5504521349434981 -14.745491782653517 0 -14.745491782653517 41.489436926109192 0 0 0 0 14.788382591799746 -25.171240651976404 0 -25.171240651976404 44.812821218354657 0 0 0 0 -4.559689090622669 -7.8656277573272746 0 -7.8656277573272746 35.588174725364297 0 0 0 0 1.4822050331067658 -4.2343810210404627 0 -4.2343810210404627 22.206087211307022 0 0 0 0 -36.727927567419101 16.001822472835556 0 16.001822472835556 27.182869057502103 0 0 0 0 -0.77602275969568701 0.33717946440239821 0 0.33717946440239821 22.651975560336297 0 0 0 0 -0.19818348259082086 9.1127246067159149 0 9.1127246067159149 9.87911564557362 0 0 0 0 64.859915825428288 -50.722148347971142 0 -50.722148347971142 -43.845340828901271 0 0 0 0 -10.25397670856546 12.451527347496267 0 12.451527347496267 17.173793013687828 0 0 0 0 -14.739444013947832 1.4843506341971988 0 1.4843506341971988 19.44480838158961 0 0 0 0 -5.6482672883967098 7.8689633708554538 0 7.8689633708554538 22.411054301080142 0 0 0 0 -3.5225329166414667 10.113203182220786 0 10.113203182220786 26.809587505586705 0 0 0 0 -4.4696315835352038 0.30695052542273515 0 0.30695052542273515 33.553696742139437 0 0 0 0 -1.5834653308938869 4.9112807746205362 0 4.9112807746205362 24.485199762978027 0 0 0 0 -3.2677033411632692 10.314277806957307 0 10.314277806957307 41.38629529195623 0 0 0 0 -1.0998645466388552 11.549628562197995 0 11.549628562197995 26.929460777872919 0 0 0 0 -2.3096560367321217 2.6113544152267423 0 2.6113544152267423 41.045260862554642 0 0 0 0 -4.2882690501319303 2.2794544115477038 0 2.2794544115477038 41.418864038438187 0 0 0 0 -3.3587584740363354 -1.6920436251191404 0 -1.6920436251191404 51.026499885734665 0 0 0 0 -5.5338209558249218 -16.486665266390446 0 -16.486665266390446 71.43795324423445 0 0 0 0 -6.0028624294177462 -11.346407292714503 0 -11.346407292714503 49.68504729327833 0 0 0 0 -4.1955138830026044 -9.0307991077488623 0 -9.0307991077488623 52.270001386646982 0 0 0 0 -5.1970590580031057 -5.9234409591226722 0 -5.9234409591226722 42.735049163527947 0 0 0 0 -2.4544316016563243 -12.929749152879594 0 -12.929749152879594 47.953392525867457 0 0 0 0 -2.3674982861239187 -6.3330621385152881 0 -6.3330621385152881 36.731951304402173 0 0 0 0 3.1799141136634717 -9.2159469756697945 0 -9.2159469756697945 35.423335369119741 0 0 0 0 -3.3840057188035644 -11.189084806914252 0 -11.189084806914252 46.582585424315766 0 0 0 0 0.94079901918303221 -6.1692649755450475 0 -6.1692649755450475 32.027296194604787 0 0 0 0 0.33821352304435148 -0.21895648436383297 0 -0.21895648436383297 0.53087431454233602 0 0 0 0 15.805162224344514 22.357906834959067 0 22.357906834959067 -38.908490668758532 0 0 0 0 -8.466731110524961 7.0863347888107455 0 7.0863347888107455 47.483405329762043 0 0 0 0 -20.843769025200572 30.395257115209461 0 30.395257115209461 47.249311796517297 0 0 0 0 -1.6467475839078816 13.865877960971602 0 13.865877960971602 19.132145797633711 0 0 0 0 3.9703855373513761 -1.5434905271499701 0 -1.5434905271499701 42.449919335783761 0 0 0 0 31.041105959543074 -61.221758412750205 0 -61.221758412750205 97.278606950912945 0 0 0 0 -6.3634099275637084 -20.071929856755276 0 -20.071929856755276 113.76636718017107 0 0 0 0 -22.728320655263587 25.114483390862915 0 25.114483390862915 75.762296193206566 0 0 0 0 -7.8220559856490581 1.4447590897716509 0 1.4447590897716509 57.88409360834703 0 0 0 0 -30.021139134506242 31.460673828118161 0 31.460673828118161 110.65084260747608 0 0 0 0 -95.441069894361419 49.333142157385169 0 49.333142157385169 83.000865262483785 0 0 0 0 -81.888660373869868 14.298599041959733 0 14.298599041959733 -0.5383404860021983 0 0 0 0 -13.836236191234093 -0.47249794541585288 0 -0.47249794541585288 2.664106527835429 0 0 0 0 1.0263934939609705 0.16446463505301523 0 0.16446463505301523 -0.63013505576929418 0 0 0 0 9.8885745699155905 -26.284556547367629 0 -26.284556547367629 45.183832373801124 0 0 0 0 0.87285847062308708 0.69541880397419931 0 0.69541880397419931 -0.13628110606443755 0 0 0 0 -3.2403236262919322 -0.56102300534169203 0 -0.56102300534169203 0.8749721070834493 0 0 0 0 -14.900879217040711 1.8084246237249317 0 1.8084246237249317 3.1258210548694478 0 0 0 0 15.231184525695653 5.0986113435692459 0 5.0986113435692459 -71.70736062129231 0 0 0 0 -1.2753939357433244 -0.5558655663798433 0 -0.5558655663798433 0.079720627380234887 0 0 0 0 -113.43931528812118 -56.945649865948326 0 -56.945649865948326 -12.090855893855405 0 0 0 0 -39.406562042017185 46.53639590142302 0 46.53639590142302 -138.77273278987468 0 0 0 0 -3.0430187062265759 -11.715130357475573 0 -11.715130357475573 52.361798820678814 0 0 0 0 -0.72825875564558373 -4.1984231259193621 0 -4.1984231259193621 49.987570440005584 0 0 0 0 1.5968029251878306 1.6086202557467004 0 1.6086202557467004 61.502041703341092 0 0 0 0 -4.7168478645388063 -14.767361866834335 0 -14.767361866834335 61.099805669182388 0 0 0 0 -2.7942596918037452 -11.421674493882165 0 -11.421674493882165 54.45854393040463 0 0 0 0 -1.1693206198951884 -16.613925573438792 0 -16.613925573438792 52.189962906726578 0 0 0 0 -2.9106670553919685 -11.470982004643702 0 -11.470982004643702 49.798107793278177 0 0 0 0 -3.4991554113512393 -12.927835140628304 0 -12.927835140628304 51.251507874785602 0 0 0 0 2.83330726466329 -12.921692566896127 0 -12.921692566896127 41.882164474195406 0 0 0 0 -4.3951662378667606 -13.192785425922466 0 -13.192785425922466 51.53086084871029 0 0 0 0 3.0233808079651681 -14.156928270642311 0 -14.156928270642311 48.696782105998864 0 0 0 0 -2.5969202162989973 -13.88511777649444 0 -13.88511777649444 51.41309594395716 0 0 0 0 -7.9926990927588122 37.066148337952654 0 37.066148337952654 -71.17795778240361 0 0 0 0 6.4226789540007303 0.99139719213417266 0 0.99139719213417266 1.9827395226893714 0 0 0 0 -2.1543487811997331 0.090809473478245195 0 0.090809473478245195 1.3226366735377795 0 0 0 0 -2.6284200363252239 -1.3435716713047441 0 -1.3435716713047441 3.0609672156931538 0 0 0 0 -0.43873515302868782 -2.1594117017195913 0 -2.1594117017195913 0.59466232140766806 0 0 0 0 -0.29143980541743586 -0.87625041620029176 0 -0.87625041620029176 0.47553424668925715 0 0 0 0 -1.1416373687224901 -0.90656231831641421 0 -0.90656231831641421 0.64796222620792321 0 0 0 0 1.3616273828629346 -10.858147427085896 0 -10.858147427085896 44.78705010255544 0 0 0 0 -0.92301223033837232 -0.5328948502547064 0 -0.5328948502547064 1.4261458165128715 0 0 0 0 -58.048125311968761 84.810446659264926 0 84.810446659264926 -59.195306897234332 0 0 0 0 0.36023947452930294 -0.87226962779592654 0 -0.87226962779592654 0.027400386789647513 0 0 0 0 -2.4896491545405643 -0.61442944268490862 0 -0.61442944268490862 3.6510992561664324 0 0 0 0 -1.9679592922148403 -0.58754365374572615 0 -0.58754365374572615 3.8870883437364832 0 0 0 0 -9.7440637271674859 -8.0834583150117396 0 -8.0834583150117396 3.9243725066626212 0 0 0 0 67.015888209574996 56.759282868494665 0 56.759282868494665 -76.195086747351525 0 0 0 0 -2.4626478848103943 42.337897555718882 0 42.337897555718882 -74.977014255337053 0 0 0 0 -10.437403535508565 79.49910689195076 0 79.49910689195076 -28.096834103303991 0 0 0 0 245.45666073530356 76.379291020644814 0 76.379291020644814 -28.664336046135645 0 0 0 0 -28.87605153594393 -47.624161003837571 0 -47.624161003837571 35.775451212663029 0 0 0 0 -1.6005417449991999 0.31000853456690169 0 0.31000853456690169 11.088470036174236 0 0 0 0 -274.72305241362437 61.338112610367716 0 61.338112610367716 102.75150795055197 0 0 0 0 -21.47927913827607 59.779104489176461 0 59.779104489176461 -62.391540869467008 0 0 0 0 -166.61490998832898 32.69922997077559 0 32.69922997077559 -54.922207519666699 0 0 0 0 -39.646491566135182 -6.5211426949381348 0 -6.5211426949381348 -46.982690659513537 0 0 0 0 -31.166759235370819 35.174339903811415 0 35.174339903811415 -62.466868784961207 0 0 0 0 -7.4355902842875139 -11.340329919295073 0 -11.340329919295073 -72.348119891703391 0 0 0 0 39.628610630497889 -42.161881831283949 0 -42.161881831283949 21.738901312222879 0 0 0 0 -9.7717035926032167 46.15312637392617 0 46.15312637392617 25.107341870465234 0 0 0 0 -119.65156235443305 11.077426879501218 0 11.077426879501218 32.166333833698445 0 0 0 0 -85.083641480638789 56.454609975690801 0 56.454609975690801 10.133942873261276 0 0 0 0 -67.561683671864671 12.842004221382012 0 12.842004221382012 117.89080990575349 0 0 0 0 52.62517088187542 -94.783394231693819 0 -94.783394231693819 325.14170252984695 0 0 0 0 -17.13734750076776 91.213080674865978 0 91.213080674865978 12.812299082084792 0 0 0 0 -28.802516745260164 123.40441305249169 0 123.40441305249169 100.49366377391289 0 0 0 0 -84.391314799139082 68.452558071818316 0 68.452558071818316 46.263986643964017 0 0 0 0 -159.99753256212807 -233.06345340718326 0 -233.06345340718326 184.41128102482475 0 0 0 0 79.189474437657509 82.070974789339289 0 82.070974789339289 34.26953879040957 0 0 0 0 69.383189357170522 24.559954267093417 0 24.559954267093417 -39.784500021069107 0 0 0 0 -73.955951324738862 222.23542694113257 0 222.23542694113257 176.17063556013272 0 0 0 0 15.069915987792228 168.38345953601674 0 168.38345953601674 138.00296556033209 0 0 0 0 15.152214885253658 99.946591580466816 0 99.946591580466816 -11.533511277732032 0 0 0 0 1.2853885123597855 2.1399769015704564 0 2.1399769015704564 3.4808105404979912 0 0 0 0 5.5411629854884268 89.34732325369805 0 89.34732325369805 11.448735807229241 0 0 0 0 -22.996047488598833 30.259844775082456 0 30.259844775082456 -77.295880663215939 0 0 0 0 83.618011176268055 97.469737354836525 0 97.469737354836525 64.225286189401231 0 0 0 0 -106.47116027437642 -356.86484168279458 0 -356.86484168279458 291.38756870928046 0 0 0 0 -0.14482616883986521 0.38984862793889619 0 0.38984862793889619 4.6796709544386204 0 0 0 0 49.789671301342878 90.108014578761868 0 90.108014578761868 90.22907525140181 0 0 0 0 62.848628680100774 115.6441527577972 0 115.6441527577972 113.31982287524443 0 0 0 0 63.163227053497394 123.54575684971496 0 123.54575684971496 124.77006971041556 0 0 0 0 6.1301793523762171 90.599158870096289 0 90.599158870096289 135.34671193697432 0 0 0 0 6.1207561417426462 90.2110061468033 0 90.2110061468033 143.02876188988012 0 0 0 0 27.777516108412783 122.76448167979652 0 122.76448167979652 179.8108196103276 0 0 0 0 -54.398109115303669 57.930316446818324 0 57.930316446818324 179.43510961985885 0 0 0 0 -11.1122006245987 63.240794896362786 0 63.240794896362786 141.51984742823959 0 0 0 0 -81.163474194503578 13.578888660064877 0 13.578888660064877 138.89930921164705 0 0 0 0 -13.722109570952853 78.634044109548995 0 78.634044109548995 137.76511902524726 0 0 0 0 -23.629279919499083 18.673110422511854 0 18.673110422511854 95.767311038649495 0 0 0 0 -25.919880787296165 40.265981795571179 0 40.265981795571179 111.08127587983836 0 0 0 0 30.950545344018792 63.396429547656226 0 63.396429547656226 61.655112393691525 0 0 0 0 30.733131114388016 63.124310592907932 0 63.124310592907932 93.131424259031519 0 0 0 0 5.0673274583023158 33.522186467915162 0 33.522186467915162 64.284989025749383 0 0 0 0 68.034440354237631 32.126887793303467 0 32.126887793303467 61.626045223613801 0 0 0 0 3.9133863282504535 30.081361699621993 0 30.081361699621993 76.843598297797143 0 0 0 0 3.9213136128369115 31.616859122100323 0 31.616859122100323 76.884699563473987 0 0 0 0 14.907213295813108 12.264550874714587 0 12.264550874714587 59.865114493837609 0 0 0 0 -3.4649497981945387 24.725797664090351 0 24.725797664090351 73.586393474479337 0 0 0 0 0.8298821889275132 18.60580823505461 0 18.60580823505461 52.123483756675341 0 0 0 0 5.8371648415550226 22.16714136194787 0 22.16714136194787 74.114129182222314 0 0 0 0 9.230210654791108 13.670348635685059 0 13.670348635685059 83.106597373935074 0 0 0 0 -8.4569041053127876 19.489727902114282 0 19.489727902114282 81.33193991238295 0 0 0 0 -8.6022503463327666 25.372280478418361 0 25.372280478418361 96.35560571359747 0 0 0 0 -6.3815578410230955 8.8385276286408043 0 8.8385276286408043 100.25091802411771 0 0 0 0 13.478989549245171 22.288308667213641 0 22.288308667213641 77.926392409906839 0 0 0 0 6.7985642255944185 20.213964051081348 0 20.213964051081348 77.691158231673853 0 0 0 0 18.822356298423074 31.966152556631187 0 31.966152556631187 79.185262134047662 0 0 0 0 3.1374788046464346 15.163636888485598 0 15.163636888485598 77.795090959869412 0 0 0 0 5.4140718056005426 20.696436300858295 0 20.696436300858295 84.536397161326022 0 0 0 0 9.2223347767812811 26.458703603672802 0 26.458703603672802 73.004010370163087 0 0 0 0 7.5533736010702341 18.20108602163964 0 18.20108602163964 70.273146965309934 0 0 0 0 20.275957442701838 15.547932645894434 0 15.547932645894434 70.713299954723425 0 0 0 0 16.956812505560265 39.589044708143774 0 39.589044708143774 44.976826159600932 0 0 0 0 -6.9253090131057888 -7.1681633401344698 0 -7.1681633401344698 57.227562401540126 0 0 0 0 12.227073299537778 28.545064930644457 0 28.545064930644457 61.067155891496441 0 0 0 0 0.001757641137426269 3.8103561212042578 0 3.8103561212042578 -1.314375921118895 0 0 0 0 0.78890070776287757 2.9186468660336686 0 2.9186468660336686 73.316355541344819 0 0 0 0 8.9318778861934334 13.670419655334172 0 13.670419655334172 0.4940694695487764 0 0 0 0 -2.895481732164626 21.660067263255769 0 21.660067263255769 72.638245936331714 0 0 0 0 -0.59326835979481984 26.302801846597504 0 26.302801846597504 61.051712584092456 0 0 0 0 -0.29029098857245117 18.314862815614106 0 18.314862815614106 62.148725871433271 0 0 0 0 -2.2457851955714432 22.473427808548877 0 22.473427808548877 70.717533116803679 0 0 0 0 -8.7458362123779807 32.000750098462959 0 32.000750098462959 59.372400492348788 0 0 0 0 3.0695942087817762 10.875044729110579 0 10.875044729110579 20.68751028336764 0 0 0 0 4.6516764828320447 17.67555458960851 0 17.67555458960851 48.202786058966012 0 0 0 0 5.2846757131210325 30.934790934399643 0 30.934790934399643 33.532178310161726 0 0 0 0 18.071884129138198 2.0924887612691236 0 2.0924887612691236 40.97967963118208 0 0 0 0 -4.9771936174864351 14.097844659975248 0 14.097844659975248 25.872513027020375 0 0 0 0 59.952367513142235 175.49829215662794 0 175.49829215662794 -97.246639360466361 0 0 0 0 -1.2424389088628232 4.0042558953391563 0 4.0042558953391563 48.323371349861191 0 0 0 0 -0.94566368242885801 -4.5419392567409886 0 -4.5419392567409886 30.479031813818892 0 0 0 0 15.313270749727963 -15.231910776524273 0 -15.231910776524273 31.602055257169013 0 0 0 0 0.48708379967602333 6.5042226716726033 0 6.5042226716726033 -1.4621919549797813 0 0 0 0 45.128453118253674 -36.454607364770027 0 -36.454607364770027 46.330821222554732 0 0 0 0 1.9432074934302364 -18.488792668204042 0 -18.488792668204042 62.392939090471828 0 0 0 0 -12.166984064788267 -1.9127419951555567 0 -1.9127419951555567 49.289024842650178 0 0 0 0 -16.567287073966327 -65.171216149955853 0 -65.171216149955853 -81.53702194125799 0 0 0 0 -3.4521708450511639 1.8939508254424009 0 1.8939508254424009 14.228489633922115 0 0 0 0 0.19604661872153883 -3.0945628294956578 0 -3.0945628294956578 31.52719483168039 0 0 0 0 -0.016500562527653528 -3.3615999641015151 0 -3.3615999641015151 31.191873043550004 0 0 0 0 -1.7349449144012006 -0.97392718380455534 0 -0.97392718380455534 7.7409263558690826 0 0 0 0 -0.043416685730335303 -3.2762666960670686 0 -3.2762666960670686 32.00098426703903 0 0 0 0 -3.2370926030596472 9.6362537534732375 0 9.6362537534732375 8.8608272189064046 0 0 0 0 -4.948195109867811 0.97876094620028198 0 0.97876094620028198 30.99809550764121 0 0 0 0 6.2961900949985647 5.1414678084111074 0 5.1414678084111074 9.6832851466142529 0 0 0 0 -2.415598299243559 -0.77490946590332577 0 -0.77490946590332577 5.8475982234366128 0 0 0 0 -8.7153484406261441 0.53536209286096437 0 0.53536209286096437 13.658796820266616 0 0 0 0 -3.7303998075149138 -1.9175997282427488 0 -1.9175997282427488 5.0141963482792562 0 0 0 0 2.1549285071378108 -5.9377702269466681 0 -5.9377702269466681 0.93280060821416555 0 0 0 0 -2.8584802247362973 -2.3988702732862066 0 -2.3988702732862066 5.24306738587984 0 0 0 0 -3.5185091284232044 -2.8705581467442229 0 -2.8705581467442229 1.8598696755399029 0 0 0 0 -11.689302454764174 -0.36056064401714139 0 -0.36056064401714139 -1.6661456788460782 0 0 0 0 -2.0621487995703118 -1.1207029078720856 0 -1.1207029078720856 4.2104427322807112 0 0 0 0 11.492928393886359 30.717496785186086 0 30.717496785186086 30.846977100418371 0 0 0 0 -2.9322054793979078 -7.0260030810136413 0 -7.0260030810136413 21.563542549980411 0 0 0 0 -2.3121689901093134 -3.4155537947801733 0 -3.4155537947801733 -0.027199945376363388 0 0 0 0 -4.1712169779284523 22.550851138799771 0 22.550851138799771 57.755685626009381 0 0 0 0 -1.1276986183971349 0.27401349383985263 0 0.27401349383985263 1.1237858168441619 0 0 0 0 0.0084836820691966963 -3.6542328454306698 0 -3.6542328454306698 8.7029000184957113 0 0 0 0 0.4200251974965214 -1.885884918949742 0 -1.885884918949742 1.23742778099205 0 0 0 0 -0.46888445273515877 -1.0496041736769257 0 -1.0496041736769257 10.078193146633566 0 0 0 0 -0.11893461220306722 -0.14784169376105183 0 -0.14784169376105183 3.8568562931203871 0 0 0 0 0.001930023328720333 -2.1775064708162972 0 -2.1775064708162972 6.4791908563784091 0 0 0 0 -0.25884863768074196 -1.2587373406713596 0 -1.2587373406713596 4.1302566785161616 0 0 0 0 9.4074727981470403 -85.755007595776988 0 -85.755007595776988 215.02623751921783 0 0 0 0 0.33757772071091113 -0.073565869645449311 0 -0.073565869645449311 0.26657696167734457 0 0 0 0 40.378356922278613 -23.36297350658424 0 -23.36297350658424 43.32845606043702 0 0 0 0 9.7507168664067763 -26.330276234803023 0 -26.330276234803023 52.886709626865922 0 0 0 0 -1.6066131771979886 3.2904484807734775 0 3.2904484807734775 17.432134100281246 0 0 0 0 9.2035696874482475 -7.1504908403503578 0 -7.1504908403503578 50.270211331386236 0 0 0 0 -22.117326196568797 -14.321485567801574 0 -14.321485567801574 21.038602520926361 0 0 0 0 -35.090142237996702 8.674638431682979 0 8.674638431682979 21.426944582322903 0 0 0 0 -116.37461290926572 -21.53015260317261 0 -21.53015260317261 40.749333145096898 0 0 0 0 -52.143953073886905 -38.51623346201086 0 -38.51623346201086 24.295273411771632 0 0 0 0 -76.981404901959422 -19.970694428891875 0 -19.970694428891875 33.906751031856402 0 0 0 0 -133.15638966816823 -63.506110542162787 0 -63.506110542162787 24.461238689837046 0 0 0 0 14.408621553856079 -17.622560812174925 0 -17.622560812174925 -29.1236382127463 0 0 0 0 -0.46264650247439931 9.0618579040165059 0 9.0618579040165059 26.232609540918929 0 0 0 0 2.2788151942005288 -9.7368915151707256 0 -9.7368915151707256 11.430511304316099 0 0 0 0 -5.8386776530385731 -18.124677978436011 0 -18.124677978436011 -16.008419215664617 0 0 0 0 45.657779711516099 -18.746927877895359 0 -18.746927877895359 -17.899077730995486 0 0 0 0 -198.33920114367356 -44.927328083023895 0 -44.927328083023895 -3.5861829066998325 0 0 0 0 -201.16662214182907 -72.040223247546237 0 -72.040223247546237 24.004821562150028 0 0 0 0 2.5797035489649009 -4.1773553226612208 0 -4.1773553226612208 -2.9576668018139571 0 0 0 0 -238.56365849849681 -59.793995163607178 0 -59.793995163607178 21.423782732075779 0 0 0 0 3.3200857618958253 -16.944781234837137 0 -16.944781234837137 12.326846312585985 0 0 0 0 4.4183409862020824 -41.763701585656236 0 -41.763701585656236 -37.070317324090865 0 0 0 0 1.6745372637325819 -8.8724428383947043 0 -8.8724428383947043 10.578348565208699 0 0 0 0 -12.477167977138265 -16.163711806322681 0 -16.163711806322681 -17.227365562226623 0 0 0 0 -74.388338768044264 -71.58217585512466 0 -71.58217585512466 18.827134849198046 0 0 0 0 -0.57747430856956972 -3.9960653153606671 0 -3.9960653153606671 17.566254428547495 0 0 0 0 47.867375120962123 -67.158107088527231 0 -67.158107088527231 -28.018334512118599 0 0 0 0 40.718196754350402 24.240677340836555 0 24.240677340836555 36.606623739307906 0 0 0 0 -0.55776597771654224 -37.924813875652035 0 -37.924813875652035 22.025930473726476 0 0 0 0 72.913543637288114 52.770910756524245 0 52.770910756524245 90.901723884599051 0 0 0 0 13.451620025388559 15.42802933864732 0 15.42802933864732 128.37574239868263 0 0 0 0 26.232963665454157 35.511689396877443 0 35.511689396877443 100.00233315810328 0 0 0 0 -14.703171799517994 -24.981529685894202 0 -24.981529685894202 31.176729744431213 0 0 0 0 25.853626519835444 -16.034526164323324 0 -16.034526164323324 42.990685647651844 0 0 0 0 36.850102330437444 -12.870748070570698 0 -12.870748070570698 -33.447541102781543 0 0 0 0 18.558412569536472 2.7674320751102641 0 2.7674320751102641 28.542378652964544 0 0 0 0 2.8901004296338151 10.227267287244103 0 10.227267287244103 -30.847676974139176 0 0 0 0 6.2883329385659108 0.91329768403375056 0 0.91329768403375056 1.3876332122890744 0 0 0 0 -0.064952756864310679 -3.0551260661450215 0 -3.0551260661450215 4.9706730325997341 0 0 0 0 0.1700877273700841 0.21346175296322656 0 0.21346175296322656 -0.46682716582841977 0 0 0 0 -18.167126398481702 37.250741493425949 0 37.250741493425949 105.8646449065709 0 0 0 0 0.017524841981655565 34.752894050503528 0 34.752894050503528 101.93685220100451 0 0 0 0 39.480316048408625 68.526058545699925 0 68.526058545699925 120.8446693654696 0 0 0 0 -24.898800779493214 35.218900870015204 0 35.218900870015204 206.07060429407284 0 0 0 0 0.071742226090887859 6.0459997631769511 0 6.0459997631769511 220.65694113786594 0 0 0 0 24.848509044177504 22.431553217917099 0 22.431553217917099 211.44957980678009 0 0 0 0 9.3525731534405736 62.088667875112151 0 62.088667875112151 189.10087302940519 0 0 0 0 9.070078763958179 113.95434116728575 0 113.95434116728575 407.66057734412607 0 0 0 0 -21.182417862022334 34.275662094563813 0 34.275662094563813 427.3422152298881 0 0 0 0 -0.14869920750167123 -15.725240310184745 0 -15.725240310184745 616.64273096770921 0 0 0 0 -5.9899919500015208 97.246182793074695 0 97.246182793074695 462.44706930324537 0 0 0 0 26.551781847874494 26.956724689058319 0 26.956724689058319 470.27246357785771 0 0 0 0 -19.318217117775504 24.048107276664041 0 24.048107276664041 653.3989041462919 0 0 0 0 -48.619178916280703 -129.24194893010281 0 -129.24194893010281 1057.3489393873897 0 0 0 0 15.489516021516465 -293.62359858696436 0 -293.62359858696436 1014.7984731343313 0 0 0 0 75.836267732925592 -9.0179763103005826 0 -9.0179763103005826 703.69496937860822 0 0 0 0 256.47002409188383 -90.478041076712543 0 -90.478041076712543 774.23984453865705 0 0 0 0 -13.03012682612211 -60.760330934807598 0 -60.760330934807598 803.46489148899855 0 0 0 0 -37.467183298038492 42.800961847118742 0 42.800961847118742 725.60835965142178 0 0 0 0 -90.501728593762209 12.48162979769404 0 12.48162979769404 856.72765682079262 0 0 0 0 -9.4126445006448591 72.661384772763995 0 72.661384772763995 888.59566531780001 0 0 0 0 70.432333412290888 -57.870722102435877 0 -57.870722102435877 106.85551506195043 0 0 0 0 31.096361179060196 31.252529482044338 0 31.252529482044338 382.23188830117215 0 0 0 0 19.372997683161731 159.39643008354324 0 159.39643008354324 460.38242227389128 0 0 0 0 75.587274018724713 150.41446801323764 0 150.41446801323764 189.20215089057456 0 0 0 0 40.796672766639588 -14.931669752224479 0 -14.931669752224479 111.89865964294586 0 0 0 0 -113.40229368968414 8.7676346726802876 0 8.7676346726802876 106.19451697742625 0 0 0 0 -183.01816648376143 -65.260860667513043 0 -65.260860667513043 -11.586669919328415 0 0 0 0 -0.20026497670804355 -2.3003490875446602 0 -2.3003490875446602 14.58660424210899 0 0 0 0 -177.4310322766645 -61.915658622088813 0 -61.915658622088813 -22.067002401003265 0 0 0 0 -184.13617450139236 -70.119733676750911 0 -70.119733676750911 -9.1129035674020997 0 0 0 0 -152.48940738663885 28.455116914396058 0 28.455116914396058 33.088489231624408 0 0 0 0 191.49127237585617 315.84862827570032 0 315.84862827570032 207.1941936253279 0 0 0 0 -83.109313899260655 -67.415848062359146 0 -67.415848062359146 1508.9717324595695 0 0 0 0 -0.22461678719254685 -0.53059243269139245 0 -0.53059243269139245 6.4485229728386457 0 0 0 0 161.50279946039836 487.67786462750519 0 487.67786462750519 965.76126885086705 0 0 0 0 -161.58124656373548 -357.90785862166376 0 -357.90785862166376 552.62792882279609 0 0 0 0 -207.67404814887868 533.39267299477797 0 533.39267299477797 1372.7757998794841 0 0 0 0 -0.71633228126305548 -2.5348393448983542 0 -2.5348393448983542 3.4252305752573307 0 0 0 0 17.550129732624555 71.768559766256658 0 71.768559766256658 2013.6250736131187 0 0 0 0 405.25147275712976 -668.42661398042856 0 -668.42661398042856 1069.5948762903281 0 0 0 0 -104.27068353890161 -341.16911318862913 0 -341.16911318862913 1294.1902760281228 0 0 0 0 35.232428029352732 -205.77849997872568 0 -205.77849997872568 1218.8694203804771 0 0 0 0 -223.95688832000758 -23.459095416252239 0 -23.459095416252239 1805.2574193256587 0 0 0 0 -616.67821444830929 -423.37963568555551 0 -423.37963568555551 2116.9605219513178 0 0 0 0 -665.00118107234653 -71.644269683136372 0 -71.644269683136372 2137.6900154563923 0 0 0 0 -1.2720449630527739 2.8005221066847668 0 2.8005221066847668 17.671990038237311 0 0 0 0 -992.67719825610061 644.58925537970572 0 644.58925537970572 635.08837779339228 0 0 0 0 423.75046466332708 -1332.0733512972292 0 -1332.0733512972292 2186.5012317022465 0 0 0 0 270.4892070905438 -522.87200784110337 0 -522.87200784110337 1190.8172186310403 0 0 0 0 -133.29712881046692 -75.131686256856483 0 -75.131686256856483 -173.05096701843649 0 0 0 0 -183.5649766707985 -54.712969946958765 0 -54.712969946958765 -11.144993309360871 0 0 0 0 -348.16282410590458 -119.84102814655853 0 -119.84102814655853 -23.620577083638636 0 0 0 0 -445.94702875402334 58.202315658327279 0 58.202315658327279 29.702005053142784 0 0 0 0 -0.7660172601030677 10.482407621537234 0 10.482407621537234 42.267128167168607 0 0 0 0 -131.55120607783235 21.462035279397242 0 21.462035279397242 29.167022766807349 0 0 0 0 -191.48105755475279 58.315374277259252 0 58.315374277259252 29.042307109004469 0 0 0 0 -141.76087337300442 31.795578913410282 0 31.795578913410282 48.173599254063447 0 0 0 0 -168.45792069719266 -18.600744175426371 0 -18.600744175426371 48.795629904598172 0 0 0 0 -134.00504697437418 -40.762389561277814 0 -40.762389561277814 63.005870789922483 0 0 0 0 -232.38941605211213 -55.886535691697645 0 -55.886535691697645 28.76098030176945 0 0 0 0 -170.12413980170572 -49.860337604230153 0 -49.860337604230153 8.885481376099051 0 0 0 0 -182.32074689502247 -59.268715983744187 0 -59.268715983744187 10.416844176826999 0 0 0 0 -185.16241933981041 -56.914558850883623 0 -56.914558850883623 5.8661656015465269 0 0 0 0 -179.43718928448152 -67.44612044783571 0 -67.44612044783571 -10.308012639565277 0 0 0 0 -193.89432199838723 -76.970836157532176 0 -76.970836157532176 7.0907769122568425 0 0 0 0 -175.14012385714648 -66.467574108064582 0 -66.467574108064582 14.460689448256744 0 0 0 0 -169.4557990105593 -39.67871078546159 0 -39.67871078546159 36.437599523662357 0 0 0 0 -169.16810895545905 -42.184558087377809 0 -42.184558087377809 39.854744378448231 0 0 0 0 -171.22683250871069 -55.862678837453132 0 -55.862678837453132 7.0957858425972518 0 0 0 0 -161.7134883656795 -53.962111567467218 0 -53.962111567467218 -16.378986127558164 0 0 0 0 -163.31642964462026 -35.063990124661359 0 -35.063990124661359 36.364478764386149 0 0 0 0 -153.55341049488652 -50.852357000723714 0 -50.852357000723714 -2.8164280800556298 0 0 0 0 -172.72063218193284 -25.398467657301808 0 -25.398467657301808 60.317135305758711 0 0 0 0 -179.60462518140801 -63.195597550287857 0 -63.195597550287857 49.990326230050414 0 0 0 0 -183.05298582048198 -3.3708466992538888 0 -3.3708466992538888 76.482853190485912 0 0 0 0 -158.20054269232048 -46.583636678544281 0 -46.583636678544281 82.814048840009491 0 0 0 0 -184.92898486174735 -2.7071706033948431 0 -2.7071706033948431 110.76699362281943 0 0 0 0 -177.66335860790514 -35.289035446883645 0 -35.289035446883645 63.567400009080302 0 0 0 0 -121.54849550811701 -6.2245598272165807 0 -6.2245598272165807 60.55836052497034 0 0 0 0 -165.57006238186284 -22.044987245462835 0 -22.044987245462835 56.072333098825766 0 0 0 0 -146.27190178711157 -19.547271614268539 0 -19.547271614268539 38.687344426376512 0 0 0 0 -163.48930596979972 -17.542646013476769 0 -17.542646013476769 57.521928741822194 0 0 0 0 -171.98455562224535 -10.647123372997157 0 -10.647123372997157 81.234584372446989 0 0 0 0 -160.11796676546822 12.386603764265601 0 12.386603764265601 87.292739634438476 0 0 0 0 -160.09696682733227 12.240666713631072 0 12.240666713631072 56.41769250966172 0 0 0 0 -193.17771514228986 46.078254291256599 0 46.078254291256599 121.45866682211272 0 0 0 0 -169.80727018254811 -28.487290714736446 0 -28.487290714736446 150.50069873143002 0 0 0 0 -1.3496086191105974 -105.84267604644992 0 -105.84267604644992 224.83584986735514 0 0 0 0 -206.72367177714767 86.801095028589771 0 86.801095028589771 3.2946004466211889 0 0 0 0 -0.21713332614014402 0.2646386681749533 0 0.2646386681749533 0.82103026292151071 0 0 0 0 -125.73129582885005 13.588950728257259 0 13.588950728257259 185.38645822207036 0 0 0 0 -80.287231747244391 -25.621955917995365 0 -25.621955917995365 94.840738425882591 0 0 0 0 -154.61734906170307 -14.155457385350019 0 -14.155457385350019 97.565623145703285 0 0 0 0 -93.740191389810633 -28.011577874414797 0 -28.011577874414797 98.24862453242531 0 0 0 0 5.9943981655872056 22.06009164422192 0 22.06009164422192 59.194582956397852 0 0 0 0 -350.89245368204411 390.03277740214071 0 390.03277740214071 -30.997371959674638 0 0 0 0 -102.67346746639427 189.99897745089402 0 189.99897745089402 26.699150608495984 0 0 0 0 623.04652479325796 77.803653930182918 0 77.803653930182918 -284.62327162656584 0 0 0 0 -88.994590922508195 42.319263893732568 0 42.319263893732568 109.62657164043776 0 0 0 0 -50.701003499071447 -11.5775338050953 0 -11.5775338050953 148.51965801729239 0 0 0 0 -37.550119398645052 -10.527648888310068 0 -10.527648888310068 143.80804470881412 0 0 0 0 3.3399471255528113 27.587948450654949 0 27.587948450654949 57.511678186870995 0 0 0 0 67.199372491234328 -40.558089282123547 0 -40.558089282123547 6.2288131355453515 0 0 0 0 48.813805920528807 107.81738840534672 0 107.81738840534672 194.84800394351623 0 0 0 0 2.3799971784473781 -2.4746891628262517 0 -2.4746891628262517 1.8215217362198359 0 0 0 0 -67.910862780721232 3.4196687260482577 0 3.4196687260482577 256.72245770598238 0 0 0 0 -159.85788952829944 -409.70690101140644 0 -409.70690101140644 412.8890435278081 0 0 0 0 3.8391713436692907 20.18114611652598 0 20.18114611652598 58.15587328081773 0 0 0 0 -45.467338091881174 103.55184836205444 0 103.55184836205444 48.436009026605461 0 0 0 0 -204.53480438780502 3.0296741617421503 0 3.0296741617421503 112.47114699162194 0 0 0 0 -43.160837014665958 105.01131432032707 0 105.01131432032707 -33.085047796266736 0 0 0 0 29.032147849773537 106.94958884739026 0 106.94958884739026 -193.21619269563234 0 0 0 0 71.38345811763611 19.111739240353927 0 19.111739240353927 -71.942272239903104 0 0 0 0 -69.708095314083039 25.446971951008891 0 25.446971951008891 -117.79596142734226 0 0 0 0 -83.056725115304289 3.936908554409456 0 3.936908554409456 -3.8526979946182109 0 0 0 0 0.59092539876303896 0.34491441664654587 0 0.34491441664654587 -3.4890524215338985 0 0 0 0 144.53288801579492 48.01804183861168 0 48.01804183861168 -333.56141584318539 0 0 0 0 -333.30048349944809 77.757793737204338 0 77.757793737204338 -24.544471119377704 0 0 0 0 -76.786759514148798 209.96379410379814 0 209.96379410379814 -259.39648423549079 0 0 0 0 284.87017678756456 -80.360924574823002 0 -80.360924574823002 -407.81696470221505 0 0 0 0 49.03878251299011 279.97495892936058 0 279.97495892936058 -352.97393591902801 0 0 0 0 251.50966486774632 -23.073588136940089 0 -23.073588136940089 -60.183545183768729 0 0 0 0 -251.78063741278311 -0.66083925269049359 0 -0.66083925269049359 -56.141408229770605 0 0 0 0 -191.08119213057944 76.338631741564313 0 76.338631741564313 -138.8348211138873 0 0 0 0 -137.14001367456513 155.705895096311 0 155.705895096311 -203.51631935173646 0 0 0 0 20.034648624381589 209.60487215215107 0 209.60487215215107 -127.74733156582806 0 0 0 0 45.402410648350724 266.1970087076661 0 266.1970087076661 -155.05965852341615 0 0 0 0 -79.527918912925998 162.64323413678358 0 162.64323413678358 -40.170839650556445 0 0 0 0 172.27055433577334 266.74693307167036 0 266.74693307167036 86.495337535852741 0 0 0 0 129.96096410965583 223.42514262534678 0 223.42514262534678 -127.64015633789677 0 0 0 0 -39.315829485263748 237.33331492797879 0 237.33331492797879 94.327571497196914 0 0 0 0 268.00580386773299 67.803368210050394 0 67.803368210050394 421.93227828315867 0 0 0 0 -13.910037060031755 111.68411792446568 0 111.68411792446568 124.63986837796983 0 0 0 0 301.66201658080536 -10.799910425361304 0 -10.799910425361304 65.914433506484784 0 0 0 0 462.61978288587125 -223.0566250861666 0 -223.0566250861666 613.40059642309643 0 0 0 0 245.89077683764481 129.58055725726081 0 129.58055725726081 740.40728885057615 0 0 0 0 734.71824198885952 12.50428859256499 0 12.50428859256499 817.03094674526074 0 0 0 0 213.05107757366204 -25.020962143898942 0 -25.020962143898942 256.15784957745927 0 0 0 0 -55.673653843313332 -2.9617416245309869 0 -2.9617416245309869 641.72937225922942 0 0 0 0 -285.4521914630368 -59.632001314443187 0 -59.632001314443187 41.575667094497476 0 0 0 0 -93.524804970776131 208.43567732926022 0 208.43567732926022 398.04438868846046 0 0 0 0 -46.255650178947235 401.6917501043522 0 401.6917501043522 -196.62173553873436 0 0 0 0 -90.838762160120481 5.0359660854735466 0 5.0359660854735466 38.654489419990568 0 0 0 0 -137.45027900145345 74.295542447132902 0 74.295542447132902 3.7768572792010673 0 0 0 0 -483.88467010899797 376.9495474767391 0 376.9495474767391 260.65587414696347 0 0 0 0 2.5097814793047668 17.604051707783661 0 17.604051707783661 54.449523792598484 0 0 0 0 -145.26576646957278 -248.42052876395974 0 -248.42052876395974 639.33637940166227 0 0 0 0 3.0338375151595756 -218.51874509068148 0 -218.51874509068148 -1.277759259173763 0 0 0 0 -192.28700142875186 -205.7804362429124 0 -205.7804362429124 761.2075013025169 0 0 0 0 8.9222404251158878 -297.2577179742002 0 -297.2577179742002 516.89430336537771 0 0 0 0 58.681253218926486 -528.75836511534362 0 -528.75836511534362 648.0338402522757 0 0 0 0 -35.351549602424711 -540.56486798022888 0 -540.56486798022888 1063.2725382447243 0 0 0 0 291.67525617525041 -272.59456836713798 0 -272.59456836713798 518.54643345732984 0 0 0 0 121.95199940656914 -678.5123587820126 0 -678.5123587820126 885.68564554198383 0 0 0 0 6.9576227943989579 -672.91731220499059 0 -672.91731220499059 1003.3809831972321 0 0 0 0 -30.253859183685563 -605.6190897772758 0 -605.6190897772758 883.89970078965416 0 0 0 0 -182.92093580261462 -188.21906134090386 0 -188.21906134090386 1171.7765944751081 0 0 0 0 34.826121336911456 243.18514821005556 0 243.18514821005556 571.23486585525097 0 0 0 0 -43.333997722473669 -557.27653379154071 0 -557.27653379154071 1268.4773032871308 0 0 0 0 -0.23835666709663128 -2.8245656777249124 0 -2.8245656777249124 4.5201195786216886 0 0 0 0 -42.373660257720985 -3.782929965389485 0 -3.782929965389485 32.167476584225369 0 0 0 0 -35.730192538683696 25.970818306188448 0 25.970818306188448 25.96953140925325 0 0 0 0 -43.535413301798144 -4.6378143526380882 0 -4.6378143526380882 64.121446968434611 0 0 0 0 -3.1942575711446963 10.387556139504547 0 10.387556139504547 32.111183858617267 0 0 0 0 -15.123074191176784 19.343432694840885 0 19.343432694840885 27.400543259369442 0 0 0 0 129.77007890587811 -244.51183663547999 0 -244.51183663547999 208.29414805682609 0 0 0 0 -2.7802357688396988 5.6378534943192804 0 5.6378534943192804 29.439394458462459 0 0 0 0 -140.73139810721386 29.195395924565673 0 29.195395924565673 340.30396899683547 0 0 0 0 85.645750558966029 -425.76704186585266 0 -425.76704186585266 545.94326976571756 0 0 0 0 214.10998345488861 -454.9157551323151 0 -454.9157551323151 507.87936161048128 0 0 0 0 503.6776908332813 -746.42308998430963 0 -746.42308998430963 707.14083561759617 0 0 0 0 -22.840751824711333 11.100058239142527 0 11.100058239142527 25.575071426354043 0 0 0 0 -2.4477953326188864 8.1744072408581481 0 8.1744072408581481 29.510959034068776 0 0 0 0 -21.075114317845873 15.567009914306254 0 15.567009914306254 20.120900028327014 0 0 0 0 239.75866135411252 -37.673282316864061 0 -37.673282316864061 57.605206338193966 0 0 0 0 936.35060160253488 -491.95731129329943 0 -491.95731129329943 378.28607420307526 0 0 0 0 506.17937823045759 -768.27762523044657 0 -768.27762523044657 897.41743629783741 0 0 0 0 -3.4303989581703274 4.0533646689672835 0 4.0533646689672835 33.04991342238651 0 0 0 0 -32.91245209355111 50.834458467696095 0 50.834458467696095 52.561291055186302 0 0 0 0 -1.8014163803225998 1.3315106022900522 0 1.3315106022900522 12.023743974117707 0 0 0 0 -10.349726547225472 -4.8976171356222267 0 -4.8976171356222267 33.708816449379313 0 0 0 0 28.611883710378606 -32.241399494145298 0 -32.241399494145298 34.725848643749487 0 0 0 0 1211.5843238633547 -1331.1082728307865 0 -1331.1082728307865 1406.3325350483647 0 0 0 0 1.1003641018212349 5.9024918332103766 0 5.9024918332103766 17.337610419297334 0 0 0 0 99.488879682769038 4.6591541823290754 0 4.6591541823290754 35.930687481391942 0 0 0 0 1.5455802263459475 1.4757006333714884 0 1.4757006333714884 -1.823615791821652 0 0 0 0 1349.637167722125 -901.24106062947249 0 -901.24106062947249 685.31471570438589 0 0 0 0 982.25485375347853 -1067.625715757662 0 -1067.625715757662 1075.9600273844844 0 0 0 0 384.14183121428141 -784.80744626076194 0 -784.80744626076194 1446.852987681079 0 0 0 0 579.84916788514238 -671.9483794492844 0 -671.9483794492844 1311.0124262099562 0 0 0 0 615.31978537833675 -983.99782932890321 0 -983.99782932890321 2462.0745481284685 0 0 0 0 93.898846170730394 -670.78871145994344 0 -670.78871145994344 908.91746196565509 0 0 0 0 88.385006644395617 -623.16406953557453 0 -623.16406953557453 1081.5823882676923 0 0 0 0 351.50428676966021 -623.81521647402406 0 -623.81521647402406 1049.7212912110554 0 0 0 0 47.945832960533153 -643.81865442001435 0 -643.81865442001435 1173.9802401083871 0 0 0 0 152.29122850364911 -303.60792136380769 0 -303.60792136380769 981.82477795856539 0 0 0 0 234.57096545966232 -26.662502608838167 0 -26.662502608838167 576.60284164419863 0 0 0 0 221.22119950302476 -212.52889698175568 0 -212.52889698175568 996.43063101650478 0 0 0 0 -12.508709960515262 -295.80881303824572 0 -295.80881303824572 1050.54398812617 0 0 0 0 861.83294225202553 96.463669650031079 0 96.463669650031079 2006.9900792219414 0 0 0 0 188.37214764999203 -509.06646686826116 0 -509.06646686826116 1629.5548095906997 0 0 0 0 456.48655762233284 -44.438283088165917 0 -44.438283088165917 1116.0519032022858 0 0 0 0 535.11340257760094 -346.49523041762041 0 -346.49523041762041 1459.8441006729263 0 0 0 0 608.54396756652909 -576.74779210693396 0 -576.74779210693396 1200.7355996150873 0 0 0 0 225.59699586607167 -261.96469073618937 0 -261.96469073618937 1230.0769911076641 0 0 0 0 1551.990935064412 -537.50261387012142 0 -537.50261387012142 1201.6835952154815 0 0 0 0 -142.98300899360765 -690.55430591072945 0 -690.55430591072945 3071.5321388633456 0 0 0 0 -65.381345314916871 -171.32849768587039 0 -171.32849768587039 1222.5773844471623 0 0 0 0 -31.083598235698446 -116.14280303309351 0 -116.14280303309351 1295.5008512292734 0 0 0 0 38.660951902613817 21.580226795214045 0 21.580226795214045 7.0372016979464576 0 0 0 0 132.67650139704438 126.47774843173465 0 126.47774843173465 706.356212200757 0 0 0 0 22.962032950486901 623.3089201641269 0 623.3089201641269 1593.1208146564168 0 0 0 0 9.3657959243982827 11.364937693866924 0 11.364937693866924 -0.82330911431540699 0 0 0 0 231.39016258281663 256.49710885871173 0 256.49710885871173 274.6283422128181 0 0 0 0 -191.03116743788087 98.0700504106062 0 98.0700504106062 308.04020379894064 0 0 0 0 -9.3283495633222628 261.32722614458908 0 261.32722614458908 1398.3682209206418 0 0 0 0 11.68033853295492 -12.583808680061338 0 -12.583808680061338 -141.228036983317 0 0 0 0 134.90998117193158 -68.613186500340817 0 -68.613186500340817 -121.7311425809894 0 0 0 0 4.8397918043901544 22.207471858762037 0 22.207471858762037 18.375274434736696 0 0 0 0 3.2282626325907984 16.112142986235 0 16.112142986235 19.229392895996355 0 0 0 0 69.724450726829673 39.868889626690361 0 39.868889626690361 -27.78648822397372 0 0 0 0 -11.2772428975004 16.68204006817723 0 16.68204006817723 6.7276008209155407 0 0 0 0 29.562662517393619 58.376573096345965 0 58.376573096345965 27.781026857803226 0 0 0 0 -0.98299957340350375 4.233845312590347 0 4.233845312590347 -30.611912096923334 0 0 0 0 9.8771814741485287 30.962443141568656 0 30.962443141568656 35.170567253273475 0 0 0 0 -2.9830566856203404 110.1384686424899 0 110.1384686424899 -86.496667595507461 0 0 0 0 10.798070722776174 60.696035017378563 0 60.696035017378563 44.549817147024442 0 0 0 0 126.96951980918857 20.15685483605921 0 20.15685483605921 -14.895828607768635 0 0 0 0 -82.451437162570073 101.20641356037959 0 101.20641356037959 26.9855222476981 0 0 0 0 -38.748017826469322 43.586067515613649 0 43.586067515613649 80.719656859801034 0 0 0 0 -69.768662112004222 87.315283967188407 0 87.315283967188407 -421.00522466647089 0 0 0 0 -204.34714418780095 212.31145848898086 0 212.31145848898086 -163.14086240321922 0 0 0 0 -127.30274479381114 84.412401390538434 0 84.412401390538434 -13.683756471926245 0 0 0 0 -104.00889111897413 162.61036325879832 0 162.61036325879832 -256.9165917582668 0 0 0 0 -79.229195142897879 121.21447659840305 0 121.21447659840305 -57.340393772596144 0 0 0 0 -100.36323630538391 74.337633804476354 0 74.337633804476354 -123.77256604137256 0 0 0 0 -167.50811523081211 173.92576035627644 0 173.92576035627644 -94.814436935419508 0 0 0 0 -91.824325519857666 113.00096175447106 0 113.00096175447106 -50.187086214304145 0 0 0 0 -89.488787442121975 84.239327730167133 0 84.239327730167133 -20.436383713778923 0 0 0 0 23.849639594324554 11.502611478996911 0 11.502611478996911 6.5292326597999732 0 0 0 0 -69.015009093057472 -194.12425589581994 0 -194.12425589581994 1435.9086678448948 0 0 0 0 54.730595129803078 -28.222354666257161 0 -28.222354666257161 1165.9590943877629 0 0 0 0 -5.1991128215822755 -250.08699871592762 0 -250.08699871592762 2134.6473648849242 0 0 0 0 8.3988415960710654 2.8719059270509177 0 2.8719059270509177 2.3360788352850221 0 0 0 0 3.829374632325667 0.59655925765723339 0 0.59655925765723339 0.39454693153142273 0 0 0 0 235.51236471041102 99.513596711301943 0 99.513596711301943 222.68769300997519 0 0 0 0 98.588180716010356 -209.05899842442159 0 -209.05899842442159 638.36031870749684 0 0 0 0 248.29261714464792 -213.25259974312576 0 -213.25259974312576 173.09892328689602 0 0 0 0 -96.222615544209475 -242.13699939035359 0 -242.13699939035359 1028.062556353183 0 0 0 0 33.431221057708626 -7.8142247643099836 0 -7.8142247643099836 819.35730516731564 0 0 0 0 1.9701475805131956 0.38736652501536639 0 0.38736652501536639 1.1110426550423682 0 0 0 0 407.31456057418654 -440.88748175362707 0 -440.88748175362707 1236.7038300905369 0 0 0 0 494.48629249270925 -356.84390775213978 0 -356.84390775213978 815.04101700361934 0 0 0 0 296.4924013928412 -191.80708797631814 0 -191.80708797631814 801.13688630149227 0 0 0 0 474.33944673094811 -176.42350841727603 0 -176.42350841727603 215.24544189825247 0 0 0 0 172.82586193505267 14.81707035353611 0 14.81707035353611 141.08115810664822 0 0 0 0 227.30438840380157 -277.500479962393 0 -277.500479962393 314.67137345223273 0 0 0 0 577.04336152252199 -408.17190427437163 0 -408.17190427437163 339.97832727256173 0 0 0 0 247.00455184398288 -167.22444707471732 0 -167.22444707471732 99.139554567882442 0 0 0 0 261.76640576569207 -202.184690629545 0 -202.184690629545 84.148676975062699 0 0 0 0 511.76623842176468 -246.95030881050843 0 -246.95030881050843 -79.061372194060823 0 0 0 0 180.82973148818564 -96.148334579636867 0 -96.148334579636867 -56.034634879724763 0 0 0 0 326.11153326562089 -128.30078120962935 0 -128.30078120962935 -135.25115032158646 0 0 0 0 167.27074222787633 45.530684374105476 0 45.530684374105476 -150.54347220439377 0 0 0 0 129.40169631775825 -13.223097250805949 0 -13.223097250805949 -46.601294873136794 0 0 0 0 -83.910915081280109 83.769892491036444 0 83.769892491036444 -6.9536504161369521 0 0 0 0 191.96831445586213 -121.48656206318992 0 -121.48656206318992 47.443579341241275 0 0 0 0 220.30315071671339 -60.741556570363173 0 -60.741556570363173 -29.266072381738923 0 0 0 0 287.88282919589983 -162.64564445088035 0 -162.64564445088035 42.740575594645634 0 0 0 0 287.677457955102 -166.58806663429277 0 -166.58806663429277 2.2810348536222591 0 0 0 0 332.09175051067177 -26.026632716304448 0 -26.026632716304448 3.4925619517016457 0 0 0 0 232.517243987857 -125.44899150402489 0 -125.44899150402489 18.098086288577178 0 0 0 0 384.35345236296052 -144.1578617680716 0 -144.1578617680716 11.817328374047065 0 0 0 0 103.90449358839123 0.015565689180220943 0 0.015565689180220943 51.088320913684584 0 0 0 0 186.22144686874344 -118.14363148162738 0 -118.14363148162738 108.048579769762 0 0 0 0 77.873311122688392 31.186202234013763 0 31.186202234013763 132.41201149793051 0 0 0 0 63.794103709447199 -60.397818197868219 0 -60.397818197868219 254.83927056749235 0 0 0 0 78.590671027157441 -2.526254961390805 0 -2.526254961390805 69.31948907248443 0 0 0 0 72.32238641427648 50.662374791987531 0 50.662374791987531 86.1528703850272 0 0 0 0 46.049923354054954 70.726570427563274 0 70.726570427563274 254.46376974385203 0 0 0 0 1337.3969349149579 -436.27656354938517 0 -436.27656354938517 -275.12125632865354 0 0 0 0 1.7495644915792781 -2.3040373876951463 0 -2.3040373876951463 -0.73961264642974811 0 0 0 0 5.1452221128038218 43.880022361401643 0 43.880022361401643 76.141443328218884 0 0 0 0 0.93788798801431428 -1.9784840971257616 0 -1.9784840971257616 8.3550907646977066 0 0 0 0 470.69247047273507 -619.02332080622182 0 -619.02332080622182 710.98331832056283 0 0 0 0 571.30275578393048 209.2969890772365 0 209.2969890772365 716.07062510225614 0 0 0 0 20.294618213198191 -555.73751565649582 0 -555.73751565649582 939.06059908015595 0 0 0 0 69.619333560611267 -42.164580437121913 0 -42.164580437121913 275.78826110207592 0 0 0 0 1063.8487358762995 -621.43549890953 0 -621.43549890953 266.54600349279644 0 0 0 0 490.69240260796505 -211.32599337743886 0 -211.32599337743886 66.454905554172001 0 0 0 0 1040.1451392995273 224.97762184782505 0 224.97762184782505 201.72854469943559 0 0 0 0 817.27116084304726 25.128473420685623 0 25.128473420685623 56.171330042328918 0 0 0 0 237.36020868343167 -11.593592895871552 0 -11.593592895871552 71.536262102017645 0 0 0 0 400.87607354979082 49.136674706322083 0 49.136674706322083 -37.293775801561424 0 0 0 0 529.58996746635103 -228.63871716178619 0 -228.63871716178619 58.075239278172376 0 0 0 0 234.46965047256435 -205.24934362828208 0 -205.24934362828208 173.18912932167586 0 0 0 0 261.0450351341533 -320.32172420580173 0 -320.32172420580173 436.20914174360951 0 0 0 0 190.79855608642811 -130.08589533139457 0 -130.08589533139457 141.0795376728347 0 0 0 0 106.15939194340852 -26.945099712373803 0 -26.945099712373803 98.986032973945839 0 0 0 0 106.47818717470727 -101.4439639051634 0 -101.4439639051634 271.14225173684827 0 0 0 0 206.33526993538362 -128.96593790220504 0 -128.96593790220504 51.306061132418108 0 0 0 0 72.409035322514683 17.404499511874747 0 17.404499511874747 26.182117352145724 0 0 0 0 125.04387855389177 -15.720109151050565 0 -15.720109151050565 43.429808723987662 0 0 0 0 110.76307458277188 -62.248024725806317 0 -62.248024725806317 146.6258434956253 0 0 0 0 18.464050973633675 67.29055040325693 0 67.29055040325693 -4.5707351088349242 0 0 0 0 65.36794173124872 10.203263489293022 0 10.203263489293022 28.865371015432174 0 0 0 0 28.300592928828337 57.132127736636903 0 57.132127736636903 29.572057279080582 0 0 0 0 2.2023338552880887 33.780141887778882 0 33.780141887778882 27.808707254996989 0 0 0 0 24.512689817020146 65.952693937259028 0 65.952693937259028 30.710554900861098 0 0 0 0 54.961295693413376 32.318706796708284 0 32.318706796708284 43.813716515272972 0 0 0 0 22.229443961360175 67.801871999392461 0 67.801871999392461 59.229968977160752 0 0 0 0 22.911302091826656 67.401071736117956 0 67.401071736117956 29.659984250174602 0 0 0 0 68.961890289909206 -4.8577548458124511 0 -4.8577548458124511 140.67287085115095 0 0 0 0 78.929670009474648 24.42539127645432 0 24.42539127645432 66.620681964777759 0 0 0 0 49.121218889156808 30.289151001896244 0 30.289151001896244 85.729110758584284 0 0 0 0 36.324536256070132 66.583758917266096 0 66.583758917266096 48.187228362090536 0 0 0 0 28.175967486302397 49.796567952973419 0 49.796567952973419 82.094267939472047 0 0 0 0 70.13684459257729 31.185572431866603 0 31.185572431866603 48.158323611787637 0 0 0 0 -7.6845243520066333 32.025209326274307 0 32.025209326274307 49.209900962276151 0 0 0 0 0.84118722956009151 75.334496467366989 0 75.334496467366989 43.350418471192825 0 0 0 0 77.813096501613472 31.542468652776734 0 31.542468652776734 -85.578482444441761 0 0 0 0 28.20436325272567 92.770638787711505 0 92.770638787711505 45.445930330315605 0 0 0 0 -1.4497864124768967 91.802916855696822 0 91.802916855696822 69.26768400912988 0 0 0 0 8.6319355602445285 66.647615581976424 0 66.647615581976424 50.876725651229208 0 0 0 0 197.40845134544361 -386.25412232859526 0 -386.25412232859526 278.86221484083217 0 0 0 0 0.81807937810117437 100.9464467900616 0 100.9464467900616 81.168832048773766 0 0 0 0 37.284745991810269 20.893571138658444 0 20.893571138658444 95.687868651664758 0 0 0 0 43.880720280617425 -0.2286255892686313 0 -0.2286255892686313 111.26202469760028 0 0 0 0 16.646561411103271 27.178824459283703 0 27.178824459283703 8.6932251003884602 0 0 0 0 0.46962013184474927 8.1929733850411139 0 8.1929733850411139 120.88298286839563 0 0 0 0 11.665825877175156 23.785175370191581 0 23.785175370191581 17.012482395510958 0 0 0 0 37.174311826567646 13.94945304311841 0 13.94945304311841 -27.909768621837429 0 0 0 0 45.533260424384025 1.892941974583664 0 1.892941974583664 -18.47030765767704 0 0 0 0 41.252199971853997 21.778468722974139 0 21.778468722974139 58.45669686322799 0 0 0 0 1.3685579648525459 -1.2028539340353532 0 -1.2028539340353532 16.337387739438952 0 0 0 0 -0.20446241143326915 -4.364654973771394 0 -4.364654973771394 0.85027593041013461 0 0 0 0 2.7857696639499383 -1.1174713156693947 0 -1.1174713156693947 10.125864232973129 0 0 0 0 426.07799455490749 -172.29008397967846 0 -172.29008397967846 46.89846434359788 0 0 0 0 54.746493782326979 -17.621783958311426 0 -17.621783958311426 -14.029226582526462 0 0 0 0 -0.46887581031728587 1.3221574266226526 0 1.3221574266226526 27.742191237048246 0 0 0 0 -712.25835292763168 -301.27138568275404 0 -301.27138568275404 940.77763000741834 0 0 0 0 -6.6300120470732509 -16.019111285640975 0 -16.019111285640975 48.936140582532971 0 0 0 0 -3.2010986922205493 -8.7924600827176675 0 -8.7924600827176675 41.9320941345619 0 0 0 0 -5.8633051334014841 -9.5475236883468568 0 -9.5475236883468568 75.373963324495804 0 0 0 0 -16.123988356893278 -15.76643114759645 0 -15.76643114759645 57.0597663127337 0 0 0 0 -1.861258539378202 -18.175076031785476 0 -18.175076031785476 43.974529278920613 0 0 0 0 -5.1666948663657877 -31.227663071311326 0 -31.227663071311326 74.235816742861061 0 0 0 0 -3.7493601769608738 -8.0446200321939045 0 -8.0446200321939045 53.778502804286234 0 0 0 0 4.9527674961185539 -0.69396534671977861 0 -0.69396534671977861 130.64597721549217 0 0 0 0 -5.7002202982568164 -21.172501201468947 0 -21.172501201468947 51.716869417696387 0 0 0 0 -12.625825710193567 -15.932390439178562 0 -15.932390439178562 120.08076276830252 0 0 0 0 -12.955016325179713 -7.3699842650985374 0 -7.3699842650985374 154.51824498460337 0 0 0 0 -20.711382345327365 -31.559470237625646 0 -31.559470237625646 56.974012404338282 0 0 0 0 3.43672756838032 -13.830959120539774 0 -13.830959120539774 69.930029831368302 0 0 0 0 2.0626237081155043 -25.476805056254001 0 -25.476805056254001 50.858596119695761 0 0 0 0 -6.5887141329994847 -14.916423335635045 0 -14.916423335635045 56.347373304708526 0 0 0 0 -8.3915210005120571 -36.77920645980339 0 -36.77920645980339 67.835490271165327 0 0 0 0 12.789922769926307 -35.582980135909565 0 -35.582980135909565 103.81828534831584 0 0 0 0 6.3108035347813223 -22.801639107530271 0 -22.801639107530271 45.561673426655148 0 0 0 0 5.5560044327738503 -20.44391164205949 0 -20.44391164205949 60.220735078321951 0 0 0 0 -14.235759925426464 1.3328138973956811 0 1.3328138973956811 117.06600611340036 0 0 0 0 -10.86659565489815 -7.9397102578725267 0 -7.9397102578725267 74.234095097600772 0 0 0 0 18.644245953793302 -44.578244929958601 0 -44.578244929958601 66.98629056099162 0 0 0 0 3.3940059919450647 -48.063238829537568 0 -48.063238829537568 69.360958720993949 0 0 0 0 -12.781905264829915 -10.946884220778045 0 -10.946884220778045 29.391031060802959 0 0 0 0 -38.317413664359265 -6.8065591376216616 0 -6.8065591376216616 33.521506295190193 0 0 0 0 -4.6590435422799068 2.1477926683061668 0 2.1477926683061668 66.052452955819291 0 0 0 0 5.461592032576581 -25.769560336194658 0 -25.769560336194658 92.679634696666682 0 0 0 0 -54.787369033364939 59.244884749863559 0 59.244884749863559 162.90090373946441 0 0 0 0 -0.87777651743908791 -7.4488374615830253 0 -7.4488374615830253 45.9871811322555 0 0 0 0 62.793669282456449 64.45743321403279 0 64.45743321403279 57.032558722185058 0 0 0 0 7.9804824604061446 -6.5328694525214956 0 -6.5328694525214956 22.872072403402399 0 0 0 0 4.224944103308073 -8.8236952334712235 0 -8.8236952334712235 91.177583265816054 0 0 0 0 -32.560064473906493 -41.540050248443549 0 -41.540050248443549 99.614060196781793 0 0 0 0 36.670399544869724 -11.711172419527429 0 -11.711172419527429 -28.395979603785236 0 0 0 0 32.730891982682692 21.976576041732642 0 21.976576041732642 109.17122278973693 0 0 0 0 -1.4090229965959438 -0.96268964328996987 0 -0.96268964328996987 42.414566250534719 0 0 0 0 13.410948138894582 -24.332524114353873 0 -24.332524114353873 15.443542185421393 0 0 0 0 -2.4552981242050009 -15.743682187821832 0 -15.743682187821832 11.965254346447182 0 0 0 0 -8.5654906088611824 -39.121091765722667 0 -39.121091765722667 50.131464427420269 0 0 0 0 -7.4336263049009625 -37.486668536342563 0 -37.486668536342563 46.717037219021819 0 0 0 0 -7.2610722929812255 -49.507990872567461 0 -49.507990872567461 3.3584980553678179 0 0 0 0 -2.2924432494129743 -6.6378731793051315 0 -6.6378731793051315 20.432738837759587 0 0 0 0 30.334670682688056 -2.6434378883859608 0 -2.6434378883859608 89.356793166749412 0 0 0 0 5.2186296754730392 -45.562736002015299 0 -45.562736002015299 84.057560592518712 0 0 0 0 5.2214854424492856 -46.247002720467407 0 -46.247002720467407 224.38806686134194 0 0 0 0 7.6982612122513121 -37.40533422893914 0 -37.40533422893914 38.225318672406132 0 0 0 0 2.3194069956057319 17.533563375574886 0 17.533563375574886 138.96609602464014 0 0 0 0 2.2282263232836002 12.231034432508181 0 12.231034432508181 152.89061291411053 0 0 0 0 33.963138653036367 42.312440786699881 0 42.312440786699881 178.92736170440912 0 0 0 0 77.936603425653402 27.553450939543836 0 27.553450939543836 126.91540711870766 0 0 0 0 39.052501518882764 -26.546616008810815 0 -26.546616008810815 171.89938785886625 0 0 0 0 0.45835626244706873 6.7714567364600953 0 6.7714567364600953 143.20474195329007 0 0 0 0 1.2985229638188684 -5.8800056578329531 0 -5.8800056578329531 143.4175437077065 0 0 0 0 -16.894508235564444 3.3567969724172144 0 3.3567969724172144 179.17775399188395 0 0 0 0 -19.044679767798243 9.4747652946025482 0 9.4747652946025482 162.11883718527679 0 0 0 0 -14.078516324639395 17.764455577020271 0 17.764455577020271 175.95625550557452 0 0 0 0 -17.460324072677622 -0.80599866128250142 0 -0.80599866128250142 143.81169984619191 0 0 0 0 -27.331594696295497 0.93343658035882981 0 0.93343658035882981 181.14287742075976 0 0 0 0 -15.346191068340431 10.483905255940044 0 10.483905255940044 172.86131551619474 0 0 0 0 13.052063417300019 22.179380556388423 0 22.179380556388423 156.55044320039451 0 0 0 0 -13.222598421210023 3.2030399242794374 0 3.2030399242794374 197.26215511963528 0 0 0 0 1.760269866277099 -16.273871472978499 0 -16.273871472978499 86.057935029275541 0 0 0 0 -11.706965561702418 -11.262536164424091 0 -11.262536164424091 149.50097698784157 0 0 0 0 -2.0692861707287236 -39.886116108763048 0 -39.886116108763048 48.622197522624873 0 0 0 0 -9.2848904591290307 -73.415798311311846 0 -73.415798311311846 -49.956400797062088 0 0 0 0 20.893147018766513 -65.384969309518056 0 -65.384969309518056 99.652716327211238 0 0 0 0 -15.499772185083884 -32.431750336188998 0 -32.431750336188998 80.750922744162381 0 0 0 0 0.074933802840632779 -66.591554677746899 0 -66.591554677746899 63.138174594132579 0 0 0 0 0.93236726542249748 -43.182969221048012 0 -43.182969221048012 48.976718283104546 0 0 0 0 -9.8634789248621928 -16.474952030617715 0 -16.474952030617715 95.383367933216505 0 0 0 0 -24.720506487107741 -33.963547168506921 0 -33.963547168506921 169.94262237283692 0 0 0 0 -17.202692873236174 -25.372399657186179 0 -25.372399657186179 141.91978767774708 0 0 0 0 -12.386311385702811 -57.112079331680434 0 -57.112079331680434 229.63670023019949 0 0 0 0 -29.733593512988818 -10.706056065100711 0 -10.706056065100711 220.66928739342256 0 0 0 0 -35.9516988710634 2.3155494119346258 0 2.3155494119346258 260.39214456858463 0 0 0 0 -26.171549186308312 3.1148574531616759 0 3.1148574531616759 184.41542943773675 0 0 0 0 -35.893345715585838 2.0504329364703153 0 2.0504329364703153 197.59989822053467 0 0 0 0 -18.148111107750083 34.045237126127176 0 34.045237126127176 206.94224526983453 0 0 0 0 -20.099745450632099 25.261637427916867 0 25.261637427916867 168.10701294039609 0 0 0 0 -18.577635256258304 55.419095072218624 0 55.419095072218624 189.99182122276397 0 0 0 0 -24.096221828353919 56.33940072626865 0 56.33940072626865 228.74928284155612 0 0 0 0 -19.952128697345188 44.322882369102444 0 44.322882369102444 180.67848441144451 0 0 0 0 23.163139812504596 80.195904470565438 0 80.195904470565438 181.46740786638111 0 0 0 0 1.6017209694454095 39.791509886406857 0 39.791509886406857 121.5374128807307 0 0 0 0 -20.623496125147994 52.763253861121484 0 52.763253861121484 177.47624223976163 0 0 0 0 -6.3438697598403451 2.3274619716539746 0 2.3274619716539746 71.961247480474412 0 0 0 0 -5.7077652557313741 39.199789934296859 0 39.199789934296859 121.93939667615632 0 0 0 0 -1.0875843742727511 -4.0991546692039265 0 -4.0991546692039265 10.122181575148716 0 0 0 0 28.793541629349875 36.615229808281583 0 36.615229808281583 28.985216839661007 0 0 0 0 -7.6570305404877672 22.199373460280185 0 22.199373460280185 28.450544043735135 0 0 0 0 -15.631662887261768 6.0313893492275383 0 6.0313893492275383 20.04023803700693 0 0 0 0 -12.713131150607296 18.723466164643469 0 18.723466164643469 18.58254551817663 0 0 0 0 -5.9538546744521259 6.1850914440043852 0 6.1850914440043852 17.4187881735769 0 0 0 0 -20.634307202233458 24.187878161319532 0 24.187878161319532 59.228172930626897 0 0 0 0 -12.953669832140235 37.93348770346347 0 37.93348770346347 10.772290079854429 0 0 0 0 8.1579803616405115 66.698407947667874 0 66.698407947667874 6.5186176231363788 0 0 0 0 -36.770614858538465 -30.250372291979147 0 -30.250372291979147 -40.262502434314229 0 0 0 0 7.5165427708741639 32.61690252142305 0 32.61690252142305 -1.3760438564539754 0 0 0 0 49.368222498791056 93.376449552910344 0 93.376449552910344 149.96418713132152 0 0 0 0 3.5349977920338507 1.960565856307511 0 1.960565856307511 -5.3485146475109673 0 0 0 0 -38.465044026227588 -37.059191769280005 0 -37.059191769280005 40.340424780159083 0 0 0 0 -0.35300206337109508 3.9999696704700511 0 3.9999696704700511 3.6794365178299131 0 0 0 0 4.784065862621901 54.664729200943839 0 54.664729200943839 199.89018362722709 0 0 0 0 -40.988338302394823 -0.73459649416327011 0 -0.73459649416327011 162.10911138905794 0 0 0 0 -9.8876471021050634 26.861646487412145 0 26.861646487412145 59.87533332122257 0 0 0 0 3.8594996864235327 52.931849287931982 0 52.931849287931982 146.82685572975606 0 0 0 0 3.4853803857240564 31.538828740813187 0 31.538828740813187 168.30402136774819 0 0 0 0 14.916153620401474 26.59116991053088 0 26.59116991053088 168.03028792256373 0 0 0 0 -4.2463526389194612 17.009828964539338 0 17.009828964539338 157.99292517904541 0 0 0 0 0.77398478153372707 10.925115836464101 0 10.925115836464101 133.9097235565423 0 0 0 0 -5.9418291739375491 19.291966986565967 0 19.291966986565967 155.21588819559111 0 0 0 0 6.8535881955322111 35.51683542781393 0 35.51683542781393 112.45023845584365 0 0 0 0 25.369576389013673 50.172676730144303 0 50.172676730144303 73.161850456293905 0 0 0 0 15.426139521588084 24.808627124497434 0 24.808627124497434 87.827976564061828 0 0 0 0 16.165216261455498 28.917156150826486 0 28.917156150826486 98.0979668093496 0 0 0 0 18.405846417387693 36.175114188401494 0 36.175114188401494 80.120910965721123 0 0 0 0 12.475539230127652 52.943542765569873 0 52.943542765569873 109.86461128774681 0 0 0 0 14.346193858450533 63.417576035630191 0 63.417576035630191 86.98951239179587 0 0 0 0 11.859490484936032 67.272664491320029 0 67.272664491320029 142.31946703422 0 0 0 0 17.61602958118101 100.54638660961791 0 100.54638660961791 70.91356134560192 0 0 0 0 6.1798567845560228 49.378551706306098 0 49.378551706306098 130.70961028861348 0 0 0 0 1.3484679240027617 42.416174343292369 0 42.416174343292369 151.13667733498733 0 0 0 0 6.54514959877406 35.068803150352323 0 35.068803150352323 115.683009984612 0 0 0 0 -7.3303974020709575 0.7433732612116728 0 0.7433732612116728 142.60082502981822 0 0 0 0 0.35467029748224377 2.2952982256538235 0 2.2952982256538235 117.96952512575081 0 0 0 0 -6.2408954844340769 2.9707230924250325 0 2.9707230924250325 141.79661623555512 0 0 0 0 0.8069522519100758 11.05661948548186 0 11.05661948548186 113.08661760709947 0 0 0 0 22.505041318983785 0.85286029428243637 0 0.85286029428243637 59.391868910417543 0 0 0 0 7.5067146515129934 8.8483057144330814 0 8.8483057144330814 112.04699378978694 0 0 0 0 9.43189852040814 -2.1972786296682898 0 -2.1972786296682898 83.421904328934033 0 0 0 0 21.857597830387022 20.871419646748109 0 20.871419646748109 76.200282765981683 0 0 0 0 8.9255506544548098 0.93971552697075822 0 0.93971552697075822 93.781326623633504 0 0 0 0 -1.8403896923209686 -8.5777464654383948 0 -8.5777464654383948 123.36626582450117 0 0 0 0 -4.8454535211330949 -10.486187158036046 0 -10.486187158036046 114.05116877226101 0 0 0 0 -2.3155415051969612 -16.33915007316682 0 -16.33915007316682 96.478202604397666 0 0 0 0 5.9491916213892182 -17.311492898297729 0 -17.311492898297729 78.797428948251763 0 0 0 0 66.693047193344682 -168.67693235362822 0 -168.67693235362822 255.10553946494474 0 0 0 0 1.0421891225115996 1.771802273672435 0 1.771802273672435 3.4575157732796526 0 0 0 0 62.229924065244631 98.350522390814149 0 98.350522390814149 29.075816915741598 0 0 0 0 -303.49578698444384 42.515653758542612 0 42.515653758542612 627.05852140559 0 0 0 0 -504.17525843250405 314.78334744604945 0 314.78334744604945 701.53536975354655 0 0 0 0 -372.29291184683098 355.28323580484721 0 355.28323580484721 473.20646617241437 0 0 0 0 -134.32351285371988 289.91508135193726 0 289.91508135193726 164.53934814067907 0 0 0 0 -59.255847365777299 26.527309747383697 0 26.527309747383697 310.81493237950781 0 0 0 0 -11.846257616073672 77.841781579674716 0 77.841781579674716 60.149392357678153 0 0 0 0 67.908048378929379 -34.915068940950732 0 -34.915068940950732 32.278644607940805 0 0 0 0 1.9342688975448254 130.58188300422626 0 130.58188300422626 -39.838948576616531 0 0 0 0 27.606319400741995 34.42933060444193 0 34.42933060444193 60.803693964437116 0 0 0 0 14.817433125148561 28.197731978979704 0 28.197731978979704 9.8418086152504856 0 0 0 0 -14.687932743774581 -5.7493849825987127 0 -5.7493849825987127 -14.504600164545991 0 0 0 0 18.54167555490676 50.623263605521061 0 50.623263605521061 73.229096175928134 0 0 0 0 -9.289965185962501 18.336507318890654 0 18.336507318890654 38.101602036971599 0 0 0 0 -2.8984132902146484 17.873789669331018 0 17.873789669331018 8.4071320745570119 0 0 0 0 -12.33918953524153 1.5488109791476745 0 1.5488109791476745 108.76518050023878 0 0 0 0 -36.927624944939453 -17.306023499069852 0 -17.306023499069852 12.990674704793491 0 0 0 0 -35.761372040413335 -11.710403530392796 0 -11.710403530392796 39.320424521523819 0 0 0 0 -3.8175396455795525 1.6673074089524818 0 1.6673074089524818 28.585182139609628 0 0 0 0 -0.88266709035178703 2.583909546896507 0 2.583909546896507 32.317428378407413 0 0 0 0 -6.6838090617748094 -7.9976751014546608 0 -7.9976751014546608 23.992467304145976 0 0 0 0 12.106104526512354 -5.1891473445939482 0 -5.1891473445939482 23.656712099997094 0 0 0 0 11.20112082430262 9.515060474841448 0 9.515060474841448 26.421246803191025 0 0 0 0 -0.69557919356879161 2.773439416012458 0 2.773439416012458 13.660142999726673 0 0 0 0 -58.477515740118179 25.080467721863897 0 25.080467721863897 28.852806519542355 0 0 0 0 -3.4145108845050345 30.642787586621125 0 30.642787586621125 -3.7549761187256081 0 0 0 0 29.076615756137727 66.406005617589244 0 66.406005617589244 1.6014535162394168 0 0 0 0 -55.42546399863204 20.524284857019666 0 20.524284857019666 26.059656114739482 0 0 0 0 -56.68082898089051 26.464596512429125 0 26.464596512429125 11.972722011094447 0 0 0 0 -69.001275321951653 11.897713270362146 0 11.897713270362146 22.177818292300799 0 0 0 0 -61.685373476422683 25.925601820126758 0 25.925601820126758 39.359627002035268 0 0 0 0 -8.091557822473078 42.881527955818456 0 42.881527955818456 30.045050901346258 0 0 0 0 -34.766749754179614 7.7108453939581523 0 7.7108453939581523 37.320524155533349 0 0 0 0 0.61882403323581237 10.831501465600368 0 10.831501465600368 -1.0981595024572357 0 0 0 0 -21.559598424021544 -12.063667549860838 0 -12.063667549860838 23.130160866508959 0 0 0 0 -22.346499602501808 -19.216407665247971 0 -19.216407665247971 1.2556297374503629 0 0 0 0 -0.70117759156093484 -6.396682765429432 0 -6.396682765429432 57.837698945222655 0 0 0 0 -0.79252349856240212 -0.16598223895243791 0 -0.16598223895243791 3.9172915659468117 0 0 0 0 1.7283567877768671 -5.1749224891078995 0 -5.1749224891078995 9.3682946372410925 0 0 0 0 -6.9661626085609214 8.2890909589114017 0 8.2890909589114017 2.2208700512273936 0 0 0 0 -3.2170672341558104 1.6867927245809966 0 1.6867927245809966 4.2992472318166506 0 0 0 0 -6.9122395693381069 -0.31440648013445127 0 -0.31440648013445127 15.88564004187586 0 0 0 0 -17.0316683981452 -2.3631654897835688 0 -2.3631654897835688 22.432046648624237 0 0 0 0 -19.491761178037223 -0.47101773562462768 0 -0.47101773562462768 23.991480832279194 0 0 0 0 -18.577960183047139 4.3386946176615311 0 4.3386946176615311 42.045365685858997 0 0 0 0 -106.44033357233297 -4.0756899252883159 0 -4.0756899252883159 11.73775967358597 0 0 0 0 -98.812525365614093 9.1168089643178973 0 9.1168089643178973 7.6924945542559726 0 0 0 0 -112.77381183833614 26.097161891935684 0 26.097161891935684 18.935850288748043 0 0 0 0 -88.246950689181503 -3.6967221938830335 0 -3.6967221938830335 6.3708882996406828 0 0 0 0 -190.34271047722376 20.947499328485719 0 20.947499328485719 53.111929747494287 0 0 0 0 -178.49992802791198 -5.5161277510997024 0 -5.5161277510997024 22.158310500402877 0 0 0 0 -100.62299955742827 20.708499917403969 0 20.708499917403969 31.246177357992565 0 0 0 0 -169.98599913984231 19.000641936348984 0 19.000641936348984 52.426211887519457 0 0 0 0 -169.6041421178989 30.700955179439347 0 30.700955179439347 61.349152390263043 0 0 0 0 -167.26666371031371 16.931946733202494 0 16.931946733202494 49.505244758431218 0 0 0 0 -141.01886419241964 58.992744702994969 0 58.992744702994969 4.1513403387943981 0 0 0 0 -170.27864724722895 24.128516085307638 0 24.128516085307638 33.918622002543998 0 0 0 0 -234.47970442614837 45.650644736975664 0 45.650644736975664 31.960870322302981 0 0 0 0 -179.9187835519682 58.816115077393988 0 58.816115077393988 -17.224993063762668 0 0 0 0 -2.0059559989043145 2.5032799029408608 0 2.5032799029408608 13.392776383826401 0 0 0 0 -185.5731431749862 70.199131931962256 0 70.199131931962256 2.1565907505573705 0 0 0 0 364.59601508976994 -423.35791114245876 0 -423.35791114245876 454.15822490397841 0 0 0 0 -1.2666398950262794 0.34835320931129843 0 0.34835320931129843 5.4996135731744857 0 0 0 0 -323.40684097570471 118.14241792061512 0 118.14241792061512 -41.166251920250943 0 0 0 0 -456.95945197256697 123.78717851648253 0 123.78717851648253 -18.720163821555616 0 0 0 0 -229.67444607458901 -8.189004174022557 0 -8.189004174022557 -0.93263508753443602 0 0 0 0 -254.0254673345481 -41.028011837384838 0 -41.028011837384838 -44.887685522891843 0 0 0 0 -193.84957264166817 -40.122930491603256 0 -40.122930491603256 7.076208418540773 0 0 0 0 18.542185387423388 50.779279320086061 0 50.779279320086061 64.363370700753876 0 0 0 0 10.877848161817838 28.98983727148152 0 28.98983727148152 94.596068685568753 0 0 0 0 -1.8074641650039562 0.49738930654035585 0 0.49738930654035585 3.2124836570122852 0 0 0 0 32.942086517236021 33.659067546788719 0 33.659067546788719 91.258179662952898 0 0 0 0 56.012541042836347 90.1075276582269 0 90.1075276582269 151.70912445559225 0 0 0 0 92.454715510975262 176.30967397651602 0 176.30967397651602 355.32869195245439 0 0 0 0 -1.0929289913829052 111.01015229744371 0 111.01015229744371 324.71388637195923 0 0 0 0 -502.71719416593533 -391.26731535089493 0 -391.26731535089493 520.48752032284392 0 0 0 0 -0.94638832083927849 0.1879952134604963 0 0.1879952134604963 1.7341871791834933 0 0 0 0 -416.46129951931391 -26.606637110475276 0 -26.606637110475276 -32.402152489517903 0 0 0 0 83.814845827906765 246.04275741500896 0 246.04275741500896 582.6845933648292 0 0 0 0 52.625028799975098 -99.194379754313559 0 -99.194379754313559 260.08977772486105 0 0 0 0 42.647666931764888 -154.78073218603095 0 -154.78073218603095 553.49983209177663 0 0 0 0 114.13658737099809 -100.6404015768785 0 -100.6404015768785 212.17660158069339 0 0 0 0 -30.964628985543868 -33.857268120198569 0 -33.857268120198569 330.57685712376906 0 0 0 0 -11.013035217049946 -91.177792789865634 0 -91.177792789865634 469.35116183557329 0 0 0 0 -24.246720906711403 -37.290663179002877 0 -37.290663179002877 278.25597257900517 0 0 0 0 13.124429377812021 -62.272702894668328 0 -62.272702894668328 137.78314334953029 0 0 0 0 12.147518472958723 -68.825617932194291 0 -68.825617932194291 203.88537778990576 0 0 0 0 60.459140981257406 -68.397117713684565 0 -68.397117713684565 113.76331202627625 0 0 0 0 33.04496163264821 -105.94119850198331 0 -105.94119850198331 246.72175778730161 0 0 0 0 87.422753051741907 -7.5840130067099381 0 -7.5840130067099381 41.709014592401218 0 0 0 0 31.485195450693183 -71.295508650284773 0 -71.295508650284773 241.74708670246764 0 0 0 0 60.177339387441407 -112.17568824028422 0 -112.17568824028422 200.07025844686723 0 0 0 0 119.11321819389332 -73.563187747527991 0 -73.563187747527991 98.468167383340187 0 0 0 0 36.840129193146367 -20.513374972942984 0 -20.513374972942984 86.693898910471034 0 0 0 0 -62.597592318034003 324.63397658118629 0 324.63397658118629 -117.46493105398258 0 0 0 0 11.819074279954066 -41.487108300447289 0 -41.487108300447289 71.831733049126342 0 0 0 0 63.171417611866445 -53.986876922324882 0 -53.986876922324882 68.553094266040716 0 0 0 0 29.048265439445004 -49.340001542237587 0 -49.340001542237587 68.265854835188293 0 0 0 0 43.162839796030767 -51.64489395460987 0 -51.64489395460987 10.446081401634729 0 0 0 0 28.856326070824252 -54.067569673163234 0 -54.067569673163234 23.005404755764175 0 0 0 0 40.213798824683636 -38.257575837880722 0 -38.257575837880722 24.340352543251356 0 0 0 0 11.606252047009093 -35.813512366396026 0 -35.813512366396026 46.773173503308499 0 0 0 0 37.224157667547232 -63.456447726304305 0 -63.456447726304305 57.097907925519394 0 0 0 0 10.80961588767741 -65.53213969974604 0 -65.53213969974604 140.05582122983469 0 0 0 0 35.152992226465813 -44.918214036115387 0 -44.918214036115387 73.305794051892008 0 0 0 0 36.858826812120242 -78.970954870703281 0 -78.970954870703281 110.55765270430857 0 0 0 0 -156.8101559159295 31.876864848702098 0 31.876864848702098 155.83205926600203 0 0 0 0 -4.0806627132511277 1.2095340068847236 0 1.2095340068847236 1.4145350049787737 0 0 0 0 -17.284147977446764 10.699359416285006 0 10.699359416285006 211.48541805586865 0 0 0 0 -175.42119948917752 -39.503903852361873 0 -39.503903852361873 1.3739544366835617 0 0 0 0 26.559148444641259 12.009624804701161 0 12.009624804701161 74.172461089299759 0 0 0 0 -2.3610498297224218 1.0216431366645224 0 1.0216431366645224 0.9305267847684604 0 0 0 0 -235.61910238236237 273.92403186435695 0 273.92403186435695 -125.78215553528935 0 0 0 0 -5.6348378394638541 5.310942624793654 0 5.310942624793654 20.347427909243777 0 0 0 0 129.31607290751253 -166.93595021204965 0 -166.93595021204965 131.99256234375207 0 0 0 0 -62.427200465724809 121.84015787368116 0 121.84015787368116 -166.80572913445212 0 0 0 0 -152.74696084985999 106.30355374180363 0 106.30355374180363 52.514698910556035 0 0 0 0 42.828619934302878 9.5484861159056891 0 9.5484861159056891 8.737316481754533 0 0 0 0 -276.35420245840021 269.55262934039638 0 269.55262934039638 -80.127380898826232 0 0 0 0 -3.5591107411557439 5.2246246344539742 0 5.2246246344539742 20.894720937117143 0 0 0 0 60.775691867296345 -118.12610500434675 0 -118.12610500434675 337.39582737640012 0 0 0 0 80.974344974466376 -77.080633359366402 0 -77.080633359366402 367.33678978426906 0 0 0 0 75.655323212369467 -174.38909724462428 0 -174.38909724462428 224.88295830824063 0 0 0 0 134.41367128718889 -153.99468607601011 0 -153.99468607601011 370.69673729470378 0 0 0 0 77.389302604610521 -95.087324077234371 0 -95.087324077234371 336.56945578526938 0 0 0 0 452.01665892837434 -609.06473706991528 0 -609.06473706991528 537.34117096023692 0 0 0 0 -2.3498655433919549 3.3930868771074643 0 3.3930868771074643 14.674056236003878 0 0 0 0 -285.23492676631292 223.89049671730754 0 223.89049671730754 -87.165052811633359 0 0 0 0 -20.777218229579766 13.605647938911716 0 13.605647938911716 -68.219489685659937 0 0 0 0 24.150686398681273 -7.1533675244572805 0 -7.1533675244572805 -27.653655000907747 0 0 0 0 -162.21259387104899 41.757248404588609 0 41.757248404588609 -3.5788144304242451 0 0 0 0 -76.082352599373507 114.36321803553437 0 114.36321803553437 -163.87634764327231 0 0 0 0 -201.40822537769861 50.703171102486522 0 50.703171102486522 -48.300639730528928 0 0 0 0 -76.284575856312287 -8.7363735594626633 0 -8.7363735594626633 68.096145465126028 0 0 0 0 -68.324407135021829 118.35822884613299 0 118.35822884613299 -24.021739492411143 0 0 0 0 -28.888852667440119 -1.8119768205215223 0 -1.8119768205215223 23.175447164685465 0 0 0 0 -14.119929536923223 -105.20240230740455 0 -105.20240230740455 203.90446637884452 0 0 0 0 -27.338987813083008 53.858145570848137 0 53.858145570848137 130.69470275771891 0 0 0 0 90.44420238442649 -44.206799680599943 0 -44.206799680599943 58.559288559627021 0 0 0 0 -41.37714890577378 -25.440103085868031 0 -25.440103085868031 133.39195355726406 0 0 0 0 -3.3186302703178852 -90.96637010082776 0 -90.96637010082776 167.24473989183025 0 0 0 0 -4.1600208771615854 -43.273727244013571 0 -43.273727244013571 303.06308749972959 0 0 0 0 0.14365176481691799 -0.30113727091668352 0 -0.30113727091668352 0.59131668972796092 0 0 0 0 57.407227150583552 -65.44840681758069 0 -65.44840681758069 13.507923736658995 0 0 0 0 -23.373494341439937 -51.912819905344804 0 -51.912819905344804 161.82614967388508 0 0 0 0 -3.1197883765620418 47.134621191562474 0 47.134621191562474 257.66445001169632 0 0 0 0 -3.2475726280322723 1.0435362639840093 0 1.0435362639840093 1.3685915885732243 0 0 0 0 46.225677137773459 69.154972609947436 0 69.154972609947436 58.674006694396667 0 0 0 0 56.992799140306147 -103.85807694715913 0 -103.85807694715913 180.51632828255242 0 0 0 0 -0.3697552710207539 -0.61924941284814849 0 -0.61924941284814849 4.489678551122779 0 0 0 0 0.2889927324617354 -0.38286999337998395 0 -0.38286999337998395 0.41344386309370407 0 0 0 0 239.41281658579223 -243.16465594709007 0 -243.16465594709007 394.04127131127461 0 0 0 0 -0.45384543069426536 -0.12439323208374731 0 -0.12439323208374731 0.47818160301352464 0 0 0 0 -79.50247898004335 24.374756815195724 0 24.374756815195724 492.00101732053736 0 0 0 0 58.44578111659861 21.345866013914929 0 21.345866013914929 79.064236784121022 0 0 0 0 -0.36975527102230465 2.3450013826077338 0 2.3450013826077338 3.3103659712796798 0 0 0 0 -0.16639765827031777 0.68665868071539649 0 0.68665868071539649 0.66692854355625286 0 0 0 0 -0.12168365811274158 0.061929876459032585 0 0.061929876459032585 0.22940327363915003 0 0 0 0 0.002732882502338085 1.1181973303828272 0 1.1181973303828272 1.2587484213581774 0 0 0 0 0.058890901290831889 -33.524217345257057 0 -33.524217345257057 37.720149666412908 0 0 0 0 4.6627831441711223 -83.211709428876929 0 -83.211709428876929 120.41453673176875 0 0 0 0 30.866507725066903 -39.784905192620499 0 -39.784905192620499 20.984542920341482 0 0 0 0 -49.015182716823766 -2.0389983649511123 0 -2.0389983649511123 23.422488750467437 0 0 0 0 -6.4878756729029021 -53.96838394252336 0 -53.96838394252336 10.434447024010296 0 0 0 0 0.047312886856283341 -37.188349980744533 0 -37.188349980744533 -4.8723236948862905 0 0 0 0 -74.074048748977418 33.832900907869771 0 33.832900907869771 113.23966097631637 0 0 0 0 -0.15620187570715735 -93.646194754124735 0 -93.646194754124735 282.46683423584909 0 0 0 0 -157.15055331772723 -39.837025906399504 0 -39.837025906399504 341.77251596636779 0 0 0 0 -279.46940340208153 217.1804489287897 0 217.1804489287897 -76.897194075025254 0 0 0 0 -194.90976172329181 25.844149426469812 0 25.844149426469812 -2.8056807359680533 0 0 0 0 252.55347238766439 -243.38303686706786 0 -243.38303686706786 386.77020145426286 0 0 0 0 490.99401974580172 -694.47342521990504 0 -694.47342521990504 565.49868867992336 0 0 0 0 -0.90070423958241874 0.72479780282398565 0 0.72479780282398565 5.3526789788356268 0 0 0 0 58.206814193545569 40.436915562608192 0 40.436915562608192 254.44832452905393 0 0 0 0 -100.82590546118385 22.745515762575451 0 22.745515762575451 26.740775039623259 0 0 0 0 -1.6310263308282176 4.2984702555265102 0 4.2984702555265102 16.40599026548864 0 0 0 0 191.2193766631724 -150.36055974045848 0 -150.36055974045848 93.630976265427307 0 0 0 0 23.044384846225654 -10.936870734280092 0 -10.936870734280092 43.224469673223211 0 0 0 0 0.04816544328315879 -108.03086897952744 0 -108.03086897952744 184.71531488394976 0 0 0 0 -19.046324436098953 -134.18213605198798 0 -134.18213605198798 224.94272859138437 0 0 0 0 1.6516500178641422 -214.8155046336542 0 -214.8155046336542 338.30146116953972 0 0 0 0 -7.6620480569921874 29.224953190787346 0 29.224953190787346 102.18654225162754 0 0 0 0 -2.0975360749391889 -4.8200543891362031 0 -4.8200543891362031 91.531723957348731 0 0 0 0 0.037547691931904735 12.437195459657232 0 12.437195459657232 119.8936308373377 0 0 0 0 12.983965579818962 -20.670476562823751 0 -20.670476562823751 168.73327879206045 0 0 0 0 -0.54303998628326267 3.6441425546836399 0 3.6441425546836399 163.62484314996982 0 0 0 0 23.874689287635746 28.444579935756337 0 28.444579935756337 115.8173027511948 0 0 0 0 -6.2942773193057207 11.782567767346336 0 11.782567767346336 109.1405315681186 0 0 0 0 0.2117808947679049 16.292275433168307 0 16.292275433168307 121.64553237378237 0 0 0 0 8.4595525233501121 47.096612527908292 0 47.096612527908292 114.37310110297403 0 0 0 0 -77.24758288629755 51.08488356723683 0 51.08488356723683 134.30610730320041 0 0 0 0 -18.591915856433047 304.70495380251668 0 304.70495380251668 1974.384157128603 0 0 0 0 -28.886498011575156 -813.51998444298079 0 -813.51998444298079 248.02565773425158 0 0 0 0 -86.141170670373995 19.998907285430505 0 19.998907285430505 -14.551477855929988 0 0 0 0 -84.071765061012456 -111.16215439819644 0 -111.16215439819644 146.22355542437435 0 0 0 0 -97.556395309467234 166.69443418411538 0 166.69443418411538 977.66828507192986 0 0 0 0 153.94180157746746 350.90115307428641 0 350.90115307428641 125.85938357197301 0 0 0 0 115.95247785835022 410.2300780997175 0 410.2300780997175 119.31066613837902 0 0 0 0 0.23136778335552269 3.6264653054191154 0 3.6264653054191154 8.1895529393292747 0 0 0 0 -301.91728992330513 -41.299683783454384 0 -41.299683783454384 624.93594314235816 0 0 0 0 478.32028194773369 65.511611881069257 0 65.511611881069257 -1232.7374787058507 0 0 0 0 113.84643754603681 534.29776717134155 0 534.29776717134155 312.92732415960199 0 0 0 0 66.757406231111077 -73.020713555475254 0 -73.020713555475254 -55.132227388006868 0 0 0 0 -3.1281927673966705 5.7006787311346798 0 5.7006787311346798 117.98543587688465 0 0 0 0 -1.8747771096137325 -20.706414946659283 0 -20.706414946659283 24.467907783206613 0 0 0 0 -421.39370027782172 -166.50675752942482 0 -166.50675752942482 563.84847999466001 0 0 0 0 2.8437265472339783 -33.979201656503534 0 -33.979201656503534 62.889359832572239 0 0 0 0 -424.96205464785317 -145.9991845267723 0 -145.9991845267723 512.19450337898161 0 0 0 0 13.681169303904767 -102.41054818692464 0 -102.41054818692464 -223.75784508894139 0 0 0 0 285.57544977540942 -437.17511999127601 0 -437.17511999127601 182.67162204732813 0 0 0 0 4.3963295021551305 -51.117927690837661 0 -51.117927690837661 55.115793580517177 0 0 0 0 66.81527520173529 -3.8276015622686828 0 -3.8276015622686828 -268.39968202875752 0 0 0 0 1.2482378740626987 -12.255671091089665 0 -12.255671091089665 6.9415622917099427 0 0 0 0 64.155648632736302 -49.075026475649793 0 -49.075026475649793 10.432588914834923 0 0 0 0 -21.769659649777559 -17.076573712445679 0 -17.076573712445679 45.446162321568409 0 0 0 0 1.086330650979709 -4.5077607459603115 0 -4.5077607459603115 20.020290657565511 0 0 0 0 -16.413887652920462 -7.4992036545663723 0 -7.4992036545663723 56.001169531809865 0 0 0 0 -32.532279802471962 31.116929432679171 0 31.116929432679171 116.28177112928824 0 0 0 0 -2.633851018405386 1.7521781691392277 0 1.7521781691392277 19.795974909470914 0 0 0 0 -14.978410904556423 -14.148945621421262 0 -14.148945621421262 39.836209979723208 0 0 0 0 -0.0079109340945054708 11.154745319217909 0 11.154745319217909 79.380458825860842 0 0 0 0 -16.738115517143843 -21.094739798827504 0 -21.094739798827504 37.457071275890485 0 0 0 0 -0.088461894450845929 -2.7792826441727811 0 -2.7792826441727811 12.292203365606838 0 0 0 0 -0.4362197116131899 1.1689463852028013 0 1.1689463852028013 10.558042432445518 0 0 0 0 197.34544167995364 -48.546227384531448 0 -48.546227384531448 -47.91204096187721 0 0 0 0 -68.835693226393118 -34.297523381863357 0 -34.297523381863357 -2.1371980865369551 0 0 0 0 0.18764643418040666 -45.910738957187277 0 -45.910738957187277 -25.841168894949078 0 0 0 0 -0.27573579464479808 -0.60297705562724246 0 -0.60297705562724246 4.405420816356866 0 0 0 0 -184.52039688150364 74.108184510747378 0 74.108184510747378 188.97398102597799 0 0 0 0 122.60306408025889 -195.61916728511642 0 -195.61916728511642 325.21677431216813 0 0 0 0 265.78760555147255 -410.56985871264988 0 -410.56985871264988 532.60771400247177 0 0 0 0 -0.70118795253203192 -216.96248060519426 0 -216.96248060519426 630.05450365849538 0 0 0 0 -33.494328789515521 -32.251675873798376 0 -32.251675873798376 220.03408110843884 0 0 0 0 67.354378994944426 35.966009687765109 0 35.966009687765109 264.77732956844557 0 0 0 0 128.32462584380249 -172.76064755382686 0 -172.76064755382686 368.61237840634567 0 0 0 0 -4.655453250230039 -134.12762447648129 0 -134.12762447648129 386.52477520475804 0 0 0 0 235.53645260467727 -314.22863715233325 0 -314.22863715233325 89.340621076917159 0 0 0 0 85.546737871946107 -260.89186320488807 0 -260.89186320488807 171.62520148319891 0 0 0 0 -116.29531655589381 0.71885393180127721 0 0.71885393180127721 186.39343568883487 0 0 0 0 355.08614534000372 -201.59795845782719 0 -201.59795845782719 82.76141656996333 0 0 0 0 -0.026213830365640241 0.60715311621987889 0 0.60715311621987889 3.2449991052503719 0 0 0 0 -31.253917796689876 -0.63093331063203095 0 -0.63093331063203095 51.916677009721752 0 0 0 0 -61.759830562214688 -101.80770792663679 0 -101.80770792663679 69.577626205456909 0 0 0 0 52.491079258971467 128.16092438367195 0 128.16092438367195 104.94971248235379 0 0 0 0 27.849124565693387 -15.686568839031679 0 -15.686568839031679 -22.108612695468764 0 0 0 0 55.746774985181162 -166.06325374290645 0 -166.06325374290645 404.95048506886815 0 0 0 0 -92.427585295129575 360.78878647887905 0 360.78878647887905 754.39163735516195 0 0 0 0 268.38839112360671 -479.19098938974912 0 -479.19098938974912 -148.29344256341574 0 0 0 0 2.5121290516395582 -2.4300651145532015 0 -2.4300651145532015 2.377456986919384 0 0 0 0 3.3021543733894259 -5.9214163204543411 0 -5.9214163204543411 -9.8340772809185069 0 0 0 0 -30.752690770024426 -190.19735224916303 0 -190.19735224916303 81.359948772325879 0 0 0 0 3.0520772285555564 -49.854176679839355 0 -49.854176679839355 61.617962920449315 0 0 0 0 50.694725144977156 32.251634067586565 0 32.251634067586565 -195.09429450557218 0 0 0 0 27.514721265592556 33.198460106419589 0 33.198460106419589 196.77976017465699 0 0 0 0 -13.859886295883712 111.24752598992927 0 111.24752598992927 388.03970553813997 0 0 0 0 -147.97132460466517 -224.94610271370675 0 -224.94610271370675 -72.537630929306033 0 0 0 0 8.1899890307459327 -7.5307202016872452 0 -7.5307202016872452 5.486587071270236 0 0 0 0 83.438368932694175 -305.71840972784412 0 -305.71840972784412 -272.25463016433787 0 0 0 0 -135.97222916879082 -63.932657499768538 0 -63.932657499768538 78.032824697824253 0 0 0 0 -105.03659944718453 -63.144425302145464 0 -63.144425302145464 194.87095757231873 0 0 0 0 -9.9566254969338388 -87.124133294179046 0 -87.124133294179046 78.87728110142416 0 0 0 0 -79.004119161583731 -75.854105188300309 0 -75.854105188300309 18.856122224315186 0 0 0 0 -80.960247145006178 -136.3917554672953 0 -136.3917554672953 68.694830074615311 0 0 0 0 -28.033256851259978 -109.10665911486831 0 -109.10665911486831 172.8184291102807 0 0 0 0 -150.62802365541665 -123.72885555587709 0 -123.72885555587709 299.75889948045369 0 0 0 0 -118.78946400775567 -85.593054086974007 0 -85.593054086974007 166.72645908760023 0 0 0 0 -9.0598253749224682 7.0814746959927106 0 7.0814746959927106 211.16648844025622 0 0 0 0 13.949133067144885 -13.143324682481762 0 -13.143324682481762 22.295539132035628 0 0 0 0 5.3025697084629542 -51.462909383643819 0 -51.462909383643819 29.626039422793838 0 0 0 0 -222.22970060841976 31.592552578957111 0 31.592552578957111 110.23922579051577 0 0 0 0 -5.2491479902869989 -3.464037398168017 0 -3.464037398168017 26.891606178644508 0 0 0 0 42.219661164793251 -24.786319809340057 0 -24.786319809340057 4.7980606582386827 0 0 0 0 -358.08955921349298 -95.318514730301104 0 -95.318514730301104 1.9163940818980336 0 0 0 0 -145.3620695241807 -69.424275157653028 0 -69.424275157653028 148.99117875707452 0 0 0 0 -242.36704953405024 -20.347941308442387 0 -20.347941308442387 183.727693091525 0 0 0 0 -183.69075812205688 1.1996170732745668 0 1.1996170732745668 62.850660401949426 0 0 0 0 12.166552087446759 -10.22209222911934 0 -10.22209222911934 23.616844366486447 0 0 0 0 -17.735955596164899 31.725924450794992 0 31.725924450794992 236.50592654143111 0 0 0 0 -120.69928319052087 -28.138030137008172 0 -28.138030137008172 54.643270470318384 0 0 0 0 -117.39788336607376 -83.601974238232287 0 -83.601974238232287 82.975304577790666 0 0 0 0 -104.29650288675111 -75.821406052724342 0 -75.821406052724342 79.581220577885688 0 0 0 0 10.293715290981709 -0.96399415235646302 0 -0.96399415235646302 139.05409654969117 0 0 0 0 8.2766323075193 11.505278550294051 0 11.505278550294051 107.54846480935129 0 0 0 0 29.707414363431781 -74.820651410234859 0 -74.820651410234859 54.597676315999706 0 0 0 0 -2.0629895240071887 -29.565725603470185 0 -29.565725603470185 89.99028124117936 0 0 0 0 -33.828750304286473 -45.166468914670986 0 -45.166468914670986 93.916672858729726 0 0 0 0 -19.201845231728839 -19.87493274724693 0 -19.87493274724693 89.955031806515763 0 0 0 0 -29.470446246902156 -65.481548789721273 0 -65.481548789721273 104.71995465521468 0 0 0 0 -0.56573729238626869 -45.670128494518877 0 -45.670128494518877 70.528203335619793 0 0 0 0 -3.8158367844034728 -62.096661618619692 0 -62.096661618619692 74.398037302773446 0 0 0 0 20.392309281371809 -39.90742953174049 0 -39.90742953174049 11.485229105353937 0 0 0 0 14.757755948609145 -29.546772751538811 0 -29.546772751538811 90.400427126180148 0 0 0 0 -5.0128126624051683 -1.4825327100866019 0 -1.4825327100866019 17.321777376849866 0 0 0 0 28.322329590632691 41.307357958256034 0 41.307357958256034 108.40457227728621 0 0 0 0 -18.480309090479864 -29.376076219014067 0 -29.376076219014067 102.74182591748104 0 0 0 0 -19.73936390168376 -15.503546114363417 0 -15.503546114363417 132.50982885870326 0 0 0 0 -26.947465068253791 -12.706106496436405 0 -12.706106496436405 132.09808024044469 0 0 0 0 -42.616716810844537 -6.6655095652658929 0 -6.6655095652658929 201.2359094532876 0 0 0 0 -50.57787026739976 -6.5765970910306351 0 -6.5765970910306351 201.23779361120978 0 0 0 0 -36.076930392301392 -23.95459270842548 0 -23.95459270842548 220.61102181344904 0 0 0 0 -42.561560234125608 0.071252775986067718 0 0.071252775986067718 234.84350976045243 0 0 0 0 -34.887451380469258 -15.68602147845013 0 -15.68602147845013 264.13627201535564 0 0 0 0 5.4277256001766148 -0.84752537834719988 0 -0.84752537834719988 226.96846166711111 0 0 0 0 -5.2380098213091628 15.114617049403023 0 15.114617049403023 237.51907806718373 0 0 0 0 -19.736918168322273 -9.3765502437654504 0 -9.3765502437654504 196.16685599414632 0 0 0 0 -24.592608496807006 4.8281971191117918 0 4.8281971191117918 202.15894813496561 0 0 0 0 39.210827458865538 -7.252148590341676 0 -7.252148590341676 218.24662342442753 0 0 0 0 -60.602593790038696 -142.25169653148987 0 -142.25169653148987 369.25905549361778 0 0 0 0 125.84478418002186 50.312186240727897 0 50.312186240727897 99.539242355000169 0 0 0 0 109.21741208690366 3.087094936730864 0 3.087094936730864 214.95345222698234 0 0 0 0 1.5739774792423589 -0.28010709450609284 0 -0.28010709450609284 244.89003618207062 0 0 0 0 42.707272088101547 29.04539171270153 0 29.04539171270153 238.67946602328448 0 0 0 0 8.2303879389799661 -54.727082413357181 0 -54.727082413357181 46.350338714641794 0 0 0 0 147.77937608488537 -138.25771484928555 0 -138.25771484928555 -277.80189437327499 0 0 0 0 -36.486385596907212 -70.885742216669314 0 -70.885742216669314 658.52567231814828 0 0 0 0 -11.717742660969861 169.08885642846144 0 169.08885642846144 543.99795691162581 0 0 0 0 108.87589477193814 249.9441748354493 0 249.9441748354493 184.71925460627244 0 0 0 0 32.693713627848126 150.91613342845449 0 150.91613342845449 168.61975016001088 0 0 0 0 -1.2191236210990439 15.225201484630816 0 15.225201484630816 242.00783155548652 0 0 0 0 -5.5067576328036694 -56.706706148645026 0 -56.706706148645026 297.92269134195158 0 0 0 0 13.395631594182774 64.69792281397531 0 64.69792281397531 371.58058584401442 0 0 0 0 76.455603682095187 -80.380055703273683 0 -80.380055703273683 129.37629127150285 0 0 0 0 -4.3110143729139452 -59.527390402319725 0 -59.527390402319725 301.60188044035021 0 0 0 0 214.59056495345567 -309.92785048191581 0 -309.92785048191581 412.52817246500126 0 0 0 0 1.6258011604063125 2.7427097156068214 0 2.7427097156068214 5.4287209200724647 0 0 0 0 -161.1627410580943 29.353620917052467 0 29.353620917052467 20.725431117738481 0 0 0 0 4.0220379494672356 7.4946823738716688 0 7.4946823738716688 14.472085778252051 0 0 0 0 40.241477171616907 -64.224454305080144 0 -64.224454305080144 135.58182845067313 0 0 0 0 47.108725923057079 -43.353663770607454 0 -43.353663770607454 61.662549880675215 0 0 0 0 0.14762920518680289 -57.808413598038896 0 -57.808413598038896 170.67621637583579 0 0 0 0 -17.182085972197342 -20.636539420331246 0 -20.636539420331246 153.58246927651635 0 0 0 0 -22.02686434328524 -43.014346499323437 0 -43.014346499323437 198.73083658813994 0 0 0 0 -39.602136548743374 -19.786028144546435 0 -19.786028144546435 215.75418526839348 0 0 0 0 -13.870382695575927 -34.467485947872774 0 -34.467485947872774 177.2663598585932 0 0 0 0 -3.4640487355412439 -64.337075374751066 0 -64.337075374751066 218.40016015145375 0 0 0 0 10.939196470865681 -15.957355442249536 0 -15.957355442249536 168.26391962206253 0 0 0 0 -11.48978312671511 -4.9447552778801764 0 -4.9447552778801764 182.42416869544104 0 0 0 0 -17.01850194878898 -13.206329633030691 0 -13.206329633030691 183.84357112822181 0 0 0 0 -19.961790848690498 -21.674500208675454 0 -21.674500208675454 178.84931991326084 0 0 0 0 -2.0116861371946015 -23.300040711586917 0 -23.300040711586917 154.25495641023736 0 0 0 0 4.7812726868780828 -13.664758350820193 0 -13.664758350820193 167.89472068908799 0 0 0 0 27.544750890631349 -29.426328776127775 0 -29.426328776127775 162.88931703697381 0 0 0 0 42.715560625318403 -27.381783811361856 0 -27.381783811361856 172.40972330379736 0 0 0 0 42.839582828212315 -25.172161467371552 0 -25.172161467371552 152.60637997594313 0 0 0 0 54.362279531810373 -31.781692450262199 0 -31.781692450262199 142.50091123146558 0 0 0 0 59.512549436919926 -24.438705585969728 0 -24.438705585969728 151.47476540677053 0 0 0 0 39.105303444598349 0.11609924135336769 0 0.11609924135336769 165.89643669508951 0 0 0 0 11.781188166700531 7.824940828319086 0 7.824940828319086 164.06826081494364 0 0 0 0 76.879915186382334 -16.749130950006929 0 -16.749130950006929 143.25001140544191 0 0 0 0 -13.235800642667982 54.094252895371028 0 54.094252895371028 198.50043811867363 0 0 0 0 95.09757096833323 33.412445682965881 0 33.412445682965881 168.92047602581442 0 0 0 0 -21.452992106260126 18.538598539300438 0 18.538598539300438 200.63025335662678 0 0 0 0 -37.426936051123107 23.060364884535375 0 23.060364884535375 207.50819346372737 0 0 0 0 10.242619969519296 6.9657256267364573 0 6.9657256267364573 187.35548587344965 0 0 0 0 -35.266491390813883 -14.104446776318582 0 -14.104446776318582 209.36960254019505 0 0 0 0 -53.134113312119553 -4.9348629320011241 0 -4.9348629320011241 215.717375688846 0 0 0 0 -120.16966893347342 35.336884452997765 0 35.336884452997765 207.5943021371022 0 0 0 0 -97.060350980939575 -51.366122796640411 0 -51.366122796640411 159.30184156801988 0 0 0 0 -14.700180261125638 -57.188350657631418 0 -57.188350657631418 139.10569324581593 0 0 0 0 -28.5189719995833 61.657527743143874 0 61.657527743143874 164.93796757364908 0 0 0 0 -149.98025237770958 -73.826635539926428 0 -73.826635539926428 185.33781389861542 0 0 0 0 -51.928549658029624 -80.66045386211772 0 -80.66045386211772 149.42587744241609 0 0 0 0 -172.30063106724356 37.784346798140177 0 37.784346798140177 -4.4260625429305946 0 0 0 0 -0.14515874479370061 -8.6331191176905691 0 -8.6331191176905691 11.178690761868381 0 0 0 0 32.347226082560908 -103.27954277439403 0 -103.27954277439403 109.42809705757827 0 0 0 0 -179.74867408141611 -21.708700861869602 0 -21.708700861869602 118.01727868370654 0 0 0 0 -69.900409054735292 -141.85187494073762 0 -141.85187494073762 89.805247767799301 0 0 0 0 78.882896994263604 143.52126721084096 0 143.52126721084096 216.90269076442564 0 0 0 0 3.6894608347626168 -1.9382025593161387 0 -1.9382025593161387 15.382576509358614 0 0 0 0 -98.479227213646936 -100.60394202772295 0 -100.60394202772295 62.339801869598887 0 0 0 0 -66.933199895994221 -118.82495576746442 0 -118.82495576746442 51.110608369497641 0 0 0 0 -30.821930659641339 -154.33742124465789 0 -154.33742124465789 111.53091806006705 0 0 0 0 -69.136861110690461 -125.98130118307745 0 -125.98130118307745 101.66686543796095 0 0 0 0 619.25537386062024 489.72805228771176 0 489.72805228771176 -1072.9608340976993 0 0 0 0 -71.703347593848093 -151.46083573701617 0 -151.46083573701617 117.16239231726649 0 0 0 0 -38.732668134724236 -148.44203986314824 0 -148.44203986314824 104.98546336073196 0 0 0 0 -573.5220546784567 -673.89171963388799 0 -673.89171963388799 1233.3277261941694 0 0 0 0 40.455588785579721 -49.850835719913448 0 -49.850835719913448 29.69358228607598 0 0 0 0 -4.4496291154801959 -35.741085554132809 0 -35.741085554132809 60.155178976402496 0 0 0 0 62.950770559884859 -23.072565420105093 0 -23.072565420105093 -33.161016627096615 0 0 0 0 -13.994971531645206 -37.991088734874211 0 -37.991088734874211 27.969508468304412 0 0 0 0 -40.736995894396841 -148.5269881213826 0 -148.5269881213826 112.66801887633483 0 0 0 0 -7.5422345461279292 -111.48219283507933 0 -111.48219283507933 123.7629581711135 0 0 0 0 18.659618811667769 -196.74287404884308 0 -196.74287404884308 303.99959412460157 0 0 0 0 171.88347484182486 -180.22877406110274 0 -180.22877406110274 108.79475076637391 0 0 0 0 -31.247795349267562 9.9271982358332025 0 9.9271982358332025 396.6054914477445 0 0 0 0 117.16240573626033 126.67785837436168 0 126.67785837436168 280.26281229265442 0 0 0 0 18.214649127380198 20.58134300186066 0 20.58134300186066 187.72838051624058 0 0 0 0 279.18105784018508 13.777674558936269 0 13.777674558936269 147.75100755467429 0 0 0 0 17.876632337889532 -26.120157659055621 0 -26.120157659055621 152.69032792248981 0 0 0 0 115.91652787052271 -157.97574915898076 0 -157.97574915898076 300.9825454888487 0 0 0 0 -48.030908628796624 98.689984378695954 0 98.689984378695954 156.26869232795434 0 0 0 0 124.38680710139852 209.82156814252085 0 209.82156814252085 497.93463707138289 0 0 0 0 2.0823723010975526 -1.9681103204806192 0 -1.9681103204806192 2.9403463988825251 0 0 0 0 181.07118461856953 -23.229243164661625 0 -23.229243164661625 -15.123924640931364 0 0 0 0 38.238914460308479 19.233524203435081 0 19.233524203435081 152.37830813453911 0 0 0 0 5.8846229758972513 -6.9100075278471138 0 -6.9100075278471138 6.9477567226511212 0 0 0 0 58.507243526282309 171.28092385234049 0 171.28092385234049 239.76163695625473 0 0 0 0 -3.7636399843604522 -4.5495951687043998 0 -4.5495951687043998 31.246719298731477 0 0 0 0 -6.3172298752613187 -11.563250141445678 0 -11.563250141445678 13.202336232578091 0 0 0 0 16.293435879818272 -60.218237018557929 0 -60.218237018557929 71.216375422012788 0 0 0 0 34.21863677747649 0.25184112483202625 0 0.25184112483202625 40.472946311230771 0 0 0 0 0.43911416251925522 -14.078992579302668 0 -14.078992579302668 132.19122918397119 0 0 0 0 -238.42278481377934 10.904153594761738 0 10.904153594761738 237.20940972714016 0 0 0 0 1.9055492871893875 -115.23786679025034 0 -115.23786679025034 82.834633052902063 0 0 0 0 -60.008563278015572 -8.8072776817571139 0 -8.8072776817571139 73.13660554785838 0 0 0 0 -257.04759089194869 -173.94054999887203 0 -173.94054999887203 104.87778607006112 0 0 0 0 281.37703335314563 51.804670335891387 0 51.804670335891387 -54.865580626854353 0 0 0 0 140.0648855543827 -192.10410963759387 0 -192.10410963759387 -229.35634959154049 0 0 0 0 6.2356690758636741 -14.882583536722773 0 -14.882583536722773 32.865424306208467 0 0 0 0 -207.15691122007956 -115.00388115671012 0 -115.00388115671012 249.54062069727206 0 0 0 0 0.092321374478743223 -15.118833453196673 0 -15.118833453196673 165.71925752869643 0 0 0 0 -1042.3891398697842 -528.92454303868089 0 -528.92454303868089 803.03521009731048 0 0 0 0 1008.2257249263648 -164.44003702619693 0 -164.44003702619693 -31.980970854028783 0 0 0 0 3.0303250585760537 -5.7348805597566201 0 -5.7348805597566201 10.268286597509963 0 0 0 0 0.27063630046018261 186.83427255678794 0 186.83427255678794 500.16954509169773 0 0 0 0 -168.32932437152522 283.48305001904555 0 283.48305001904555 93.260497456284611 0 0 0 0 -0.027432414122813498 -146.66905030781072 0 -146.66905030781072 889.79390597940892 0 0 0 0 -64.042128800217938 -1182.127297717371 0 -1182.127297717371 622.72416433939816 0 0 0 0 572.37908626536284 680.45652405978876 0 680.45652405978876 -5.2776623228037352 0 0 0 0 604.52210772208855 -488.39997895069558 0 -488.39997895069558 527.30818946343425 0 0 0 0 54.722003911997547 18.613762966115019 0 18.613762966115019 46.189846787574425 0 0 0 0 57.458303868609278 38.285379753481379 0 38.285379753481379 186.20757994718406 0 0 0 0 0.35502032246813253 -10.454706881329535 0 -10.454706881329535 180.75258007011689 0 0 0 0 -802.43874946290271 280.19096273777791 0 280.19096273777791 347.43433268336139 0 0 0 0 -107.20079347098226 -73.491187531439209 0 -73.491187531439209 186.59266470887815 0 0 0 0 -13.449347752630274 -95.365391438659572 0 -95.365391438659572 153.86999903622495 0 0 0 0 88.227970648853898 -22.819102424138691 0 -22.819102424138691 144.76225906671607 0 0 0 0 78.04291686953502 -72.3734706683681 0 -72.3734706683681 128.06747916759923 0 0 0 0 -15.640042265337343 -40.000542673034943 0 -40.000542673034943 161.24637717527366 0 0 0 0 36.593953421209306 -39.872624144928523 0 -39.872624144928523 161.24416351500986 0 0 0 0 36.575682560722271 -40.146275750332279 0 -40.146275750332279 157.39883613711572 0 0 0 0 54.724784190696482 -16.694146213354543 0 -16.694146213354543 167.55229129314466 0 0 0 0 -0.31527230418942054 -45.032075594361231 0 -45.032075594361231 196.80434086725836 0 0 0 0 -38.567898700292062 -327.87490609919359 0 -327.87490609919359 -225.38018902355543 0 0 0 0 -11.876033972547564 6.9882544018770218 0 6.9882544018770218 28.210273553530456 0 0 0 0 -4.3374453868924174 -17.884013403156104 0 -17.884013403156104 178.87976042908747 0 0 0 0 -188.13806687458055 80.920331103731769 0 80.920331103731769 207.96060373420823 0 0 0 0 154.42701447371655 77.457838788672234 0 77.457838788672234 -78.590727681579665 0 0 0 0 49.940294059119196 129.51039573635967 0 129.51039573635967 196.93771993761493 0 0 0 0 47.540342855780523 150.44428924837757 0 150.44428924837757 51.617805840484834 0 0 0 0 -2.3622058307243829 0.60928516832589352 0 0.60928516832589352 -1.6653511397020955 0 0 0 0 -64.112643672615377 -108.99089774712616 0 -108.99089774712616 230.71784661840047 0 0 0 0 -65.612188274493064 -254.0552533843902 0 -254.0552533843902 691.92519218489997 0 0 0 0 548.48765058728941 -138.63767444194218 0 -138.63767444194218 189.00106543663969 0 0 0 0 -45.84820937105269 -59.288350096083832 0 -59.288350096083832 190.48192953498619 0 0 0 0 -97.673317349438094 -287.69140404188283 0 -287.69140404188283 -57.310565259424948 0 0 0 0 -314.06337366748539 -235.45481276027886 0 -235.45481276027886 256.27281910241436 0 0 0 0 31.637978026105884 -257.19191875500474 0 -257.19191875500474 -181.09759656363167 0 0 0 0 -444.37656918722132 -304.98075227153549 0 -304.98075227153549 -133.83009088980089 0 0 0 0 3.6127912386429077 -34.827383881100005 0 -34.827383881100005 -6.8323731285134137 0 0 0 0 -91.360615847677764 -298.43685042982088 0 -298.43685042982088 -51.185615909869739 0 0 0 0 -32.26420385607662 -180.00787297475617 0 -180.00787297475617 -124.71803003855439 0 0 0 0 -13.152506304026947 -69.063170213510361 0 -69.063170213510361 107.42776931505986 0 0 0 0 23.284750146244278 -6.9893531713714765 0 -6.9893531713714765 215.89785587939878 0 0 0 0 65.76725160414253 25.75684144133993 0 25.75684144133993 214.79920615584706 0 0 0 0 23.452181771778726 -6.9139495083550173 0 -6.9139495083550173 190.58524873567512 0 0 0 0 -111.58647359152422 -115.45194916440005 0 -115.45194916440005 158.43238853249477 0 0 0 0 -21.217065256629681 -62.057805684028175 0 -62.057805684028175 99.61623799128013 0 0 0 0 -110.53366986362528 -103.93672173345178 0 -103.93672173345178 124.63581969282859 0 0 0 0 -216.34937664608515 -162.599656992571 0 -162.599656992571 364.87379001944396 0 0 0 0 -112.55102422876917 29.611207727643887 0 29.611207727643887 349.63826486930429 0 0 0 0 -105.01862447164694 -33.389538648924372 0 -33.389538648924372 195.69154409393559 0 0 0 0 -148.4933605938013 -27.173470545224973 0 -27.173470545224973 264.09788196538284 0 0 0 0 -87.208109183938745 76.225433137601613 0 76.225433137601613 303.87908716475249 0 0 0 0 -93.55432394459126 23.035339561441845 0 23.035339561441845 172.62478922047012 0 0 0 0 -50.058972094665478 118.71548504242946 0 118.71548504242946 220.68573037681836 0 0 0 0 -46.227752707373838 155.64292571585156 0 155.64292571585156 321.39012737286066 0 0 0 0 97.833864157391872 257.45484143798421 0 257.45484143798421 315.00250248388238 0 0 0 0 -7.4122932431191657 197.35692487149754 0 197.35692487149754 363.09815787527168 0 0 0 0 18.086856995942753 150.3303327972294 0 150.3303327972294 413.52927854909285 0 0 0 0 -72.598347887649425 169.58095228180514 0 169.58095228180514 770.75307004664046 0 0 0 0 -141.89321287385883 19.771837232488906 0 19.771837232488906 450.89070687813182 0 0 0 0 264.88531663212996 32.279142417807634 0 32.279142417807634 654.75810868406916 0 0 0 0 178.38971375198889 267.15314945931641 0 267.15314945931641 494.61607330103197 0 0 0 0 181.72304593526474 137.8080670190509 0 137.8080670190509 190.33275535242319 0 0 0 0 -272.4161375089792 -149.14825650201419 0 -149.14825650201419 3482.45719770715 0 0 0 0 148.04889921389463 193.3125846994908 0 193.3125846994908 143.15080874019441 0 0 0 0 53.634684606280643 158.88708290202885 0 158.88708290202885 171.24658351140351 0 0 0 0 11.707443152337873 160.0686230176475 0 160.0686230176475 171.56409896238983 0 0 0 0 55.263555248422108 113.79362531260995 0 113.79362531260995 -49.798280300808983 0 0 0 0 89.579129297183727 56.210263347439422 0 56.210263347439422 11.553990198777683 0 0 0 0 14.324625682862878 60.782335811439538 0 60.782335811439538 15.163454243310781 0 0 0 0 -71.93324986958271 -474.64901378014474 0 -474.64901378014474 2845.2010159838101 0 0 0 0 23.257556295180507 -321.663688980394 0 -321.663688980394 3065.7591980099533 0 0 0 0 29.102851019039448 71.537479025833818 0 71.537479025833818 16.901850791525959 0 0 0 0 22.540864220656658 112.56110460793479 0 112.56110460793479 199.99671221847166 0 0 0 0 28.726864387221212 146.08773664393902 0 146.08773664393902 81.296572923370377 0 0 0 0 -41.072798218876414 107.98535051831641 0 107.98535051831641 205.12456690853014 0 0 0 0 -13.293618946588595 58.181249930460808 0 58.181249930460808 167.43208826568844 0 0 0 0 65.285364816256262 -71.577410600537405 0 -71.577410600537405 3500.2471973042157 0 0 0 0 -17.826005649022591 17.618395451398101 0 17.618395451398101 149.87431600259242 0 0 0 0 -31.254698256377026 8.4462258748226304 0 8.4462258748226304 152.22775266694953 0 0 0 0 -3.1807617627234022 21.773076850529073 0 21.773076850529073 147.09550659325245 0 0 0 0 6.7983255142032366 28.122776609377823 0 28.122776609377823 27.862945109981418 0 0 0 0 41.926972333153202 80.400386016970018 0 80.400386016970018 31.531876503885744 0 0 0 0 16.872274797888167 88.954401407547266 0 88.954401407547266 191.00692375360268 0 0 0 0 -11.505893008958083 84.673035319705832 0 84.673035319705832 209.16868229072497 0 0 0 0 490.44100740880998 1069.242824222456 0 1069.242824222456 2303.0206440405409 0 0 0 0 782.7748415736595 -838.02016489875132 0 -838.02016489875132 1114.9623474212567 0 0 0 0 9.4653247101075149 22.547867644672074 0 22.547867644672074 17.088117695110498 0 0 0 0 -516.95246530048792 -9.304461304385768 0 -9.304461304385768 3541.0840108917364 0 0 0 0 -257.65210600569827 205.57760688717826 0 205.57760688717826 2132.1086540446554 0 0 0 0 10.065163879057597 28.645890719021423 0 28.645890719021423 5.912703893523954 0 0 0 0 79.8600872305135 -42.899382923875237 0 -42.899382923875237 10.856083624865278 0 0 0 0 -14.743976105459296 -2.6095727272404474 0 -2.6095727272404474 103.99092949937858 0 0 0 0 -32.055232550292658 33.223448660966824 0 33.223448660966824 210.61536198524664 0 0 0 0 -19.248194698617908 -23.435424829798649 0 -23.435424829798649 199.01927034240362 0 0 0 0 -34.513316842126486 44.224194650846925 0 44.224194650846925 194.24235211336054 0 0 0 0 -22.657611314888527 46.006204288416484 0 46.006204288416484 186.34053968305801 0 0 0 0 -20.29080134943888 43.180350878446916 0 43.180350878446916 186.36816510122318 0 0 0 0 -20.521663389311243 42.454558879762772 0 42.454558879762772 189.70996501688933 0 0 0 0 -19.526176960649309 40.349892069125417 0 40.349892069125417 180.70382823894033 0 0 0 0 -30.583245623669654 25.513568936479714 0 25.513568936479714 184.25025649228337 0 0 0 0 -20.283349112688029 25.703802971518598 0 25.703802971518598 170.3145905366182 0 0 0 0 -6.1518697768244852 6.4358657192278663 0 6.4358657192278663 153.82496745604615 0 0 0 0 -96.280065823813857 36.20705663951685 0 36.20705663951685 195.88032453695223 0 0 0 0 63.537215299373656 -4.4069512314163148 0 -4.4069512314163148 156.15532842569519 0 0 0 0 -13.1202095540896 0.13038171172636837 0 0.13038171172636837 162.90622138995275 0 0 0 0 -118.08763409816311 -42.374142552849207 0 -42.374142552849207 198.12935226462992 0 0 0 0 53.749208419364322 59.512693431192019 0 59.512693431192019 183.72685984466079 0 0 0 0 -5.9027968351406344 24.678436843354575 0 24.678436843354575 168.32916849017784 0 0 0 0 -12.1871631257834 46.319207033153361 0 46.319207033153361 185.25127872337907 0 0 0 0 -5.0901780955700815 32.98392567081828 0 32.98392567081828 163.90790895904502 0 0 0 0 4.6215782870548878 2.0885180309651332 0 2.0885180309651332 128.07360119869554 0 0 0 0 -1.0550834018909612 0.38118072109706702 0 0.38118072109706702 0.28896942028536676 0 0 0 0 -22.26494440700526 27.811843418807257 0 27.811843418807257 239.79888732245308 0 0 0 0 15.290303338742888 -11.636289325077087 0 -11.636289325077087 259.61822451636544 0 0 0 0 284.24625631142226 108.91639420736465 0 108.91639420736465 177.56356235643034 0 0 0 0 -8.0413211848111192 0.031686644712024759 0 0.031686644712024759 20.962086327767267 0 0 0 0 42.01720579913399 -72.606912462113542 0 -72.606912462113542 197.54960005971225 0 0 0 0 199.98793705649769 162.74398023793037 0 162.74398023793037 287.20654745530919 0 0 0 0 6.6437368078974668 -34.297842368684726 0 -34.297842368684726 -11.082926539977734 0 0 0 0 115.94434847125422 -5.4771492517284059 0 -5.4771492517284059 159.98697259444452 0 0 0 0 98.98439561666396 -58.871755273838062 0 -58.871755273838062 162.10860770591535 0 0 0 0 36.481353880518782 -21.023182919474493 0 -21.023182919474493 168.19295886480541 0 0 0 0 48.655904427505902 -38.035633002750274 0 -38.035633002750274 167.48663663171465 0 0 0 0 52.294037298710009 -11.442168574882089 0 -11.442168574882089 175.65549483054929 0 0 0 0 13.806962055173244 -14.359481551829958 0 -14.359481551829958 159.40735237514309 0 0 0 0 -24.933690158457921 -27.295758916356135 0 -27.295758916356135 198.47069343837211 0 0 0 0 4.9835094076431687 -22.975269605536596 0 -22.975269605536596 151.28884153227409 0 0 0 0 -12.478473193983291 -7.5923421436382341 0 -7.5923421436382341 152.58052242381473 0 0 0 0 -1.2178649103940415 -15.073171141060811 0 -15.073171141060811 98.444550585532852 0 0 0 0 43.892598159748559 45.571449503258918 0 45.571449503258918 71.738582784884784 0 0 0 0 -3.5693732645698448 0.20682036680329929 0 0.20682036680329929 -0.37872907033250325 0 0 0 0 -18.491199344385677 10.601742418450158 0 10.601742418450158 36.989626244065562 0 0 0 0 -0.8400997328987998 3.9582434660363077 0 3.9582434660363077 11.448328186543307 0 0 0 0 -6.8357603359084882 1.1741540702575719 0 1.1741540702575719 4.6202205485640029 0 0 0 0 -13.272189897381963 -26.298498480929993 0 -26.298498480929993 146.56706797434163 0 0 0 0 -8.7676238076905033 -11.239868880619724 0 -11.239868880619724 98.151750296077807 0 0 0 0 21.594708490178235 -21.385092798758706 0 -21.385092798758706 57.410905746386561 0 0 0 0 -2.5109968039474779 0.83411258089836338 0 0.83411258089836338 68.442255708906487 0 0 0 0 -52.212358873401399 17.27312609033288 0 17.27312609033288 67.049082912912127 0 0 0 0 2.2537558409061198 11.107365776077216 0 11.107365776077216 22.729032573294319 0 0 0 0 12.889150410553157 -26.269358267498319 0 -26.269358267498319 19.46663573912565 0 0 0 0 -34.53184697877532 -14.395689719447546 0 -14.395689719447546 29.720457592018647 0 0 0 0 37.758862609749485 15.945545641203353 0 15.945545641203353 42.427297456335509 0 0 0 0 17.601015862216173 -26.722209953193669 0 -26.722209953193669 10.649475631769747 0 0 0 0 44.477441954196081 -14.85284561942899 0 -14.85284561942899 4.4632622837816598 0 0 0 0 51.699651437870443 -87.017682547528239 0 -87.017682547528239 -11.474671068732277 0 0 0 0 -162.48857103220098 292.61086429293209 0 292.61086429293209 397.04526237745267 0 0 0 0 2.8556531086865489 0.35052727500031722 0 0.35052727500031722 -0.94616428948678788 0 0 0 0 -53.277973991336466 -83.755429335897134 0 -83.755429335897134 145.66845211539476 0 0 0 0 -10.014549651632356 -5.4390385650181372 0 -5.4390385650181372 4.1188681081665557 0 0 0 0 302.73993556661537 -137.62408731842879 0 -137.62408731842879 245.10367610089179 0 0 0 0 -27.533965882619668 27.734911196752364 0 27.734911196752364 71.185749359203328 0 0 0 0 73.880019688729192 -141.76458572783304 0 -141.76458572783304 86.79202647805505 0 0 0 0 -22.604687847270611 -149.69388778630673 0 -149.69388778630673 258.71811938972132 0 0 0 0 -35.496510783077269 -55.697591860836837 0 -55.697591860836837 181.65058515960118 0 0 0 0 -0.59144386135778859 -83.819542078286759 0 -83.819542078286759 122.23096917977091 0 0 0 0 -6.6148893742087012 -91.35018782822408 0 -91.35018782822408 131.64286651994917 0 0 0 0 -5.9041946831245014 -63.8162453789555 0 -63.8162453789555 82.692062646063277 0 0 0 0 -26.886835479512229 9.8239324310270604 0 9.8239324310270604 25.297954055979062 0 0 0 0 11.716636123168541 -45.00919528563827 0 -45.00919528563827 94.173278839924023 0 0 0 0 -73.882933576818687 1.4708431444887538 0 1.4708431444887538 96.780517880436037 0 0 0 0 -48.978627511738296 18.027678464564815 0 18.027678464564815 82.884063786666957 0 0 0 0 -14.66457101078413 18.782362157209718 0 18.782362157209718 82.438287219139966 0 0 0 0 -32.623082229056536 38.789686010666628 0 38.789686010666628 64.324853730882751 0 0 0 0 -1.4513638670495774 1.8713817171721132 0 1.8713817171721132 14.165721118585262 0 0 0 0 -153.53698795665503 40.674996607820503 0 40.674996607820503 175.33788796539511 0 0 0 0 -22.433971913145342 -41.780546375022823 0 -41.780546375022823 120.24096338707022 0 0 0 0 234.72545952142423 -281.04002882180794 0 -281.04002882180794 273.4417334587597 0 0 0 0 0.70263194849528876 1.2771113563440082 0 1.2771113563440082 3.7723034256347034 0 0 0 0 -67.802961085326842 -64.365242463427421 0 -64.365242463427421 518.83654849826416 0 0 0 0 -0.5061789338900553 -5.4430751697600499 0 -5.4430751697600499 49.318292704156192 0 0 0 0 111.7997134209013 142.34843075678145 0 142.34843075678145 71.676966146989798 0 0 0 0 -34.261792436335121 53.150652763582229 0 53.150652763582229 464.79864522381104 0 0 0 0 319.74021543168442 -59.379272627025784 0 -59.379272627025784 142.65978330780854 0 0 0 0 -74.911905117488004 64.376453133525501 0 64.376453133525501 103.95966589863747 0 0 0 0 116.5796074598893 217.28355276733419 0 217.28355276733419 291.1826879411492 0 0 0 0 -55.698704951757918 76.316189813835081 0 76.316189813835081 65.804741159721743 0 0 0 0 3.7826267166310572 50.657791689591249 0 50.657791689591249 66.330955627054209 0 0 0 0 193.09989076259586 718.88145169416384 0 718.88145169416384 1230.464427697385 0 0 0 0 213.45502693645858 99.76542277459157 0 99.76542277459157 -18.779412265314022 0 0 0 0 6.7243581736575129 33.128086982659823 0 33.128086982659823 8.079157807880879 0 0 0 0 -241.67530653793688 323.10804514820097 0 323.10804514820097 1881.0793183705391 0 0 0 0 -313.14537016197363 1294.5593148581975 0 1294.5593148581975 3494.7151496484803 0 0 0 0 2.7993939857287087 2.9293246245134306 0 2.9293246245134306 22.770031090859504 0 0 0 0 -19.222924467135044 -15.921597934313468 0 -15.921597934313468 686.36106711640218 0 0 0 0 1827.8223760505525 -1333.7853037199147 0 -1333.7853037199147 365.5467556235817 0 0 0 0 1613.294204969709 1362.6121318394617 0 1362.6121318394617 649.65346423321171 0 0 0 0 -2.5909892286920471 12.390492879769518 0 12.390492879769518 54.39858814239949 0 0 0 0 -44.406393903973367 21.898871662307101 0 21.898871662307101 56.074130921741016 0 0 0 0 -67.205707303923376 166.5925417744802 0 166.5925417744802 428.7063721234008 0 0 0 0 -2.1767178851368953 11.647773249191232 0 11.647773249191232 85.41853954148246 0 0 0 0 -12.623011446743668 10.48793892970653 0 10.48793892970653 70.549194686957009 0 0 0 0 0.044973343683284206 33.176475361025467 0 33.176475361025467 52.982229288961676 0 0 0 0 -90.650253384695588 23.935247904402786 0 23.935247904402786 259.55927546172097 0 0 0 0 332.86078543850022 -122.09795289639078 0 -122.09795289639078 282.43435680357652 0 0 0 0 -2.0886408294562253 33.073556370377503 0 33.073556370377503 11.532458336967888 0 0 0 0 232.45626653252191 120.99013280139843 0 120.99013280139843 0.86113293495145626 0 0 0 0 -0.96278654584926937 1.7530761149418197 0 1.7530761149418197 20.982917197943866 0 0 0 0 -71.73058809943501 85.895971007077605 0 85.895971007077605 120.99159266020797 0 0 0 0 -106.20193043508334 126.14388763312309 0 126.14388763312309 165.3902367434348 0 0 0 0 -165.04887031754834 70.150041533743206 0 70.150041533743206 207.27462638870929 0 0 0 0 -126.63941210659942 45.858582521344943 0 45.858582521344943 145.69080898894754 0 0 0 0 -89.267769357966017 156.73034318033024 0 156.73034318033024 218.25822740182048 0 0 0 0 -148.0694280057744 103.68021544143267 0 103.68021544143267 269.76536968395521 0 0 0 0 21.022490965688803 20.095970402289822 0 20.095970402289822 124.48329858786747 0 0 0 0 -23.875889789912549 16.019526717242115 0 16.019526717242115 137.99812162337912 0 0 0 0 23.449144047577704 12.002427848903608 0 12.002427848903608 137.88431444161688 0 0 0 0 14.003156449720223 36.719522428342316 0 36.719522428342316 144.53869996740832 0 0 0 0 0.35974676247451498 21.913164369972947 0 21.913164369972947 98.358819170975039 0 0 0 0 -0.38806436411097933 23.475514734311417 0 23.475514734311417 80.301105480873616 0 0 0 0 -456.01165210166397 -471.649079487579 0 -471.649079487579 3494.5406269627711 0 0 0 0 10.199346539980876 24.314349030202095 0 24.314349030202095 20.099294485871884 0 0 0 0 6.1228243651848402 22.806162235730881 0 22.806162235730881 94.976842134463368 0 0 0 0 -49.311891978762333 150.35987463593301 0 150.35987463593301 246.87679144136928 0 0 0 0 -14.543321382130827 0.70925724233683241 0 0.70925724233683241 18.809410775847141 0 0 0 0 -17.535187585039239 28.006752877496183 0 28.006752877496183 298.19654429712682 0 0 0 0 416.9114929688206 -436.10347326346528 0 -436.10347326346528 690.18587925645625 0 0 0 0 -72.655939987609045 -220.49615340179116 0 -220.49615340179116 1107.1883438350487 0 0 0 0 -10.787990502853628 55.326133113499615 0 55.326133113499615 53.944999367359515 0 0 0 0 305.00317520638197 -1507.4356135100061 0 -1507.4356135100061 2358.9792963821455 0 0 0 0 -445.57136939855513 176.66100468618242 0 176.66100468618242 1983.1407089122367 0 0 0 0 2.7780838852338214 -282.18175340080779 0 -282.18175340080779 2324.1481790564285 0 0 0 0 -356.22981035003318 457.00379297629115 0 457.00379297629115 2669.3454038192649 0 0 0 0 0.0035662664766873604 3.7788740046235034 0 3.7788740046235034 27.426304053631611 0 0 0 0 146.88534872185824 303.10134144195035 0 303.10134144195035 201.57147733528109 0 0 0 0 130.00946341731219 319.35368178097997 0 319.35368178097997 763.52567589218961 0 0 0 0 1.5977430616706385 2.5934909981009895 0 2.5934909981009895 7.5889826021198132 0 0 0 0 -4.0439174969942542 142.95597904335591 0 142.95597904335591 428.20044278063142 0 0 0 0 139.95283983473206 -78.020655147276557 0 -78.020655147276557 1685.268978395412 0 0 0 0 -4.6497313520716954 -2.1657969061303959 0 -2.1657969061303959 -0.47659471516825391 0 0 0 0 32.830716866373564 -229.07957073731814 0 -229.07957073731814 191.87648475597962 0 0 0 0 207.56713061410062 111.55648054741323 0 111.55648054741323 -56.848899199852895 0 0 0 0 2.5383015437610084 13.282672456371074 0 13.282672456371074 115.1264037740184 0 0 0 0 13.793003585017914 6.7643165957560996 0 6.7643165957560996 98.933968434750568 0 0 0 0 8.674970953996592 21.531076925139331 0 21.531076925139331 10.452116819356121 0 0 0 0 -6.6446258716162934 5.616116647271042 0 5.616116647271042 48.839535502284889 0 0 0 0 -3.3041516222037899 9.3814445497118868 0 9.3814445497118868 23.980740301660262 0 0 0 0 1.7302255855248103 8.6061170656003867 0 8.6061170656003867 31.368222844180792 0 0 0 0 -1.6525065163480204 4.4315412837150348 0 4.4315412837150348 36.457065917901105 0 0 0 0 4.5647443490643314 15.32802161492873 0 15.32802161492873 21.793178011153941 0 0 0 0 -0.68152920570343778 1.3580735967512396 0 1.3580735967512396 31.446560992037526 0 0 0 0 2.8318064556899789 9.4512293740728524 0 9.4512293740728524 22.45410247200266 0 0 0 0 0.0048289206536178556 6.1505641579860821 0 6.1505641579860821 30.680259867454879 0 0 0 0 1.3725564800574843 6.090103503898149 0 6.090103503898149 36.058218956673898 0 0 0 0 3.0799585843524255 7.6410467972309561 0 7.6410467972309561 41.798137843592485 0 0 0 0 0.54618878429330042 -3.0549993257584873 0 -3.0549993257584873 35.494447396942661 0 0 0 0 20.640813228292245 17.848328860418405 0 17.848328860418405 94.048356782179326 0 0 0 0 -1.6111477611621368 3.3439353082358139 0 3.3439353082358139 65.456319888326107 0 0 0 0 -1.4757485214970596 -3.96001232501294 0 -3.96001232501294 51.543483156186994 0 0 0 0 0.017290342377861107 -2.0369236727710813 0 -2.0369236727710813 48.175166970908322 0 0 0 0 0.34771266750082974 -0.64938497248988369 0 -0.64938497248988369 33.661508412736794 0 0 0 0 0.22333609837755575 2.8455788335847103 0 2.8455788335847103 29.241923206628659 0 0 0 0 -1.7101607549501461 -2.0721330964674394 0 -2.0721330964674394 49.519740345240393 0 0 0 0 -11.689100204243744 5.0567132020914869 0 5.0567132020914869 65.331178658059798 0 0 0 0 -3.0044206609173245 -5.9062465406786941 0 -5.9062465406786941 47.942603189672809 0 0 0 0 -0.010574150440959329 -1.5432724683414563 0 -1.5432724683414563 49.770502936780758 0 0 0 0 9.0444125830006215 4.7168259093014058 0 4.7168259093014058 47.567950258786368 0 0 0 0 -2.5111435351901568 -5.9982025592762511 0 -5.9982025592762511 47.94679035935269 0 0 0 0 -5.4713534420503436 -8.3221349904233648 0 -8.3221349904233648 48.640730826198705 0 0 0 0 -0.00070551608021838207 -7.5642690093518468 0 -7.5642690093518468 46.506705407256959 0 0 0 0 -2.5890652354821153 -8.3833561514541515 0 -8.3833561514541515 51.0426074666928 0 0 0 0 3.2018856290353597 7.9452478257226176 0 7.9452478257226176 52.268198964826297 0 0 0 0 -12.505202562475802 -19.670647251616174 0 -19.670647251616174 71.154814451583661 0 0 0 0 6.6122398584939432 -0.41175171790382592 0 -0.41175171790382592 68.871034947675071 0 0 0 0 -5.235600842438048 -11.495556535721846 0 -11.495556535721846 23.678285898474059 0 0 0 0 10.028374373589259 19.626948250595888 0 19.626948250595888 95.79318604387845 0 0 0 0 -1.3858723288394579 17.013597643639514 0 17.013597643639514 69.521839024760993 0 0 0 0 6.8269846425046099 9.721071868416999 0 9.721071868416999 6.6379376410779258 0 0 0 0 0.76660165741743924 9.1628430038763895 0 9.1628430038763895 21.391368388146262 0 0 0 0 -0.33998509850880509 9.326105919550173 0 9.326105919550173 78.221417808061233 0 0 0 0 3.178583385170441 2.5859271448789514 0 2.5859271448789514 64.173052144065878 0 0 0 0 8.1000846422923587 12.272876883740537 0 12.272876883740537 67.836130610565306 0 0 0 0 0.05017520001547382 5.0384625955557567 0 5.0384625955557567 72.456645338861563 0 0 0 0 1.3592072910309465 3.969474707473438 0 3.969474707473438 55.980169737079848 0 0 0 0 7.5913937745326621 2.800359396951535 0 2.800359396951535 68.208620953380887 0 0 0 0 -46.259288070274806 -3.9691511751443613 0 -3.9691511751443613 70.480241264049255 0 0 0 0 -15.774580251605357 -2.6707336808940454 0 -2.6707336808940454 70.448339520415175 0 0 0 0 0.98653239257657876 1.9639926803283458 0 1.9639926803283458 19.244839844866505 0 0 0 0 -2.3970238947455922 -12.034241740144822 0 -12.034241740144822 36.994907456050072 0 0 0 0 10.100060767665155 10.588694179949016 0 10.588694179949016 90.501431383570889 0 0 0 0 10.590425120286 -11.754955544325639 0 -11.754955544325639 82.213871110947366 0 0 0 0 -3.7863981645179621 -39.769404174898227 0 -39.769404174898227 145.99977332257549 0 0 0 0 2.2491475543245087 -7.0061581584668602 0 -7.0061581584668602 81.029497443239961 0 0 0 0 0.43249017253031508 -26.463945093121851 0 -26.463945093121851 22.472011943300803 0 0 0 0 1.4836239171961025 1.580584182894718 0 1.580584182894718 82.199748207384687 0 0 0 0 -0.36612431223155761 -8.6352473555578086 0 -8.6352473555578086 25.348396813676846 0 0 0 0 -14.041526369403755 5.4870222976060177 0 5.4870222976060177 171.40554644284566 0 0 0 0 57.882519552413896 -14.577792640852749 0 -14.577792640852749 126.68224791887769 0 0 0 0 -58.57220860513371 14.272859825810883 0 14.272859825810883 146.81936860968062 0 0 0 0 -42.602544156712838 86.154810274616466 0 86.154810274616466 45.04073585695005 0 0 0 0 114.18606871311616 -86.329900401561645 0 -86.329900401561645 -511.0948255136027 0 0 0 0 124.95584242564667 -165.69119333496201 0 -165.69119333496201 -69.340006164013175 0 0 0 0 36.022865533287472 -19.851040614426893 0 -19.851040614426893 -166.58241697758785 0 0 0 0 -68.055781271527906 -14.849624934824533 0 -14.849624934824533 197.68449942827283 0 0 0 0 -0.66711358827071476 10.789653733496657 0 10.789653733496657 121.01329641269211 0 0 0 0 -57.551560603886614 144.63435047721578 0 144.63435047721578 -161.89072047302034 0 0 0 0 -31.186575564836161 -17.33246481965034 0 -17.33246481965034 148.55978512563161 0 0 0 0 0.88406991775140042 39.115133200815762 0 39.115133200815762 247.78564905104577 0 0 0 0 35.199755954695888 -138.55293549809721 0 -138.55293549809721 258.87616482021258 0 0 0 0 105.65437858458796 12.495908503733517 0 12.495908503733517 158.78097781367251 0 0 0 0 -0.051201880343620332 -6.0642936470612767 0 -6.0642936470612767 236.61007572288509 0 0 0 0 15.964567029440891 -12.514344512543175 0 -12.514344512543175 172.54358383499493 0 0 0 0 11.595687230875441 81.786998086681706 0 81.786998086681706 309.40528713882304 0 0 0 0 46.386138057203581 -72.376029263105011 0 -72.376029263105011 288.93661064445041 0 0 0 0 19.486788689160097 22.370845235098386 0 22.370845235098386 157.62173545297992 0 0 0 0 -0.037391100943675433 -0.48568823463776312 0 -0.48568823463776312 7.3305529730241243 0 0 0 0 -2.4827019586631991 -9.2164014542468067 0 -9.2164014542468067 47.530914001443307 0 0 0 0 2.6531150333990916 -6.2708018967099974 0 -6.2708018967099974 -2.3493215339312314 0 0 0 0 -61.603633643544526 9.7110709573966005 0 9.7110709573966005 50.63771178607476 0 0 0 0 198.33885088068382 -472.81519316293975 0 -472.81519316293975 248.84992735422912 0 0 0 0 3.1738715235849408 6.2420641934929586 0 6.2420641934929586 15.058158199076868 0 0 0 0 184.44011308725658 -174.08212576114209 0 -174.08212576114209 438.95065673947283 0 0 0 0 -22.284104052692783 -52.010886832297729 0 -52.010886832297729 100.02478316826182 0 0 0 0 -17.297332953585283 -44.069123453977909 0 -44.069123453977909 44.832562671053893 0 0 0 0 -17.766628659739581 -56.295204732343336 0 -56.295204732343336 50.120464621608335 0 0 0 0 4.1311158345497461 -18.053893010659522 0 -18.053893010659522 25.476696577321036 0 0 0 0 -74.282930275897343 -31.800337254925864 0 -31.800337254925864 -138.52647232244715 0 0 0 0 1.0913314607982159 -0.3407935015014889 0 -0.3407935015014889 -1.5303908451518566 0 0 0 0 60.352342018362833 27.700147255631066 0 27.700147255631066 -251.16282899191856 0 0 0 0 2.9286075378764522 -7.7384407525771497 0 -7.7384407525771497 3.0509675004222916 0 0 0 0 45.584657009379043 -7.119190958964623 0 -7.119190958964623 -153.8828124413684 0 0 0 0 83.343331916590614 10.972326316391161 0 10.972326316391161 -281.14054787431144 0 0 0 0 54.527035650422476 -30.96452702742198 0 -30.96452702742198 -233.0711365396798 0 0 0 0 -45.640561594998871 41.441166268799861 0 41.441166268799861 69.887298512066991 0 0 0 0 43.998758781541255 -31.890921691252515 0 -31.890921691252515 -43.836380061560703 0 0 0 0 5.5488267124401247 6.9198731821612229 0 6.9198731821612229 10.19384597605784 0 0 0 0 10.355443721159645 -45.407525576380522 0 -45.407525576380522 143.55404104721583 0 0 0 0 657.34322119162607 -345.71823077803219 0 -345.71823077803219 -52.410051689217653 0 0 0 0 -152.30780727291221 -90.594484801810722 0 -90.594484801810722 791.0832611327628 0 0 0 0 -2.3209186805365363 2.0698757835499384 0 2.0698757835499384 6.1093928011824339 0 0 0 0 -16.331695881131964 -101.75959154365364 0 -101.75959154365364 459.60341579818714 0 0 0 0 -24.527682644279224 -5.6110947931136295 0 -5.6110947931136295 208.41970965630844 0 0 0 0 -7.9688588578924282 43.214227843937124 0 43.214227843937124 265.77551812655497 0 0 0 0 -31.105335089587243 -115.97142978985403 0 -115.97142978985403 338.72617457373872 0 0 0 0 132.78465144960319 -131.43737278459548 0 -131.43737278459548 134.11466469928382 0 0 0 0 -3.6513018883370023 -236.99750960412848 0 -236.99750960412848 571.19518442628032 0 0 0 0 -110.26887121087657 169.81830889221669 0 169.81830889221669 109.3480526429139 0 0 0 0 -0.4132263659672325 -0.37237844582265112 0 -0.37237844582265112 5.9944587999634331 0 0 0 0 -39.759480273606187 -432.59183872037397 0 -432.59183872037397 266.223125669627 0 0 0 0 -144.23165293268039 -263.93139589473475 0 -263.93139589473475 507.75646139754372 0 0 0 0 -268.90146553277964 86.453129247015795 0 86.453129247015795 383.12589449738562 0 0 0 0 -53.369795809541756 -40.797256274702249 0 -40.797256274702249 -31.101490269619262 0 0 0 0 -61.931697383650771 44.204639581621223 0 44.204639581621223 13.276102771969363 0 0 0 0 -562.63609227877669 52.451789380559759 0 52.451789380559759 375.38790580594758 0 0 0 0 -0.78701231605478639 0.29105336524431635 0 0.29105336524431635 11.686083654142021 0 0 0 0 -345.5562130601038 1.5902115788896936 0 1.5902115788896936 104.23868702444884 0 0 0 0 98.049702989174875 129.2049158332081 0 129.2049158332081 584.37911753778712 0 0 0 0 97.089657485486626 47.246632829913786 0 47.246632829913786 -97.110020432726742 0 0 0 0 174.95070064594529 -125.68471244542062 0 -125.68471244542062 350.45753120505913 0 0 0 0 178.25395124855504 -211.87854277121787 0 -211.87854277121787 -207.05610664597063 0 0 0 0 1.8869025155560379 2.1338116958702988 0 2.1338116958702988 4.0987248114303787 0 0 0 0 482.01206968639849 -497.29170764166201 0 -497.29170764166201 496.52450994175013 0 0 0 0 87.530414756128721 58.863064044065425 0 58.863064044065425 -42.799239324640439 0 0 0 0 115.29410042871314 134.9096346555915 0 134.9096346555915 106.1417099973105 0 0 0 0 467.0373716033846 211.27767952715254 0 211.27767952715254 479.98093352599699 0 0 0 0 244.38005627925895 212.01269584839605 0 212.01269584839605 607.18573559631159 0 0 0 0 519.73345248335318 65.79875957509519 0 65.79875957509519 421.07205985673374 0 0 0 0 199.80788772192545 -100.24957304849232 0 -100.24957304849232 610.09184122218517 0 0 0 0 -37.625338202378316 -16.487216775317435 0 -16.487216775317435 626.64872888222953 0 0 0 0 -69.478669868747147 48.372317843874043 0 48.372317843874043 546.29748702170082 0 0 0 0 -32.888553512287217 -30.834462939520563 0 -30.834462939520563 467.00948743742742 0 0 0 0 -38.346279480779657 147.85542139249503 0 147.85542139249503 408.99315050576979 0 0 0 0 73.649057090234237 218.41812783026512 0 218.41812783026512 342.35392649956293 0 0 0 0 -29.93828263156729 72.962772806853536 0 72.962772806853536 654.8761668156717 0 0 0 0 67.844197731142941 78.18919822198211 0 78.18919822198211 393.77674336964719 0 0 0 0 98.822495154379567 0.24139818261460277 0 0.24139818261460277 421.11553501159233 0 0 0 0 88.788491879277444 27.365418152281109 0 27.365418152281109 444.81633475154013 0 0 0 0 49.690598127104181 -37.086239327686826 0 -37.086239327686826 507.83710948807675 0 0 0 0 -14.124656797722764 21.386198288239711 0 21.386198288239711 454.66524799202261 0 0 0 0 34.372266615549734 11.587345501239497 0 11.587345501239497 434.25898897244042 0 0 0 0 52.815861547244594 53.28401409777257 0 53.28401409777257 368.87934471824883 0 0 0 0 -58.514744301217888 37.322158661282629 0 37.322158661282629 459.55398565445807 0 0 0 0 -23.115978970945434 8.8709758332150841 0 8.8709758332150841 477.66713402752339 0 0 0 0 25.480570736795471 53.778390840892826 0 53.778390840892826 379.35891484634203 0 0 0 0 -4.3941810944791087 56.418121419956606 0 56.418121419956606 382.55561063056211 0 0 0 0 24.446737974460273 78.145475531592638 0 78.145475531592638 339.08751252947877 0 0 0 0 46.189780573696567 47.373313833048996 0 47.373313833048996 364.08286636119146 0 0 0 0 -0.3244265126731154 -0.32331753111806272 0 -0.32331753111806272 0.14805731129522903 0 0 0 0 -0.33290849456022897 111.60648628761487 0 111.60648628761487 363.91513558156112 0 0 0 0 -7.9240988081492105 85.654206238398956 0 85.654206238398956 420.14696585452157 0 0 0 0 -9.004919118746102 26.185341852330794 0 26.185341852330794 305.98133060378314 0 0 0 0 -23.33241262215779 62.156531193658338 0 62.156531193658338 385.39468609263281 0 0 0 0 -42.463542850145132 49.417742022382527 0 49.417742022382527 72.43782081223253 0 0 0 0 -0.55390576063939534 98.340691691996199 0 98.340691691996199 -82.593600505571203 0 0 0 0 77.346814860291488 8.1977257230303167 0 8.1977257230303167 7.2946118543695775 0 0 0 0 0.36899643467859278 -24.233654399560237 0 -24.233654399560237 137.40312137066758 0 0 0 0 30.159177548123807 96.112298574442775 0 96.112298574442775 177.2611160652641 0 0 0 0 -1.7454579922469486 0.34203127418235546 0 0.34203127418235546 0.097213043498021623 0 0 0 0 -17.104613699174877 4.2718028184594345 0 4.2718028184594345 25.526892850443801 0 0 0 0 -51.214277985399804 24.196734782853582 0 24.196734782853582 22.560167688448132 0 0 0 0 -45.632529971348049 -233.3665305697686 0 -233.3665305697686 -121.18819395009803 0 0 0 0 -24.410291439249477 -19.638082053348626 0 -19.638082053348626 20.882259266515121 0 0 0 0 -3.6353898813580727 -1.3715659457716356 0 -1.3715659457716356 2.0151439880141937 0 0 0 0 5.3396820135074536 -10.63174623678248 0 -10.63174623678248 12.718155119522038 0 0 0 0 94.273655976759983 -183.87238650405948 0 -183.87238650405948 -151.59235746457307 0 0 0 0 -116.68310922763089 -54.694813819987303 0 -54.694813819987303 8.1889694941518201 0 0 0 0 -103.12555424312359 -143.25192808566555 0 -143.25192808566555 270.42836874188242 0 0 0 0 3.6243720286830854 -8.0206439532813096 0 -8.0206439532813096 13.054992622952501 0 0 0 0 -94.224139101069824 92.288775590476462 0 92.288775590476462 489.08585221126896 0 0 0 0 57.968172200460685 26.259579727956805 0 26.259579727956805 17.322414328132027 0 0 0 0 -7.4315257877719887 10.267425773948844 0 10.267425773948844 67.389417162330574 0 0 0 0 -24.138922813784802 -8.1845419494443377 0 -8.1845419494443377 57.021853850171055 0 0 0 0 10.851658391020237 -20.053415354510889 0 -20.053415354510889 -64.535495004410222 0 0 0 0 -100.86994807787156 32.474220843608634 0 32.474220843608634 50.336056134256069 0 0 0 0 56.756701690479588 -121.75081474975559 0 -121.75081474975559 138.18551950636629 0 0 0 0 -30.350667762660649 -308.73084091936323 0 -308.73084091936323 554.68018148182728 0 0 0 0 -15.046842268716318 -282.78239109534979 0 -282.78239109534979 45.4725220627422 0 0 0 0 0.59767920440601152 -3.0735492626734673 0 -3.0735492626734673 6.4421709016898543 0 0 0 0 -18.352842065322193 258.41358897902046 0 258.41358897902046 1049.9144533430267 0 0 0 0 -0.82247248697897124 0.94553980473166099 0 0.94553980473166099 0.42057061561315923 0 0 0 0 121.25991671294344 -156.91238338026326 0 -156.91238338026326 748.10121672120204 0 0 0 0 -41.570515340365773 168.87734865939092 0 168.87734865939092 837.41754565428846 0 0 0 0 199.19435813048054 382.47031062262971 0 382.47031062262971 628.35641807047614 0 0 0 0 -50.134243314080777 21.193739609604336 0 21.193739609604336 568.32255138203402 0 0 0 0 27.153054885334768 283.85746428359266 0 283.85746428359266 782.54893836895735 0 0 0 0 -10.648266120865628 248.47717130752994 0 248.47717130752994 551.82258676422498 0 0 0 0 -0.2821255449553064 8.2595761873940319 0 8.2595761873940319 21.629867815850957 0 0 0 0 -3.9195794143729206 3.5287235606907315 0 3.5287235606907315 -0.43626123714175291 0 0 0 0 -102.4582568568394 162.50301006532277 0 162.50301006532277 947.06990899899301 0 0 0 0 66.552265959804572 282.58183456037887 0 282.58183456037887 744.96576434177155 0 0 0 0 -12.578157623172046 8.9450198347421974 0 8.9450198347421974 23.165420462607472 0 0 0 0 -4.4814916444297523 7.3876030253736644 0 7.3876030253736644 19.10099387360242 0 0 0 0 -6.386732599395792 5.9177304513274542 0 5.9177304513274542 0.7415976626389682 0 0 0 0 -18.029897007630098 13.251634488726268 0 13.251634488726268 22.06030684110101 0 0 0 0 -1.5140994842275131 0.5458486889598646 0 0.5458486889598646 20.102538860980452 0 0 0 0 42.50780935553712 61.953962470205852 0 61.953962470205852 68.460021800231971 0 0 0 0 81.561715644340438 6.8521272671873703 0 6.8521272671873703 -27.414284434500928 0 0 0 0 42.112613960274757 51.875957160121288 0 51.875957160121288 68.530051905703203 0 0 0 0 111.24500261653884 97.462806374357115 0 97.462806374357115 73.664632184117181 0 0 0 0 290.85186605685885 -156.92531921981208 0 -156.92531921981208 -48.44321745170646 0 0 0 0 35.511155649786815 64.937089326454497 0 64.937089326454497 232.30804215257308 0 0 0 0 130.66807454574496 -22.51438385338497 0 -22.51438385338497 77.331923623696184 0 0 0 0 63.514305907972812 20.067005908814963 0 20.067005908814963 610.27285916785968 0 0 0 0 123.01656998945691 -10.698774515112973 0 -10.698774515112973 271.69883139555941 0 0 0 0 24.639239141521102 4.7956063177027772 0 4.7956063177027772 626.02856242486541 0 0 0 0 48.509563498646457 84.621109187837419 0 84.621109187837419 834.28147312625367 0 0 0 0 75.015230247488944 -39.477732593924429 0 -39.477732593924429 260.78220603500995 0 0 0 0 -1.3380643221607897 -205.97638945174231 0 -205.97638945174231 882.99461741554114 0 0 0 0 -11.466064917407493 -350.76054858247289 0 -350.76054858247289 655.02387642580834 0 0 0 0 135.5821775357399 -501.22522817641311 0 -501.22522817641311 253.87986100521402 0 0 0 0 -0.059385545889577784 4.0107139754475796 0 4.0107139754475796 0.77751590648611213 0 0 0 0 -136.47931722116118 93.006321465904421 0 93.006321465904421 1772.1047950567263 0 0 0 0 69.943866382063788 219.05849278553546 0 219.05849278553546 911.53835947552375 0 0 0 0 405.5351669312513 416.75984699418996 0 416.75984699418996 1022.7792473591667 0 0 0 0 19.940679219647791 267.10906977384411 0 267.10906977384411 1017.0886029008415 0 0 0 0 -3.1716033742468426 166.80165848917306 0 166.80165848917306 853.60026043029802 0 0 0 0 253.49427308146551 543.18279283424226 0 543.18279283424226 913.7150873493938 0 0 0 0 70.761110866978925 32.153754514830325 0 32.153754514830325 1098.6638895936478 0 0 0 0 389.72776664824482 98.124762035094491 0 98.124762035094491 810.46612289301902 0 0 0 0 194.30111994131767 55.536296310163493 0 55.536296310163493 564.23148156710658 0 0 0 0 -1.023132259168051 1.6953031967356083 0 1.6953031967356083 572.41650936909321 0 0 0 0 159.51126903413206 -141.81678538169473 0 -141.81678538169473 174.72251519393774 0 0 0 0 132.65659919861173 -22.445838524219425 0 -22.445838524219425 791.75256192038341 0 0 0 0 57.833675092934755 236.22185054567444 0 236.22185054567444 1041.9213864806538 0 0 0 0 226.21915667687426 -264.31772031984787 0 -264.31772031984787 787.38101534644579 0 0 0 0 196.32229710751562 82.890533713786624 0 82.890533713786624 315.71485642573941 0 0 0 0 122.29263670130376 -161.10909916885421 0 -161.10909916885421 112.84643943078277 0 0 0 0 141.54994030833768 23.640764661343269 0 23.640764661343269 -144.24902382584634 0 0 0 0 133.75283739603219 -139.4191692216616 0 -139.4191692216616 -86.747867009300194 0 0 0 0 85.023759003474595 -26.824151343908532 0 -26.824151343908532 93.820078325108625 0 0 0 0 112.26152942328963 -82.083612242258027 0 -82.083612242258027 6.3687857589816304 0 0 0 0 249.88450254758664 71.177860673444457 0 71.177860673444457 165.44622434334224 0 0 0 0 -149.07618393051894 305.05776995214546 0 305.05776995214546 -200.81673482430119 0 0 0 0 340.77018615011502 182.96914445075669 0 182.96914445075669 -338.22293950951496 0 0 0 0 -53.647889664490322 -86.781833948655276 0 -86.781833948655276 160.14973894343257 0 0 0 0 -370.05314188775492 173.69940757569407 0 173.69940757569407 1041.3162251903675 0 0 0 0 -101.05412370187332 -314.25645061325497 0 -314.25645061325497 202.74677039680299 0 0 0 0 523.10428280943825 359.65718116545332 0 359.65718116545332 676.58845673439396 0 0 0 0 -347.45186260087576 205.69366193496717 0 205.69366193496717 1426.827144113111 0 0 0 0 2.4948240806823065 3.6838629861605998 0 3.6838629861605998 4.9688897631720357 0 0 0 0 386.29138989003604 235.71523356711202 0 235.71523356711202 129.46321456740361 0 0 0 0 -198.53822656364628 274.1800066520928 0 274.1800066520928 1096.7652425627261 0 0 0 0 453.67509493157058 -235.13872271008097 0 -235.13872271008097 25.757006444394392 0 0 0 0 -91.591681046175836 90.246501236181075 0 90.246501236181075 1136.6292185222526 0 0 0 0 3.8061022930824713 3.6374622783475896 0 3.6374622783475896 4.4498269829693378 0 0 0 0 534.43272686170531 564.10297653431644 0 564.10297653431644 1019.0069180074934 0 0 0 0 -211.95199158590185 7.2363472205722701 0 7.2363472205722701 1367.4071839555818 0 0 0 0 30.082816816284321 -16.712910238763925 0 -16.712910238763925 393.22275508289067 0 0 0 0 105.47990635664974 161.93943381503033 0 161.93943381503033 630.46935931639155 0 0 0 0 57.62885196602474 -70.247333299006868 0 -70.247333299006868 365.75468468464987 0 0 0 0 0.2389518896987135 -0.87846477465006245 0 -0.87846477465006245 4.9729676590187806 0 0 0 0 -52.715118781843557 91.394394078020014 0 91.394394078020014 69.945892001959692 0 0 0 0 760.51543508761233 -843.65728292334143 0 -843.65728292334143 -796.02796683429392 0 0 0 0 -194.9557635402748 73.588520936561537 0 73.588520936561537 387.9727989549242 0 0 0 0 -24.072865989222919 3.7747284981696794 0 3.7747284981696794 323.46210315401436 0 0 0 0 26.743422759389432 1.3382372912419669 0 1.3382372912419669 -87.545399681256555 0 0 0 0 6.0559371154632196 6.7385179049015234 0 6.7385179049015234 6.3172598035579863 0 0 0 0 75.354669774165814 190.0293556813042 0 190.0293556813042 -32.284722117838101 0 0 0 0 280.53456383221328 169.38540954142636 0 169.38540954142636 26.328454737957998 0 0 0 0 -41.729287123178665 -89.20544630683051 0 -89.20544630683051 287.75515870425488 0 0 0 0 24.237878535972413 -142.55160114875093 0 -142.55160114875093 297.41600706889619 0 0 0 0 22.901204171619611 -221.47609819822651 0 -221.47609819822651 882.20452896810002 0 0 0 0 -39.453487116942597 -111.95189324534704 0 -111.95189324534704 461.8478477682487 0 0 0 0 -76.854902456935633 57.795304598816756 0 57.795304598816756 417.33774472024152 0 0 0 0 60.528654353927777 -55.650117726463122 0 -55.650117726463122 -3.873667572433078 0 0 0 0 -25.613318520729536 -43.801777216292976 0 -43.801777216292976 34.400576308894415 0 0 0 0 265.21025211842425 -182.2191130147371 0 -182.2191130147371 15.593860476915125 0 0 0 0 0.84868737826959073 -1.5660114507716845 0 -1.5660114507716845 2.9132665910890534 0 0 0 0 -63.900946060916795 -118.15404316571403 0 -118.15404316571403 126.95286486551322 0 0 0 0 73.233104715654918 -264.25317540336414 0 -264.25317540336414 282.520160518387 0 0 0 0 -171.372452576657 1.1762301981275414 0 1.1762301981275414 426.47003798003675 0 0 0 0 151.11186776001045 -133.97694186258806 0 -133.97694186258806 268.85082121281903 0 0 0 0 142.98835632399414 127.84463183298692 0 127.84463183298692 74.724344169700544 0 0 0 0 -186.61131653597749 -5.8882497941705765 0 -5.8882497941705765 51.321214493655134 0 0 0 0 38.060060581484777 381.66094982255208 0 381.66094982255208 -324.38505388497629 0 0 0 0 24.223132666868878 261.64538008771569 0 261.64538008771569 243.0491712802409 0 0 0 0 132.18610331105992 164.77814949122296 0 164.77814949122296 254.11306345358616 0 0 0 0 122.1021491786687 210.50215037916689 0 210.50215037916689 70.766537707320367 0 0 0 0 132.40532313976473 189.78194588372526 0 189.78194588372526 341.12285463970261 0 0 0 0 87.344122303954009 166.0832889723082 0 166.0832889723082 330.38933295592869 0 0 0 0 168.65192161970754 388.85502653299261 0 388.85502653299261 900.7360976259215 0 0 0 0 -43.628972853402956 0.73287746400524156 0 0.73287746400524156 634.08092468098175 0 0 0 0 -2.7249630145907986 -62.83023259113952 0 -62.83023259113952 45.56533815612147 0 0 0 0 31.97055370021917 -13.761127308758205 0 -13.761127308758205 31.549371377283023 0 0 0 0 3.8966620011436257 -20.927774581578916 0 -20.927774581578916 58.638549267711966 0 0 0 0 90.450043053415357 -34.35727496779964 0 -34.35727496779964 50.501554368649522 0 0 0 0 16.2141836081843 -53.482899315469098 0 -53.482899315469098 104.86037207918707 0 0 0 0 -9.6628619865670977 -10.345398380603555 0 -10.345398380603555 31.773785136142223 0 0 0 0 -3.5164387972764439 -4.8380474469253212 0 -4.8380474469253212 19.40022013510243 0 0 0 0 -64.51266076076331 4.8118765374297254 0 4.8118765374297254 70.790414048837647 0 0 0 0 -138.96096185055512 105.19395401432507 0 105.19395401432507 -21.82297691224835 0 0 0 0 -3.2314208453344442 4.0767878739240331 0 4.0767878739240331 6.5533305650936029 0 0 0 0 -67.302772125491799 -10.342809907398816 0 -10.342809907398816 96.681221966501653 0 0 0 0 -77.411181374357511 -16.806449585003975 0 -16.806449585003975 92.756958487979091 0 0 0 0 -84.233254110814073 -54.13290220188739 0 -54.13290220188739 138.79827446270428 0 0 0 0 -27.698737774184792 -52.215981463349863 0 -52.215981463349863 96.057054471662923 0 0 0 0 -98.263616452285987 7.176086148065167 0 7.176086148065167 -11.380163376995824 0 0 0 0 -173.01532248908006 2.7746438263995969 0 2.7746438263995969 152.38522010121471 0 0 0 0 -253.50836113537611 334.49803915296332 0 334.49803915296332 -86.086060409516904 0 0 0 0 -1.2074220054374845 3.9357691942705788 0 3.9357691942705788 7.7453598020714205 0 0 0 0 24.223997575423709 -87.660281715668589 0 -87.660281715668589 267.74569525082325 0 0 0 0 -26.426536028901864 -52.674921693604574 0 -52.674921693604574 375.56965902865932 0 0 0 0 23.827096900023662 -82.465245899409183 0 -82.465245899409183 199.89840984005832 0 0 0 0 39.051282126745718 -17.037801264570135 0 -17.037801264570135 104.19129882228117 0 0 0 0 28.775616312436455 -44.290694919983366 0 -44.290694919983366 143.48357804202624 0 0 0 0 -14.987586182358427 21.72158446275489 0 21.72158446275489 179.84269347876966 0 0 0 0 78.629827486579416 93.35499125363026 0 93.35499125363026 29.779622046605255 0 0 0 0 -22.039498537315467 41.294054021605007 0 41.294054021605007 391.48485796588648 0 0 0 0 -69.701290848845019 -88.1145252886663 0 -88.1145252886663 56.95544980745035 0 0 0 0 88.569892607301426 14.918805981354126 0 14.918805981354126 405.81030256018448 0 0 0 0 38.471737043312487 -177.58540105858856 0 -177.58540105858856 538.11468811398117 0 0 0 0 223.74993104628265 -97.178183196796454 0 -97.178183196796454 130.71087321230311 0 0 0 0 -56.451473629740349 35.311869856890212 0 35.311869856890212 391.79521133295384 0 0 0 0 -69.306630154813092 -74.950065794192597 0 -74.950065794192597 371.17306313434483 0 0 0 0 -36.748355843154059 -55.420842963015275 0 -55.420842963015275 342.59956443248825 0 0 0 0 -48.178390220200299 -124.90265973163912 0 -124.90265973163912 222.96393736500522 0 0 0 0 -95.14331558917911 -77.746387669148589 0 -77.746387669148589 359.37492696989784 0 0 0 0 36.828892022975197 36.282431100851682 0 36.282431100851682 292.25987209846949 0 0 0 0 -16.252228983832083 -58.32202105900069 0 -58.32202105900069 318.35993188919474 0 0 0 0 96.485186413709926 -197.16328429647137 0 -197.16328429647137 357.79716261199201 0 0 0 0 11.292958819646628 15.616530848711591 0 15.616530848711591 496.17058598522999 0 0 0 0 -15.740978125470747 -59.175528568066397 0 -59.175528568066397 315.36169587726272 0 0 0 0 97.263059702652413 32.287403696538433 0 32.287403696538433 186.12048300433344 0 0 0 0 98.436129573124163 106.40292841332194 0 106.40292841332194 169.63243943408725 0 0 0 0 95.970519181625605 124.02746320708206 0 124.02746320708206 36.962984667758519 0 0 0 0 83.104097794482641 107.1132965481163 0 107.1132965481163 195.89923605982631 0 0 0 0 31.313049906212655 8.6834722721441722 0 8.6834722721441722 167.89452803564848 0 0 0 0 -46.89174106936305 -201.04257441127055 0 -201.04257441127055 -301.26549924080427 0 0 0 0 -51.644436228886207 -48.221461571336476 0 -48.221461571336476 129.29582615335585 0 0 0 0 -14.826048525440001 34.482397564973326 0 34.482397564973326 66.165434895023736 0 0 0 0 33.971582930014392 81.45338196513103 0 81.45338196513103 -53.363928525265692 0 0 0 0 -62.875031941329325 -221.718617793367 0 -221.718617793367 -299.55680695033175 0 0 0 0 81.312712407064282 62.353136229840857 0 62.353136229840857 131.3742480899873 0 0 0 0 -1.2691664534818088 -0.21441246757335897 0 -0.21441246757335897 0.74779963256722226 0 0 0 0 37.766149509930074 161.56216948034648 0 161.56216948034648 251.11670355363742 0 0 0 0 57.161125114697199 150.4065745761834 0 150.4065745761834 251.72715345165852 0 0 0 0 52.622237572142126 125.38911535154244 0 125.38911535154244 475.90014390948363 0 0 0 0 0.14269909588670338 1.815665218523044 0 1.815665218523044 3.158132925648748 0 0 0 0 82.331621315411212 -255.37776845457256 0 -255.37776845457256 760.5969675462652 0 0 0 0 120.11900791003563 39.606446945959988 0 39.606446945959988 301.46844974381338 0 0 0 0 117.39360416601176 137.99387385044383 0 137.99387385044383 721.54064690334849 0 0 0 0 254.26587680523198 89.211417926826925 0 89.211417926826925 241.8643724290514 0 0 0 0 195.96160644963902 35.054552609350367 0 35.054552609350367 178.55276832932077 0 0 0 0 114.3853493190245 38.859931029745439 0 38.859931029745439 281.24752504461662 0 0 0 0 171.80454195808488 98.653577190281794 0 98.653577190281794 208.67624185238765 0 0 0 0 99.468782042302564 51.180577077760688 0 51.180577077760688 308.95799715280964 0 0 0 0 136.31568518914673 62.920421228348914 0 62.920421228348914 186.51150541806965 0 0 0 0 112.91652277318076 67.047495539591296 0 67.047495539591296 191.81905459129666 0 0 0 0 108.45493459989211 38.718822901299291 0 38.718822901299291 188.32640195723343 0 0 0 0 137.53400663387765 -4.0788594831929004 0 -4.0788594831929004 115.8931381008822 0 0 0 0 112.80126064351066 64.575459372635123 0 64.575459372635123 191.28063767589401 0 0 0 0 75.938262860278428 -4.2544422675148326 0 -4.2544422675148326 160.64775035860839 0 0 0 0 13.669429779812162 75.72697937065243 0 75.72697937065243 65.163063128334215 0 0 0 0 -2.1677393329064216 -92.214121861887179 0 -92.214121861887179 101.67032502803414 0 0 0 0 61.678732738980557 -39.165903072962266 0 -39.165903072962266 142.55727711144618 0 0 0 0 -77.598853334331125 -74.153758850091208 0 -74.153758850091208 217.40984065140606 0 0 0 0 39.41661294107405 16.267922219493585 0 16.267922219493585 284.41396754022799 0 0 0 0 46.887785588165571 -42.046130398178548 0 -42.046130398178548 207.49103139776798 0 0 0 0 60.166612803318515 -35.002667302565413 0 -35.002667302565413 169.89350598418878 0 0 0 0 56.231571775158955 42.315639104971524 0 42.315639104971524 181.48853229338056 0 0 0 0 58.608008959446579 20.079265303532111 0 20.079265303532111 218.697840051394 0 0 0 0 25.236565067259107 5.7636124911027764 0 5.7636124911027764 221.17425899982345 0 0 0 0 62.556762851713302 -26.448663722420406 0 -26.448663722420406 180.42708535204997 0 0 0 0 46.581779049900433 -14.947932552094358 0 -14.947932552094358 219.21713508697758 0 0 0 0 23.718985150994286 -51.814664409651527 0 -51.814664409651527 159.82853811731275 0 0 0 0 -27.562022063001223 -23.236076683693227 0 -23.236076683693227 221.74480513355775 0 0 0 0 -52.863591056095174 -47.18283552946923 0 -47.18283552946923 881.23799520182956 0 0 0 0 70.420102929346285 55.435164197431277 0 55.435164197431277 76.027702183580686 0 0 0 0 1.0881145976230169 1.4735783022368381 0 1.4735783022368381 1.5102877152921019 0 0 0 0 61.591006239477792 90.619435006177355 0 90.619435006177355 299.63879566423748 0 0 0 0 59.398859354871092 -30.119517567460662 0 -30.119517567460662 631.9668331913972 0 0 0 0 -9.3243233404245984 -97.36315998327882 0 -97.36315998327882 533.96121199796539 0 0 0 0 129.36038911852893 59.147487481750659 0 59.147487481750659 158.29644876299972 0 0 0 0 1.8134419619056175 -0.98202984662895521 0 -0.98202984662895521 0.96807338172390978 0 0 0 0 192.49463794482972 -44.650771025866334 0 -44.650771025866334 280.35954324999057 0 0 0 0 -4.7729215511726579 138.15901946063468 0 138.15901946063468 220.88329747296768 0 0 0 0 70.713293421017624 62.945988628694295 0 62.945988628694295 247.33637048571086 0 0 0 0 133.93750061887658 -34.608681449905362 0 -34.608681449905362 210.91508633657054 0 0 0 0 121.73577150584788 66.103708961042685 0 66.103708961042685 222.62497129101689 0 0 0 0 405.46723763884404 442.51506720852109 0 442.51506720852109 686.17439263603228 0 0 0 0 298.25877323158966 185.44062697845675 0 185.44062697845675 265.80676883954493 0 0 0 0 -3.110545503240246 39.999260721223663 0 39.999260721223663 224.06862793484697 0 0 0 0 153.19938943653369 205.41016234739743 0 205.41016234739743 138.25431420333507 0 0 0 0 10.331902106028792 122.16291884790735 0 122.16291884790735 364.31298608533416 0 0 0 0 41.046391030333325 -52.877336093206395 0 -52.877336093206395 456.26923760060629 0 0 0 0 26.20522586942343 172.21144176195912 0 172.21144176195912 417.52122336539833 0 0 0 0 11.006264763801482 183.68672040791353 0 183.68672040791353 764.13957628740172 0 0 0 0 42.88543259513699 -83.182845059160172 0 -83.182845059160172 650.20301807833835 0 0 0 0 14.266799236641759 134.43493302833457 0 134.43493302833457 262.99215543081209 0 0 0 0 65.390995584481061 110.73640289631066 0 110.73640289631066 195.15984693608266 0 0 0 0 77.808762879589722 81.072682655315475 0 81.072682655315475 248.6599482199972 0 0 0 0 -0.45710018426143506 36.706952129560705 0 36.706952129560705 237.43844323414316 0 0 0 0 9.3677605506709369 73.000938031909754 0 73.000938031909754 340.88547985620153 0 0 0 0 5.6799255507585258 -29.517168423869862 0 -29.517168423869862 274.43207585482037 0 0 0 0 13.31254840460565 10.451056304541453 0 10.451056304541453 199.96197911919262 0 0 0 0 19.610275142375485 -106.07178822215462 0 -106.07178822215462 332.60413230369204 0 0 0 0 3.8335010896986486 4.1102069779294093 0 4.1102069779294093 2.9041566361367224 0 0 0 0 -22.701112532855859 -72.527477066234496 0 -72.527477066234496 587.27586375465307 0 0 0 0 -40.481746666078834 -69.795693816627136 0 -69.795693816627136 474.25426591672658 0 0 0 0 7.8861088209802421 5.6930072067093089 0 5.6930072067093089 3.3886563918664168 0 0 0 0 5.8064093463053723 -1.7035947303589865 0 -1.7035947303589865 394.93073523774137 0 0 0 0 -161.56138397651193 133.7083927481126 0 133.7083927481126 359.87739696916105 0 0 0 0 -872.79714721253936 -434.12468088255991 0 -434.12468088255991 1204.2869204464077 0 0 0 0 -14.705408619041464 -135.3692039732498 0 -135.3692039732498 236.57997606837307 0 0 0 0 508.48514750951836 -698.22846892399411 0 -698.22846892399411 651.36337004666166 0 0 0 0 171.58544855869923 326.2022518825629 0 326.2022518825629 473.35404730904793 0 0 0 0 2.6285751412361726 4.0094504129183797 0 4.0094504129183797 8.5311870401305718 0 0 0 0 334.25074148083826 230.33422710689274 0 230.33422710689274 110.10168813430028 0 0 0 0 -15.024222914764323 45.485403277039495 0 45.485403277039495 1129.2338949417867 0 0 0 0 1356.7610475111237 2.4695858094346477 0 2.4695858094346477 -171.14699961784027 0 0 0 0 5.7709893611411189 2.0483085949539035 0 2.0483085949539035 1.4859542818804696 0 0 0 0 25.105066052543179 -6.4432435910694039 0 -6.4432435910694039 12.753790600916545 0 0 0 0 138.22385318085773 -24.904227366484889 0 -24.904227366484889 -10.342481406056322 0 0 0 0 -28.808457933216005 36.319426668155756 0 36.319426668155756 31.929415559316112 0 0 0 0 -36.464848628572099 -46.522451502374679 0 -46.522451502374679 258.23979982644869 0 0 0 0 2.6806216243223426 7.9210748971773999 0 7.9210748971773999 28.304650131789096 0 0 0 0 5.8745708363097293 30.358692083946888 0 30.358692083946888 28.760534548288668 0 0 0 0 -76.707685184836464 84.541594586714155 0 84.541594586714155 102.08646298043595 0 0 0 0 -23.169134201583347 90.524133605866155 0 90.524133605866155 87.698291679872455 0 0 0 0 17.734603387200195 -57.813311677869137 0 -57.813311677869137 93.949198559076194 0 0 0 0 -24.630654499995217 -10.56170302203509 0 -10.56170302203509 354.4576150728592 0 0 0 0 45.151297253322355 14.863065931650681 0 14.863065931650681 161.2755193811081 0 0 0 0 44.820194431596974 41.293513216883639 0 41.293513216883639 70.265865980689341 0 0 0 0 21.213150915672486 30.690843226479501 0 30.690843226479501 176.05870159004053 0 0 0 0 41.656281804387731 86.051459668638046 0 86.051459668638046 87.466631239402886 0 0 0 0 36.681280120498741 66.937997697396668 0 66.937997697396668 38.387249788931513 0 0 0 0 255.54018907683349 206.33658881499468 0 206.33658881499468 47.33248311055695 0 0 0 0 7.4859407713934631 58.654387280217982 0 58.654387280217982 21.889872692358736 0 0 0 0 1.2208883759140008 84.819084218791886 0 84.819084218791886 87.65784826918798 0 0 0 0 939.46703477661242 990.86715683611237 0 990.86715683611237 915.93063403458291 0 0 0 0 2.7480764227165553 17.824885364562682 0 17.824885364562682 3.2707031288374537 0 0 0 0 -28.520961668604741 42.685177323819516 0 42.685177323819516 77.223562061177063 0 0 0 0 -113.41036498805622 -649.29654839539216 0 -649.29654839539216 3496.1183882102014 0 0 0 0 896.1126390546907 -1330.0936387789488 0 -1330.0936387789488 2163.8583686200946 0 0 0 0 -3.5752707930020531 52.249698227238213 0 52.249698227238213 21.928538405999642 0 0 0 0 -5.1996136529207888 40.765706044889157 0 40.765706044889157 -42.502464390812747 0 0 0 0 16.136051756075073 -316.68157943283131 0 -316.68157943283131 3500.3887557294347 0 0 0 0 140.61594129560626 -20.34109194609573 0 -20.34109194609573 101.28642083886371 0 0 0 0 57.750384181491427 -110.79999428348219 0 -110.79999428348219 68.739514490776628 0 0 0 0 26.425436145742424 -96.640692241243414 0 -96.640692241243414 299.4740754354475 0 0 0 0 -48.862758967899254 -77.151606334281269 0 -77.151606334281269 416.13028042201586 0 0 0 0 33.629884255110483 30.600857521526905 0 30.600857521526905 249.90678474854121 0 0 0 0 86.959259914171753 -146.73625754496106 0 -146.73625754496106 431.96158953829854 0 0 0 0 180.79156910901838 3.4375433579941728 0 3.4375433579941728 444.58649948683615 0 0 0 0 78.859334220160235 -13.934765521169538 0 -13.934765521169538 633.53372535125698 0 0 0 0 79.50639927919201 -93.762675957408192 0 -93.762675957408192 384.03585708421224 0 0 0 0 124.23147474333314 29.216429254154946 0 29.216429254154946 386.44982970027741 0 0 0 0 137.4198413172644 -40.675576437574819 0 -40.675576437574819 468.28201791810989 0 0 0 0 102.43819275368833 97.776047756015259 0 97.776047756015259 555.94438954641737 0 0 0 0 71.17885778933578 81.925046936223225 0 81.925046936223225 257.88860045654519 0 0 0 0 70.32761385766571 -43.406410437223258 0 -43.406410437223258 404.72926632343933 0 0 0 0 50.188621789266563 -103.20578019582331 0 -103.20578019582331 583.47305865818271 0 0 0 0 63.364418522377946 -21.245029640907433 0 -21.245029640907433 335.11904164553016 0 0 0 0 25.07100803531614 -23.257427780622265 0 -23.257427780622265 354.38585791261812 0 0 0 0 66.589154618436623 34.217890545161936 0 34.217890545161936 223.610770951419 0 0 0 0 83.098659620577109 60.300527895733239 0 60.300527895733239 103.93279686014921 0 0 0 0 70.806781971342843 27.164532947163025 0 27.164532947163025 58.062318699970092 0 0 0 0 60.73576104013955 84.507765536172883 0 84.507765536172883 151.40735506163674 0 0 0 0 48.816614036489909 35.362433431277566 0 35.362433431277566 93.430846803385066 0 0 0 0 34.624663893204342 41.923677772718293 0 41.923677772718293 140.29397044086363 0 0 0 0 79.874385737554348 45.655648978022668 0 45.655648978022668 251.52676515189341 0 0 0 0 82.341307409417368 86.70768212160533 0 86.70768212160533 51.474774839544807 0 0 0 0 -127.62565116509722 74.809171421840801 0 74.809171421840801 173.83059274925927 0 0 0 0 -18.531813802826946 -12.106021781958589 0 -12.106021781958589 226.34891079512499 0 0 0 0 -622.92770143446023 389.4284158068358 0 389.4284158068358 3494.3713746492012 0 0 0 0 13.635480702409581 54.339773279812604 0 54.339773279812604 13.323713271607657 0 0 0 0 25.930266937599299 47.618830265982979 0 47.618830265982979 113.41004411521749 0 0 0 0 27.133784491667939 144.35688667933073 0 144.35688667933073 16.87436622811947 0 0 0 0 1.4853385157043011 -0.22611330044346012 0 -0.22611330044346012 0.1569988103603035 0 0 0 0 103.16677380317469 33.001460304448756 0 33.001460304448756 -28.848207510313046 0 0 0 0 -246.4031881860974 -77.287374206642198 0 -77.287374206642198 216.70213281315773 0 0 0 0 -16.49043809896375 46.28398873758124 0 46.28398873758124 92.487672795119352 0 0 0 0 25.31717031750668 -2.0788540221087715 0 -2.0788540221087715 58.069548060124049 0 0 0 0 -209.30497132595099 158.12062176684412 0 158.12062176684412 2708.7319590785337 0 0 0 0 -13.795767992752998 -219.44120065338711 0 -219.44120065338711 3437.6114884841518 0 0 0 0 12.704853562308921 45.984066365973469 0 45.984066365973469 13.659229038613391 0 0 0 0 16.219422408044011 31.052674618237688 0 31.052674618237688 128.03800293396353 0 0 0 0 2.8145314500361565 32.031223107469941 0 32.031223107469941 160.09601964868807 0 0 0 0 2.4659884719611291 -1.2169933279117551 0 -1.2169933279117551 0.66191277153597605 0 0 0 0 15.13166663806328 12.368771755943243 0 12.368771755943243 147.13804372987352 0 0 0 0 6.7630807633131553 40.165431139292878 0 40.165431139292878 144.48257691767071 0 0 0 0 12.591151893113908 36.235859388345148 0 36.235859388345148 11.427416373829658 0 0 0 0 28.607548723116452 49.263371620890211 0 49.263371620890211 99.10615832686841 0 0 0 0 52.822719260627323 -344.3324141420926 0 -344.3324141420926 3471.8094578332993 0 0 0 0 79.287380770577329 -66.286425485663131 0 -66.286425485663131 232.70189367995988 0 0 0 0 -50.926999573291141 62.12260682976148 0 62.12260682976148 224.46181284057548 0 0 0 0 4.3415775897868798 25.213231345111637 0 25.213231345111637 150.0294214034343 0 0 0 0 48.204265199541972 -362.19515226145268 0 -362.19515226145268 3498.8925929939478 0 0 0 0 160.87945963262155 -10.5282850418198 0 -10.5282850418198 55.877042463358464 0 0 0 0 11.310261952191725 26.13151112731029 0 26.13151112731029 9.2485312956812713 0 0 0 0 48.897053113684962 -349.88040633467472 0 -349.88040633467472 3492.9730589336687 0 0 0 0 -48.060879799432314 -11.18839281884209 0 -11.18839281884209 321.09901986337422 0 0 0 0 -139.1820320024608 -58.67125139053951 0 -58.67125139053951 593.61094587051787 0 0 0 0 193.52933252736443 -146.61052641200456 0 -146.61052641200456 350.29632791909876 0 0 0 0 24.675290062836211 57.324919893528318 0 57.324919893528318 551.69788421252747 0 0 0 0 142.05645718891265 -202.91463826457687 0 -202.91463826457687 180.03968353055598 0 0 0 0 -0.025264346281473671 -0.35123238366813414 0 -0.35123238366813414 4.2665866166927984 0 0 0 0 -30.137949727497471 167.98895243993385 0 167.98895243993385 392.56371798445826 0 0 0 0 -3.7271214096620042 33.934576812007165 0 33.934576812007165 61.293437177610087 0 0 0 0 1.0324628831568887 -0.83855814131891915 0 -0.83855814131891915 0.79190916599545114 0 0 0 0 -3.1570130459276697 20.21743555665762 0 20.21743555665762 146.82524481719088 0 0 0 0 -49.231333343178903 -101.30009676419263 0 -101.30009676419263 533.05261840245237 0 0 0 0 19.303072394810329 -179.78483074466718 0 -179.78483074466718 401.36331272113239 0 0 0 0 -15.130432144845599 -102.43310093320918 0 -102.43310093320918 602.6825663681924 0 0 0 0 -45.252975010403134 5.4425236842810136 0 5.4425236842810136 289.89670821936295 0 0 0 0 45.921053913669311 264.10421659089934 0 264.10421659089934 414.46199927677776 0 0 0 0 -33.24917480675731 105.49962025737216 0 105.49962025737216 266.15036299408985 0 0 0 0 237.17331419344919 196.8091554166333 0 196.8091554166333 90.690282879087249 0 0 0 0 144.022487735293 27.236257690010689 0 27.236257690010689 -3.9234303122275378 0 0 0 0 4.1694686356365871 -2.1647852144979787 0 -2.1647852144979787 0.99554251953100659 0 0 0 0 80.214479430799656 -104.70009777162443 0 -104.70009777162443 88.166568993095552 0 0 0 0 30.403656263849939 48.381677285324088 0 48.381677285324088 36.357993034545871 0 0 0 0 -63.774826321113096 -35.34548958097561 0 -35.34548958097561 12.768330045779408 0 0 0 0 0.86655908035883655 -2.1813929230954976 0 -2.1813929230954976 9.8821726762243145 0 0 0 0 53.22750809194622 19.248342314377169 0 19.248342314377169 64.3555648889552 0 0 0 0 -11.122300093621561 11.186334661557453 0 11.186334661557453 3.0647234397933971 0 0 0 0 -39.12678306062071 -24.578167270643121 0 -24.578167270643121 525.64354463732388 0 0 0 0 2.4241907950516843 -1.5835675701271521 0 -1.5835675701271521 3.1557689440814491 0 0 0 0 53.109260528490267 267.10702992718711 0 267.10702992718711 194.43744742614979 0 0 0 0 64.733638670238804 362.51940315997274 0 362.51940315997274 428.43783845377448 0 0 0 0 3.1297431700263587 11.574253274381974 0 11.574253274381974 -37.818769855146343 0 0 0 0 0.80530615487307866 0.050676253583742614 0 0.050676253583742614 4.6273085173406541 0 0 0 0 35.180562100144016 133.88932531305363 0 133.88932531305363 275.86267745642317 0 0 0 0 285.1749868665529 87.234309463037476 0 87.234309463037476 422.40634402124408 0 0 0 0 397.6408861881323 450.01822981676821 0 450.01822981676821 282.36714020099276 0 0 0 0 -0.20983390003306468 0.95104250042175931 0 0.95104250042175931 2.2677646248294998 0 0 0 0 -10.860550211095642 -114.80751152484473 0 -114.80751152484473 156.52790771835583 0 0 0 0 -0.19477214051114711 0.65077914896821731 0 0.65077914896821731 5.6921942364016678 0 0 0 0 -22.226995157978763 463.94346526337426 0 463.94346526337426 311.32476879718229 0 0 0 0 -134.75225150807955 -201.04907643605725 0 -201.04907643605725 190.06216657071093 0 0 0 0 -80.531577210274705 14.362769752519817 0 14.362769752519817 511.55917762708623 0 0 0 0 11.715968353552569 12.58677747781627 0 12.58677747781627 -29.227506430581499 0 0 0 0 11.083040472472987 -9.0798931278523014 0 -9.0798931278523014 -36.08247799482092 0 0 0 0 9.4370463991225506 19.539226195100525 0 19.539226195100525 -0.27908041359665958 0 0 0 0 7.5392933968320293 11.5017897134734 0 11.5017897134734 -14.461430584758773 0 0 0 0 3.5316241563054973 5.8844134524956644 0 5.8844134524956644 -14.848493930429186 0 0 0 0 9.4974246470019139 1.6111056187860413 0 1.6111056187860413 -23.200790048474119 0 0 0 0 -3.409792616366758 -5.0255903643292186 0 -5.0255903643292186 -21.877938658224252 0 0 0 0 2.6298625336059915 -0.83591230677021766 0 -0.83591230677021766 -0.42294002431882571 0 0 0 0 116.80559884429471 -75.508952984107168 0 -75.508952984107168 50.253792339199322 0 0 0 0 32.642875459763218 89.910150219952129 0 89.910150219952129 633.70958742402809 0 0 0 0 0.41542147775860405 -0.39625183931230312 0 -0.39625183931230312 0.23521901968764491 0 0 0 0 0.54011830116048754 -0.63669490651940408 0 -0.63669490651940408 0.56731817302370868 0 0 0 0 106.77458393209645 -90.784459608167026 0 -90.784459608167026 620.61559309905442 0 0 0 0 22.741879285565119 13.858630117385928 0 13.858630117385928 802.58621435185944 0 0 0 0 13.67252004226475 136.81269116334079 0 136.81269116334079 824.30228700514476 0 0 0 0 49.310758505446529 28.602491417341696 0 28.602491417341696 512.82334015309425 0 0 0 0 11.391371221039208 102.62949342632635 0 102.62949342632635 631.86304783931064 0 0 0 0 -3.6802868555651003 17.070313721921025 0 17.070313721921025 317.04061892510106 0 0 0 0 5.0569300777988246 34.261576947755771 0 34.261576947755771 362.28480556407635 0 0 0 0 3.2683367220907353 -3.915478508008011 0 -3.915478508008011 2.8662849287577856 0 0 0 0 40.939613927806022 249.46689334170605 0 249.46689334170605 331.87647090492521 0 0 0 0 -80.046001076872926 28.900396643033503 0 28.900396643033503 401.91816930361904 0 0 0 0 -49.045870477150402 12.316508370662689 0 12.316508370662689 483.91803899281433 0 0 0 0 -27.586443727737787 7.8804934371027855 0 7.8804934371027855 386.51248585267467 0 0 0 0 -41.056574045639536 35.112195331377698 0 35.112195331377698 371.12020690420752 0 0 0 0 -61.019798098800266 56.810389391178681 0 56.810389391178681 370.27989014039861 0 0 0 0 113.69544887464372 -83.922560194703934 0 -83.922560194703934 307.03019696965941 0 0 0 0 69.914947681158992 118.8761905863696 0 118.8761905863696 574.20788656837613 0 0 0 0 4.7149728882808919 -4.7543292337641248 0 -4.7543292337641248 5.0083111266741636 0 0 0 0 -6.9902483313467201 10.95834132262803 0 10.95834132262803 232.76234605366494 0 0 0 0 90.966406694818943 58.243197993192155 0 58.243197993192155 -15.035989706599139 0 0 0 0 30.803617431993416 -21.428800869811255 0 -21.428800869811255 -66.492622521960584 0 0 0 0 4.7774088313029122 -4.9203700344459698 0 -4.9203700344459698 3.0273289145268798 0 0 0 0 46.800303755762343 -80.299980561065013 0 -80.299980561065013 116.10622394873661 0 0 0 0 3.3332683906214697 -51.049044462608947 0 -51.049044462608947 -39.270715883240655 0 0 0 0 -9.6486433424283859 -35.260195626719565 0 -35.260195626719565 -35.885229084018192 0 0 0 0 -29.882681716564321 -79.929181481174695 0 -79.929181481174695 62.261610966674226 0 0 0 0 20.616587107729856 -53.320660773397378 0 -53.320660773397378 -30.502972827354164 0 0 0 0 -5.8712873366296208 -80.384179445314032 0 -80.384179445314032 138.64228066540258 0 0 0 0 -40.50367000431455 -79.966465129107178 0 -79.966465129107178 143.04390895752834 0 0 0 0 24.122548256124105 -116.72314944810921 0 -116.72314944810921 -89.40638143954618 0 0 0 0 13.426543027991727 2.9208869546733354 0 2.9208869546733354 -82.850235310574135 0 0 0 0 -3.9861499852880797 15.071576285736626 0 15.071576285736626 25.644176387807306 0 0 0 0 49.271285504961895 -160.10916308834703 0 -160.10916308834703 -288.01123207824799 0 0 0 0 -1.1040474365662214 0.35675306385671746 0 0.35675306385671746 -0.42397169833096177 0 0 0 0 136.24281167614532 -32.697340684917805 0 -32.697340684917805 -196.36207013121469 0 0 0 0 46.121097485813934 -369.86820259717933 0 -369.86820259717933 3499.7772951703491 0 0 0 0 44.948708139646897 -74.369122306208197 0 -74.369122306208197 141.63172584431067 0 0 0 0 -86.096998632800478 -129.82173028590421 0 -129.82173028590421 648.45146005090874 0 0 0 0 160.35636903448881 -233.0116759024684 0 -233.0116759024684 326.28109197676906 0 0 0 0 132.45763090355075 -46.850762890020327 0 -46.850762890020327 576.1314751819001 0 0 0 0 -67.024329833676575 -34.584853863131343 0 -34.584853863131343 374.38709999032488 0 0 0 0 -43.136744848278113 -60.227659331056117 0 -60.227659331056117 143.89230774738076 0 0 0 0 -36.405441799786558 -160.15011549972021 0 -160.15011549972021 379.88904740283959 0 0 0 0 -98.733293608768804 -69.176318080552392 0 -69.176318080552392 400.529820431747 0 0 0 0 -125.84863616013007 -81.244880195832366 0 -81.244880195832366 459.28022137672076 0 0 0 0 -132.65760318205344 -37.471930686887731 0 -37.471930686887731 374.80262764893286 0 0 0 0 -121.78256265859261 73.673856812872174 0 73.673856812872174 509.01967150543112 0 0 0 0 -27.313538099023276 19.253506621857753 0 19.253506621857753 132.41698869384663 0 0 0 0 8.3053988035156294 15.79341762163526 0 15.79341762163526 7.0420924869866255 0 0 0 0 57.670179015533918 11.237329872335621 0 11.237329872335621 1488.8420646347508 0 0 0 0 198.95330560545489 -29.533238939904862 0 -29.533238939904862 499.00442756793245 0 0 0 0 3.2519015990749756 5.1175444697409223 0 5.1175444697409223 4.5047731892779961 0 0 0 0 80.661073405168096 145.26150734661513 0 145.26150734661513 -151.03990563972661 0 0 0 0 199.3365357908221 570.74970835561032 0 570.74970835561032 897.85252987797617 0 0 0 0 -385.27425797481504 -61.020218991286299 0 -61.020218991286299 3494.9267211738274 0 0 0 0 149.54851456373603 744.80372857680527 0 744.80372857680527 1448.8585496642329 0 0 0 0 -312.44147775394504 -277.73900109437335 0 -277.73900109437335 1355.3082464096804 0 0 0 0 174.52444838039557 -78.975362172870575 0 -78.975362172870575 1153.1335549648163 0 0 0 0 251.70829075348678 -175.2123590883443 0 -175.2123590883443 651.12229703395269 0 0 0 0 -199.92275577017102 -924.62374706487594 0 -924.62374706487594 3491.6229784781863 0 0 0 0 531.82575134620015 -1020.3085063603173 0 -1020.3085063603173 186.13592569557204 0 0 0 0 40.116650899248327 190.73153421248435 0 190.73153421248435 3477.3566696973767 0 0 0 0 2.9104861775761024 -5.2900121961790889 0 -5.2900121961790889 11.27710931206126 0 0 0 0 -1.1062663990936725 -0.033589817289598756 0 -0.033589817289598756 15.620441170951295 0 0 0 0 34.797889643238342 -120.42682494112933 0 -120.42682494112933 40.707777407373214 0 0 0 0 28.471446269750651 129.23757696059693 0 129.23757696059693 100.18944543398277 0 0 0 0 -114.31883915531512 197.9412986530794 0 197.9412986530794 403.3284163587785 0 0 0 0 -119.59816883446342 66.492463092372461 0 66.492463092372461 68.635729332927752 0 0 0 0 -466.02044159026491 -190.6920505432897 0 -190.6920505432897 155.34380407495792 0 0 0 0 5.0549497486881512 -12.729446038968078 0 -12.729446038968078 23.72096873114733 0 0 0 0 -100.53040960329952 100.33876863645642 0 100.33876863645642 112.07902309274709 0 0 0 0 -65.457517158402538 76.828549427935442 0 76.828549427935442 70.860227634739942 0 0 0 0 217.68618595833908 46.714683991659314 0 46.714683991659314 11.476905447267143 0 0 0 0 -27.884875335914558 158.42470682475343 0 158.42470682475343 243.97540862008302 0 0 0 0 263.70676943038183 -124.50094343706843 0 -124.50094343706843 126.61862988494958 0 0 0 0 212.51576305487544 88.99554724785483 0 88.99554724785483 126.125646619588 0 0 0 0 362.4509919183422 100.9877726593139 0 100.9877726593139 123.67721140314495 0 0 0 0 357.40944985090243 -232.51181224273043 0 -232.51181224273043 563.65912829777847 0 0 0 0 -21.686470329520489 182.82209705016066 0 182.82209705016066 1368.0082025545871 0 0 0 0 -665.56118256407763 143.54130722536775 0 143.54130722536775 3500.7244659074531 0 0 0 0 -91.596809099110857 495.72645236943845 0 495.72645236943845 1884.6232884869842 0 0 0 0 -81.682622780558347 652.98109888865201 0 652.98109888865201 2227.4369832299853 0 0 0 0 808.29453770996668 984.67326809161568 0 984.67326809161568 1604.8866661122536 0 0 0 0 876.97344526826987 1046.7263821928227 0 1046.7263821928227 1121.1239527794787 0 0 0 0 273.55731917309799 1447.0736412849437 0 1447.0736412849437 3499.4484835579533 0 0 0 0 862.40039412176327 1192.8099478731074 0 1192.8099478731074 1646.8624365995565 0 0 0 0 1629.5365265038786 2390.4890743778979 0 2390.4890743778979 3495.5166809661755 0 0 0 0 -3.6884311461666024 -6.5359598464880513 0 -6.5359598464880513 32.645220201485209 0 0 0 0 -131.45214180136566 -13.838800618142166 0 -13.838800618142166 65.823813597110345 0 0 0 0 13.650440036578775 -52.992108893954367 0 -52.992108893954367 40.451715027091268 0 0 0 0 3.7026341375676166 -12.080027116010788 0 -12.080027116010788 33.780561803415594 0 0 0 0 -1.5363741404743507 50.634885762667636 0 50.634885762667636 100.46112539907836 0 0 0 0 -3.3342598557957528 -7.872007648591989 0 -7.872007648591989 45.654397056214741 0 0 0 0 349.1072193326072 473.27962121794735 0 473.27962121794735 800.56317749556729 0 0 0 0 5.2989650613887136 2.5311117739893234 0 2.5311117739893234 69.222761452672785 0 0 0 0 509.39110412974992 547.20737294554056 0 547.20737294554056 745.62040646864989 0 0 0 0 577.96753723745655 631.66241674413504 0 631.66241674413504 766.85039344136021 0 0 0 0 391.66008622827451 626.01426609427608 0 626.01426609427608 948.82503799888946 0 0 0 0 0.74075608212361299 -0.47861074639411783 0 -0.47861074639411783 11.052300043935212 0 0 0 0 472.17544452570291 163.34589504528049 0 163.34589504528049 -110.945156075657 0 0 0 0 531.76985574831019 755.50679291723281 0 755.50679291723281 330.78000615296332 0 0 0 0 523.92041745796018 608.95483560292269 0 608.95483560292269 762.43481386323856 0 0 0 0 122.39142051796074 801.54024450614179 0 801.54024450614179 762.32138718232818 0 0 0 0 491.10060592494665 567.13477264806625 0 567.13477264806625 755.11584312681953 0 0 0 0 60.815299102010528 758.27036801972645 0 758.27036801972645 863.31414606446742 0 0 0 0 130.45382380092212 600.94054023052195 0 600.94054023052195 915.65839160970063 0 0 0 0 422.63327513268962 744.86122226449788 0 744.86122226449788 986.49139796670352 0 0 0 0 -283.28377914206607 -100.41669089341258 0 -100.41669089341258 503.93866238345436 0 0 0 0 -104.87726543464998 186.48202614794536 0 186.48202614794536 479.94876863597165 0 0 0 0 -212.41116949884412 59.095886110235369 0 59.095886110235369 371.38358756876914 0 0 0 0 -166.52333759637918 450.04786366822373 0 450.04786366822373 934.27765717521106 0 0 0 0 55.352478339416507 365.06203218750125 0 365.06203218750125 266.16280150403327 0 0 0 0 -160.74658329439944 36.264355001236254 0 36.264355001236254 179.37524788226074 0 0 0 0 -95.484532325278224 398.80721574604468 0 398.80721574604468 444.17299381154589 0 0 0 0 -141.22585228782873 -131.45499106749776 0 -131.45499106749776 150.75023816547764 0 0 0 0 -2.3649599395510501 7.4837950258921744 0 7.4837950258921744 9.6508301150424529 0 0 0 0 -329.96354781472724 -292.42537958614412 0 -292.42537958614412 183.36887035438622 0 0 0 0 -97.479775656252968 72.070126702479683 0 72.070126702479683 121.07419089663745 0 0 0 0 -4.182851718933307 -30.038203392040714 0 -30.038203392040714 -17.155475524156657 0 0 0 0 -18.606443984342604 -34.394930610756205 0 -34.394930610756205 79.9476566081496 0 0 0 0 35.235566166015815 87.596437922700716 0 87.596437922700716 120.74698280933444 0 0 0 0 -15.309176129030671 -19.22181093096389 0 -19.22181093096389 87.654184348020266 0 0 0 0 -38.976905736998106 -83.958982241841255 0 -83.958982241841255 0.95872464882582875 0 0 0 0 7.6657059260291938 22.998553659613865 0 22.998553659613865 54.433588162292907 0 0 0 0 -27.092104439369848 -37.777065889439285 0 -37.777065889439285 30.544842328146274 0 0 0 0 -17.729895334069738 -7.7377483199554273 0 -7.7377483199554273 17.064616805290349 0 0 0 0 0.039634672805505033 -20.326861870564414 0 -20.326861870564414 40.37571054807313 0 0 0 0 15.06605556495515 -34.206373002442319 0 -34.206373002442319 21.644678479981735 0 0 0 0 36.085229793370218 -72.277601667924728 0 -72.277601667924728 70.898264380710202 0 0 0 0 -15.326472416017168 -46.319900721107075 0 -46.319900721107075 146.52738663674154 0 0 0 0 -8.7949394259813971 -21.354562928887901 0 -21.354562928887901 172.15682815676155 0 0 0 0 1.5191416073441815 -14.711236153040829 0 -14.711236153040829 199.55148902205565 0 0 0 0 2.522216296229999 -5.9091542963187749 0 -5.9091542963187749 186.49497232843748 0 0 0 0 -1.7239292384379041 -24.474594638784481 0 -24.474594638784481 183.68123031650885 0 0 0 0 -21.774422829439118 -3.3809192767570266 0 -3.3809192767570266 163.07666301775089 0 0 0 0 -67.878933964194403 -7.8561862328638199 0 -7.8561862328638199 157.12742224156864 0 0 0 0 -47.519854795192259 -33.761647975194819 0 -33.761647975194819 190.05705977803976 0 0 0 0 -10.394681073916217 -32.741443000389609 0 -32.741443000389609 190.0628032719201 0 0 0 0 -32.497806357007903 10.922262569051782 0 10.922262569051782 66.313058623236884 0 0 0 0 -25.500213178700506 -11.63845047562063 0 -11.63845047562063 80.864405843444729 0 0 0 0 -38.546354951199191 -28.086663174713522 0 -28.086663174713522 146.45257341445267 0 0 0 0 -13.055089868989452 -23.8414192729287 0 -23.8414192729287 85.282972475903534 0 0 0 0 -66.554574971723525 -232.56628733270841 0 -232.56628733270841 -114.96018646134189 0 0 0 0 479.71172452041901 92.54581017059536 0 92.54581017059536 -133.62867814976062 0 0 0 0 -66.679869311028369 23.374192219054692 0 23.374192219054692 438.89238793548066 0 0 0 0 -25.455347177716249 -69.277827692222218 0 -69.277827692222218 125.00335649738145 0 0 0 0 -80.857143567820458 -166.90708494225692 0 -166.90708494225692 185.00086166948972 0 0 0 0 -15.101390426975096 -21.895812896452263 0 -21.895812896452263 82.652747061538932 0 0 0 0 -155.29035233638751 -228.38941809482094 0 -228.38941809482094 -47.148584585615026 0 0 0 0 281.32653966715588 255.68764028947862 0 255.68764028947862 69.05325516080029 0 0 0 0 -0.21562549991496915 -2.2197483949644763 0 -2.2197483949644763 5.2537449037279362 0 0 0 0 -76.916880922024461 -181.68056310873374 0 -181.68056310873374 22.224357733711258 0 0 0 0 -383.4322096313681 -54.354728317130821 0 -54.354728317130821 613.48475556343465 0 0 0 0 62.203159309069747 -1.5178637572723517 0 -1.5178637572723517 -275.31530767777053 0 0 0 0 -37.633626856778733 57.232295840795118 0 57.232295840795118 -119.43013937816566 0 0 0 0 -6.8025053376377684 53.023956204513468 0 53.023956204513468 -150.67806180531107 0 0 0 0 -4.1379401950402066 1.844721858972757 0 1.844721858972757 -0.34714116107229764 0 0 0 0 31.437126447593528 20.938624066283836 0 20.938624066283836 82.80028325724885 0 0 0 0 148.28580552755039 1.2172008583291785 0 1.2172008583291785 -135.66426735155693 0 0 0 0 42.736522518898312 107.15911213407719 0 107.15911213407719 2.3749168646302792 0 0 0 0 44.218152559598934 54.552381733811643 0 54.552381733811643 -121.01723888341652 0 0 0 0 28.794479519444508 145.07674132817749 0 145.07674132817749 -34.618869785717756 0 0 0 0 -75.978998656169097 99.47217371733737 0 99.47217371733737 82.276832105706632 0 0 0 0 -73.596449477340002 87.347970675687051 0 87.347970675687051 -21.822509580036581 0 0 0 0 -11.206011377271421 -2.0168776509266442 0 -2.0168776509266442 -0.34496351379620027 0 0 0 0 -9.9131179724586218 -10.540039207579298 0 -10.540039207579298 18.965639267517645 0 0 0 0 15.962986787253726 -5.0868329918959319 0 -5.0868329918959319 13.517950517461941 0 0 0 0 -66.600713510422338 109.35200773274312 0 109.35200773274312 -27.804943232911739 0 0 0 0 -9.1462403872990024 -9.6483742490539441 0 -9.6483742490539441 6.7813496505082185 0 0 0 0 -0.94159489158323595 101.49428339233117 0 101.49428339233117 -168.15379975200094 0 0 0 0 -7.6313642850720376 0.64672535142844401 0 0.64672535142844401 1.7497724583200958 0 0 0 0 -50.64188372157264 49.802593267898118 0 49.802593267898118 -122.84660588183449 0 0 0 0 0.46228556133904419 -1.9449676832067109 0 -1.9449676832067109 1.4339254420023151 0 0 0 0 10.073305829659034 -29.589422789487116 0 -29.589422789487116 108.61847113737485 0 0 0 0 -18.12906323445759 12.695707960726679 0 12.695707960726679 211.47799436221976 0 0 0 0 -6.7350343399737085 -18.436866293267656 0 -18.436866293267656 294.7207972614242 0 0 0 0 0.1169707956697259 -0.88213440803963206 0 -0.88213440803963206 0.5740398853525186 0 0 0 0 35.122267350008315 -27.527442522192587 0 -27.527442522192587 -19.581297755440801 0 0 0 0 52.636444896453668 -28.487115506639611 0 -28.487115506639611 165.9157060397888 0 0 0 0 31.927573803739506 -58.847727919329827 0 -58.847727919329827 248.3247084503098 0 0 0 0 13.479960916323989 -32.555690434440066 0 -32.555690434440066 216.41585961920737 0 0 0 0 11.886463446392554 -18.456172293092095 0 -18.456172293092095 220.14040791987452 0 0 0 0 20.023668188321608 -4.5044651560197053 0 -4.5044651560197053 192.94135119900602 0 0 0 0 -27.337819499214675 -32.80715506819331 0 -32.80715506819331 254.36640712087387 0 0 0 0 -0.35561709991179669 -2.2786973420470531 0 -2.2786973420470531 262.20056053064752 0 0 0 0 8.0482770090102349 -37.894372786648546 0 -37.894372786648546 212.43619993639007 0 0 0 0 -23.82524603182728 -40.863341982156157 0 -40.863341982156157 323.32405885427397 0 0 0 0 -9.8964895269447197 11.661157484589694 0 11.661157484589694 316.39833046676841 0 0 0 0 -9.3479503420053334 -48.776281585625611 0 -48.776281585625611 183.02155811927287 0 0 0 0 1.9886549105667586 0.070922182701274483 0 0.070922182701274483 -1.1275100691053399 0 0 0 0 19.370449887373439 -13.189506974855817 0 -13.189506974855817 102.02590360811791 0 0 0 0 -7.8566044179065102 -26.411601009491051 0 -26.411601009491051 187.43593037498465 0 0 0 0 4.9186659792838441 0.19793081896341391 0 0.19793081896341391 -3.7930763865015251 0 0 0 0 -2.1572807445321587 9.8940743646357987 0 9.8940743646357987 0.96510065675926171 0 0 0 0 -25.91468213899908 -66.453634073532953 0 -66.453634073532953 403.05718321868562 0 0 0 0 -5.410563374053158 -99.313468078808455 0 -99.313468078808455 176.33689222489386 0 0 0 0 70.376204087894507 54.477085831456634 0 54.477085831456634 372.12129097982273 0 0 0 0 148.30360448350922 -38.764773238015891 0 -38.764773238015891 431.53268238024157 0 0 0 0 8.3505960218474282 75.453685143617804 0 75.453685143617804 384.96408451928107 0 0 0 0 -13.545361360315724 3.7411914635870289 0 3.7411914635870289 380.76871342719323 0 0 0 0 47.9153447881625 52.225839373801591 0 52.225839373801591 359.97628268937888 0 0 0 0 -22.46092276569631 -0.72296807633210847 0 -0.72296807633210847 272.97681036426093 0 0 0 0 -19.431752528274274 25.210016473698488 0 25.210016473698488 346.34398971179598 0 0 0 0 -2.4045525827083907 46.898603116022173 0 46.898603116022173 309.2499936769409 0 0 0 0 5.7806488631553066 70.495591964087453 0 70.495591964087453 326.93874651696387 0 0 0 0 0.93815816930532492 29.65465634023667 0 29.65465634023667 297.12886457292052 0 0 0 0 3.4699893087334601 54.040793259349414 0 54.040793259349414 274.08256665531735 0 0 0 0 26.931010124941867 88.986666439420048 0 88.986666439420048 250.9605129394713 0 0 0 0 17.351254718575092 59.807130623383273 0 59.807130623383273 276.41625382116422 0 0 0 0 30.471903050652827 89.732544067858043 0 89.732544067858043 291.19311504016105 0 0 0 0 26.749742607839266 92.982119852275446 0 92.982119852275446 292.90297490902412 0 0 0 0 20.275050321510889 100.62424237932646 0 100.62424237932646 341.25363845100503 0 0 0 0 19.283883227962519 157.73494301818113 0 157.73494301818113 228.72858671008225 0 0 0 0 52.739124186311187 71.55885907900074 0 71.55885907900074 180.82329978142707 0 0 0 0 53.152211856291842 76.716596245927121 0 76.716596245927121 231.3349505566739 0 0 0 0 76.446061293779849 75.621484139255244 0 75.621484139255244 230.55185575494761 0 0 0 0 126.48336605464647 50.062720920663651 0 50.062720920663651 200.01390441613262 0 0 0 0 57.687944455172499 88.034998589600036 0 88.034998589600036 234.41077140150537 0 0 0 0 -13.430814305163022 100.33942379861071 0 100.33942379861071 184.78594943508506 0 0 0 0 32.694277517311548 41.639269283072281 0 41.639269283072281 250.07789613993191 0 0 0 0 49.921970103800732 18.136082845142482 0 18.136082845142482 278.1917829006793 0 0 0 0 19.039477906479533 51.442458713210726 0 51.442458713210726 309.54597924033214 0 0 0 0 17.077376036918622 44.309503913932986 0 44.309503913932986 283.98725712890791 0 0 0 0 -5.7456908944363931 46.37715298584817 0 46.37715298584817 292.44949758790972 0 0 0 0 65.365620748135598 50.770180394773433 0 50.770180394773433 235.62464623881715 0 0 0 0 111.23855759277217 -11.292607419729848 0 -11.292607419729848 304.15130116516229 0 0 0 0 63.736422050108899 52.170205420269099 0 52.170205420269099 237.62721713168867 0 0 0 0 40.373005931722673 53.005528165146188 0 53.005528165146188 238.34348765842287 0 0 0 0 15.007210216049771 45.748233448633073 0 45.748233448633073 249.12764723252576 0 0 0 0 31.021457291360548 34.927231334112548 0 34.927231334112548 226.19158631331265 0 0 0 0 19.650327480094802 37.109072463978237 0 37.109072463978237 234.54730591326597 0 0 0 0 25.99386487134052 37.633799372327076 0 37.633799372327076 225.33826632535374 0 0 0 0 39.216037395847252 53.190473415156248 0 53.190473415156248 240.05824667104025 0 0 0 0 19.120462338586094 37.74931824261148 0 37.74931824261148 233.47013053254204 0 0 0 0 24.625087402789859 45.826089701129149 0 45.826089701129149 245.26151616644711 0 0 0 0 4.8934794420920298 14.804707893401201 0 14.804707893401201 245.41247987784027 0 0 0 0 14.613332543078286 22.920949915945585 0 22.920949915945585 252.18615872443615 0 0 0 0 -4.3910881590436475 -8.8933818151647301 0 -8.8933818151647301 251.53810975161105 0 0 0 0 11.795985027439713 10.797803288965838 0 10.797803288965838 219.00966291360783 0 0 0 0 18.242412689866342 9.4092326864833922 0 9.4092326864833922 217.71218806406614 0 0 0 0 24.583835000818453 -13.606911417207357 0 -13.606911417207357 208.12153736818709 0 0 0 0 17.912535787417028 6.0823621947968718 0 6.0823621947968718 190.62614039545315 0 0 0 0 3.8298450045003847 -9.8563974660733038 0 -9.8563974660733038 198.0184860354766 0 0 0 0 8.7731111356547444 12.696850352054298 0 12.696850352054298 207.45192536956392 0 0 0 0 10.394037127267438 7.0161753142542693 0 7.0161753142542693 172.8694484010266 0 0 0 0 -16.224867774229551 -22.50343133803608 0 -22.50343133803608 178.44702778281317 0 0 0 0 -6.6286014965862705 -46.779955846421672 0 -46.779955846421672 152.46187077339164 0 0 0 0 9.3356247419660576 5.3944945963812643 0 5.3944945963812643 130.12191913403717 0 0 0 0 -4.9635521836071348 -3.3088415278702996 0 -3.3088415278702996 130.44233474202429 0 0 0 0 7.4004615357308694 5.6251624870827754 0 5.6251624870827754 173.63922416914102 0 0 0 0 -0.33454282514799161 38.497401966941879 0 38.497401966941879 197.3138391954144 0 0 0 0 5.2698517601311323 48.592796156779059 0 48.592796156779059 133.11056737501531 0 0 0 0 20.236541696296541 31.251227987311012 0 31.251227987311012 196.97078212448196 0 0 0 0 11.953505499897346 36.579647936748643 0 36.579647936748643 221.62602096943192 0 0 0 0 12.538620648207143 36.274742855834575 0 36.274742855834575 173.54102053080737 0 0 0 0 -27.859506978204081 -11.660637474018586 0 -11.660637474018586 -86.824539508070302 0 0 0 0 -26.211481893365999 -94.355156554467612 0 -94.355156554467612 -77.086821938848516 0 0 0 0 -124.17067703893008 18.996525613260474 0 18.996525613260474 25.878421749526751 0 0 0 0 -11.788940710634051 -20.681361770630247 0 -20.681361770630247 38.181624052744155 0 0 0 0 -31.315978377090687 -5.509838568344037 0 -5.509838568344037 27.023153043862294 0 0 0 0 -41.983651901825397 -112.01845530654373 0 -112.01845530654373 30.766623936409815 0 0 0 0 -6.7198547838884224 -56.181861703679104 0 -56.181861703679104 71.458803719537173 0 0 0 0 -6.6621114035415303 0.39283135753748866 0 0.39283135753748866 123.08611771486676 0 0 0 0 -9.7823746276499151 41.680088643230192 0 41.680088643230192 153.15809191534026 0 0 0 0 -30.353169118428013 65.448848800325777 0 65.448848800325777 151.53553514856776 0 0 0 0 -3.1313560130347469 39.625341728363082 0 39.625341728363082 88.040136325320418 0 0 0 0 -39.126528544547909 39.852442305812474 0 39.852442305812474 94.345293053288515 0 0 0 0 -56.996514313217631 -7.2322889826472192 0 -7.2322889826472192 78.486131973178999 0 0 0 0 -49.79097076747712 9.6020536803425784 0 9.6020536803425784 23.499711736552854 0 0 0 0 -12.314014217320619 50.96563507558767 0 50.96563507558767 72.326822500816888 0 0 0 0 -20.005931513927862 29.481597155211603 0 29.481597155211603 44.788717662417412 0 0 0 0 -43.389036212830433 25.3290657319817 0 25.3290657319817 105.58765504615803 0 0 0 0 -92.296400237490161 -27.654923827910352 0 -27.654923827910352 52.984784667203257 0 0 0 0 -30.310113176074083 48.3313014556079 0 48.3313014556079 258.01018192364791 0 0 0 0 -5.3082458909566412 93.097820881148436 0 93.097820881148436 135.88306475834543 0 0 0 0 -33.259089322826185 85.519720716208667 0 85.519720716208667 198.61097997816978 0 0 0 0 -25.386810436004453 86.746893483760232 0 86.746893483760232 242.63172530435259 0 0 0 0 -7.3842320585008565 60.146159985338272 0 60.146159985338272 186.06928039173908 0 0 0 0 -22.182951104568929 72.818024098990463 0 72.818024098990463 241.79827979209585 0 0 0 0 -15.822646702381462 51.749273401345818 0 51.749273401345818 162.31956769782028 0 0 0 0 -7.0351996988110841 91.753970840395596 0 91.753970840395596 186.42506856985347 0 0 0 0 -8.9432084127056442 79.721945702382072 0 79.721945702382072 174.1459945583324 0 0 0 0 -11.685676880728352 61.881656740411017 0 61.881656740411017 202.25232059692189 0 0 0 0 -14.166074654736121 89.70081767231477 0 89.70081767231477 226.80944467880181 0 0 0 0 -21.027161070500824 76.20478815796605 0 76.20478815796605 284.77836922165079 0 0 0 0 -7.0224206733291794 63.990350168342957 0 63.990350168342957 319.28144400910423 0 0 0 0 1.1082681541683996 86.783082245042351 0 86.783082245042351 289.57497329041689 0 0 0 0 -4.3504644972890674 90.897910761834282 0 90.897910761834282 251.85322400936093 0 0 0 0 13.865954378650713 81.050691541982815 0 81.050691541982815 275.89354875898061 0 0 0 0 -9.8908772342135762 59.346973445794561 0 59.346973445794561 257.08347343545393 0 0 0 0 59.022335091114655 41.432707902031325 0 41.432707902031325 305.91402636648945 0 0 0 0 5.3016377768944949 41.268795508314724 0 41.268795508314724 325.97396971405396 0 0 0 0 33.321793889923356 60.017932935114004 0 60.017932935114004 258.67086765076419 0 0 0 0 1.5660389578565628 47.571017092086549 0 47.571017092086549 246.51952237620117 0 0 0 0 14.878350552158054 51.088172318392481 0 51.088172318392481 223.99677185741348 0 0 0 0 1.5659683977846726 63.771097905488205 0 63.771097905488205 199.55436717597092 0 0 0 0 -12.404085806451832 70.931896020169575 0 70.931896020169575 232.86039519770748 0 0 0 0 -18.854818013178374 74.731162183496963 0 74.731162183496963 258.22587136994116 0 0 0 0 -12.655115036094685 77.952601684101865 0 77.952601684101865 233.54884042447372 0 0 0 0 -16.110778187958203 64.804172342392576 0 64.804172342392576 268.23843416070849 0 0 0 0 -15.415869546799968 85.264034500532944 0 85.264034500532944 263.33076302300469 0 0 0 0 -26.854690944079266 76.013889734317672 0 76.013889734317672 293.7954187144569 0 0 0 0 -25.21971022671778 75.574790359537701 0 75.574790359537701 274.17110532699007 0 0 0 0 -11.93327954236338 66.062170891232199 0 66.062170891232199 253.84018381881037 0 0 0 0 -27.284496995770496 64.709566420465308 0 64.709566420465308 293.80779261162388 0 0 0 0 -28.816826317412051 58.906726915722174 0 58.906726915722174 293.78635577077239 0 0 0 0 -5.1304347393347598 51.304106379474433 0 51.304106379474433 272.99905951833171 0 0 0 0 -19.907770633143571 65.289826145536665 0 65.289826145536665 287.48219892327506 0 0 0 0 -24.539341862939636 59.137697146691607 0 59.137697146691607 279.31031600738424 0 0 0 0 -38.929824313477184 61.644851954316437 0 61.644851954316437 293.14775211084998 0 0 0 0 -36.52350168463181 68.915040847761702 0 68.915040847761702 314.9101056222089 0 0 0 0 -24.853847942466018 76.19344670418559 0 76.19344670418559 293.75031694411882 0 0 0 0 -40.75235476652233 46.709563105919187 0 46.709563105919187 298.64973018406636 0 0 0 0 -31.832919195232535 48.732506213628767 0 48.732506213628767 290.4710324614307 0 0 0 0 -44.733933289823653 -5.9618483687499975 0 -5.9618483687499975 253.58611338802984 0 0 0 0 -37.723993228853033 35.494158022474039 0 35.494158022474039 268.07625756389825 0 0 0 0 9.1792678797955887 18.393165933267937 0 18.393165933267937 159.84473205616632 0 0 0 0 13.916995587003385 58.700477898558347 0 58.700477898558347 219.88956923493879 0 0 0 0 76.63081537850303 -5.7664243127946975 0 -5.7664243127946975 362.08141004626304 0 0 0 0 85.353817439886029 46.69997781803886 0 46.69997781803886 340.67515634846677 0 0 0 0 41.750743932482692 28.805109642330535 0 28.805109642330535 334.90566840368501 0 0 0 0 55.926903964012581 66.769662458603534 0 66.769662458603534 312.37894576034159 0 0 0 0 145.32371366542793 -3.8600483472919223 0 -3.8600483472919223 371.0401825139752 0 0 0 0 52.295705206155617 51.481269757341579 0 51.481269757341579 341.49472562633787 0 0 0 0 -0.56569738586586027 77.236376511028539 0 77.236376511028539 345.95644978521705 0 0 0 0 -0.49732796883654373 72.023198829994726 0 72.023198829994726 316.31204169720877 0 0 0 0 -26.325006903623944 76.139759102254402 0 76.139759102254402 321.43565994419805 0 0 0 0 -37.170380278108951 59.976618790646853 0 59.976618790646853 345.56904957421102 0 0 0 0 44.950064785081395 -31.329702237050697 0 -31.329702237050697 190.2617924968481 0 0 0 0 -41.477357370394202 18.210980281061893 0 18.210980281061893 318.05632111391515 0 0 0 0 -23.85537917010879 30.7328612745805 0 30.7328612745805 303.57120460311398 0 0 0 0 -28.920285895625739 45.131399089073057 0 45.131399089073057 410.8626256345633 0 0 0 0 17.044061759959732 86.552078750059991 0 86.552078750059991 439.8280387596169 0 0 0 0 99.988774939552968 97.951269846566902 0 97.951269846566902 376.84576094531985 0 0 0 0 -0.047473486791891339 0.041911672543031742 0 0.041911672543031742 1.1863112664319857 0 0 0 0 0.29394136546034133 -176.85183406339092 0 -176.85183406339092 378.17603678979071 0 0 0 0 31.521382878503118 149.90164438903435 0 149.90164438903435 516.87343150973538 0 0 0 0 61.386435622083809 -8.3194849576093475 0 -8.3194849576093475 503.13829768102187 0 0 0 0 -44.746657403513382 -31.643755862234229 0 -31.643755862234229 4.3307523279336237 0 0 0 0 -1.256342358747971 0.19047955090815094 0 0.19047955090815094 11.474577700719962 0 0 0 0 0.96184059461187488 -4.0095860734401292 0 -4.0095860734401292 0.97315326083042009 0 0 0 0 28.056036781420971 -7.7696355460566338 0 -7.7696355460566338 -24.793188443666622 0 0 0 0 -4.2002490965696779 -7.9015199090335955 0 -7.9015199090335955 -2.4225613597573101 0 0 0 0 42.295759531228668 61.523767963797127 0 61.523767963797127 86.353701569569239 0 0 0 0 5.9364398941834224 -1.4816781870094928 0 -1.4816781870094928 -1.9216635910368041 0 0 0 0 90.294312504474874 -32.217326456753653 0 -32.217326456753653 -39.037212734448985 0 0 0 0 3.199290108985517 -3.4062179897890346 0 -3.4062179897890346 0.10621731363018894 0 0 0 0 7.3600945230380148 5.8807505119975758 0 5.8807505119975758 -11.895866583924544 0 0 0 0 25.574680034503672 79.0440775043744 0 79.0440775043744 187.07635193360102 0 0 0 0 -2.655986309251567 0.78423835433510547 0 0.78423835433510547 0.86202952191348459 0 0 0 0 -8.6585144623940664 6.5969549732610631 0 6.5969549732610631 5.7886816483114671 0 0 0 0 -1.6674496441561661 0.18313757637677242 0 0.18313757637677242 1.1852538380374007 0 0 0 0 7.9661839129109069 14.157972439886748 0 14.157972439886748 6.572759855140248 0 0 0 0 56.007747164636839 134.25575772052252 0 134.25575772052252 198.90655363649421 0 0 0 0 82.478720744139537 153.43762660147422 0 153.43762660147422 196.55816278288103 0 0 0 0 -20.540913216982517 135.61757480956112 0 135.61757480956112 251.52651622717167 0 0 0 0 -44.64457662487348 108.47781431615931 0 108.47781431615931 280.09608358970809 0 0 0 0 15.9810881717342 68.154636441800903 0 68.154636441800903 205.31556007977633 0 0 0 0 -23.475346153192731 -4.3409188032856036 0 -4.3409188032856036 7.2804927394869878 0 0 0 0 -1.4783204688615523 -0.1610436805823845 0 -0.1610436805823845 1.0674497041970954 0 0 0 0 -16.596081959462254 47.267473006856562 0 47.267473006856562 -29.694957042932629 0 0 0 0 -0.50460089925678941 -0.36015309905274506 0 -0.36015309905274506 0.1645919947860135 0 0 0 0 -55.056322638699555 31.061286361305747 0 31.061286361305747 358.66923604186741 0 0 0 0 -12.838211342399177 57.940199177917748 0 57.940199177917748 270.42963020415937 0 0 0 0 -45.628710734656238 105.56339431531069 0 105.56339431531069 290.89462733943765 0 0 0 0 -75.794640039484193 111.62084573166794 0 111.62084573166794 359.01496347977456 0 0 0 0 -55.835868329681603 122.048570398626 0 122.048570398626 308.03064231889857 0 0 0 0 -89.407386359365205 58.00983305875252 0 58.00983305875252 355.77390757629388 0 0 0 0 -104.90024440920388 16.608207819039308 0 16.608207819039308 475.75863614173079 0 0 0 0 35.623547360881616 257.6174398821322 0 257.6174398821322 507.87242101626271 0 0 0 0 58.122583649504037 235.25921338559965 0 235.25921338559965 523.60859902348693 0 0 0 0 37.094982574897813 -68.746469270682155 0 -68.746469270682155 251.90318881395888 0 0 0 0 -59.640777175803294 75.741407406375401 0 75.741407406375401 328.11063577068217 0 0 0 0 25.089194948751981 -91.967513335886451 0 -91.967513335886451 244.68182261649849 0 0 0 0 -57.909377499106085 14.488307399949008 0 14.488307399949008 109.66871407429062 0 0 0 0 40.540727764754251 -139.65196867579152 0 -139.65196867579152 136.60067619028905 0 0 0 0 30.993292685288154 -74.284116174792416 0 -74.284116174792416 159.19309459413967 0 0 0 0 57.262461381132312 -87.544031252243258 0 -87.544031252243258 162.39972320385914 0 0 0 0 49.505073709485998 20.774337934476989 0 20.774337934476989 113.41527019739078 0 0 0 0 28.293818211311009 -62.887805016323 0 -62.887805016323 194.3823937992338 0 0 0 0 55.592099254897278 53.398452841891412 0 53.398452841891412 288.02621006556274 0 0 0 0 21.427885173349694 -94.050312967496211 0 -94.050312967496211 302.71024720723562 0 0 0 0 48.209238365772762 165.27685535736691 0 165.27685535736691 427.54566827497456 0 0 0 0 31.451841376348966 11.358672148259757 0 11.358672148259757 410.85039241827235 0 0 0 0 33.500674637886505 109.67921807239827 0 109.67921807239827 240.35084898751211 0 0 0 0 -18.394004461063474 48.048818690886151 0 48.048818690886151 308.1874709342992 0 0 0 0 9.0832155568195958 43.224373403979712 0 43.224373403979712 191.99963234766801 0 0 0 0 0.80615921364773335 -2.5862682655907143 0 -2.5862682655907143 3.7737790617575744 0 0 0 0 -0.21763691405499141 -0.96911430302753843 0 -0.96911430302753843 2.1693263275874095 0 0 0 0 12.213357590561941 -56.090211249096001 0 -56.090211249096001 -10.112741122899024 0 0 0 0 -21.723226660171804 19.75036107222104 0 19.75036107222104 25.902018050383049 0 0 0 0 -125.98827588587483 128.25611542805927 0 128.25611542805927 260.76476820138487 0 0 0 0 -40.902109519896754 -27.706536647943175 0 -27.706536647943175 148.8245271468835 0 0 0 0 109.94887974102858 64.20680562149937 0 64.20680562149937 94.430094442497648 0 0 0 0 66.30665268810543 168.27242889603849 0 168.27242889603849 230.1885364883783 0 0 0 0 72.005407695276602 136.50866780883462 0 136.50866780883462 87.633915744198021 0 0 0 0 -1.0135383981672041 6.2725702668987999 0 6.2725702668987999 9.2608850067180128 0 0 0 0 107.80610552884696 135.35033008967366 0 135.35033008967366 61.689332258538343 0 0 0 0 -347.3072903434836 182.92717875581366 0 182.92717875581366 41.370480517900432 0 0 0 0 53.561234534715595 374.61318339700665 0 374.61318339700665 -16.818483635295706 0 0 0 0 -955.34218108568916 -26.740152066952305 0 -26.740152066952305 805.80355052941013 0 0 0 0 -30.669002350958522 97.618169121047686 0 97.618169121047686 -53.048996985358826 0 0 0 0 559.38424433434102 329.38564261569991 0 329.38564261569991 133.11065052594768 0 0 0 0 -0.69273973157307689 3.4863574662714574 0 3.4863574662714574 4.6243541873410265 0 0 0 0 -285.67533211861542 149.20947593139135 0 149.20947593139135 781.48542763740988 0 0 0 0 -7.3337748181761526 71.109029349372577 0 71.109029349372577 801.23295233010867 0 0 0 0 219.43547995078472 -154.92913888477506 0 -154.92913888477506 159.09779207292013 0 0 0 0 51.475122249143624 -32.208111104197087 0 -32.208111104197087 -23.882712139631622 0 0 0 0 65.478752441837514 48.406967653615311 0 48.406967653615311 167.49267342778148 0 0 0 0 -37.798832932009645 -31.272338254730794 0 -31.272338254730794 152.73261364777446 0 0 0 0 -385.0286399340639 -229.24938112846576 0 -229.24938112846576 553.86410983220594 0 0 0 0 47.954195096562671 30.63735520323803 0 30.63735520323803 191.40890492151448 0 0 0 0 90.425316291557465 377.38096204264366 0 377.38096204264366 456.34441194832471 0 0 0 0 35.322493833138651 64.791449736806953 0 64.791449736806953 138.2782144018629 0 0 0 0 34.133860719557561 53.390316812568017 0 53.390316812568017 78.023608326343492 0 0 0 0 -50.433981711174056 60.816154150169496 0 60.816154150169496 48.266597942809767 0 0 0 0 -24.149860939836799 2.691697972597467 0 2.691697972597467 15.991299805134531 0 0 0 0 0.75711964421861921 128.28117408591652 0 128.28117408591652 181.02045041224119 0 0 0 0 30.430198226273205 82.670582308162011 0 82.670582308162011 -6.3215825035040325 0 0 0 0 0.64663187008766343 -0.69587192262611453 0 -0.69587192262611453 1.8101732631056626 0 0 0 0 -80.390483056099583 23.683254344720353 0 23.683254344720353 14.988516599962168 0 0 0 0 -16.237243421238418 39.756072241305446 0 39.756072241305446 -42.482869676025075 0 0 0 0 33.00893128788266 118.90106662545986 0 118.90106662545986 409.1221347435353 0 0 0 0 38.001253617867405 110.58496499384592 0 110.58496499384592 417.25334105607271 0 0 0 0 47.433911186783007 35.283150760315948 0 35.283150760315948 364.87829981933874 0 0 0 0 48.369035179570346 40.681168486125898 0 40.681168486125898 395.22761268737668 0 0 0 0 -1.0311752034249366 91.190723686078854 0 91.190723686078854 202.63346787146338 0 0 0 0 49.577860985704319 47.516686339283297 0 47.516686339283297 299.30751226546136 0 0 0 0 29.931506610572342 143.0593761560433 0 143.0593761560433 273.24557592774727 0 0 0 0 114.86335789776422 7.3413873637327924 0 7.3413873637327924 212.59954159666859 0 0 0 0 -5.998157621998871 100.47816076323898 0 100.47816076323898 254.42739031523706 0 0 0 0 54.797117185387833 -8.6284030104973226 0 -8.6284030104973226 331.2662916000736 0 0 0 0 47.484186774469435 53.64044493573374 0 53.64044493573374 339.21407421406911 0 0 0 0 62.780713714993908 4.791750909907023 0 4.791750909907023 315.02931082131727 0 0 0 0 52.586091370183567 -2.1329112485127553 0 -2.1329112485127553 327.33057282035952 0 0 0 0 66.38126471681062 16.03533294519093 0 16.03533294519093 330.13585711404448 0 0 0 0 11.703588071542981 80.646084867585159 0 80.646084867585159 191.109479944767 0 0 0 0 -3.1918702716775442 80.471753887653449 0 80.471753887653449 230.61516154565561 0 0 0 0 -44.352616232158653 42.543416142108981 0 42.543416142108981 218.156309865617 0 0 0 0 -249.77795625202089 24.537649421362403 0 24.537649421362403 270.62162002776222 0 0 0 0 -43.79946961111937 -23.898335358300372 0 -23.898335358300372 143.9857160388521 0 0 0 0 110.19279899157937 70.045221370091895 0 70.045221370091895 174.49291901355173 0 0 0 0 117.25852979935371 335.78770829218467 0 335.78770829218467 -42.747129005685565 0 0 0 0 192.17775825324657 -74.254626528626886 0 -74.254626528626886 290.12672047191336 0 0 0 0 -44.692272039186506 -20.167234854406228 0 -20.167234854406228 131.96927887201559 0 0 0 0 54.647073404525145 27.256096261595303 0 27.256096261595303 135.762746470813 0 0 0 0 -9.5480787564592902 -451.72017863444489 0 -451.72017863444489 77.873707303758806 0 0 0 0 47.275289452075867 5.2956869197655578 0 5.2956869197655578 145.43208318995312 0 0 0 0 115.77093967020755 -27.742226772639697 0 -27.742226772639697 133.11113450861785 0 0 0 0 30.225528575680073 57.064463389992852 0 57.064463389992852 371.71605157199429 0 0 0 0 55.240483423300248 10.18189879212423 0 10.18189879212423 322.76812942456309 0 0 0 0 49.24421659438417 9.9302233250316476 0 9.9302233250316476 328.29871638381883 0 0 0 0 55.522960992441767 12.525000943450664 0 12.525000943450664 341.96404405276189 0 0 0 0 29.040602201224829 10.599301444362936 0 10.599301444362936 355.36166705481583 0 0 0 0 6.553716058642749 -7.4066841237927292 0 -7.4066841237927292 370.79239045735812 0 0 0 0 51.231720715259144 -33.778853389485448 0 -33.778853389485448 349.29412437797782 0 0 0 0 63.303702586279542 -68.828908831632361 0 -68.828908831632361 388.56120469426514 0 0 0 0 34.829451283541857 -41.720180476189853 0 -41.720180476189853 399.50141498332414 0 0 0 0 -2.349994336896998 -12.709186790391868 0 -12.709186790391868 384.37210330100243 0 0 0 0 -11.377975026769491 26.927568318195881 0 26.927568318195881 363.65745665211057 0 0 0 0 -251.35956853465723 -137.47365323158101 0 -137.47365323158101 -70.960540033349389 0 0 0 0 -0.52012234576077176 -4.1753392087593149 0 -4.1753392087593149 -0.0081901127978412092 0 0 0 0 -44.21890014238901 -52.702266242864859 0 -52.702266242864859 32.157832609028503 0 0 0 0 1.5840442224629658 -4.0588562972236613 0 -4.0588562972236613 4.278733656108308 0 0 0 0 -5.5208901322966994 86.890226826914841 0 86.890226826914841 96.942493327074772 0 0 0 0 28.738846722902963 -56.454527810555192 0 -56.454527810555192 59.616650909595592 0 0 0 0 -23.387586148303626 53.671145894166614 0 53.671145894166614 69.188867737140754 0 0 0 0 -0.41321262122112579 -2.5167447810006709 0 -2.5167447810006709 4.6047806674602434 0 0 0 0 18.46510597393717 -21.690566398599913 0 -21.690566398599913 -33.933931274619681 0 0 0 0 29.499324161424738 -77.182001667868008 0 -77.182001667868008 -30.343633696790505 0 0 0 0 22.055056723788312 7.2293782343703015 0 7.2293782343703015 182.9855233059443 0 0 0 0 2.2031640556288039 123.90640492978832 0 123.90640492978832 269.77510138992511 0 0 0 0 -48.294362301418005 -55.686078246678107 0 -55.686078246678107 -9.2735072494388078 0 0 0 0 -20.666822406039358 -13.361745340412359 0 -13.361745340412359 -18.017108791943429 0 0 0 0 -6.218473483351536 -11.827308672602818 0 -11.827308672602818 40.592528451398273 0 0 0 0 -10.662022279759213 -5.6538901760938902 0 -5.6538901760938902 63.332115645662931 0 0 0 0 21.908761322918792 -19.916126624951175 0 -19.916126624951175 58.543442757840239 0 0 0 0 -1.6279676016981615 -1.012300111682638 0 -1.012300111682638 52.313310357562628 0 0 0 0 -29.09766475454694 -12.516496538807587 0 -12.516496538807587 60.401148521021241 0 0 0 0 -35.334219506659792 -20.153812336711781 0 -20.153812336711781 67.659620246158738 0 0 0 0 -0.40993802228367215 -0.65037212318368987 0 -0.65037212318368987 16.974067569335276 0 0 0 0 -7.7930187325629845 12.296673465465574 0 12.296673465465574 84.22067186320055 0 0 0 0 -14.36334672300827 -10.295698225883932 0 -10.295698225883932 79.493972829055522 0 0 0 0 -110.46868843788604 -65.252270179350461 0 -65.252270179350461 17.831801031908981 0 0 0 0 -107.28837843996644 23.694334283386979 0 23.694334283386979 222.49088154727815 0 0 0 0 3.5480715853981337 -63.086192906452197 0 -63.086192906452197 -43.887709726368485 0 0 0 0 49.832934019785171 75.127475848381437 0 75.127475848381437 108.38051908045782 0 0 0 0 2.9062396096673222 -5.1385709366149346 0 -5.1385709366149346 16.490550659344255 0 0 0 0 46.675563124857035 8.2055387276486726 0 8.2055387276486726 137.15769677352364 0 0 0 0 7.8430918298035976 -32.57017183172502 0 -32.57017183172502 101.96728336560773 0 0 0 0 -41.892760022974471 52.258903914422262 0 52.258903914422262 138.29704785460081 0 0 0 0 19.472289575237728 29.83033967094039 0 29.83033967094039 54.452058553019441 0 0 0 0 11.93043682573898 125.22034324166816 0 125.22034324166816 16.806873959736549 0 0 0 0 336.70833828821014 93.938276296390541 0 93.938276296390541 28.088875969726359 0 0 0 0 229.03829866728665 57.04571922665491 0 57.04571922665491 153.64575055307796 0 0 0 0 158.87390846127641 70.880154295608918 0 70.880154295608918 194.64167736323725 0 0 0 0 157.91182392711198 81.352305216703826 0 81.352305216703826 91.315514303532836 0 0 0 0 398.38939586849392 -35.146339014921978 0 -35.146339014921978 10.642888983327794 0 0 0 0 343.47151351507182 123.55781750960159 0 123.55781750960159 117.89205266311819 0 0 0 0 503.99574884778667 124.69552976876003 0 124.69552976876003 117.27846728911391 0 0 0 0 226.80809261937429 79.910567118276958 0 79.910567118276958 304.05933703798655 0 0 0 0 671.54324256469954 224.83593518156704 0 224.83593518156704 164.80139288528881 0 0 0 0 671.45888635758524 249.86806155722391 0 249.86806155722391 115.29148780295509 0 0 0 0 0.2554441450420768 0.093481422001403303 0 0.093481422001403303 1.4886243149531992 0 0 0 0 172.14880718698168 -19.565514004741999 0 -19.565514004741999 332.14094208498864 0 0 0 0 390.70180011523098 418.20260368042364 0 418.20260368042364 831.14846612766269 0 0 0 0 218.65735190837222 17.052215270341549 0 17.052215270341549 266.92800635856838 0 0 0 0 359.43631687999368 202.33345555772394 0 202.33345555772394 377.66847562466864 0 0 0 0 1.9872029957150517 -85.880437947707833 0 -85.880437947707833 566.83754605377908 0 0 0 0 180.40573669784135 -82.553737703750812 0 -82.553737703750812 146.54569941064256 0 0 0 0 92.28593192372864 -37.295840338694688 0 -37.295840338694688 146.71941191678707 0 0 0 0 124.26323624931865 22.136449837336841 0 22.136449837336841 242.47082654016413 0 0 0 0 121.24371597675417 -3.0879167502898781 0 -3.0879167502898781 64.333221842935018 0 0 0 0 233.93401134229953 -106.13931480797328 0 -106.13931480797328 -93.253216113313101 0 0 0 0 84.650330382461107 37.894616831479652 0 37.894616831479652 19.214275962644024 0 0 0 0 126.50175113815851 113.62710368016724 0 113.62710368016724 -95.378071967046708 0 0 0 0 145.04064824372881 43.626222880270689 0 43.626222880270689 106.36280399534735 0 0 0 0 141.04271937533304 214.06218646363777 0 214.06218646363777 19.240700638380986 0 0 0 0 -224.40688388001308 157.77357273309826 0 157.77357273309826 -5.0681895200541476 0 0 0 0 -0.89580307454607666 6.3776226230539219 0 6.3776226230539219 8.9056990986831579 0 0 0 0 -23.765700365504927 34.05280495275656 0 34.05280495275656 28.318522730409313 0 0 0 0 46.157122717898005 205.03189280178321 0 205.03189280178321 -310.23628165206173 0 0 0 0 -58.623367010873153 -305.80448384356714 0 -305.80448384356714 -164.59827492859586 0 0 0 0 115.86870150486371 199.25120252002785 0 199.25120252002785 30.759948262631951 0 0 0 0 477.75656603196876 100.26711139603867 0 100.26711139603867 44.526044230893604 0 0 0 0 82.022189921704921 330.48629116970915 0 330.48629116970915 215.98893710631819 0 0 0 0 489.10040417541586 427.30134257559257 0 427.30134257559257 169.68679458976112 0 0 0 0 758.80240792283439 322.72072495277462 0 322.72072495277462 -25.95924310535338 0 0 0 0 -883.9252014965441 158.86808575024406 0 158.86808575024406 797.47462092267233 0 0 0 0 -0.47003680669739489 3.3251342324729922 0 3.3251342324729922 4.2361269766960277 0 0 0 0 -0.21058008604041167 2.8837224030690312 0 2.8837224030690312 3.6433942270673754 0 0 0 0 844.51009965245066 429.94758273807383 0 429.94758273807383 239.10488571012684 0 0 0 0 -1052.8613222173351 -51.108815670159856 0 -51.108815670159856 632.92670969860046 0 0 0 0 100.66069602614698 87.610620871615538 0 87.610620871615538 69.417427605043486 0 0 0 0 4.2282455789059679 -0.21286609940945311 0 -0.21286609940945311 1.2645171061272009 0 0 0 0 279.4826643000124 -252.03654280293267 0 -252.03654280293267 414.27853339436115 0 0 0 0 69.33558544802554 46.070555597383645 0 46.070555597383645 42.073409962777077 0 0 0 0 30.51241839032744 72.149006731815462 0 72.149006731815462 121.52775387270958 0 0 0 0 87.395194964574159 130.84020283552672 0 130.84020283552672 118.7720575669664 0 0 0 0 195.10257484119984 182.1404238971445 0 182.1404238971445 105.3434459939599 0 0 0 0 67.349888968625692 103.10251157444145 0 103.10251157444145 81.786308335751528 0 0 0 0 83.839699294832258 212.17749169128365 0 212.17749169128365 184.49920595248841 0 0 0 0 102.72510400437841 268.06958890143505 0 268.06958890143505 187.08873702071287 0 0 0 0 298.64058387555406 172.15869480682522 0 172.15869480682522 76.878622299422204 0 0 0 0 49.798859413169794 53.764038689887457 0 53.764038689887457 76.464942840975709 0 0 0 0 0.43512640435297767 3.9904863345908148 0 3.9904863345908148 6.0241413097565442 0 0 0 0 153.45714953319384 76.188760114916477 0 76.188760114916477 19.496945679442433 0 0 0 0 352.96375886489841 65.792016885337944 0 65.792016885337944 2.9453877828855184 0 0 0 0 427.10091210412361 105.32415468509225 0 105.32415468509225 14.326556251297006 0 0 0 0 235.94531905905023 -5.4078362975396885 0 -5.4078362975396885 -62.455257622379577 0 0 0 0 299.35450824383588 114.76430646311928 0 114.76430646311928 49.652889055894775 0 0 0 0 15.26712333217996 18.295249054614239 0 18.295249054614239 22.236685042137381 0 0 0 0 359.99507487980486 65.619991898115586 0 65.619991898115586 -37.091782729687111 0 0 0 0 263.82362212732323 91.364727079129807 0 91.364727079129807 -3.8232446664769668 0 0 0 0 -0.045559421151222468 3.7637502797954121 0 3.7637502797954121 9.4639992871290701 0 0 0 0 331.85142528404049 144.12785909213562 0 144.12785909213562 18.263488900454831 0 0 0 0 993.34597595042987 -604.61846311379486 0 -604.61846311379486 -245.18246050200833 0 0 0 0 178.86083596121736 -493.95651381049856 0 -493.95651381049856 82.507437600754201 0 0 0 0 67.649320907788933 -203.57452097035593 0 -203.57452097035593 1564.8625957049371 0 0 0 0 -107.49330633430054 -203.63146540737034 0 -203.63146540737034 1478.1598888412263 0 0 0 0 704.26585734649416 -10.008394935513934 0 -10.008394935513934 2937.5666313447291 0 0 0 0 1281.0764459235218 795.73909929637375 0 795.73909929637375 652.77616841843701 0 0 0 0 391.26756982855204 303.43051784371346 0 303.43051784371346 1922.5739782305027 0 0 0 0 6.3010228602314466 6.0898161818040393 0 6.0898161818040393 8.6692237172583333 0 0 0 0 0.98459840633059459 2.6047875134431031 0 2.6047875134431031 5.6165942700603466 0 0 0 0 670.00788888287207 583.03222140168555 0 583.03222140168555 1797.1965272725938 0 0 0 0 331.00810865116023 600.22358760530551 0 600.22358760530551 720.49917318195912 0 0 0 0 661.45147477960973 483.2192863052187 0 483.2192863052187 633.11374673614409 0 0 0 0 136.05113560923633 399.96210211878497 0 399.96210211878497 1025.9347925365728 0 0 0 0 60.45655331177727 209.35882013725495 0 209.35882013725495 562.08892026749254 0 0 0 0 -72.089169136265696 644.80786344056833 0 644.80786344056833 564.90178022019427 0 0 0 0 -381.45694553659803 338.09085240280183 0 338.09085240280183 509.29530505258299 0 0 0 0 305.78032558914458 494.37615927102524 0 494.37615927102524 362.88668496663013 0 0 0 0 275.07340839685048 414.56146677771176 0 414.56146677771176 280.39807216692861 0 0 0 0 1.6091586129196003 412.77643916484431 0 412.77643916484431 355.90837699413532 0 0 0 0 4.7994133024149619 390.48604051792063 0 390.48604051792063 492.14880911420914 0 0 0 0 358.3318529987057 170.66026897712436 0 170.66026897712436 36.887950435200764 0 0 0 0 988.59063693279029 383.56608163613419 0 383.56608163613419 74.745387799717719 0 0 0 0 289.53679023540008 -213.97416865815831 0 -213.97416865815831 -56.115400499831594 0 0 0 0 132.87185064822711 -0.70141278021401376 0 -0.70141278021401376 -24.37327396469118 0 0 0 0 -16.683817539895358 38.377487367368303 0 38.377487367368303 -0.19487793660664465 0 0 0 0 152.94401866530757 118.5672470737627 0 118.5672470737627 37.690525536894711 0 0 0 0 3.8257927571073957 7.3422820004118314 0 7.3422820004118314 11.740959624113671 0 0 0 0 2.6714748990183921 -4.6163852796016727 0 -4.6163852796016727 -8.7844862407036999 0 0 0 0 16.784375555996803 -42.12643988853597 0 -42.12643988853597 -19.383736171104601 0 0 0 0 67.75465138391273 -38.978356867322589 0 -38.978356867322589 -19.575295446018572 0 0 0 0 66.664761255522933 17.372999685783725 0 17.372999685783725 -3.7154059254244203 0 0 0 0 23.589633954019231 28.024714815755246 0 28.024714815755246 31.101836180527698 0 0 0 0 17.851942263922865 36.151550305723504 0 36.151550305723504 131.69844642518365 0 0 0 0 84.255063530136454 238.72270138039312 0 238.72270138039312 27.457958828490518 0 0 0 0 146.85702707608664 -90.087417581100453 0 -90.087417581100453 -32.447523488655861 0 0 0 0 35.03002990110474 -455.0244924879662 0 -455.0244924879662 1655.4060051678862 0 0 0 0 -57.643524192710629 192.70354785006202 0 192.70354785006202 1467.918478370284 0 0 0 0 -831.209801807075 -807.28602050494192 0 -807.28602050494192 1871.4770667810126 0 0 0 0 -441.1619579642271 13.223535362988514 0 13.223535362988514 2139.5767374001407 0 0 0 0 0.3373465025345459 2.2781342579645845 0 2.2781342579645845 8.3202938778652396 0 0 0 0 96.632144237117686 169.34806309530904 0 169.34806309530904 170.46008618236374 0 0 0 0 854.41534335690483 -631.76432399671285 0 -631.76432399671285 336.66844358168237 0 0 0 0 -272.21256298767446 201.87914209908377 0 201.87914209908377 590.00860818976798 0 0 0 0 -150.10640320456491 1075.0858308218685 0 1075.0858308218685 1411.0523614994145 0 0 0 0 -280.6924452583753 128.10284480980226 0 128.10284480980226 1946.7704151523776 0 0 0 0 133.4971828340519 568.00946928686835 0 568.00946928686835 608.77825515360018 0 0 0 0 -110.52307157593714 743.39903834494362 0 743.39903834494362 573.98154803380839 0 0 0 0 -16.287198612033421 993.53073165415117 0 993.53073165415117 535.74199563278671 0 0 0 0 254.0774795872494 1137.1834079369946 0 1137.1834079369946 349.95283796208605 0 0 0 0 -0.6559309150160666 2.2711467521532827 0 2.2711467521532827 18.719933916007875 0 0 0 0 -2.2269073007821074 4.7616812644571711 0 4.7616812644571711 39.14543711069615 0 0 0 0 -1717.3928544523744 330.91591965976841 0 330.91591965976841 690.88768319775409 0 0 0 0 -462.02195507928184 -12.957123405441962 0 -12.957123405441962 -111.89584088368792 0 0 0 0 -243.02814160906229 348.81668182388967 0 348.81668182388967 234.91612514106237 0 0 0 0 -1545.3769219222936 151.04800459253056 0 151.04800459253056 798.34028928498446 0 0 0 0 215.25910394423221 -540.48635074862796 0 -540.48635074862796 356.30114554256215 0 0 0 0 150.8179491293252 -670.83645552794087 0 -670.83645552794087 1329.0301703943478 0 0 0 0 446.19162841136114 -287.14062664741505 0 -287.14062664741505 811.33390761655755 0 0 0 0 273.07903897898541 -238.94660242761529 0 -238.94660242761529 649.06997541324381 0 0 0 0 459.0264343667908 24.781610696698408 0 24.781610696698408 986.96814578682825 0 0 0 0 244.96244090878434 366.19698335587782 0 366.19698335587782 1821.5272209396353 0 0 0 0 330.11076452095705 678.53219447456286 0 678.53219447456286 743.51988684459593 0 0 0 0 -319.72005892946373 910.35010443527153 0 910.35010443527153 1784.9300436805934 0 0 0 0 -376.77910757432443 1206.1433312564714 0 1206.1433312564714 3492.8548934863757 0 0 0 0 651.80923411399897 1875.7118600586 0 1875.7118600586 1088.9501250167732 0 0 0 0 -123.92722222627708 -23.589546264982346 0 -23.589546264982346 236.19414086144388 0 0 0 0 -435.51417687759556 527.52855315462148 0 527.52855315462148 -33.470981330341601 0 0 0 0 -383.62094993815549 -1423.1739714531468 0 -1423.1739714531468 1234.9846636973198 0 0 0 0 0.069888862842445318 2.5751856857229214 0 2.5751856857229214 20.447330988895104 0 0 0 0 -993.71969779351798 -737.43094527574431 0 -737.43094527574431 3492.3259187475655 0 0 0 0 -857.6009102831224 -547.01097702755396 0 -547.01097702755396 1662.2564940303819 0 0 0 0 -188.15134108505799 -160.77697632647687 0 -160.77697632647687 594.81589589613111 0 0 0 0 -72.532859110235563 271.12915031257853 0 271.12915031257853 1507.8319723314162 0 0 0 0 497.82879547363177 -497.60266936108746 0 -497.60266936108746 1208.8389402291068 0 0 0 0 614.37975424531407 -592.19012560140072 0 -592.19012560140072 1048.3178869507683 0 0 0 0 -78.702577796786045 -398.18147044949728 0 -398.18147044949728 992.77538834118604 0 0 0 0 468.11839679698079 -658.8323034680725 0 -658.8323034680725 584.36136260539934 0 0 0 0 6.0185909430214224 -168.41519269868331 0 -168.41519269868331 953.81310899307573 0 0 0 0 -29.494314900705525 -406.16532738081696 0 -406.16532738081696 -3.8913181821553735 0 0 0 0 -297.83949131511446 636.52686175056988 0 636.52686175056988 76.045325662758842 0 0 0 0 518.78321096570289 -186.55398822274583 0 -186.55398822274583 716.14054441510234 0 0 0 0 1068.7481258391047 -461.61992259831459 0 -461.61992259831459 943.9468565385323 0 0 0 0 499.02678247738868 -67.230721791209362 0 -67.230721791209362 1416.9796076767088 0 0 0 0 749.70063928587615 -500.18361675426786 0 -500.18361675426786 2128.7199246793025 0 0 0 0 1749.8000372725551 -708.67655459955859 0 -708.67655459955859 1301.2164825904474 0 0 0 0 1648.6593167016267 -125.7373064563435 0 -125.7373064563435 916.0769201528019 0 0 0 0 705.48497119557373 41.093751723910827 0 41.093751723910827 1161.2904992020194 0 0 0 0 1038.9571504408784 969.0895599476753 0 969.0895599476753 977.35329145345895 0 0 0 0 1083.6823210142302 145.40462010483316 0 145.40462010483316 847.47505582441227 0 0 0 0 900.99521689673429 -76.095487588048854 0 -76.095487588048854 1075.1175270349631 0 0 0 0 941.29234812234313 -356.82449179342802 0 -356.82449179342802 1184.7895208424452 0 0 0 0 1277.1227359437135 -150.5226543092067 0 -150.5226543092067 1069.5738914096291 0 0 0 0 706.15963498165638 54.442210529697377 0 54.442210529697377 1394.3371166679062 0 0 0 0 460.36753918887132 -146.00947447002181 0 -146.00947447002181 1235.2730978347754 0 0 0 0 452.13149109641904 -32.959349474771443 0 -32.959349474771443 1219.1544980768522 0 0 0 0 603.47153722997132 50.351839520233625 0 50.351839520233625 1151.4145251011869 0 0 0 0 951.54386320712331 -315.60045228767558 0 -315.60045228767558 1202.3662166906724 0 0 0 0 859.75121018885864 -193.59082842025964 0 -193.59082842025964 1067.1236406147054 0 0 0 0 830.16704481954991 -184.41588987171235 0 -184.41588987171235 1253.8585353232338 0 0 0 0 464.96313536878876 -264.44147772200449 0 -264.44147772200449 1995.0948724623595 0 0 0 0 454.47237743766982 44.41010717365134 0 44.41010717365134 1360.3293060636988 0 0 0 0 451.86250785789946 182.45006047291099 0 182.45006047291099 1147.2026926930685 0 0 0 0 -225.48589042462106 211.33635319560562 0 211.33635319560562 3500.2442552763969 0 0 0 0 -190.67806914942264 -225.59375942279803 0 -225.59375942279803 1994.9814332902133 0 0 0 0 -150.41819686023416 -759.16992762723203 0 -759.16992762723203 3499.429163312594 0 0 0 0 548.62708982590902 -653.80528695905741 0 -653.80528695905741 1080.7820568225834 0 0 0 0 536.02251475251035 -535.255029270058 0 -535.255029270058 1327.1230599339742 0 0 0 0 423.66521646258616 -1020.5961767781591 0 -1020.5961767781591 882.78888761442067 0 0 0 0 187.79043016947676 -942.33429582206554 0 -942.33429582206554 1907.4140181204275 0 0 0 0 -29.773462906755764 -1255.0062748490163 0 -1255.0062748490163 1800.0327638709514 0 0 0 0 59.560027852267396 -1791.4707735196662 0 -1791.4707735196662 3494.808626581158 0 0 0 0 2524.2510642815496 -289.96984037934635 0 -289.96984037934635 73.617049501714064 0 0 0 0 2034.2971983421023 -2418.6971726153788 0 -2418.6971726153788 978.09004956639546 0 0 0 0 -648.49468851906317 360.29319266838866 0 360.29319266838866 3496.2516641464099 0 0 0 0 -7.5212715323634063 10.703365568047062 0 10.703365568047062 14.262311808959119 0 0 0 0 482.09953137787812 1242.7197597443119 0 1242.7197597443119 2349.4000022200817 0 0 0 0 380.33072695476244 496.26600405431964 0 496.26600405431964 1356.2795767248826 0 0 0 0 1.8314207844622101 -0.81570415943445518 0 -0.81570415943445518 16.021654742193988 0 0 0 0 -7.92855944137591 -11.72604030313596 0 -11.72604030313596 90.704092267878877 0 0 0 0 0.1074196456376586 -11.049944212038607 0 -11.049944212038607 67.863405898172431 0 0 0 0 -17.865994573699027 -5.1386054537538257 0 -5.1386054537538257 86.49837412427587 0 0 0 0 -403.04026379487232 -108.70525701564111 0 -108.70525701564111 43.349202309062093 0 0 0 0 -57.245830765201276 -506.49281666090246 0 -506.49281666090246 968.96734996114549 0 0 0 0 -157.95562150861997 -684.94629392545357 0 -684.94629392545357 663.27983815407788 0 0 0 0 -0.73657368394290224 -1.6320159163789469 0 -1.6320159163789469 8.4177191897652399 0 0 0 0 -485.44377093580329 113.11863542829997 0 113.11863542829997 66.025170397122565 0 0 0 0 -71.298428886302872 -517.39914791730371 0 -517.39914791730371 529.00092128982214 0 0 0 0 -4.186118143915337 -14.003978670720244 0 -14.003978670720244 71.991183443933551 0 0 0 0 -505.47862786499991 165.61542904715679 0 165.61542904715679 170.04415630592848 0 0 0 0 -2.7883489064611746 -15.465068995451261 0 -15.465068995451261 75.399169980627079 0 0 0 0 -11.15310262523019 -28.355721583106515 0 -28.355721583106515 87.761217135703191 0 0 0 0 -491.24222407832349 -303.55352057107666 0 -303.55352057107666 158.29589339424274 0 0 0 0 -8.5947090264203787 -1.7983575330564747 0 -1.7983575330564747 15.338688472271844 0 0 0 0 -989.51930416757909 -43.207495998649392 0 -43.207495998649392 461.25767385145809 0 0 0 0 -665.02029787650372 445.54456479015789 0 445.54456479015789 -258.30218907492963 0 0 0 0 -5.4670115446928094 -17.625723674744222 0 -17.625723674744222 99.507380828890746 0 0 0 0 -5.7229678869192782 -35.482912429647541 0 -35.482912429647541 19.306454401578272 0 0 0 0 -5.396603683240528 -19.126815194860683 0 -19.126815194860683 90.16911114211689 0 0 0 0 -9.7623840138885498 -19.27960804889517 0 -19.27960804889517 103.02905965038372 0 0 0 0 -3.9623477676859693 -16.197412436307786 0 -16.197412436307786 92.999797115793626 0 0 0 0 -7.3841536394089644 -8.3362121680256678 0 -8.3362121680256678 105.8244525941991 0 0 0 0 -2.4292958711293977 -5.550569465089211 0 -5.550569465089211 88.089023568993071 0 0 0 0 -838.48202277529401 -650.36826719585952 0 -650.36826719585952 2620.7123024364264 0 0 0 0 -9.043092219213511 10.790731814440036 0 10.790731814440036 3.6019466174405963 0 0 0 0 706.76535431122898 -1037.5906592863066 0 -1037.5906592863066 1324.0752336136429 0 0 0 0 -805.08473068176897 -455.20023712194234 0 -455.20023712194234 3491.9012096176448 0 0 0 0 52.271387279830805 483.93314980925061 0 483.93314980925061 3499.7273710405798 0 0 0 0 -14.902398414806001 7.1605388248286914 0 7.1605388248286914 9.4672672055596081 0 0 0 0 192.99956245511385 -13.524131068363204 0 -13.524131068363204 8.265027077839477 0 0 0 0 -69.676299511720572 -30.150003393078805 0 -30.150003393078805 163.90131255236338 0 0 0 0 3.3123393581439156 -2.3815786597137674 0 -2.3815786597137674 3.0059061105114218 0 0 0 0 -11.934777996943012 -9.6366897061052441 0 -9.6366897061052441 104.75396739038115 0 0 0 0 -13.898028327756947 -9.9123202032787958 0 -9.9123202032787958 109.75992874303847 0 0 0 0 8.5506580723310428 -9.9355643881721534 0 -9.9355643881721534 10.801041837191214 0 0 0 0 -18.476109515077649 -213.02951180632226 0 -213.02951180632226 3499.6455460976067 0 0 0 0 35.603657342569633 309.4418823329579 0 309.4418823329579 3173.7990105727877 0 0 0 0 -13.959469132306367 -7.6030785238690441 0 -7.6030785238690441 104.35589479579266 0 0 0 0 -6.700107964532549 -7.8233820385230501 0 -7.8233820385230501 102.0876659265341 0 0 0 0 -10.942379545857648 -12.696730254836439 0 -12.696730254836439 97.687593843467766 0 0 0 0 -14.729056897265252 6.3377872494966141 0 6.3377872494966141 107.41516832219349 0 0 0 0 358.0208538549424 741.90844537720841 0 741.90844537720841 1455.3333421517746 0 0 0 0 -5.6297377819302632 -13.429336374141101 0 -13.429336374141101 16.68029052664653 0 0 0 0 -9.681686939733499 -14.585690176987484 0 -14.585690176987484 7.0933427645156755 0 0 0 0 -17.785042034393715 -214.09711469401373 0 -214.09711469401373 3498.9395276468713 0 0 0 0 30.939237106664386 21.766532943220227 0 21.766532943220227 110.81025149715788 0 0 0 0 -15.727611303414733 -8.1727332370792283 0 -8.1727332370792283 114.34610047659135 0 0 0 0 2.4261717714492765 4.0450608755901669 0 4.0450608755901669 10.144450540748657 0 0 0 0 -6.8572172355345629 -7.8368345576309366 0 -7.8368345576309366 103.45210674168629 0 0 0 0 -25.473132205542015 -1.7349487935643992 0 -1.7349487935643992 102.70909778041187 0 0 0 0 -33.865465921999657 13.848141669550387 0 13.848141669550387 96.227934516311507 0 0 0 0 -14.657038219226479 5.8477819007403014 0 5.8477819007403014 91.52070507848839 0 0 0 0 -20.29696095551185 -5.6235055371944327 0 -5.6235055371944327 97.903536654658637 0 0 0 0 -14.81406643939988 -10.568578441070713 0 -10.568578441070713 98.510022047550592 0 0 0 0 -44.329744898424337 -16.220337819463339 0 -16.220337819463339 99.653978865841054 0 0 0 0 -49.136137659782776 22.537962283419802 0 22.537962283419802 97.286998749739723 0 0 0 0 -36.208003445919303 29.009993525818572 0 29.009993525818572 85.417364143271698 0 0 0 0 -14.839332033410528 20.138205767107138 0 20.138205767107138 85.943279702703876 0 0 0 0 -0.57568791085892368 -1.7017526323788275 0 -1.7017526323788275 26.166793765533015 0 0 0 0 -11.493776236075519 -13.285828168787702 0 -13.285828168787702 97.824087964667342 0 0 0 0 -15.735108490614834 -13.472207923305177 0 -13.472207923305177 100.70199850931385 0 0 0 0 -13.850761222785366 -16.124664530126665 0 -16.124664530126665 104.30437245836947 0 0 0 0 -15.005740114459059 -11.59196047444857 0 -11.59196047444857 99.756502656862722 0 0 0 0 18.984796750323767 68.902146815473316 0 68.902146815473316 300.38675050476741 0 0 0 0 -21.778357121622776 -1.999144602988963 0 -1.999144602988963 118.50113138925371 0 0 0 0 -30.235346240794254 -30.827249400545384 0 -30.827249400545384 8.9866828330725781 0 0 0 0 48.323718251358514 83.940383384568122 0 83.940383384568122 174.31015358838704 0 0 0 0 -3.0501725201426915 -2.8145202861230842 0 -2.8145202861230842 7.2993247808130235 0 0 0 0 23.435126647245397 61.682603716661106 0 61.682603716661106 311.66396745356906 0 0 0 0 67.641029787679827 141.10652669715819 0 141.10652669715819 325.35471578322904 0 0 0 0 -67.79363663334334 -10.563283645456977 0 -10.563283645456977 135.70831531297881 0 0 0 0 -18.496302522528822 -21.481866412486852 0 -21.481866412486852 105.52823419708875 0 0 0 0 -42.824458372449492 -24.200924921568927 0 -24.200924921568927 34.986086975615081 0 0 0 0 -16.266571695955918 -0.63269805929303402 0 -0.63269805929303402 86.424232947792916 0 0 0 0 -26.500242372687353 31.736260492929432 0 31.736260492929432 205.18752008719821 0 0 0 0 -27.738141901780182 30.347919508389168 0 30.347919508389168 269.89907458084417 0 0 0 0 -65.812312507754086 4.8815182566877411 0 4.8815182566877411 187.02184346652211 0 0 0 0 -3.285147560054523 21.417289651697072 0 21.417289651697072 133.23861189252307 0 0 0 0 30.43711631225051 56.503514231480949 0 56.503514231480949 108.57698890661777 0 0 0 0 0.16529721084916815 0.3723390940913589 0 0.3723390940913589 19.775126028272467 0 0 0 0 -279.92338584767413 44.843137843690783 0 44.843137843690783 265.60548278679198 0 0 0 0 1.0934800653401027 15.771660675742702 0 15.771660675742702 107.26473084303896 0 0 0 0 -19.182871913535564 49.662783721749292 0 49.662783721749292 114.2766260409735 0 0 0 0 -66.1895814303316 13.832729990488588 0 13.832729990488588 139.9349755580588 0 0 0 0 36.420430958784436 80.002868022778785 0 80.002868022778785 173.06528348738357 0 0 0 0 -1.6614601603597592 -4.1419298378364999 0 -4.1419298378364999 6.2922018744709902 0 0 0 0 5.4934709068820666 127.99373077683777 0 127.99373077683777 214.65678309563737 0 0 0 0 27.830560763075482 127.11030346131884 0 127.11030346131884 208.60254297996289 0 0 0 0 -3.9715627650584793 48.001305770270847 0 48.001305770270847 154.60224970614945 0 0 0 0 -52.959027379189138 52.32450725110175 0 52.32450725110175 215.27249019296141 0 0 0 0 -42.636427484143724 63.432333703678523 0 63.432333703678523 183.68290370562318 0 0 0 0 -71.498906321612594 60.498021077077283 0 60.498021077077283 127.50596496436629 0 0 0 0 -87.020303062383391 35.881419924084184 0 35.881419924084184 179.05305566443712 0 0 0 0 -59.587424497542997 77.549104199559224 0 77.549104199559224 192.70365429762023 0 0 0 0 -54.898073352366737 82.403191560850246 0 82.403191560850246 166.66348099054517 0 0 0 0 -45.161375728693656 62.403134824871813 0 62.403134824871813 193.64123859215761 0 0 0 0 11.280755018860418 113.1270649696944 0 113.1270649696944 196.2527337176507 0 0 0 0 43.496599806780068 154.26078993982446 0 154.26078993982446 205.39403521609711 0 0 0 0 6.4588371380868921 116.97570116199677 0 116.97570116199677 199.45795017600176 0 0 0 0 66.969750404235242 160.0594257446719 0 160.0594257446719 167.34534297999198 0 0 0 0 52.692113547382405 149.41132956101137 0 149.41132956101137 168.63870591106388 0 0 0 0 66.94054156764048 187.96251991487952 0 187.96251991487952 176.62419107153619 0 0 0 0 26.920542479728056 190.91211605640819 0 190.91211605640819 259.07835399119358 0 0 0 0 -58.778460110206879 176.61808774442761 0 176.61808774442761 257.45029041722592 0 0 0 0 -8.1044321636982204 140.34845339843741 0 140.34845339843741 201.67526102571719 0 0 0 0 -23.250824181885946 109.05981321580475 0 109.05981321580475 214.0836464199092 0 0 0 0 -22.80463517341741 129.44835414433328 0 129.44835414433328 247.47260910106706 0 0 0 0 -38.615292481167671 87.986394686748099 0 87.986394686748099 250.30156168001076 0 0 0 0 -45.366459409160598 60.537041009236418 0 60.537041009236418 191.65404161407787 0 0 0 0 -76.933970696015422 76.918825586573803 0 76.918825586573803 258.59026013106632 0 0 0 0 -93.788598190308221 -4.4639846930513158 0 -4.4639846930513158 336.91101488644199 0 0 0 0 -96.120957324600568 -19.363277864562406 0 -19.363277864562406 435.14421330337063 0 0 0 0 -55.589765862711829 -1.4215119837754173 0 -1.4215119837754173 319.35784711326778 0 0 0 0 12.878997428256525 283.11578626879054 0 283.11578626879054 381.63199012690166 0 0 0 0 -68.524643792323104 120.63295546458085 0 120.63295546458085 370.01860563020455 0 0 0 0 -141.39531873856691 200.90550279518357 0 200.90550279518357 498.52063098405779 0 0 0 0 -225.44916753101734 79.034337121469434 0 79.034337121469434 360.71396667874069 0 0 0 0 -150.39892424283039 243.28499630503211 0 243.28499630503211 377.35584542016386 0 0 0 0 -317.32414103458041 242.19753568867782 0 242.19753568867782 631.29636261458654 0 0 0 0 -390.03279542626029 -99.633187646690658 0 -99.633187646690658 441.27764287023456 0 0 0 0 -423.00729750113987 129.96296692399483 0 129.96296692399483 512.11649352529821 0 0 0 0 -1117.3473628435192 252.04205113978969 0 252.04205113978969 636.05180708612897 0 0 0 0 -34.21231750450022 -93.049931022973396 0 -93.049931022973396 567.63833606076514 0 0 0 0 -115.79386583757514 47.581853187613888 0 47.581853187613888 523.74346613302623 0 0 0 0 44.649800002472148 0.41851922512432793 0 0.41851922512432793 331.88204859335019 0 0 0 0 -43.336543648507359 -212.27626103023067 0 -212.27626103023067 417.62219349139195 0 0 0 0 -121.54962421967593 119.62278311741829 0 119.62278311741829 641.56238298052631 0 0 0 0 1.6469383288434627 -12.713828012217611 0 -12.713828012217611 -1.5458116248720444 0 0 0 0 29.540335152883927 25.626521608988696 0 25.626521608988696 430.75902341095207 0 0 0 0 -194.18654890023481 -91.000279228512227 0 -91.000279228512227 376.94809240598988 0 0 0 0 131.54733676568776 207.247948885597 0 207.247948885597 506.99845664694749 0 0 0 0 -91.198825644868066 256.8888275339159 0 256.8888275339159 918.29616712652933 0 0 0 0 -2.320831929655899 -1.3086440732315054 0 -1.3086440732315054 4.1242631440182151 0 0 0 0 -17.25828462388727 -33.42617477134749 0 -33.42617477134749 12.116995127745305 0 0 0 0 -52.879744108284285 9.0627980085700983 0 9.0627980085700983 15.699048595968634 0 0 0 0 -189.94027197456217 -221.4724353117781 0 -221.4724353117781 39.09458737456589 0 0 0 0 -119.12891500311434 1.7040092746028677 0 1.7040092746028677 169.93896759580593 0 0 0 0 -91.922473975562752 53.193292611071229 0 53.193292611071229 231.15754328016192 0 0 0 0 -53.258317304047694 17.620241193220409 0 17.620241193220409 201.14080550994549 0 0 0 0 160.904811676858 216.82987321561086 0 216.82987321561086 831.30041999428067 0 0 0 0 241.52903101332257 362.27927262891899 0 362.27927262891899 433.28847269411199 0 0 0 0 182.33863359779139 416.96180233378982 0 416.96180233378982 394.72086931453669 0 0 0 0 34.667655786814123 275.80188667643961 0 275.80188667643961 559.48066326335538 0 0 0 0 1.2378372788289016 -2.8782814352352517 0 -2.8782814352352517 8.4655950975816836 0 0 0 0 266.47891210214283 110.86642060120084 0 110.86642060120084 676.81526226157439 0 0 0 0 343.83140298480942 389.03663786237303 0 389.03663786237303 756.3232637642941 0 0 0 0 -0.033694406190197368 187.94667582914295 0 187.94667582914295 2018.5569316815527 0 0 0 0 -324.7045305447956 812.175768057401 0 812.175768057401 3495.8877500065428 0 0 0 0 -236.9945927122927 388.64584496137832 0 388.64584496137832 3030.8864806642814 0 0 0 0 124.94146238528725 179.27862780285977 0 179.27862780285977 1881.2922246428789 0 0 0 0 173.09935732545 673.16972081571294 0 673.16972081571294 2427.0775942160835 0 0 0 0 426.25444826229534 2034.2229540000772 0 2034.2229540000772 3498.3234223063992 0 0 0 0 149.93880078495695 448.91485600001351 0 448.91485600001351 1839.958382007535 0 0 0 0 297.85575157810786 1058.5582441876177 0 1058.5582441876177 2525.308818908321 0 0 0 0 305.54500338655964 1269.5238447817085 0 1269.5238447817085 1964.1217468086834 0 0 0 0 666.68677325997612 747.82494225632399 0 747.82494225632399 -1246.7197777160909 0 0 0 0 -825.99629351136855 -253.86913547728682 0 -253.86913547728682 986.18126334773842 0 0 0 0 -1.7752856972199587 1.4949286773674544 0 1.4949286773674544 10.034916735698118 0 0 0 0 0.61068291860674995 1.7523471425797368 0 1.7523471425797368 5.6079830670599193 0 0 0 0 -318.55977973321467 1190.0877541970112 0 1190.0877541970112 2205.8796912018151 0 0 0 0 -793.43041197693537 398.75922662393714 0 398.75922662393714 2254.9739999030871 0 0 0 0 0.85236421685730157 -2.0186653775232912 0 -2.0186653775232912 3.1186484941192703 0 0 0 0 204.73318961303281 96.287967014862261 0 96.287967014862261 292.0831477096508 0 0 0 0 46.492776066190487 529.71814631922098 0 529.71814631922098 -25.133640813000966 0 0 0 0 0.45653258458676965 -1.9682779235355703 0 -1.9682779235355703 10.209564864522576 0 0 0 0 195.4162552131171 -442.87844063816738 0 -442.87844063816738 -246.72375991263834 0 0 0 0 315.98059943752713 458.12196683706861 0 458.12196683706861 1814.4615363370176 0 0 0 0 -199.32064423383014 853.46293959536706 0 853.46293959536706 2054.7501475637255 0 0 0 0 -354.00456381228128 -296.97486511111492 0 -296.97486511111492 -85.223769582313253 0 0 0 0 683.35507439298283 -471.61074157837356 0 -471.61074157837356 -1367.9561900670233 0 0 0 0 -248.76457699204525 70.841096950407518 0 70.841096950407518 378.95006065296911 0 0 0 0 -50.55049678413593 310.9283919741647 0 310.9283919741647 -157.43552232833463 0 0 0 0 61.84166280076397 -124.45285230688023 0 -124.45285230688023 353.97082015275373 0 0 0 0 -139.27559998135149 332.97859129315475 0 332.97859129315475 542.20973235016572 0 0 0 0 -3.1075496807788006 0.67190660212699527 0 0.67190660212699527 0.54365161217413771 0 0 0 0 -89.499240168126789 27.287048658639833 0 27.287048658639833 124.97010679704545 0 0 0 0 -35.521247370408219 24.434842681046575 0 24.434842681046575 45.754878649720922 0 0 0 0 -9.1257723074123334 0.43488330432168709 0 0.43488330432168709 -1.2375566569614662 0 0 0 0 -91.101264742837884 20.830545814817015 0 20.830545814817015 103.43700801547857 0 0 0 0 -11.203364621349969 -4.9464332194911549 0 -4.9464332194911549 185.37435572230606 0 0 0 0 8.6449361708886006 13.593569204140749 0 13.593569204140749 135.5952763040259 0 0 0 0 9.403623025293502 -13.759096294728806 0 -13.759096294728806 234.62418624761631 0 0 0 0 32.127255698518013 41.063494724668999 0 41.063494724668999 65.095602146466263 0 0 0 0 26.091056802383918 82.990108557220083 0 82.990108557220083 182.34717987597833 0 0 0 0 1987.6852639533522 1998.5306944503682 0 1998.5306944503682 2016.6500319996521 0 0 0 0 651.69216337099056 -922.06263175223467 0 -922.06263175223467 1354.9606730409214 0 0 0 0 0.33575372869176057 0.38574487991755291 0 0.38574487991755291 15.553645665923 0 0 0 0 -1.1676643879632911 14.549375161008953 0 14.549375161008953 0.1094176533515423 0 0 0 0 -534.22571955327237 131.58176734305016 0 131.58176734305016 3494.2293970653991 0 0 0 0 -10.087932586570282 32.072489287995268 0 32.072489287995268 139.88827620548545 0 0 0 0 -6.7044130746851955 31.429012680790038 0 31.429012680790038 93.729395942298652 0 0 0 0 0.578252243781473 18.129043775697312 0 18.129043775697312 8.13653732254933 0 0 0 0 -454.08188588826027 141.09862373429678 0 141.09862373429678 2478.5110317478538 0 0 0 0 164.8334455878435 1456.5392544847855 0 1456.5392544847855 3496.0154022048182 0 0 0 0 -397.90477466645274 -793.70302009362786 0 -793.70302009362786 3484.541929755519 0 0 0 0 2.3236424503832125 1.6504963555710326 0 1.6504963555710326 3.9913033823002593 0 0 0 0 -19.399867308315379 0.82753907255028025 0 0.82753907255028025 101.64287074656022 0 0 0 0 -1.2885454531021545 8.7253254485531961 0 8.7253254485531961 87.043908960048725 0 0 0 0 -27.99944558496718 36.731427981357228 0 36.731427981357228 107.4511885328975 0 0 0 0 -0.90461129714278354 8.7912472515977615 0 8.7912472515977615 88.096817166219722 0 0 0 0 -9.0924796742656291 -1.8704785492955125 0 -1.8704785492955125 99.943619294551354 0 0 0 0 -37.577508542740858 -3.7033307297533611 0 -3.7033307297533611 131.86597332153906 0 0 0 0 -14.997375198402713 -2.4714325118202964 0 -2.4714325118202964 19.958188963718797 0 0 0 0 -8.623772274255316 -9.8298559856630163 0 -9.8298559856630163 118.99922356798925 0 0 0 0 -10.077031330107147 -4.880705086033478 0 -4.880705086033478 87.408550807756058 0 0 0 0 -10.273411495727032 -3.1424500782522955 0 -3.1424500782522955 123.7514912591796 0 0 0 0 -9.3435092127321013 -8.6545697338260652 0 -8.6545697338260652 117.54008522840741 0 0 0 0 -8.8120376628960457 5.0283264948084252 0 5.0283264948084252 99.889967406001233 0 0 0 0 -9.8655264854999132 -17.222326654798962 0 -17.222326654798962 100.1195712843255 0 0 0 0 -2.2343151552072413 -17.534240520250023 0 -17.534240520250023 110.95521081874176 0 0 0 0 -95.221353168425935 127.7014150658415 0 127.7014150658415 41.612624093657359 0 0 0 0 43.491789266702654 8.8222592157108011 0 8.8222592157108011 105.35605692637364 0 0 0 0 -4.6598829341393397 4.3488862019209762 0 4.3488862019209762 24.566591567423778 0 0 0 0 77.496829500280228 -173.34463937988039 0 -173.34463937988039 399.0844756904844 0 0 0 0 320.44947132796369 28.550201542508148 0 28.550201542508148 -136.52511973730725 0 0 0 0 216.71278862039162 254.8520349576429 0 254.8520349576429 223.41034303953347 0 0 0 0 -163.84200546254942 -214.9046824735633 0 -214.9046824735633 760.01260934017773 0 0 0 0 53.429858706735558 6.3281944111622579 0 6.3281944111622579 -66.509111556704738 0 0 0 0 1.0405807866488885 -1.24682423533811 0 -1.24682423533811 3.934023552183362 0 0 0 0 -19.975779690552372 229.53177629188576 0 229.53177629188576 -58.432655766686366 0 0 0 0 -5.208854754467211 -17.609376050055289 0 -17.609376050055289 111.12305836564337 0 0 0 0 -168.66949758452472 24.117968212569394 0 24.117968212569394 159.05734895041678 0 0 0 0 -102.37881744629749 -78.264723932705238 0 -78.264723932705238 116.61967362672294 0 0 0 0 -2.4480582184772466 0.88181891896468301 0 0.88181891896468301 5.0550234910793961 0 0 0 0 -39.724600431407453 -30.933214401062287 0 -30.933214401062287 108.16553043652311 0 0 0 0 -146.26476941181522 -34.957814861903898 0 -34.957814861903898 112.30170664082107 0 0 0 0 -129.09819464808379 6.208913890288386 0 6.208913890288386 161.72700015338432 0 0 0 0 16.951498183999945 -106.46770758287676 0 -106.46770758287676 15.448752841766691 0 0 0 0 -1.3361725981194681 1.3993107497632877 0 1.3993107497632877 -3.4843386841687547 0 0 0 0 -77.773096063094954 36.635961638039589 0 36.635961638039589 171.33388859263505 0 0 0 0 -96.065520036870112 -65.75221793379751 0 -65.75221793379751 42.513684456709598 0 0 0 0 -53.382761542919752 76.746661817604036 0 76.746661817604036 146.46188190086832 0 0 0 0 -228.62878079190955 -5.0442042277718429 0 -5.0442042277718429 254.29900473988528 0 0 0 0 -63.858094609642194 48.774148193493602 0 48.774148193493602 117.57691328562214 0 0 0 0 159.89017795580784 104.76304170645017 0 104.76304170645017 161.86974803409248 0 0 0 0 -41.687986565192944 22.459628918262752 0 22.459628918262752 130.92809329918236 0 0 0 0 1.0274420654558369 -5.1135738865554252 0 -5.1135738865554252 15.835773655348078 0 0 0 0 71.833798498219181 -119.92671314020208 0 -119.92671314020208 16.865582356258528 0 0 0 0 -384.87436755818419 -114.26731137224124 0 -114.26731137224124 297.99698951523169 0 0 0 0 150.68364444454505 28.458709351107245 0 28.458709351107245 -132.20829125108139 0 0 0 0 122.56404836622269 9.1768896746871178 0 9.1768896746871178 65.6811695790675 0 0 0 0 62.171847258315083 189.61948217051031 0 189.61948217051031 218.63805903671891 0 0 0 0 140.9029288785095 279.47632365320169 0 279.47632365320169 172.43104962713551 0 0 0 0 78.382370455415185 179.78575634305889 0 179.78575634305889 22.531966894079233 0 0 0 0 -156.46906288379691 169.64047795283841 0 169.64047795283841 315.72952576220268 0 0 0 0 -1.7553643688176073 0.30367751467404958 0 0.30367751467404958 2.9354121689065948 0 0 0 0 -6.9636941227738589 -170.59375212464965 0 -170.59375212464965 400.01483162530349 0 0 0 0 -176.71220804567906 305.96908851258195 0 305.96908851258195 118.83306825568434 0 0 0 0 -54.666109197399329 69.124540947959758 0 69.124540947959758 -37.815427802517661 0 0 0 0 -62.661512912500484 -117.81508183725236 0 -117.81508183725236 95.008766712133365 0 0 0 0 -0.63487677400468101 -108.86315826232749 0 -108.86315826232749 76.19357386334741 0 0 0 0 -35.281129024189568 -98.827340615345747 0 -98.827340615345747 75.256506366102258 0 0 0 0 272.96284769530962 -348.56537406854841 0 -348.56537406854841 293.75395830252091 0 0 0 0 182.2599229955199 -181.95030976091221 0 -181.95030976091221 -12.116153646481962 0 0 0 0 25.313944751369206 -197.46662045351513 0 -197.46662045351513 254.75481303056586 0 0 0 0 14.539342812818305 -180.77906009621074 0 -180.77906009621074 730.60761430949788 0 0 0 0 -65.291540881190613 7.8153234219162186 0 7.8153234219162186 408.05829577308032 0 0 0 0 20.621075575811346 -115.90144749518367 0 -115.90144749518367 207.70062947845872 0 0 0 0 -8.4444474688757509 188.45725062465499 0 188.45725062465499 251.71907080225355 0 0 0 0 -0.2032897499302635 127.41367463918868 0 127.41367463918868 375.80606099953002 0 0 0 0 18.898059696537302 215.31399497126404 0 215.31399497126404 668.03577584317827 0 0 0 0 0.12354482408982553 -4.9946115694491695 0 -4.9946115694491695 29.660526709575436 0 0 0 0 -1062.9784148349759 782.32726824854763 0 782.32726824854763 1526.7991795341513 0 0 0 0 515.12603127900002 207.86738756322302 0 207.86738756322302 890.26878442778252 0 0 0 0 1.1831357662545776 3.6383856342423684 0 3.6383856342423684 11.736506200080044 0 0 0 0 -186.09425930428739 135.1681996704483 0 135.1681996704483 -48.629154424212174 0 0 0 0 -27.753953920987225 -19.250978796384516 0 -19.250978796384516 22.976589631158276 0 0 0 0 0.38949100132102665 -32.664331202649919 0 -32.664331202649919 27.460928324071574 0 0 0 0 -54.390066235922575 -51.117181637222529 0 -51.117181637222529 133.42511182613089 0 0 0 0 -332.334867862495 -260.43846646544989 0 -260.43846646544989 -6.4998592631600332 0 0 0 0 135.93307529698103 266.02474451696435 0 266.02474451696435 310.41949081121129 0 0 0 0 1.8202082446274894 -7.7182935639020727 0 -7.7182935639020727 25.574028879605294 0 0 0 0 382.01314020369682 -338.41177094104933 0 -338.41177094104933 -79.78607794031268 0 0 0 0 954.29506627837964 -749.17424563800159 0 -749.17424563800159 -1389.5762755050091 0 0 0 0 1.1750987604151364 -2.8185528865971072 0 -2.8185528865971072 5.7347964460946059 0 0 0 0 -0.12112378114698528 -3.0194898199286269 0 -3.0194898199286269 10.897127517266199 0 0 0 0 3.9519634541006101 -568.18808892207016 0 -568.18808892207016 -382.85155998588016 0 0 0 0 -153.48016765203693 -318.2259402701311 0 -318.2259402701311 402.33807362124935 0 0 0 0 -196.38691528810932 -77.237897342994984 0 -77.237897342994984 565.50014024192933 0 0 0 0 -15.931491767621083 -173.8910489238333 0 -173.8910489238333 182.58334915513842 0 0 0 0 -185.25237299690696 -68.469412027496219 0 -68.469412027496219 158.06934487039689 0 0 0 0 338.40516944213988 313.2612002334572 0 313.2612002334572 320.12609895029163 0 0 0 0 -0.035029116216495564 0.3537778983183415 0 0.3537778983183415 6.0388619458335597 0 0 0 0 -2.8534438312831165 -10.673002086095948 0 -10.673002086095948 17.045274319098098 0 0 0 0 134.64062327614869 244.28831711057683 0 244.28831711057683 -9.7801127052807715 0 0 0 0 -0.14650587088662459 -1.4865376034031286 0 -1.4865376034031286 17.738639236652205 0 0 0 0 -93.939995662029332 23.966617812926415 0 23.966617812926415 -71.206785730075353 0 0 0 0 -81.027323928899818 82.824358139681863 0 82.824358139681863 -93.931233352952404 0 0 0 0 -97.013159691747433 28.126674827100942 0 28.126674827100942 164.52027946400631 0 0 0 0 85.785172213932583 -52.823211587983678 0 -52.823211587983678 -17.050429670709718 0 0 0 0 -334.4055516315118 248.57761402398683 0 248.57761402398683 83.597264590687701 0 0 0 0 2.2710206738636622 9.7362563566233362 0 9.7362563566233362 33.459587778604487 0 0 0 0 82.055790670946976 -54.485606409549291 0 -54.485606409549291 83.073744657609495 0 0 0 0 0.69905765117209739 -11.115042462130077 0 -11.115042462130077 74.288453731904156 0 0 0 0 68.412164240296136 -17.113685668806284 0 -17.113685668806284 66.318452702598734 0 0 0 0 25.867133815413354 41.18646162299774 0 41.18646162299774 48.431754370569251 0 0 0 0 -393.93316817865025 142.87065392769728 0 142.87065392769728 208.9358384346051 0 0 0 0 4.7839096463995334 15.791881353195151 0 15.791881353195151 50.278405420742502 0 0 0 0 -104.8357131255334 -40.130377377769037 0 -40.130377377769037 64.253630222039646 0 0 0 0 -80.513390849894677 -58.170501264452469 0 -58.170501264452469 133.6594079920178 0 0 0 0 -135.24040316594983 -98.290520473456127 0 -98.290520473456127 114.11751185674075 0 0 0 0 -212.71908842174116 -49.801573047348938 0 -49.801573047348938 173.03552733990364 0 0 0 0 -25.927292208140443 24.864662214822602 0 24.864662214822602 78.667031901772134 0 0 0 0 39.363569073719077 -34.431090984078764 0 -34.431090984078764 42.793661272182362 0 0 0 0 -1.3285183754170049 14.941010932350494 0 14.941010932350494 70.492539450308755 0 0 0 0 -8.0479013994363413 21.414589137202711 0 21.414589137202711 19.666288483771496 0 0 0 0 0.81908577862577658 -53.383497253176756 0 -53.383497253176756 39.464904303560616 0 0 0 0 -69.692243535215312 -29.391435725759948 0 -29.391435725759948 17.133928376264521 0 0 0 0 0.53841000901168901 1.997540288315534 0 1.997540288315534 3.4245066837140996 0 0 0 0 -55.359354973350946 7.5689566807996016 0 7.5689566807996016 70.245289049198618 0 0 0 0 -5.6109848990913633 9.812891891480831 0 9.812891891480831 50.482860590389464 0 0 0 0 0.093444815640486567 8.7343551436712374 0 8.7343551436712374 30.592586117948798 0 0 0 0 -7.5787315409615985 6.6348663215831039 0 6.6348663215831039 35.543692336283129 0 0 0 0 -0.71389539512279043 -21.822905088338302 0 -21.822905088338302 35.227949089014146 0 0 0 0 -0.88438458039854595 12.819382424379 0 12.819382424379 36.460633495407819 0 0 0 0 -6.4186488195578697 -5.3807538331817284 0 -5.3807538331817284 20.225620495151986 0 0 0 0 -59.617795186756666 31.848370430096111 0 31.848370430096111 51.352150361562963 0 0 0 0 -2.6885316145003029 -3.4497558228353427 0 -3.4497558228353427 4.0534110290116132 0 0 0 0 -11.43565008573114 -7.5178938112949254 0 -7.5178938112949254 70.422711073606479 0 0 0 0 1.4939734986408126 -23.329691458588968 0 -23.329691458588968 132.58420639613178 0 0 0 0 -38.605332110470954 19.931315413312404 0 19.931315413312404 86.688956246489397 0 0 0 0 -42.18016463204404 -20.657883713039155 0 -20.657883713039155 175.31327633214823 0 0 0 0 -7.5606892581554348 -39.922317168398877 0 -39.922317168398877 110.16457765780797 0 0 0 0 -1.6667672067868686 0.4714179274406689 0 0.4714179274406689 3.0593267437304235 0 0 0 0 -2.2840986386150348 -118.81717698832153 0 -118.81717698832153 348.89535775489639 0 0 0 0 6.5940971004115454 -61.38370243623649 0 -61.38370243623649 142.57553477576585 0 0 0 0 4.5621156214156144 105.36585506162373 0 105.36585506162373 185.29930461473123 0 0 0 0 14.949477234533333 35.76190170859627 0 35.76190170859627 56.97987792679487 0 0 0 0 -34.646368230453845 13.537959041786962 0 13.537959041786962 127.21739864774281 0 0 0 0 -36.464106194654505 34.84623395800736 0 34.84623395800736 204.0387170874892 0 0 0 0 2.5626934248818998 -71.552580031935577 0 -71.552580031935577 2.43542810503277 0 0 0 0 -7.4182555185294063 -3.2686670410637646 0 -3.2686670410637646 27.123783172097262 0 0 0 0 111.87228061532369 48.809096069948282 0 48.809096069948282 0.905359473440285 0 0 0 0 -141.41573288109794 297.5361364956043 0 297.5361364956043 7.7424184858100489 0 0 0 0 -154.1749163396812 145.67142358774709 0 145.67142358774709 105.00330867726007 0 0 0 0 44.829825985425032 71.215458108668827 0 71.215458108668827 44.307895046789781 0 0 0 0 -39.428289570736524 -26.813338519503304 0 -26.813338519503304 44.071466480614617 0 0 0 0 -1.8957986072778112 -141.55252385032691 0 -141.55252385032691 -59.398408714070683 0 0 0 0 105.48135692496965 94.054156932725618 0 94.054156932725618 113.88808788485767 0 0 0 0 -4.335314071858317 -13.904987369758928 0 -13.904987369758928 6.7029010907139082 0 0 0 0 -18.467544265703509 -51.283597152778384 0 -51.283597152778384 -52.383571520884288 0 0 0 0 106.87748185941382 115.79342170812743 0 115.79342170812743 142.21939837950049 0 0 0 0 -28.652090845209031 -13.143131894671271 0 -13.143131894671271 60.386640624269916 0 0 0 0 113.56973104835924 74.4488531790048 0 74.4488531790048 120.33712756560271 0 0 0 0 -16.021289667392921 -1.2414281019300688 0 -1.2414281019300688 37.615216493337357 0 0 0 0 -17.877594791538677 0.93970097923273954 0 0.93970097923273954 46.706905054284277 0 0 0 0 115.51055578539308 53.742018505419765 0 53.742018505419765 52.025112164898019 0 0 0 0 -2.7273780240886119 19.392392554603155 0 19.392392554603155 35.026407699636053 0 0 0 0 110.21661199492519 45.614079155488071 0 45.614079155488071 35.379506897093961 0 0 0 0 107.13738677016727 38.693566095082133 0 38.693566095082133 23.130026875769545 0 0 0 0 99.320752370647824 46.214602045361971 0 46.214602045361971 59.24442249785352 0 0 0 0 94.126276281645914 31.370885384978465 0 31.370885384978465 34.421073908895778 0 0 0 0 71.749504663646803 12.977485772975342 0 12.977485772975342 29.106094894937996 0 0 0 0 77.838155432458734 31.923738442805188 0 31.923738442805188 50.360882742970716 0 0 0 0 31.11661676054397 25.133138085606248 0 25.133138085606248 23.947043280518614 0 0 0 0 14.860348984742416 -1.8230078254233035 0 -1.8230078254233035 -9.0851593884488011 0 0 0 0 82.427976105537709 -35.798573779746221 0 -35.798573779746221 26.589091730158543 0 0 0 0 80.578016811250791 -34.370056425705116 0 -34.370056425705116 72.128401600988582 0 0 0 0 23.722087931932027 7.1036085148076893 0 7.1036085148076893 10.052130302732287 0 0 0 0 74.730352549158738 23.635801030776449 0 23.635801030776449 6.5863397269406505 0 0 0 0 65.721133587445365 -77.203969761569169 0 -77.203969761569169 -155.94529382936526 0 0 0 0 355.06270560615155 -126.96236495133144 0 -126.96236495133144 -315.86726171846385 0 0 0 0 901.6990049893393 547.62723026109234 0 547.62723026109234 351.57023339570878 0 0 0 0 109.41274397310735 410.04265418689465 0 410.04265418689465 2622.1755477438492 0 0 0 0 259.36291164401871 -650.42731706457926 0 -650.42731706457926 961.93345457760734 0 0 0 0 128.54735249659427 -75.165212697720563 0 -75.165212697720563 -38.076856857689563 0 0 0 0 198.55078414756622 -250.47052689186239 0 -250.47052689186239 -21.421835421611377 0 0 0 0 8.5291505997379318 -181.59853841311997 0 -181.59853841311997 147.45710198722372 0 0 0 0 146.535312184161 -124.03565987511683 0 -124.03565987511683 50.49972858018009 0 0 0 0 113.37277126111599 -153.85615896049421 0 -153.85615896049421 133.49461913273262 0 0 0 0 -141.29565811669818 -17.502342393003346 0 -17.502342393003346 632.5441885455657 0 0 0 0 116.70043171321947 -325.62334095513324 0 -325.62334095513324 286.09418171072321 0 0 0 0 -147.36308621965691 47.008981347622466 0 47.008981347622466 -16.861430609402305 0 0 0 0 -7.6203422171856801 -93.306682178538722 0 -93.306682178538722 74.688481978198979 0 0 0 0 18.785818670588924 -188.71768321027048 0 -188.71768321027048 151.81651600368787 0 0 0 0 -13.801398992458417 3.1208031521964585 0 3.1208031521964585 153.38470984381274 0 0 0 0 -24.955632084600438 -116.21464946681954 0 -116.21464946681954 286.67467486778332 0 0 0 0 -26.135128675487977 -96.87955412825977 0 -96.87955412825977 146.65270174590114 0 0 0 0 47.298993950692875 -127.27065624586248 0 -127.27065624586248 128.94950605695703 0 0 0 0 86.299114157766553 -61.393887881728006 0 -61.393887881728006 117.82990550872637 0 0 0 0 59.258703233911547 -67.7211396444618 0 -67.7211396444618 133.95603838574607 0 0 0 0 134.38839263745399 -62.731697896015248 0 -62.731697896015248 63.447407528423355 0 0 0 0 102.88791789534605 -86.879354486736702 0 -86.879354486736702 108.17718137323391 0 0 0 0 33.099954520236224 -2.3084465405263472 0 -2.3084465405263472 89.467745333167841 0 0 0 0 7.8292732697744363 0.29602039941251235 0 0.29602039941251235 -0.33870024714752844 0 0 0 0 67.405288465692138 18.708579248661408 0 18.708579248661408 -22.868119061837206 0 0 0 0 50.378973707230216 -67.428131803382712 0 -67.428131803382712 104.48978045689 0 0 0 0 10.161170641439902 -8.3223408349275729 0 -8.3223408349275729 2.1492472950142485 0 0 0 0 2.2234543073942632 -9.9221502973068709 0 -9.9221502973068709 65.05354338066536 0 0 0 0 -7.1982602833963938 12.359704008827975 0 12.359704008827975 54.011199852626305 0 0 0 0 12.951235374801399 6.8757975320622791 0 6.8757975320622791 4.2962043812076445 0 0 0 0 20.097675395044433 6.5943269607852812 0 6.5943269607852812 23.563382696044243 0 0 0 0 0.45388837283189787 -12.046376312959183 0 -12.046376312959183 71.25878237126517 0 0 0 0 -6.0639181060218554 -13.123757508700677 0 -13.123757508700677 12.874766034315726 0 0 0 0 -11.52602791032632 -12.322968659533217 0 -12.322968659533217 99.789646825389354 0 0 0 0 -142.96287451411808 -37.808763033259311 0 -37.808763033259311 144.39458558141632 0 0 0 0 -138.65781859156868 -41.133829139595036 0 -41.133829139595036 152.51740105863428 0 0 0 0 -37.099784933804045 -51.953804368114746 0 -51.953804368114746 -3.9574476332855255 0 0 0 0 108.77672836478087 -156.12585616001161 0 -156.12585616001161 181.70283580175601 0 0 0 0 -10.210825021528615 -14.14779726713968 0 -14.14779726713968 10.705683147279274 0 0 0 0 -71.20402572946486 89.192682125405554 0 89.192682125405554 10.785545858583646 0 0 0 0 -241.53799015312961 -23.928724168610643 0 -23.928724168610643 235.37969636369235 0 0 0 0 3.4612643148268276 26.977893643938771 0 26.977893643938771 89.64247538757138 0 0 0 0 -120.62171894039511 -79.969720855278865 0 -79.969720855278865 82.59385071923316 0 0 0 0 99.017013457607845 -207.45154779803124 0 -207.45154779803124 253.94715561725025 0 0 0 0 -9.6006428745893118 -15.194806064730571 0 -15.194806064730571 13.362202383106506 0 0 0 0 -64.205186812637294 15.291693268496601 0 15.291693268496601 235.72952185661825 0 0 0 0 -458.52760706400977 155.6255361415042 0 155.6255361415042 127.51010542103904 0 0 0 0 -248.98500896589212 -126.79886406236619 0 -126.79886406236619 216.23501623618358 0 0 0 0 9.2273895953956711 26.049684132306034 0 26.049684132306034 70.516889777769791 0 0 0 0 -187.92590030473588 174.99244395167079 0 174.99244395167079 31.370188320855959 0 0 0 0 -48.189308985514401 110.4598260142302 0 110.4598260142302 7.7152668113412801 0 0 0 0 -50.836770389400499 100.51970146371605 0 100.51970146371605 16.562413870939054 0 0 0 0 7.0571088570878828 86.44508674206736 0 86.44508674206736 15.437353309159334 0 0 0 0 -30.89535268662334 121.70459248500993 0 121.70459248500993 13.511762898632242 0 0 0 0 -22.779776753888711 99.557069567570579 0 99.557069567570579 -20.422901641737553 0 0 0 0 -0.028486481760845839 116.36819115230173 0 116.36819115230173 -9.9067216526018456 0 0 0 0 -27.024680587339788 80.885366368871473 0 80.885366368871473 -16.32038162687968 0 0 0 0 -38.153163753658589 62.517553521483933 0 62.517553521483933 10.121997979207663 0 0 0 0 -20.426355622799349 -36.991684512631764 0 -36.991684512631764 -5.5545464490132872 0 0 0 0 -7.4385622293778511 -1.3284461429883549 0 -1.3284461429883549 18.687575078954858 0 0 0 0 -57.044913918619613 -265.94737010268727 0 -265.94737010268727 13.426811229073792 0 0 0 0 -1.876048197048271 -1.3627840295013982 0 -1.3627840295013982 -0.4351516452378803 0 0 0 0 -0.032688079873989709 85.908754711039364 0 85.908754711039364 -83.202730868229992 0 0 0 0 -20.041710036731388 35.006555896351983 0 35.006555896351983 -170.28255909007567 0 0 0 0 86.92524327954925 -27.414247165135748 0 -27.414247165135748 -294.18906693696408 0 0 0 0 26.096691142123404 252.47185643133707 0 252.47185643133707 -173.33796248075669 0 0 0 0 5.9017512636810743 2.464644808859191 0 2.464644808859191 -0.028307904279799345 0 0 0 0 -40.547896304409733 76.366007502576394 0 76.366007502576394 -22.542795280700375 0 0 0 0 -28.712250730120104 43.843967899985728 0 43.843967899985728 -5.6706554328557104 0 0 0 0 3.8990049495311769 0.46956028464508393 0 0.46956028464508393 -1.3834943305797083 0 0 0 0 186.82071624665559 24.299919938628591 0 24.299919938628591 -193.5292719791687 0 0 0 0 241.59359482637797 237.72297510076896 0 237.72297510076896 -77.760281916045642 0 0 0 0 134.85171121149807 235.28069001378844 0 235.28069001378844 -39.871241449931404 0 0 0 0 150.04221662805048 262.09497127880422 0 262.09497127880422 4.0492097718888544 0 0 0 0 90.827006090580085 176.0191810277538 0 176.0191810277538 37.531747694440128 0 0 0 0 12.649181221818026 61.843504356886115 0 61.843504356886115 -116.38980761101448 0 0 0 0 3.7710830434669202 -1.0874407826961772 0 -1.0874407826961772 0.4544031483511688 0 0 0 0 23.545929310271305 71.194312949628511 0 71.194312949628511 -44.295539278144133 0 0 0 0 51.834283598712318 129.78546355674916 0 129.78546355674916 206.53325911193679 0 0 0 0 44.730914344026928 104.4530145935023 0 104.4530145935023 174.69006492324843 0 0 0 0 64.573495412883858 111.92647408899938 0 111.92647408899938 194.04606074871117 0 0 0 0 49.772342386650962 84.690939112420892 0 84.690939112420892 194.10466110103732 0 0 0 0 23.961260211518947 83.246606272445206 0 83.246606272445206 251.17691441271018 0 0 0 0 0.65240143731720757 -1.4994976597370595 0 -1.4994976597370595 0.95096332868629929 0 0 0 0 50.995511297555822 201.48245731956558 0 201.48245731956558 352.9119094766811 0 0 0 0 94.218248007847478 121.62420679297065 0 121.62420679297065 121.86871139523282 0 0 0 0 -46.553296790377317 -17.425213807746331 0 -17.425213807746331 -15.034469411126338 0 0 0 0 -36.250574530354243 4.9338937955253641 0 4.9338937955253641 160.48431706287374 0 0 0 0 -85.002550664136834 43.594596914041176 0 43.594596914041176 216.86841086647382 0 0 0 0 -45.37245351808042 7.7824602883410989 0 7.7824602883410989 81.472404201114841 0 0 0 0 -96.276109224958418 1.7866630269454618 0 1.7866630269454618 304.89972537195354 0 0 0 0 5.6493537281629571 2.7287623663827674 0 2.7287623663827674 0.59166028638964008 0 0 0 0 -118.60907059040164 144.84048520677607 0 144.84048520677607 23.484547836987986 0 0 0 0 40.161349394831632 83.393886239049607 0 83.393886239049607 342.21851837189752 0 0 0 0 -17.667789391906567 -23.633067253818353 0 -23.633067253818353 65.503983048122294 0 0 0 0 -3.8859138102477511 -18.29970691848207 0 -18.29970691848207 4.7091578882366321 0 0 0 0 -115.72510331720059 299.27332266411304 0 299.27332266411304 360.05683420860441 0 0 0 0 139.33773981943159 289.98259444164432 0 289.98259444164432 354.07591027589478 0 0 0 0 -61.389107735194102 77.755327496363861 0 77.755327496363861 406.45731998104748 0 0 0 0 77.033476127783615 226.18691338094141 0 226.18691338094141 364.14501692463818 0 0 0 0 294.40636303458086 92.596613137444365 0 92.596613137444365 230.79947567316412 0 0 0 0 3.5316455738476762 0.79057136734284938 0 0.79057136734284938 -0.69151016701653134 0 0 0 0 156.67925272509274 202.58373749963357 0 202.58373749963357 -79.414978967921343 0 0 0 0 128.16048287038211 39.983227811317192 0 39.983227811317192 -92.488042390079954 0 0 0 0 125.76745372877303 117.15211356011787 0 117.15211356011787 75.998120280295552 0 0 0 0 105.11299977062663 179.56251872561916 0 179.56251872561916 74.469031212065602 0 0 0 0 108.99335362567217 104.66857775879907 0 104.66857775879907 87.930976965550144 0 0 0 0 97.229695195983368 182.21811113866715 0 182.21811113866715 236.06505688019388 0 0 0 0 120.94826071375132 51.183480545401835 0 51.183480545401835 15.606448786187684 0 0 0 0 -62.507517005235059 26.928799098292075 0 26.928799098292075 -6.9598203686437046 0 0 0 0 25.040388535937382 -13.254262379752618 0 -13.254262379752618 -22.823986855079056 0 0 0 0 82.79159133930898 32.725160038105969 0 32.725160038105969 4.1143707791998168 0 0 0 0 83.94455462235419 26.752094167237374 0 26.752094167237374 33.18881560922091 0 0 0 0 -33.600072265548988 27.056271164099599 0 27.056271164099599 -50.422809373347263 0 0 0 0 -40.10832808633495 101.52719372459615 0 101.52719372459615 -85.240516897712951 0 0 0 0 -26.920369406166856 57.576637168009256 0 57.576637168009256 2.7972371863870649 0 0 0 0 -37.545026217811483 57.334709149205082 0 57.334709149205082 34.252039210281509 0 0 0 0 33.899606541368485 40.054283746056171 0 40.054283746056171 24.694198130491714 0 0 0 0 6.9476814897170698 20.297947510167432 0 20.297947510167432 12.026336953420468 0 0 0 0 51.256805317012841 18.961514615377439 0 18.961514615377439 5.1536748331938682 0 0 0 0 1.5908713740132043 36.419817377936852 0 36.419817377936852 45.658574604858586 0 0 0 0 17.36455874962553 51.933199489767503 0 51.933199489767503 34.29552850870823 0 0 0 0 52.919169458773467 -8.9257493709155824 0 -8.9257493709155824 12.554912168004194 0 0 0 0 65.38525806484661 20.883080267179821 0 20.883080267179821 4.6938109313610568 0 0 0 0 71.359050297808608 12.113798778264027 0 12.113798778264027 35.375470013284939 0 0 0 0 161.46327079382081 217.04545831074211 0 217.04545831074211 13.28641839417287 0 0 0 0 229.55382708847515 494.28244368555124 0 494.28244368555124 746.20860951175564 0 0 0 0 -64.669241385777696 158.93533456319346 0 158.93533456319346 800.32401384428522 0 0 0 0 -21.773235252785526 198.58702908168925 0 198.58702908168925 803.05387172609107 0 0 0 0 -37.636005526105237 172.07409672132599 0 172.07409672132599 759.58284224063391 0 0 0 0 48.783638690001226 56.09172951693472 0 56.09172951693472 803.03310144150373 0 0 0 0 58.304203693325007 77.252282256558829 0 77.252282256558829 913.61856445919693 0 0 0 0 53.582886772263919 224.0175912108607 0 224.0175912108607 611.47471244023291 0 0 0 0 17.265889788783625 217.47991911455574 0 217.47991911455574 703.81569074762228 0 0 0 0 83.742114476839561 400.8889893047126 0 400.8889893047126 1084.7986747541981 0 0 0 0 -92.984991068806721 -313.57859083892254 0 -313.57859083892254 -38.220170900185167 0 0 0 0 -145.02388242672896 -1.5758876739491825 0 -1.5758876739491825 444.7671945202128 0 0 0 0 -78.179410317283327 -40.854174399377371 0 -40.854174399377371 -56.6640369610177 0 0 0 0 -0.73418539359684409 -1.9990304213627894 0 -1.9990304213627894 5.1830829627474344 0 0 0 0 -236.29573137273837 357.44966826547898 0 357.44966826547898 2991.3708543497851 0 0 0 0 35.101997512444214 13.911249744470439 0 13.911249744470439 4.7025479777424621 0 0 0 0 306.30611802858743 450.50691259993437 0 450.50691259993437 1446.6347569369755 0 0 0 0 -28.687636350585308 130.49234927245561 0 130.49234927245561 -80.938654523803962 0 0 0 0 -79.639834565028423 114.00838763372303 0 114.00838763372303 73.497572629152273 0 0 0 0 39.555996034385657 -38.073223854589742 0 -38.073223854589742 -51.361160660395399 0 0 0 0 -45.181948062964921 51.76953439762201 0 51.76953439762201 157.30753263227962 0 0 0 0 120.22453368840979 152.74082718487989 0 152.74082718487989 74.690535190366063 0 0 0 0 243.85870969811492 123.82096932579589 0 123.82096932579589 42.617413069627219 0 0 0 0 338.27215204290002 120.08708585049838 0 120.08708585049838 -7.5084421070205281 0 0 0 0 338.29947542336686 44.899690243692021 0 44.899690243692021 -34.315490898326971 0 0 0 0 734.05503229399824 282.55298417143786 0 282.55298417143786 -123.04968745365841 0 0 0 0 278.29890446090906 615.4202068186878 0 615.4202068186878 810.94910177923157 0 0 0 0 -158.67316731414553 -166.26014570824191 0 -166.26014570824191 1365.886464002313 0 0 0 0 424.24720071100421 -0.030047678908886155 0 -0.030047678908886155 -298.52261450319202 0 0 0 0 -193.10942500574788 -84.899271831563965 0 -84.899271831563965 2461.0051017193546 0 0 0 0 191.3116070662511 620.2348851637289 0 620.2348851637289 2278.6335034879521 0 0 0 0 13.35860991314226 5.0664158808027935 0 5.0664158808027935 2.9055033228012874 0 0 0 0 -179.89240151764056 -277.88824378253958 0 -277.88824378253958 333.35412412860023 0 0 0 0 126.90134390159824 110.33812817749276 0 110.33812817749276 446.11118766138679 0 0 0 0 891.85436274642439 -257.13226405628666 0 -257.13226405628666 622.63623204985925 0 0 0 0 58.379491588584642 -186.0770350472776 0 -186.0770350472776 203.37078853840649 0 0 0 0 200.06428468009199 -148.34850696548892 0 -148.34850696548892 -88.392871253949124 0 0 0 0 1.2902227262255526 0.33518957446020181 0 0.33518957446020181 -2.4745743299415039 0 0 0 0 185.34206315966784 413.94065936492734 0 413.94065936492734 108.13931806470646 0 0 0 0 5.1064623041070831 -34.055467094295636 0 -34.055467094295636 21.212643607781501 0 0 0 0 -18.60299488840019 -40.462167635530932 0 -40.462167635530932 -139.421309555466 0 0 0 0 -4.6216045424182362 -3.8049106969322963 0 -3.8049106969322963 9.8049052001313441 0 0 0 0 -3.732431243361134 -35.336423926353746 0 -35.336423926353746 -137.88511697816284 0 0 0 0 13.36992891970965 -0.16176902778170188 0 -0.16176902778170188 64.277314299055433 0 0 0 0 -3.0990867726900575 3.8241408648309516 0 3.8241408648309516 63.966414903872646 0 0 0 0 7.3258028635437995 -6.7565314100138494 0 -6.7565314100138494 78.767074832037906 0 0 0 0 -20.558307625122325 -0.32766694946985808 0 -0.32766694946985808 57.456450739431602 0 0 0 0 -12.316733761507628 -16.648119320646352 0 -16.648119320646352 58.4066873956927 0 0 0 0 20.627982596831316 0.55564785259048222 0 0.55564785259048222 77.388560363351417 0 0 0 0 20.416046142189543 10.360566742745505 0 10.360566742745505 77.198722126318899 0 0 0 0 -5.9263720708071874 33.784392570787659 0 33.784392570787659 53.128098347009256 0 0 0 0 19.546913236410546 1.460088136846025 0 1.460088136846025 51.768935754276754 0 0 0 0 12.952754194035151 18.629759987121361 0 18.629759987121361 68.486363241723666 0 0 0 0 3.9864291380363284 25.357817897016503 0 25.357817897016503 71.920428065750457 0 0 0 0 23.198411712700135 36.072959522552992 0 36.072959522552992 32.65581348285923 0 0 0 0 54.97026799650348 8.0492010933521669 0 8.0492010933521669 52.989320148821207 0 0 0 0 122.19698847431732 74.938696506144879 0 74.938696506144879 47.467330891187885 0 0 0 0 90.422622225135456 4.8479143607000879 0 4.8479143607000879 16.468567297942172 0 0 0 0 -58.909156884039021 106.17050990596545 0 106.17050990596545 112.78826956643024 0 0 0 0 -67.694127050261386 -14.620825764392862 0 -14.620825764392862 59.874689689124352 0 0 0 0 -2.2165138206666573 -7.4177244013500427 0 -7.4177244013500427 9.7630811114086526 0 0 0 0 -0.32402836162236781 18.240631870557991 0 18.240631870557991 77.051022624851612 0 0 0 0 3.4625859925608893 7.5172939800941094 0 7.5172939800941094 85.619547112077271 0 0 0 0 6.3649427393652331 22.790527374374506 0 22.790527374374506 74.635867539614992 0 0 0 0 8.1741020291729001 84.42750618881837 0 84.42750618881837 826.78596432930499 0 0 0 0 -1.0677069863448541 -7.5610614098347213 0 -7.5610614098347213 23.001665595471792 0 0 0 0 7.9371125765228498 106.24746168362981 0 106.24746168362981 638.66261573989323 0 0 0 0 -13.905035240630088 31.023468360084777 0 31.023468360084777 52.096191920926344 0 0 0 0 36.392960150783438 89.487890096323099 0 89.487890096323099 61.632969756719831 0 0 0 0 -36.502761861708706 19.930678860397592 0 19.930678860397592 9.8833031903347432 0 0 0 0 17.990668433054612 21.126871348624462 0 21.126871348624462 19.069206067505888 0 0 0 0 -25.463267944214511 34.363936058380432 0 34.363936058380432 23.365565046333359 0 0 0 0 -14.529180781581204 22.714402102516033 0 22.714402102516033 3.492069799649471 0 0 0 0 -26.510825543237317 52.989782339853036 0 52.989782339853036 -18.39517820533365 0 0 0 0 -9.2938570786370747 33.365446250449168 0 33.365446250449168 3.2772593483095989 0 0 0 0 -14.691811556982657 23.261412448569899 0 23.261412448569899 3.0090382131384104 0 0 0 0 13.210182818268095 7.8562283115461469 0 7.8562283115461469 83.480363778948231 0 0 0 0 -8.3753035809316412 31.054178133209064 0 31.054178133209064 54.776406794427714 0 0 0 0 -9.6629060205103769 30.754499808164837 0 30.754499808164837 0.39182809726480627 0 0 0 0 -6.5290204035864576 132.36529954273499 0 132.36529954273499 -30.284147670434322 0 0 0 0 -45.844281848648166 38.808926582860295 0 38.808926582860295 45.842069524129329 0 0 0 0 42.499125991030496 214.70172883923806 0 214.70172883923806 276.79739172794507 0 0 0 0 60.571585529043588 67.197205894061426 0 67.197205894061426 -23.064445263327798 0 0 0 0 104.24071714541662 -113.81957866908851 0 -113.81957866908851 225.66615657453076 0 0 0 0 -94.346084598255757 -17.719284733582754 0 -17.719284733582754 212.7360621731641 0 0 0 0 -98.649709592202839 -57.033371010322298 0 -57.033371010322298 421.72956721423543 0 0 0 0 -16.877325319752174 13.385861115497391 0 13.385861115497391 -4.7132051144581055 0 0 0 0 2.8585999344073572 1.9665626059276065 0 1.9665626059276065 1.3834238829558245 0 0 0 0 28.842074383474937 33.103632796774036 0 33.103632796774036 -59.695529264070501 0 0 0 0 -179.33716765786949 0.93970315948536154 0 0.93970315948536154 803.60965307641163 0 0 0 0 42.145436786977825 70.60571181938576 0 70.60571181938576 628.31641439031955 0 0 0 0 -223.30774107859088 7.8813580698042642 0 7.8813580698042642 999.47762850509025 0 0 0 0 47.802777600043555 -417.05528230157506 0 -417.05528230157506 773.81094869825756 0 0 0 0 461.17713643778006 -854.33184980612714 0 -854.33184980612714 960.27445735604852 0 0 0 0 88.697027145807624 -262.37901533338299 0 -262.37901533338299 333.33117943347315 0 0 0 0 -219.03206573913559 -44.498572163790413 0 -44.498572163790413 1614.1602027639165 0 0 0 0 -15.315562899009365 18.249932632512355 0 18.249932632512355 -9.2602718261350674 0 0 0 0 280.80818824444259 15.981635863037809 0 15.981635863037809 82.992511534976074 0 0 0 0 82.923752395699012 -263.69918623193371 0 -263.69918623193371 333.35393391706748 0 0 0 0 188.55012395251015 -249.44943513073667 0 -249.44943513073667 14.975785223126877 0 0 0 0 44.4378615518782 -166.62329806674825 0 -166.62329806674825 168.25388778120396 0 0 0 0 -27.420263024605298 -138.23819664213033 0 -138.23819664213033 173.1700796977384 0 0 0 0 16.756474519949279 -124.07148038128798 0 -124.07148038128798 424.29713192849886 0 0 0 0 77.307641215784315 -49.002440475862386 0 -49.002440475862386 -100.8285851901237 0 0 0 0 -5.6883696559050607 -3.073128542549 0 -3.073128542549 -3.3843908042831572 0 0 0 0 198.14580464008532 -3.856936167620006 0 -3.856936167620006 -479.02353402767039 0 0 0 0 23.615067776826436 -100.68506106208224 0 -100.68506106208224 183.78337823686525 0 0 0 0 -2.6160524268042629 0.045445715286916766 0 0.045445715286916766 0.44929962766886433 0 0 0 0 -21.865475589618029 -69.845121037518766 0 -69.845121037518766 101.42742316244403 0 0 0 0 -32.267201809844209 -78.94646879110951 0 -78.94646879110951 218.65480750858842 0 0 0 0 44.173682731633562 -145.91742508039169 0 -145.91742508039169 111.44646450764412 0 0 0 0 2.4057188968110381 -82.116950488387374 0 -82.116950488387374 29.036434362264117 0 0 0 0 -28.924530986530272 -130.48483431054046 0 -130.48483431054046 84.913184049037227 0 0 0 0 -0.83179225979348725 -45.645809205307287 0 -45.645809205307287 115.75324914451207 0 0 0 0 3.395974355434435 -46.405069296196174 0 -46.405069296196174 117.21255887595015 0 0 0 0 -77.750255201672474 -106.75353943877417 0 -106.75353943877417 171.81035751452146 0 0 0 0 7.4510553402878941 -59.558369511443743 0 -59.558369511443743 116.93712531472374 0 0 0 0 8.9266497472588071 -27.505738927367929 0 -27.505738927367929 137.23962086890242 0 0 0 0 -3.5287484292041427 -45.122768490713497 0 -45.122768490713497 134.15826626664784 0 0 0 0 22.312893603688735 -25.969137607844459 0 -25.969137607844459 141.76411514954816 0 0 0 0 22.646026678206908 -43.608844775448233 0 -43.608844775448233 146.45319050488069 0 0 0 0 65.10887644329523 -59.404854042171792 0 -59.404854042171792 140.13877134520453 0 0 0 0 78.245654791951438 -31.590458921287791 0 -31.590458921287791 137.33407578947845 0 0 0 0 74.911768338465663 -46.209628052914013 0 -46.209628052914013 138.15300605157972 0 0 0 0 71.755758136383292 -45.780306039638162 0 -45.780306039638162 166.35763227638381 0 0 0 0 23.336335227149043 36.781577911465732 0 36.781577911465732 39.798182018905628 0 0 0 0 -7.3669873293019918 368.07960727392492 0 368.07960727392492 60.742204127470814 0 0 0 0 54.618325204440339 -28.961554803936451 0 -28.961554803936451 124.56554626699653 0 0 0 0 13.344061228748615 -35.272914047043741 0 -35.272914047043741 149.65949199928946 0 0 0 0 -105.48337822228359 -2.4274077779264189 0 -2.4274077779264189 156.75110381955164 0 0 0 0 5.7786301802819118 16.447143376894417 0 16.447143376894417 63.231393853093536 0 0 0 0 24.66872113977297 65.959060732771832 0 65.959060732771832 352.47454576824384 0 0 0 0 15.44681471167678 1.1643683716320083 0 1.1643683716320083 -3.4568183847695764 0 0 0 0 -95.846519360052298 -84.474101373991289 0 -84.474101373991289 195.5867276334393 0 0 0 0 -1.5715869715477311 -82.483963405269606 0 -82.483963405269606 145.8079908779473 0 0 0 0 32.913937072857152 -34.058663546155003 0 -34.058663546155003 66.712339880883519 0 0 0 0 -19.761977151550354 -42.337758535388957 0 -42.337758535388957 109.76517531805439 0 0 0 0 4.2300871047489181 -3.8784434030130797 0 -3.8784434030130797 81.255396296515755 0 0 0 0 -15.263140277062575 -3.8474036751813401 0 -3.8474036751813401 156.31177687616582 0 0 0 0 -2.9665412741463459 -19.461618619723922 0 -19.461618619723922 84.555334776921313 0 0 0 0 -66.91993504564482 -6.8190493188230903 0 -6.8190493188230903 202.73957223851176 0 0 0 0 5.3410350941890101 0.71353232047749771 0 0.71353232047749771 94.561827875048039 0 0 0 0 -5.6332622094901605 25.160123451193485 0 25.160123451193485 81.10195031354408 0 0 0 0 -45.896025933087145 142.078292259579 0 142.078292259579 91.808459416293772 0 0 0 0 -67.028555667723367 -7.7685529048176249 0 -7.7685529048176249 214.22469055827969 0 0 0 0 -65.029728555172596 -21.495524506637594 0 -21.495524506637594 202.44323598709889 0 0 0 0 1.0724604266426616 -40.178091312901117 0 -40.178091312901117 131.40020819725552 0 0 0 0 -41.704503045123488 -3.7774811632625642 0 -3.7774811632625642 201.77406255609822 0 0 0 0 0.12712575077168212 150.335788139746 0 150.335788139746 844.06120200425357 0 0 0 0 -198.36535442059346 46.467659532550897 0 46.467659532550897 810.15347636600927 0 0 0 0 5.4365707227377698 66.517960935845622 0 66.517960935845622 805.38746725637611 0 0 0 0 -98.84477757945848 -13.483649832476658 0 -13.483649832476658 583.63376989358221 0 0 0 0 -50.421193138372139 122.29864050570995 0 122.29864050570995 666.28010750554677 0 0 0 0 -31.696157391577643 -10.218204745801813 0 -10.218204745801813 630.89632453849481 0 0 0 0 -0.10480542253538221 132.55249320426083 0 132.55249320426083 501.63981871621218 0 0 0 0 0.10808872514783316 128.84371509113097 0 128.84371509113097 100.74183738915599 0 0 0 0 -53.979242280880044 104.87021539493071 0 104.87021539493071 194.91426368877001 0 0 0 0 -41.305676434931144 67.684161993420275 0 67.684161993420275 122.49381478357827 0 0 0 0 44.124325430509657 2.8714866073569283 0 2.8714866073569283 192.72415821954201 0 0 0 0 -19.192101995891562 4.870664557107375 0 4.870664557107375 64.555655756945271 0 0 0 0 -24.838763934827909 114.44181349590508 0 114.44181349590508 -12.619755198997154 0 0 0 0 -304.10141318426884 162.29211446772388 0 162.29211446772388 142.0956453786057 0 0 0 0 -521.46157453633532 343.38813119389306 0 343.38813119389306 216.85863427362347 0 0 0 0 6.15448116995164 19.169690184861686 0 19.169690184861686 50.254761809973786 0 0 0 0 -200.87551478011008 -344.65106203292453 0 -344.65106203292453 780.13663779891795 0 0 0 0 -316.62943548812427 -164.36395697490298 0 -164.36395697490298 1091.1882024187944 0 0 0 0 -214.777728630615 112.45844423912331 0 112.45844423912331 950.91760762619379 0 0 0 0 -191.55803047981306 272.42689652282934 0 272.42689652282934 1609.7699207145924 0 0 0 0 -102.40500591552086 81.319377703293867 0 81.319377703293867 755.12694591035006 0 0 0 0 924.09154636137282 797.39126229846443 0 797.39126229846443 938.79485952833784 0 0 0 0 -562.63502830320454 535.1155579341721 0 535.1155579341721 1532.1174971448527 0 0 0 0 1399.8442732041776 -683.44025174897979 0 -683.44025174897979 907.74513248154108 0 0 0 0 1798.3275743024819 194.77907886908361 0 194.77907886908361 86.215732806187589 0 0 0 0 -153.91971047275774 667.44769599258143 0 667.44769599258143 -254.62226987504982 0 0 0 0 -259.26664045392954 -75.949331586136395 0 -75.949331586136395 440.6693921883998 0 0 0 0 -167.39141042647054 134.95691180435006 0 134.95691180435006 311.13587152968103 0 0 0 0 -8.0248302832063967 -4.5632287952288948 0 -4.5632287952288948 8.5357148125113724 0 0 0 0 -0.86718313750199494 -0.52340824710935863 0 -0.52340824710935863 1.5051418742661582 0 0 0 0 240.8668490100348 -425.08822193990636 0 -425.08822193990636 -787.02014508537104 0 0 0 0 -141.38392820549257 464.94857663770381 0 464.94857663770381 931.94250764549361 0 0 0 0 -1107.6181868941576 -134.48160306728823 0 -134.48160306728823 1007.6602557098668 0 0 0 0 34.10449172344579 619.42294707638575 0 619.42294707638575 321.47626768934424 0 0 0 0 731.63521667374584 682.44596523731707 0 682.44596523731707 92.950446985574672 0 0 0 0 276.62597442850188 1017.1572031627438 0 1017.1572031627438 907.22861445974559 0 0 0 0 3.6043007071187052 8.4459366929105428 0 8.4459366929105428 18.45785248560486 0 0 0 0 -46.52877755689326 65.938725307045388 0 65.938725307045388 -97.588464963570004 0 0 0 0 155.88121967104939 346.99490980127302 0 346.99490980127302 222.65767339233571 0 0 0 0 144.40104529411428 454.38781988101982 0 454.38781988101982 334.10186169249937 0 0 0 0 142.37043484715059 472.76794606615658 0 472.76794606615658 283.0632896192983 0 0 0 0 163.19388501959565 547.58396182597426 0 547.58396182597426 481.41933611029526 0 0 0 0 458.84909675657855 953.01536582397966 0 953.01536582397966 1560.007957562475 0 0 0 0 146.29983186752725 331.1375102706661 0 331.1375102706661 435.29397489702387 0 0 0 0 1018.0768765146445 289.74587150946172 0 289.74587150946172 -75.979402657452738 0 0 0 0 11.113111479748515 5.8835465476897326 0 5.8835465476897326 3.811395191625877 0 0 0 0 553.82326796241523 388.49692575743393 0 388.49692575743393 185.20301178079535 0 0 0 0 57.325472789027117 36.31058478574414 0 36.31058478574414 96.007986902930497 0 0 0 0 -14.392839477471973 24.422376946256918 0 24.422376946256918 18.923128056674614 0 0 0 0 -22.212525105218319 4.5872264377678107 0 4.5872264377678107 1.0848666337806776 0 0 0 0 226.58027415063589 457.6839943775849 0 457.6839943775849 450.04886843146232 0 0 0 0 106.48598518500785 222.59849495482194 0 222.59849495482194 138.81656107489835 0 0 0 0 -3.8361467408903991 4.0629699606652139 0 4.0629699606652139 20.374243523394398 0 0 0 0 0.80038573452441142 9.2127884610599722 0 9.2127884610599722 6.6170170903933467 0 0 0 0 584.84625515802588 -154.68585578918646 0 -154.68585578918646 270.70861038917792 0 0 0 0 5.0918986056103819 3.5424093171704669 0 3.5424093171704669 1.6413353079918807 0 0 0 0 -10.257435346958772 20.55171231017448 0 20.55171231017448 -3.0000351666240022 0 0 0 0 -62.296216825422547 -146.31195877482969 0 -146.31195877482969 454.70852155034663 0 0 0 0 1.5697677770629717 2.8373192978148722 0 2.8373192978148722 3.689007548968334 0 0 0 0 -117.29568139994846 -223.48920042513237 0 -223.48920042513237 609.07004129934649 0 0 0 0 -51.256770979427188 -57.967446416339953 0 -57.967446416339953 698.04272671914077 0 0 0 0 -31.726097546166329 90.311020726985589 0 90.311020726985589 431.398146513151 0 0 0 0 -7.1389525567551573 344.592012175126 0 344.592012175126 1071.7405443994267 0 0 0 0 -116.84581418601078 -207.67680079382262 0 -207.67680079382262 970.55729920059093 0 0 0 0 2.8010785038812758 -3.5926656454080472 0 -3.5926656454080472 3.9599388295352469 0 0 0 0 667.07571520989177 -104.08455360453809 0 -104.08455360453809 29.348334884387441 0 0 0 0 67.692143322215998 99.138307009188793 0 99.138307009188793 -42.62742888025241 0 0 0 0 -1.2773318062462717 0.069948417257762685 0 0.069948417257762685 1.942469787891838 0 0 0 0 -60.321738719753739 -82.169637590595812 0 -82.169637590595812 80.620910401601577 0 0 0 0 4.9251796511407111 -5.5851116034698691 0 -5.5851116034698691 4.4443560679532084 0 0 0 0 -1.871446631611974 -3.026113692715569 0 -3.026113692715569 2.5176080755552448 0 0 0 0 24.511348231378633 -127.52102558228216 0 -127.52102558228216 22.820916892897003 0 0 0 0 8.7573683890966549 -9.5158758634788683 0 -9.5158758634788683 12.357848244821071 0 0 0 0 3.8936532250804392 -5.8526168772743006 0 -5.8526168772743006 6.1279999296076824 0 0 0 0 4.0120939760754482 -7.6402929482501349 0 -7.6402929482501349 4.8488808034744579 0 0 0 0 18.299679631092999 -55.746103011784726 0 -55.746103011784726 364.95055587755633 0 0 0 0 3.703000821767001 -6.0776055585331505 0 -6.0776055585331505 5.4499095918426974 0 0 0 0 0.80092588152821964 -2.3573700309839865 0 -2.3573700309839865 1.3832614510276926 0 0 0 0 9.0785017035564124 -69.997422119637122 0 -69.997422119637122 473.91731959531171 0 0 0 0 -9.4974874903602995 4.1240597228897968 0 4.1240597228897968 14.617903237362043 0 0 0 0 -10.828248211723121 -36.492353168825503 0 -36.492353168825503 0.18580191385262879 0 0 0 0 5.6154404834396701 -9.2730152216900024 0 -9.2730152216900024 15.268126015580492 0 0 0 0 5.5417412082033479 -12.015190441248706 0 -12.015190441248706 14.569041301583638 0 0 0 0 6.9608179984770686 -8.1346974499574571 0 -8.1346974499574571 15.989045839756727 0 0 0 0 9.5076706659287353 -7.3783554254290493 0 -7.3783554254290493 5.3019362521742011 0 0 0 0 2.0758071425710796 -4.8353806203303975 0 -4.8353806203303975 17.650839219786576 0 0 0 0 0.13558982808194742 -8.0150263128380175 0 -8.0150263128380175 41.33944450236595 0 0 0 0 7.6779275100053326 -6.3797399887471329 0 -6.3797399887471329 18.513571897288784 0 0 0 0 -0.081175993782410666 -0.49340600369144205 0 -0.49340600369144205 11.710687093888112 0 0 0 0 -22.475457959759297 -74.729512007295853 0 -74.729512007295853 -115.97765503487608 0 0 0 0 1.7999352952076477 -2.4068025557644148 0 -2.4068025557644148 10.155140539424039 0 0 0 0 -0.885067901889105 -1.8342157421557204 0 -1.8342157421557204 5.5026536546065472 0 0 0 0 0.98330167534471868 -1.7789686028228857 0 -1.7789686028228857 8.5413393230898578 0 0 0 0 -43.36110371064342 -29.551346087580896 0 -29.551346087580896 83.919742609723471 0 0 0 0 -28.995121791401743 -47.279482268022548 0 -47.279482268022548 37.082365533802658 0 0 0 0 -13.208169061263334 -27.101155018011923 0 -27.101155018011923 28.651713626954006 0 0 0 0 -11.970391430234599 33.933077757599676 0 33.933077757599676 94.525485984253464 0 0 0 0 454.66357526780007 -76.526349165193096 0 -76.526349165193096 336.14306162913272 0 0 0 0 20.98873239989598 -111.3066125871992 0 -111.3066125871992 333.50861791070929 0 0 0 0 -69.63756400861871 -212.3444469965707 0 -212.3444469965707 927.15608481779054 0 0 0 0 -14.030687987135707 -233.29779946200142 0 -233.29779946200142 590.61571392326732 0 0 0 0 -45.713509360776868 -114.5980804948922 0 -114.5980804948922 466.98692530862354 0 0 0 0 15.563534705101176 20.690074066194938 0 20.690074066194938 401.6843435574192 0 0 0 0 -60.403308660316725 -78.43394797212386 0 -78.43394797212386 682.61848889727844 0 0 0 0 -40.410899664148616 -73.529430676397169 0 -73.529430676397169 668.75733158281218 0 0 0 0 58.305071058733915 140.21219206029491 0 140.21219206029491 685.99598094518296 0 0 0 0 1008.3855211970276 -605.51771371223003 0 -605.51771371223003 -270.65110130473442 0 0 0 0 -37.923622230715694 23.43620106239905 0 23.43620106239905 1002.4040222437616 0 0 0 0 -0.26112869764008728 -2.1240571348629942 0 -2.1240571348629942 4.9948862695771084 0 0 0 0 -135.65380075112307 -205.45065733928641 0 -205.45065733928641 -282.97561236929687 0 0 0 0 -21.847212948867764 148.4226371634395 0 148.4226371634395 950.88001198938582 0 0 0 0 417.58360210655837 -334.27654130279552 0 -334.27654130279552 251.67037912899832 0 0 0 0 -23.98990234675648 118.3526757964064 0 118.3526757964064 795.21030182534014 0 0 0 0 88.95567811854653 265.26243951990909 0 265.26243951990909 768.72061447607848 0 0 0 0 166.61160177765623 273.84467225644039 0 273.84467225644039 751.78454758019507 0 0 0 0 -141.0633153978531 36.985113374921639 0 36.985113374921639 1085.8979068996996 0 0 0 0 -116.10297056711215 192.77471627736668 0 192.77471627736668 678.38567468701513 0 0 0 0 -138.11904312440697 261.51072285811824 0 261.51072285811824 890.1382402514173 0 0 0 0 -0.79145474365444457 0.92705689321110185 0 0.92705689321110185 1.5301731735834636 0 0 0 0 -6.4780602076493778 100.42533561726304 0 100.42533561726304 484.02817027101992 0 0 0 0 -95.738273521186784 18.970089333735814 0 18.970089333735814 478.1124332832278 0 0 0 0 88.273997830940743 61.291654292690509 0 61.291654292690509 -65.34900174906943 0 0 0 0 166.54221773616325 -56.150986608830863 0 -56.150986608830863 -30.146616634126985 0 0 0 0 14.912280174536363 -14.884274926051148 0 -14.884274926051148 16.868318231376179 0 0 0 0 3.4224230803392253 4.07331112044983 0 4.07331112044983 4.796862642341182 0 0 0 0 -2.6161020177999035 8.2745906207710505 0 8.2745906207710505 21.171086297777947 0 0 0 0 -4.8479925033198015 -15.678099355558516 0 -15.678099355558516 42.029302572627785 0 0 0 0 -0.0458789413028029 0.43571176523457211 0 0.43571176523457211 3.2787476436423617 0 0 0 0 -6.7389544710358473 -17.817522238291076 0 -17.817522238291076 58.671561929470045 0 0 0 0 14.847549504265658 -27.797956570895622 0 -27.797956570895622 58.556496691540815 0 0 0 0 -1.1739741804789219 -2.5435538158635609 0 -2.5435538158635609 8.4993357441562694 0 0 0 0 -8.4810798697495784 -26.822598713362822 0 -26.822598713362822 60.829304477694677 0 0 0 0 1.8593248840998378 -1.9309380210271456 0 -1.9309380210271456 -1.9357441059530061 0 0 0 0 39.205777030130491 159.04183888905391 0 159.04183888905391 343.84697751852218 0 0 0 0 2.9876803570693338 4.8036436934626181 0 4.8036436934626181 4.4333005657616411 0 0 0 0 -1.3170544872117773 20.389026990036655 0 20.389026990036655 21.24922030592279 0 0 0 0 0.75170928725486041 -0.17526027153601831 0 -0.17526027153601831 2.2038549037744701 0 0 0 0 -17.386444311936749 -12.707725103049597 0 -12.707725103049597 31.136675423418637 0 0 0 0 102.50224379450216 12.366533957771026 0 12.366533957771026 -120.80854327595443 0 0 0 0 -0.027327075393033678 -7.2020135595957981 0 -7.2020135595957981 -6.8954063118362683 0 0 0 0 -0.0036807485125218893 -1.6374538310810749 0 -1.6374538310810749 6.929076187312603 0 0 0 0 0.18134330159729112 0.18270411021012478 0 0.18270411021012478 0.40646515077548884 0 0 0 0 -7.3068085125373017 -37.505130526602443 0 -37.505130526602443 87.049035765354347 0 0 0 0 -27.96851120323106 -136.21702810930583 0 -136.21702810930583 1148.8822763058197 0 0 0 0 0.89848404349968924 2.0231533584586145 0 2.0231533584586145 3.0978675065862831 0 0 0 0 0.10746431860343555 40.79422177340323 0 40.79422177340323 1.1874806571722729 0 0 0 0 -24.970142972246322 -173.93864657383529 0 -173.93864657383529 525.93084248326704 0 0 0 0 -114.77823085475165 -1.4369801995744638 0 -1.4369801995744638 1186.4123026336456 0 0 0 0 1.3421252667474459 347.3762138922757 0 347.3762138922757 820.77361977571854 0 0 0 0 -0.79394587031867425 0.90852586519326906 0 0.90852586519326906 2.1372176563234859 0 0 0 0 0.019698442974816502 0.21931872155914789 0 0.21931872155914789 0.47829373917608109 0 0 0 0 0.0017531062382603775 -0.60498448569705943 0 -0.60498448569705943 1.9661721313750604 0 0 0 0 -17.056599835578353 1.0101474652910838 0 1.0101474652910838 13.385530753635976 0 0 0 0 -0.94062227345592286 2.3435223828872154 0 2.3435223828872154 3.4208429546508228 0 0 0 0 -2.1131978910418354 -2.7812810997565975 0 -2.7812810997565975 3.7801844766363502 0 0 0 0 -1.8942921219249698 -1.621172506151197 0 -1.621172506151197 4.9805295203550486 0 0 0 0 -0.10720712847889476 -0.48221030596977243 0 -0.48221030596977243 3.0040983713051901 0 0 0 0 0.26853481564785109 -1.2612731018255339 0 -1.2612731018255339 5.0223692679459191 0 0 0 0 -0.81551117800748996 -0.50385718429970439 0 -0.50385718429970439 2.6822583631728776 0 0 0 0 2.9133031693766158 0.89773326573049417 0 0.89773326573049417 0.48239965656830464 0 0 0 0 -0.0010791913233568257 0.5144542601587252 0 0.5144542601587252 9.2496978675917489 0 0 0 0 -5.0365662429791263 -1.4158721420608344 0 -1.4158721420608344 8.6416749229829293 0 0 0 0 -4.9741815124375446 1.7939648358769773 0 1.7939648358769773 -1.2275176022085361 0 0 0 0 7.0281792705270041 8.5660788115565083 0 8.5660788115565083 13.662215597665636 0 0 0 0 6.4131284553969081 6.5868018974288134 0 6.5868018974288134 9.7240007066648104 0 0 0 0 0.11227292948262094 -0.32485115927070396 0 -0.32485115927070396 0.95011181882864548 0 0 0 0 -0.73906606244713791 9.2501840599288698 0 9.2501840599288698 27.075672846085581 0 0 0 0 -4.7700055689597995 3.3521703447913751 0 3.3521703447913751 18.666222409752663 0 0 0 0 -3.0911203903094702 1.9396607640082948 0 1.9396607640082948 6.0630258582968963 0 0 0 0 0.32092171271403913 -2.0599075261452526 0 -2.0599075261452526 8.9652030516008381 0 0 0 0 0.095065256780912932 -0.77352162709576078 0 -0.77352162709576078 2.0692945580085507 0 0 0 0 -1.5868007474336991 -5.819536050883471 0 -5.819536050883471 5.6576753250628826 0 0 0 0 -7.2990908276533197 -30.337776162385126 0 -30.337776162385126 45.539779187944077 0 0 0 0 0.15620137295304437 -1.486207518271577 0 -1.486207518271577 6.4645309648819307 0 0 0 0 -3.9037499149675199 -4.8363356276950071 0 -4.8363356276950071 9.5198024388519116 0 0 0 0 1.0098026855329749 -5.3508316919833305 0 -5.3508316919833305 8.3782958354277071 0 0 0 0 -0.65451016421445729 -3.891845862599439 0 -3.891845862599439 9.2876502470753621 0 0 0 0 -0.42681443176354605 -5.3657184095645789 0 -5.3657184095645789 9.0248901944651152 0 0 0 0 2.9643021110386485 -3.3495255538509809 0 -3.3495255538509809 8.0238736780593172 0 0 0 0 -3.0285369533997368 -3.1892339821279165 0 -3.1892339821279165 9.8654149618814699 0 0 0 0 3.0105303035723834 -2.9616057559824753 0 -2.9616057559824753 0.64309486006243333 0 0 0 0 2.9316491937741205 -6.0858447117898322 0 -6.0858447117898322 13.243095658166567 0 0 0 0 17.604294429484867 -9.1629626189460396 0 -9.1629626189460396 31.498525926857837 0 0 0 0 3.8013109218467562 -6.5992974626296927 0 -6.5992974626296927 9.1700091859383974 0 0 0 0 1.331024080384168 -4.3058663469273597 0 -4.3058663469273597 11.516027696503443 0 0 0 0 3.2363667753179328 -3.7721739394328324 0 -3.7721739394328324 12.756312025332591 0 0 0 0 2.5749277792686698 0.35311802383876056 0 0.35311802383876056 12.81369733750762 0 0 0 0 0.83156593613258467 -2.4593624053158294 0 -2.4593624053158294 5.0288544753345263 0 0 0 0 2.7534442030708419 -2.4694424606714165 0 -2.4694424606714165 9.2587847743416205 0 0 0 0 2.6172947576346814 -3.0137426415167283 0 -3.0137426415167283 7.6117315259180032 0 0 0 0 2.8111758185805797 0.57332522644719575 0 0.57332522644719575 6.7796616591440397 0 0 0 0 2.3112119680735645 1.1705819940652873 0 1.1705819940652873 6.5625426072947448 0 0 0 0 -0.85585521662732833 -1.2695824474441224 0 -1.2695824474441224 3.7875838946953309 0 0 0 0 -3.4250166175544337 -0.014546131686074659 0 -0.014546131686074659 8.2764837183058262 0 0 0 0 -4.5253212585803197 0.97772263965271122 0 0.97772263965271122 8.2638748497120105 0 0 0 0 -0.60315993673793855 -0.76213534448470455 0 -0.76213534448470455 7.8562451575417072 0 0 0 0 -7.9689550759457273 -2.4732227089771186 0 -2.4732227089771186 5.1007202983018942 0 0 0 0 1.9112054679820858 -1.4259322401194368 0 -1.4259322401194368 4.8519130243221298 0 0 0 0 5.8897417547798439 -11.82730526485102 0 -11.82730526485102 -0.11827200526022352 0 0 0 0 12.922315603619666 0.89021840832720045 0 0.89021840832720045 1.3886662986697047 0 0 0 0 1.72577458062608 -0.55358582832559478 0 -0.55358582832559478 1.5107710651354864 0 0 0 0 -4.1911788550671645 3.5650666484143585 0 3.5650666484143585 5.689412654228363 0 0 0 0 25.29578934948438 28.642381032394042 0 28.642381032394042 31.496819455722289 0 0 0 0 4.8606297142659969 0.57887208192551043 0 0.57887208192551043 0.025921109467162751 0 0 0 0 -0.082199813077763556 1.1404523003990388 0 1.1404523003990388 5.678509228380392 0 0 0 0 3.4186567160838877 21.218091575985454 0 21.218091575985454 40.497579900897108 0 0 0 0 12.11582524580524 16.589672385707672 0 16.589672385707672 24.574858549443888 0 0 0 0 0.24702909104689752 1.2258269216836197 0 1.2258269216836197 14.077627843325899 0 0 0 0 -5.5314394881717135 1.7660991802704302 0 1.7660991802704302 15.544198753195815 0 0 0 0 -6.9037534294242278 -0.72609969841869315 0 -0.72609969841869315 21.478955073689576 0 0 0 0 0.28709622571224358 0.021695330157653459 0 0.021695330157653459 8.5917207466305854 0 0 0 0 1.2878921793563904 0.96414531358459499 0 0.96414531358459499 6.6860462412587367 0 0 0 0 -6.3838503771829664 -2.3205177322706732 0 -2.3205177322706732 11.611692276550457 0 0 0 0 -9.7714115400772243 -8.9979394193360349 0 -8.9979394193360349 4.9295267945562955 0 0 0 0 -2.1795590440669717 -3.2555680952088153 0 -3.2555680952088153 9.5420689977854352 0 0 0 0 0.37261588233310622 -3.0195795609631446 0 -3.0195795609631446 10.591520523712404 0 0 0 0 -0.89233458143516486 -5.9090777607275413 0 -5.9090777607275413 14.855376269973931 0 0 0 0 0.60584783763399597 -5.4846821304274203 0 -5.4846821304274203 18.072686700191639 0 0 0 0 4.7754173571751721 -3.8947179822862381 0 -3.8947179822862381 11.902177748881513 0 0 0 0 4.4721837764948305 -8.5936480337381909 0 -8.5936480337381909 19.477252617478371 0 0 0 0 -0.46081373936515568 -4.4260457404209603 0 -4.4260457404209603 9.7113862376388056 0 0 0 0 5.4025900875603838 -10.709296054279548 0 -10.709296054279548 19.80739421400358 0 0 0 0 2.7542324324463152 -10.679955358224106 0 -10.679955358224106 21.249967676158121 0 0 0 0 -0.1801734043565375 -14.034378885058686 0 -14.034378885058686 19.405821923166513 0 0 0 0 -8.6401314641526756 -11.076316458990661 0 -11.076316458990661 31.723066752644627 0 0 0 0 -3.0933377717527861 -0.76490709780715349 0 -0.76490709780715349 5.452381989683488 0 0 0 0 -6.9591219914980229 -19.252363471077842 0 -19.252363471077842 67.192664252201212 0 0 0 0 -7.2317885576489971 -0.90330895373335807 0 -0.90330895373335807 13.98197553033242 0 0 0 0 -2.6761884295612819 -0.0057608835447098272 0 -0.0057608835447098272 1.5655882022357446 0 0 0 0 -9.8523153128538432 5.1387444177523207 0 5.1387444177523207 11.349630487825891 0 0 0 0 -0.093575042529892016 8.1302571971282305 0 8.1302571971282305 11.481393087757169 0 0 0 0 7.8024154614959116 -29.349849100006395 0 -29.349849100006395 21.424034586525522 0 0 0 0 15.49740769408163 -33.149766148722847 0 -33.149766148722847 44.086657275547623 0 0 0 0 -1.3806604426631566 -20.949520781916362 0 -20.949520781916362 31.505752828452387 0 0 0 0 7.5420836687069528 -10.963494250497092 0 -10.963494250497092 13.423941650169013 0 0 0 0 26.854388030772952 -29.192445250962919 0 -29.192445250962919 21.977739884838229 0 0 0 0 -6.8334144540203852 -34.543682282674126 0 -34.543682282674126 36.514886386372382 0 0 0 0 12.705796087037015 -0.89655898042838089 0 -0.89655898042838089 -1.7447059789847117 0 0 0 0 0.48887517770686628 11.506865125618191 0 11.506865125618191 7.9522904270970542 0 0 0 0 14.168078003005917 -3.3126849169675552 0 -3.3126849169675552 64.384339814583655 0 0 0 0 21.075564545197722 -65.090442625340074 0 -65.090442625340074 97.155818765873846 0 0 0 0 -1.1911924465496924 16.844791109927655 0 16.844791109927655 40.860405323110172 0 0 0 0 9.6772638744996584 14.40780198979337 0 14.40780198979337 41.314125089927984 0 0 0 0 -0.31933083174635613 -0.23496869052905822 0 -0.23496869052905822 17.257377609887044 0 0 0 0 1.6097215151467594 13.541194802683549 0 13.541194802683549 35.571522204074427 0 0 0 0 4.1877985525452459 19.200153914149269 0 19.200153914149269 34.126289138212087 0 0 0 0 2.4127307300855136 31.121343193088251 0 31.121343193088251 64.131690748799883 0 0 0 0 5.1669789090483391 27.094401767724776 0 27.094401767724776 67.647499512160721 0 0 0 0 -8.7841358655907698 37.690450706868432 0 37.690450706868432 72.764965918475355 0 0 0 0 -1.426579197993874 51.200745971429569 0 51.200745971429569 94.186473480447603 0 0 0 0 47.354551976869772 158.00751064135176 0 158.00751064135176 420.42836548366176 0 0 0 0 48.637626472956562 -22.597650880233857 0 -22.597650880233857 81.886960045347223 0 0 0 0 -20.085279180456133 -3.1776929886044485 0 -3.1776929886044485 45.300612140900824 0 0 0 0 -52.740326646621611 -9.5307147086932673 0 -9.5307147086932673 80.005979783505609 0 0 0 0 -8.8215369615077179 40.513546103196859 0 40.513546103196859 55.015403582347517 0 0 0 0 -10.117465774706375 9.5863615223424858 0 9.5863615223424858 228.7551876699581 0 0 0 0 130.83572642618793 77.763972256212583 0 77.763972256212583 75.142444279495976 0 0 0 0 11.368539582502649 17.678897437552223 0 17.678897437552223 58.988835321943043 0 0 0 0 0.062117610021922218 0.74208900772831043 0 0.74208900772831043 2.0682631346161884 0 0 0 0 14.609655322985656 -33.961780465829861 0 -33.961780465829861 28.390628044711775 0 0 0 0 140.84924093483056 114.03607328532235 0 114.03607328532235 79.094940641611174 0 0 0 0 22.655272475870106 46.811151361431257 0 46.811151361431257 46.907709512664042 0 0 0 0 18.673638396744039 34.012417024317983 0 34.012417024317983 27.352422323878272 0 0 0 0 2.6470182451328981 7.6379048358576256 0 7.6379048358576256 2.8204777714563534 0 0 0 0 34.575253492824118 15.233859313419089 0 15.233859313419089 4.0930555053855642 0 0 0 0 -1.1000219030240572 -21.966519612051343 0 -21.966519612051343 -2.5388025724387262 0 0 0 0 6.7903113396760659 -8.3104406531929271 0 -8.3104406531929271 8.3602442347473698 0 0 0 0 7.7068512525784456 -6.9581954356399365 0 -6.9581954356399365 0.32843635503922997 0 0 0 0 27.889169383945955 -0.46496878736797953 0 -0.46496878736797953 8.2189367871324066 0 0 0 0 -6.0307254441984526 9.1793931532920396 0 9.1793931532920396 -1.6162571461609332 0 0 0 0 1.0112189631127535 -11.441085734004446 0 -11.441085734004446 58.123838017054368 0 0 0 0 4.8900675420834432 -11.009378887574712 0 -11.009378887574712 115.59690311783925 0 0 0 0 37.488516579487708 133.43398650289237 0 133.43398650289237 150.43700847473519 0 0 0 0 7.8429532765369459 64.85664313963207 0 64.85664313963207 182.33825123999122 0 0 0 0 17.226724137189809 100.21545574958736 0 100.21545574958736 133.86243710009148 0 0 0 0 16.109526261077519 109.09790240279108 0 109.09790240279108 129.0473683111195 0 0 0 0 109.24007857563112 95.603785140177933 0 95.603785140177933 35.412227117616567 0 0 0 0 22.987652771027967 96.819077155516425 0 96.819077155516425 138.99988293387287 0 0 0 0 14.63079071902979 105.34757791060838 0 105.34757791060838 138.59209518082798 0 0 0 0 -11.883418854136977 2.7985990344204765 0 2.7985990344204765 44.708071227738401 0 0 0 0 16.593526618001249 24.995078137602832 0 24.995078137602832 51.65543399469243 0 0 0 0 -0.077596003043508222 0.41992382439006803 0 0.41992382439006803 3.2155329550283227 0 0 0 0 -124.6654876481257 -16.748086337454879 0 -16.748086337454879 230.84584265494777 0 0 0 0 183.57512365075695 175.89169172283437 0 175.89169172283437 121.88478800081066 0 0 0 0 -15.851828375489214 -41.171220095206081 0 -41.171220095206081 22.511707474361174 0 0 0 0 0.050269326638030173 33.133001874761248 0 33.133001874761248 -33.297300644917414 0 0 0 0 -32.100108185195481 32.805099509729189 0 32.805099509729189 -15.551054575160379 0 0 0 0 -0.026371454106059532 17.364080114130047 0 17.364080114130047 -10.105001078271016 0 0 0 0 -31.422786392411012 10.969213349744678 0 10.969213349744678 53.440000968577806 0 0 0 0 -0.19116202962117379 0.46823303226422652 0 0.46823303226422652 7.9067469393920646 0 0 0 0 -56.775788852934554 3.1229035409232893 0 3.1229035409232893 -6.8606908286892576 0 0 0 0 15.080194738335663 -19.370919680848601 0 -19.370919680848601 -22.199107019841904 0 0 0 0 -9.1240167270631396 27.946550072774698 0 27.946550072774698 45.699739063333254 0 0 0 0 -20.987936028407489 -15.165236859022116 0 -15.165236859022116 9.3934079256869154 0 0 0 0 0.10075855313606255 0.35617880417437675 0 0.35617880417437675 0.49037385807673672 0 0 0 0 -0.67129501540123337 0.20521653559734432 0 0.20521653559734432 10.27902185503109 0 0 0 0 -11.265896643037733 23.815379198122173 0 23.815379198122173 34.343541016191011 0 0 0 0 0.70098300495689925 -1.5038824527046017 0 -1.5038824527046017 12.231677128904266 0 0 0 0 -8.5912580815588626 -18.959778974072833 0 -18.959778974072833 238.78334541960612 0 0 0 0 16.823289534817945 -53.981494880601531 0 -53.981494880601531 203.4286599246916 0 0 0 0 -10.901648431622107 -4.1320159936731216 0 -4.1320159936731216 147.10473562084371 0 0 0 0 -14.800337989405307 -36.804679421209585 0 -36.804679421209585 218.43961132893492 0 0 0 0 -4.9344946832734422 -2.8899486748850904 0 -2.8899486748850904 288.58349097270911 0 0 0 0 11.909323572187986 -10.505896585607843 0 -10.505896585607843 113.28548475996649 0 0 0 0 6.6143699807507801 -77.748155108330593 0 -77.748155108330593 310.1931452864228 0 0 0 0 20.599586184952841 -34.08575292891328 0 -34.08575292891328 269.12599759609657 0 0 0 0 -1.4619981355567688 -37.783041966413293 0 -37.783041966413293 217.70763198364784 0 0 0 0 15.157706374113516 -25.928606301506989 0 -25.928606301506989 127.85790471491782 0 0 0 0 74.803560578234737 -62.326690104004228 0 -62.326690104004228 115.82400549287559 0 0 0 0 38.097825524795553 -27.952434064711269 0 -27.952434064711269 104.07607854875823 0 0 0 0 -0.17166223508307077 0.19631905515819881 0 0.19631905515819881 1.1140298040793013 0 0 0 0 42.26227007881198 -50.943434538596193 0 -50.943434538596193 136.62572853568417 0 0 0 0 12.732838653234467 -44.934067748916277 0 -44.934067748916277 136.64779336518404 0 0 0 0 7.9137434792421573 -31.663510182930622 0 -31.663510182930622 138.96008998586331 0 0 0 0 11.394937529232948 -34.697849124284403 0 -34.697849124284403 135.68890893321804 0 0 0 0 -10.314301838846632 -34.41993799393822 0 -34.41993799393822 217.77912409050987 0 0 0 0 -0.32907445595627127 0.63364978707726038 0 0.63364978707726038 -2.5350234052314988 0 0 0 0 37.123156890489327 -15.61434750178887 0 -15.61434750178887 110.10406440173392 0 0 0 0 24.166468404485386 -18.838367732681945 0 -18.838367732681945 114.87758963483429 0 0 0 0 -0.90873299681851893 -5.6844846493435028 0 -5.6844846493435028 28.812173894184994 0 0 0 0 6.4494835951800269 -29.915269287977935 0 -29.915269287977935 156.88284759283852 0 0 0 0 23.668998353287805 -38.144409739810726 0 -38.144409739810726 127.99657553281577 0 0 0 0 -11.300408583829491 -11.815946558910781 0 -11.815946558910781 32.455307743771641 0 0 0 0 18.446160928863947 -48.28790669441878 0 -48.28790669441878 149.97427961495123 0 0 0 0 5.7272883350770032 -43.38756665326909 0 -43.38756665326909 100.11031067052235 0 0 0 0 -15.268497020301652 -115.90543887126478 0 -115.90543887126478 82.704069802406593 0 0 0 0 16.59136079503196 15.744087384235172 0 15.744087384235172 14.862236396467779 0 0 0 0 49.000619888461017 -53.268294494089787 0 -53.268294494089787 122.68240823338419 0 0 0 0 -2.2786629340321753 0.020214245935690656 0 0.020214245935690656 0.9984687711232425 0 0 0 0 -12.60491304019979 -27.588979907959583 0 -27.588979907959583 127.9474972418102 0 0 0 0 -4.2455223178149026 -98.228336362546543 0 -98.228336362546543 187.5455088608287 0 0 0 0 3.3143957535334714 4.9717092762730317 0 4.9717092762730317 94.416695112984598 0 0 0 0 39.440676918184408 -64.467081566501292 0 -64.467081566501292 54.10698538327415 0 0 0 0 44.894781629368936 -27.403788898038329 0 -27.403788898038329 14.368630320708007 0 0 0 0 0.66994791793513286 17.909516019708462 0 17.909516019708462 94.118834393637371 0 0 0 0 -30.614273834670321 -25.341286346305424 0 -25.341286346305424 131.138193361905 0 0 0 0 8.3341428856990749 16.290118466823571 0 16.290118466823571 28.603880379370295 0 0 0 0 -22.149081755770467 5.7712420180545507 0 5.7712420180545507 47.000935467216806 0 0 0 0 -8.9367061253205975 49.671597532906162 0 49.671597532906162 66.68423677921237 0 0 0 0 23.029602913340113 43.772085920332756 0 43.772085920332756 78.842012808323489 0 0 0 0 71.353979580758619 50.55646793550477 0 50.55646793550477 233.17555990839901 0 0 0 0 136.98573950271054 -52.062172096597351 0 -52.062172096597351 70.928025656708996 0 0 0 0 20.464504260489775 -88.731250986835221 0 -88.731250986835221 360.84554304137419 0 0 0 0 -91.71607732564695 42.264760006277356 0 42.264760006277356 327.93331763526567 0 0 0 0 -86.37124832150792 -62.298539801449806 0 -62.298539801449806 209.28963388348348 0 0 0 0 0.24455108750252219 -29.247850904966313 0 -29.247850904966313 104.40618238662904 0 0 0 0 -86.801442644108363 -82.836318770234357 0 -82.836318770234357 315.63629483147815 0 0 0 0 -86.338049807399216 52.03609887319908 0 52.03609887319908 147.81178821288267 0 0 0 0 -11.733672701741853 38.766364632523619 0 38.766364632523619 64.502495623499271 0 0 0 0 -26.355892289071875 42.308625763204191 0 42.308625763204191 70.032049362896942 0 0 0 0 -19.678350157308124 39.275729549866625 0 39.275729549866625 62.954404475556117 0 0 0 0 -15.950387527295208 33.410738168339805 0 33.410738168339805 48.271800068919944 0 0 0 0 103.55939243744797 131.502628315724 0 131.502628315724 33.211447391295223 0 0 0 0 1.6188483408133028 12.727391712197484 0 12.727391712197484 -3.8498975696460889 0 0 0 0 -27.037398458736789 30.616202570265159 0 30.616202570265159 85.351512850975269 0 0 0 0 -60.935828937566839 49.623208502973284 0 49.623208502973284 78.623403568963113 0 0 0 0 -10.259610405827218 2.4531956621284507 0 2.4531956621284507 70.617022377712942 0 0 0 0 -19.001455762908336 42.808184421530314 0 42.808184421530314 67.8734376236971 0 0 0 0 -87.355090497990204 26.913921481485886 0 26.913921481485886 91.247760900550929 0 0 0 0 -28.706487622781424 49.796535607525584 0 49.796535607525584 72.355296209054359 0 0 0 0 -18.257163684393163 46.14503436709856 0 46.14503436709856 69.487472346860159 0 0 0 0 42.597310892584574 75.546716857803403 0 75.546716857803403 74.662918800044281 0 0 0 0 -20.547407826407536 -2.6351847654117648 0 -2.6351847654117648 41.179746755861061 0 0 0 0 25.035587895888511 -2.6867349732419825 0 -2.6867349732419825 10.098497435770696 0 0 0 0 166.35223725351625 61.280783563721343 0 61.280783563721343 -0.84643784127547406 0 0 0 0 -36.491048573632725 67.636615948482358 0 67.636615948482358 77.318900554830179 0 0 0 0 76.157296074376518 183.69353730089642 0 183.69353730089642 193.94394321571599 0 0 0 0 -82.044972330100791 -12.918094547349028 0 -12.918094547349028 74.794729506204021 0 0 0 0 -114.10475250377749 18.749169124062973 0 18.749169124062973 244.37524667695106 0 0 0 0 -0.37489239872488067 0.88892693396010714 0 0.88892693396010714 3.7786400826082058 0 0 0 0 410.60356184158081 247.86983764204342 0 247.86983764204342 70.538591641685343 0 0 0 0 -97.620070382418817 34.784712513257546 0 34.784712513257546 92.595814024281026 0 0 0 0 -109.51845774843059 -3.5528358418923744 0 -3.5528358418923744 101.27656558423769 0 0 0 0 -40.837530215441575 66.383227948621425 0 66.383227948621425 123.57937050744658 0 0 0 0 -102.51835155632489 4.5963967799616512 0 4.5963967799616512 148.16480272084846 0 0 0 0 -95.3036807172507 8.243104429806408 0 8.243104429806408 99.373520600056509 0 0 0 0 -95.031960066128704 35.767307959389655 0 35.767307959389655 232.25025191649911 0 0 0 0 -5.6802520518438016 -6.4774346532189249 0 -6.4774346532189249 82.107294605669836 0 0 0 0 -97.278494770877842 -10.218807735574956 0 -10.218807735574956 96.231672776924825 0 0 0 0 -9.0460584934274308 12.362310567495449 0 12.362310567495449 8.1557042915645184 0 0 0 0 -102.48776486358321 -77.4603793397564 0 -77.4603793397564 131.55444851380889 0 0 0 0 121.89332603595551 -39.245313670848191 0 -39.245313670848191 82.075699227949372 0 0 0 0 -23.307049923857903 -13.557235492648033 0 -13.557235492648033 83.947437654707755 0 0 0 0 -11.463344298277889 -33.542531908893579 0 -33.542531908893579 240.75221929510008 0 0 0 0 -8.6788284050061151 -44.139271642919994 0 -44.139271642919994 27.369865381653653 0 0 0 0 107.64104021567846 78.580030076038383 0 78.580030076038383 72.196242291654926 0 0 0 0 53.610727157251176 -4.0984296220158285 0 -4.0984296220158285 42.41613814610173 0 0 0 0 21.15472282972496 22.015194176601653 0 22.015194176601653 42.524139539098542 0 0 0 0 9.2922301953191209 8.0071455018751294 0 8.0071455018751294 57.934190968153416 0 0 0 0 116.64175166094719 -16.455340276610514 0 -16.455340276610514 -10.057167939376086 0 0 0 0 16.849820249911318 -54.826110121219244 0 -54.826110121219244 11.301278065027873 0 0 0 0 -25.790299615061713 -26.283010396804457 0 -26.283010396804457 62.918089057551697 0 0 0 0 -6.7514685765047577 -6.126189883859535 0 -6.126189883859535 78.76288367831188 0 0 0 0 -0.93204319955475512 -9.0955223525452311 0 -9.0955223525452311 71.680647296991083 0 0 0 0 7.8377914879574746 -13.670890458248323 0 -13.670890458248323 42.269667123857175 0 0 0 0 8.2186813388386781 4.4839041203049419 0 4.4839041203049419 59.211403502951725 0 0 0 0 12.359564516292266 -2.6546079371510132 0 -2.6546079371510132 66.885229643623461 0 0 0 0 1.0606339812125043 -14.895787704484974 0 -14.895787704484974 85.569228495252901 0 0 0 0 6.4839989597603562 -13.664794335265469 0 -13.664794335265469 77.136752740334487 0 0 0 0 -2.3099066603780507 8.5462246236208301 0 8.5462246236208301 11.740966716357605 0 0 0 0 3.2123703284041767 -7.1899608625462861 0 -7.1899608625462861 72.117629558842964 0 0 0 0 9.0716142426855413 0.73768317541089345 0 0.73768317541089345 59.514018144996953 0 0 0 0 3.3547768737699384 10.077294114601514 0 10.077294114601514 17.899288327235396 0 0 0 0 1.5340168975157136 -1.2752164915858835 0 -1.2752164915858835 -0.35387694840332529 0 0 0 0 42.137664115433381 42.655648143347207 0 42.655648143347207 141.80029170589842 0 0 0 0 -16.058760915518064 -40.834564478092943 0 -40.834564478092943 32.751285067140998 0 0 0 0 56.406945348205682 35.749917134649877 0 35.749917134649877 -118.56766519606026 0 0 0 0 17.551694882197808 62.044239043356356 0 62.044239043356356 85.176778704864773 0 0 0 0 27.720283604980295 -12.320944662027614 0 -12.320944662027614 -63.508968781330623 0 0 0 0 -19.069347507022485 -7.8558863258367637 0 -7.8558863258367637 77.986344748593183 0 0 0 0 3.4211779619001845 -7.5104432112784707 0 -7.5104432112784707 47.040275132483657 0 0 0 0 -4.205150512064054 -1.6094183121855252 0 -1.6094183121855252 38.190682599622079 0 0 0 0 -63.059396678729513 -13.431000474352913 0 -13.431000474352913 85.134443319442653 0 0 0 0 0.94908086650684709 -8.9832618600339629 0 -8.9832618600339629 23.540397998818662 0 0 0 0 2.7548352812276615 -8.1011339803606006 0 -8.1011339803606006 25.78776579920553 0 0 0 0 0.18418797145188126 -1.8915440035690523 0 -1.8915440035690523 11.163796639838594 0 0 0 0 6.719617308735284 -34.104812355794678 0 -34.104812355794678 7.096037496437237 0 0 0 0 -7.492909694615264 -63.527342810553819 0 -63.527342810553819 33.805942685750779 0 0 0 0 -0.55064487842901144 -67.144866977250786 0 -67.144866977250786 29.699690403376735 0 0 0 0 6.4453799304683344 -52.255924623163082 0 -52.255924623163082 42.393399141808914 0 0 0 0 -3.4586653613177498 -16.708368657339658 0 -16.708368657339658 58.049994311321399 0 0 0 0 -71.668882271351549 -119.38059630615498 0 -119.38059630615498 29.327168901942059 0 0 0 0 -40.039043259823984 39.475868621851987 0 39.475868621851987 94.773239624511916 0 0 0 0 0.94155612562039614 -19.428200369245015 0 -19.428200369245015 77.686695653932048 0 0 0 0 1.5697169395060531 -12.821116598415658 0 -12.821116598415658 66.917794316692607 0 0 0 0 -214.43085621379805 -146.74956596928678 0 -146.74956596928678 119.82629015301791 0 0 0 0 19.579955293455782 -93.671529600047052 0 -93.671529600047052 1.1573079207992123 0 0 0 0 16.926980338296914 -73.041006953402302 0 -73.041006953402302 42.269002470777195 0 0 0 0 85.528450976633394 -102.2196692775542 0 -102.2196692775542 39.466787880693573 0 0 0 0 0.26998087800682313 -3.1640580800955309 0 -3.1640580800955309 4.4720193656810352 0 0 0 0 198.36027096252019 -48.77490767463496 0 -48.77490767463496 -5.622156693105353 0 0 0 0 46.61663136325069 -41.371277228035069 0 -41.371277228035069 -12.124987036018865 0 0 0 0 52.718707928170261 -29.165220470897111 0 -29.165220470897111 5.7283337047610985 0 0 0 0 -1.0042051426276828 -74.719749277763242 0 -74.719749277763242 4.2743694557793788 0 0 0 0 74.522283643017545 -76.377805481923133 0 -76.377805481923133 -5.0663191565072339 0 0 0 0 144.73737188936047 72.264954552862037 0 72.264954552862037 -62.709879890200682 0 0 0 0 -78.535730066825636 -176.15599789297266 0 -176.15599789297266 -8.1767747853987203 0 0 0 0 -582.53736381992303 -245.63909789700892 0 -245.63909789700892 41.057383796847716 0 0 0 0 -192.25772988035988 -50.214065871592538 0 -50.214065871592538 -71.954218521939765 0 0 0 0 -264.11895577390169 -172.6987009070308 0 -172.6987009070308 -1.9107790164925973 0 0 0 0 -219.02747814455506 -192.76964246863645 0 -192.76964246863645 -13.314660277188523 0 0 0 0 4.5418547232923334 -9.3453373182345256 0 -9.3453373182345256 -1.6065043918796249 0 0 0 0 93.963071232694347 -37.178610577928339 0 -37.178610577928339 -24.480953689737362 0 0 0 0 112.6829713001207 -209.35583657472671 0 -209.35583657472671 -0.090470266892225482 0 0 0 0 -35.074234431604054 -152.97801481682836 0 -152.97801481682836 -54.3629071938376 0 0 0 0 -42.094489157209864 -102.06881383785139 0 -102.06881383785139 -44.306654074709513 0 0 0 0 183.25708200158624 -226.6592555192492 0 -226.6592555192492 -73.283141441497719 0 0 0 0 48.191267474632696 -216.0436490777829 0 -216.0436490777829 -2.4178288579059881 0 0 0 0 -38.864996151431114 -89.568986281587058 0 -89.568986281587058 -132.61317194985895 0 0 0 0 -178.44239569730416 35.079819229940767 0 35.079819229940767 -19.562518901090698 0 0 0 0 -219.89441193608764 -156.73416940018706 0 -156.73416940018706 -120.98766473129945 0 0 0 0 -0.18211373313327783 -7.8558337920651269 0 -7.8558337920651269 9.7053476654512512 0 0 0 0 -245.66799529116179 -112.79045631367626 0 -112.79045631367626 -36.674596540604398 0 0 0 0 1.1308039051366006 -17.854457230886979 0 -17.854457230886979 58.530360572426531 0 0 0 0 -470.72778531809581 -318.5181705478717 0 -318.5181705478717 3.3250090659130365 0 0 0 0 -538.3400462546565 -874.42944689375054 0 -874.42944689375054 18.798463735176483 0 0 0 0 -97.509888117965602 -19.378847477888485 0 -19.378847477888485 99.499050719678053 0 0 0 0 12.167462735655135 -70.984809587447671 0 -70.984809587447671 78.826043545443099 0 0 0 0 -33.424034826013667 -88.002189477541833 0 -88.002189477541833 99.391725856126868 0 0 0 0 -90.488522535113589 -3.5662169791321503 0 -3.5662169791321503 -9.6007372654275969 0 0 0 0 -142.17747072539714 -121.52820762581905 0 -121.52820762581905 68.890061128069647 0 0 0 0 -264.44198625345962 -82.118520862071819 0 -82.118520862071819 58.274387157784076 0 0 0 0 -33.550599486177816 -242.50653919584875 0 -242.50653919584875 -76.272746741384253 0 0 0 0 115.9723698498492 -162.97642544865812 0 -162.97642544865812 94.109764056426684 0 0 0 0 -27.312604676811134 -142.45327475072372 0 -142.45327475072372 92.102311055044993 0 0 0 0 133.67967315863825 -212.95427305567137 0 -212.95427305567137 9.8186135157811805 0 0 0 0 164.96877736142778 -169.03939018452365 0 -169.03939018452365 69.10498124291189 0 0 0 0 46.45373620699138 -162.46574511765357 0 -162.46574511765357 3.7980365297844401 0 0 0 0 5.1697419731772243 -52.893918567559012 0 -52.893918567559012 17.76768987207106 0 0 0 0 8.8182816760130791 -36.111440624144855 0 -36.111440624144855 1.7083547724186854 0 0 0 0 43.150228210277419 -33.245640551576798 0 -33.245640551576798 -21.977915447924715 0 0 0 0 -220.15088939968018 17.851977161855757 0 17.851977161855757 -50.979221225337824 0 0 0 0 28.492060919903452 15.453508161852369 0 15.453508161852369 -252.33500137062902 0 0 0 0 139.16084792337369 -101.39670601380203 0 -101.39670601380203 -38.375604529872362 0 0 0 0 20.163712500541806 81.017864975401608 0 81.017864975401608 24.610614416225872 0 0 0 0 6.1697505036636358 -70.263275572480779 0 -70.263275572480779 -50.693313206415041 0 0 0 0 -5.6780833791090117 67.852535037236521 0 67.852535037236521 330.19690219660697 0 0 0 0 -36.433771171838998 -39.660127578499669 0 -39.660127578499669 199.8099804076046 0 0 0 0 -5.3779628784179225 -57.73427673586351 0 -57.73427673586351 385.31119138712529 0 0 0 0 59.556051446837046 -99.006339316394588 0 -99.006339316394588 367.35198912353644 0 0 0 0 -23.078558332100329 -105.72397822087805 0 -105.72397822087805 594.16875153848378 0 0 0 0 0.41914495597400681 -0.45883863477263276 0 -0.45883863477263276 0.29644775754182007 0 0 0 0 189.79800961218825 -185.94239690903487 0 -185.94239690903487 202.04939602112427 0 0 0 0 388.36102820854421 -305.50357413116217 0 -305.50357413116217 642.05004137452488 0 0 0 0 320.84165330926999 -119.89864101119019 0 -119.89864101119019 72.818756830660277 0 0 0 0 386.8380885883812 -328.79517056438635 0 -328.79517056438635 387.12414578054086 0 0 0 0 387.83012536097431 -2.0558338628543424 0 -2.0558338628543424 375.61648076075653 0 0 0 0 130.90547928875731 -78.887286891818803 0 -78.887286891818803 942.75924611358641 0 0 0 0 101.45497961293404 45.847772388864541 0 45.847772388864541 461.54954699419977 0 0 0 0 101.85744360117405 148.85055682531674 0 148.85055682531674 162.03188321665948 0 0 0 0 262.73439731752842 153.69856116308802 0 153.69856116308802 383.802966682837 0 0 0 0 531.90185415430096 -281.52935856051045 0 -281.52935856051045 -190.67117870241054 0 0 0 0 887.1912947313449 -1626.2844869062046 0 -1626.2844869062046 -773.95301175958593 0 0 0 0 2406.7952151841491 342.26627296111837 0 342.26627296111837 -394.9367956799033 0 0 0 0 459.71951953032476 -356.96207725922432 0 -356.96207725922432 -223.67265342301107 0 0 0 0 -94.253787726614974 3.9298778850206872 0 3.9298778850206872 180.43115167111682 0 0 0 0 51.454231925774366 -35.156407541086082 0 -35.156407541086082 117.75154729868518 0 0 0 0 45.10420451934624 -47.393155025067244 0 -47.393155025067244 125.62871906714281 0 0 0 0 34.5214571475517 75.354521012006444 0 75.354521012006444 149.75861598856864 0 0 0 0 223.52328198399846 -27.755946707009571 0 -27.755946707009571 113.55989096287522 0 0 0 0 -23.73891075559186 77.542318414929468 0 77.542318414929468 181.53690570713661 0 0 0 0 243.96412149757089 65.608931466907961 0 65.608931466907961 147.1607538154085 0 0 0 0 551.32336251649122 467.26408973298749 0 467.26408973298749 1523.114804928744 0 0 0 0 2564.720580659945 -1241.8061801399308 0 -1241.8061801399308 -1526.4997836119728 0 0 0 0 196.47105215348711 -237.21244363064125 0 -237.21244363064125 106.35459125388297 0 0 0 0 228.14833241829183 -188.03242040083569 0 -188.03242040083569 140.2908543240701 0 0 0 0 151.08144996370902 -136.30403976642083 0 -136.30403976642083 113.24717009342567 0 0 0 0 150.67035967382617 -76.147690493970003 0 -76.147690493970003 129.80237298067368 0 0 0 0 358.60361867119173 -129.49820805091076 0 -129.49820805091076 141.54962793552841 0 0 0 0 319.81608710869477 -195.45709450437425 0 -195.45709450437425 200.22625541566595 0 0 0 0 251.01252302157809 -188.18795974476961 0 -188.18795974476961 205.49021114343486 0 0 0 0 206.43869830115909 -203.5827245825094 0 -203.5827245825094 244.26353319420014 0 0 0 0 225.25383885365227 -224.10082585968848 0 -224.10082585968848 173.62992545193993 0 0 0 0 264.4808431234851 -167.2637406217691 0 -167.2637406217691 150.5556617128168 0 0 0 0 178.36718838528577 -69.811667334775848 0 -69.811667334775848 442.25807861975773 0 0 0 0 32.99427964089773 -229.14987361892418 0 -229.14987361892418 324.01271927627386 0 0 0 0 246.02185068438121 -258.62008402305946 0 -258.62008402305946 294.44714294901496 0 0 0 0 545.45932955219541 -295.44461172707815 0 -295.44461172707815 199.57784832982725 0 0 0 0 347.41973739173773 -367.10433411558188 0 -367.10433411558188 352.84168214643432 0 0 0 0 -259.38449783583928 -526.33684548352176 0 -526.33684548352176 311.87847168118969 0 0 0 0 717.92429537680619 -950.69631318009124 0 -950.69631318009124 5.3568312236457132 0 0 0 0 455.45878026394712 -655.22574991918736 0 -655.22574991918736 214.6644762364449 0 0 0 0 -261.06755953784523 -928.42338703348651 0 -928.42338703348651 280.15383082089829 0 0 0 0 93.575032709159132 -164.77015459468748 0 -164.77015459468748 469.06823275229544 0 0 0 0 0.7046129797688252 1.3397330483380188 0 1.3397330483380188 2.8381660444921408 0 0 0 0 -672.36401143260082 -255.77119224102535 0 -255.77119224102535 500.32820281455497 0 0 0 0 -518.56518360348343 497.09665124863386 0 497.09665124863386 477.86858980754187 0 0 0 0 0.27386553714832917 -1.6932645898317107 0 -1.6932645898317107 28.818387852097658 0 0 0 0 1051.5197684243994 -417.4528184177816 0 -417.4528184177816 -120.8616988879221 0 0 0 0 1.9720791444538914 8.1627827179148511 0 8.1627827179148511 22.696679748972713 0 0 0 0 -903.56455026187723 969.97560993365732 0 969.97560993365732 839.39096080404124 0 0 0 0 530.70836378722743 -18.387186611595098 0 -18.387186611595098 134.49378191205324 0 0 0 0 42.602032192443403 -338.34984766349044 0 -338.34984766349044 -441.68968453696289 0 0 0 0 557.21567049888722 -1173.8707560200155 0 -1173.8707560200155 163.23752759423951 0 0 0 0 54.149150815103653 30.470039971016355 0 30.470039971016355 12.067337441143962 0 0 0 0 156.57744176177948 48.602615791198332 0 48.602615791198332 143.20975227744202 0 0 0 0 58.736351508119697 26.105397085317236 0 26.105397085317236 -15.87042324236063 0 0 0 0 -354.78010849756811 1923.8153598593831 0 1923.8153598593831 1289.5955318320848 0 0 0 0 335.30826827710553 -1044.676405313694 0 -1044.676405313694 161.47038657700614 0 0 0 0 20.364665761769885 -1.9839694904556282 0 -1.9839694904556282 -7.0039627993256914 0 0 0 0 74.267315296667221 6.0827997308861086 0 6.0827997308861086 -18.661408674699487 0 0 0 0 91.06308441973124 23.518079081273754 0 23.518079081273754 -16.313647678719008 0 0 0 0 50.41933093361331 89.452206298730744 0 89.452206298730744 -123.08139321060298 0 0 0 0 138.67129178810865 -19.719183324483311 0 -19.719183324483311 -156.90910732324664 0 0 0 0 26.993621403158613 -24.785560643620556 0 -24.785560643620556 12.694186476233881 0 0 0 0 35.848797096739261 13.575298997698468 0 13.575298997698468 4.8690540644652174 0 0 0 0 29.518791266317923 10.938976545464094 0 10.938976545464094 -4.3251748770253613 0 0 0 0 50.256261487801567 20.298800060565554 0 20.298800060565554 27.544824530174083 0 0 0 0 10.064172035992804 19.10595464093231 0 19.10595464093231 64.139068831990215 0 0 0 0 22.352747260960601 -1.8692266935793356 0 -1.8692266935793356 1.8819990919718848 0 0 0 0 -188.8638655952463 -39.792613171913217 0 -39.792613171913217 110.77996434858505 0 0 0 0 159.09794711376117 -34.79385814791749 0 -34.79385814791749 81.272078408375819 0 0 0 0 80.139665819065158 -58.782740588998422 0 -58.782740588998422 106.0274570919828 0 0 0 0 130.34175073633378 -42.64593254414649 0 -42.64593254414649 111.12937200621673 0 0 0 0 143.86414905075344 -22.665808587566062 0 -22.665808587566062 122.69238808246155 0 0 0 0 97.67217462343342 -55.135209556057816 0 -55.135209556057816 123.44442898347916 0 0 0 0 182.21895738448166 -99.881527730271046 0 -99.881527730271046 110.70462267276162 0 0 0 0 59.9891328495994 -101.23638472627135 0 -101.23638472627135 147.53854745162243 0 0 0 0 181.10473361002556 -47.879173910889619 0 -47.879173910889619 45.750798641711299 0 0 0 0 40.198297895256474 22.124052901923278 0 22.124052901923278 56.082903310372785 0 0 0 0 40.114439286716333 20.278087750895793 0 20.278087750895793 28.910585323468695 0 0 0 0 65.066576822282514 34.788071936760389 0 34.788071936760389 37.092371917977289 0 0 0 0 43.946468372550044 34.897674542015011 0 34.897674542015011 43.534277638402273 0 0 0 0 41.125071472712989 15.571837011568277 0 15.571837011568277 24.96679126942945 0 0 0 0 13.587522072625658 -3.3774505830555981 0 -3.3774505830555981 0.99738611000753963 0 0 0 0 20.949404526951184 6.9436329907730396 0 6.9436329907730396 9.8132613326997671 0 0 0 0 10.189293877395142 7.9235358645061709 0 7.9235358645061709 7.9107306801283528 0 0 0 0 69.286347692298477 42.615083823468012 0 42.615083823468012 28.641433011583104 0 0 0 0 4.8860386867573835 -0.75021471608662438 0 -0.75021471608662438 -2.1354740128324607 0 0 0 0 27.368509834591748 30.148661211038757 0 30.148661211038757 34.507289290075278 0 0 0 0 27.751399553596457 37.098482062841867 0 37.098482062841867 75.530280327096989 0 0 0 0 55.438832029178457 8.2927491740647383 0 8.2927491740647383 27.649314439244336 0 0 0 0 7.1134273081722768 33.473720622296241 0 33.473720622296241 33.972383468287262 0 0 0 0 39.351767484172342 20.155138840771542 0 20.155138840771542 21.59001135892504 0 0 0 0 58.283782238697313 16.550820844546251 0 16.550820844546251 25.254475661411561 0 0 0 0 49.30104693236251 6.5116647406166521 0 6.5116647406166521 3.0987241555631044 0 0 0 0 41.281651921020966 1.2591409816704981 0 1.2591409816704981 16.579262911060141 0 0 0 0 41.715400047224648 -8.9006550100675668 0 -8.9006550100675668 8.9533542896065228 0 0 0 0 70.725047912837908 -11.082725822638167 0 -11.082725822638167 -6.0441457359775086 0 0 0 0 53.863173002491749 5.4028284929254369 0 5.4028284929254369 14.700931051345833 0 0 0 0 73.956500571553988 -3.242607228923589 0 -3.242607228923589 9.6832396283325579 0 0 0 0 85.918671847835867 -8.994885479189179 0 -8.994885479189179 -46.081021325600886 0 0 0 0 85.062725537813094 -19.567363120489972 0 -19.567363120489972 -2.6230662364141608 0 0 0 0 74.714313943706657 -1.137632113732252 0 -1.137632113732252 -14.847662301405762 0 0 0 0 87.654047960089883 -17.531791925874131 0 -17.531791925874131 -12.323724945630147 0 0 0 0 72.96182678358673 -0.56877323567459825 0 -0.56877323567459825 -5.9173855981498491 0 0 0 0 87.523903094878733 -13.236829206352922 0 -13.236829206352922 -5.503135542057862 0 0 0 0 121.2924429982595 -14.821901782506757 0 -14.821901782506757 1.7115643294782785 0 0 0 0 83.883372728600079 0.36012033773295116 0 0.36012033773295116 3.7515179533147602 0 0 0 0 41.834116960535539 9.6165886126436817 0 9.6165886126436817 5.1350571155871876 0 0 0 0 54.417803958474906 -16.555017551794663 0 -16.555017551794663 19.833195175211586 0 0 0 0 77.808918559819176 16.785968648979178 0 16.785968648979178 16.8121856645148 0 0 0 0 78.277587896900513 14.455054882209879 0 14.455054882209879 7.0379781601586728 0 0 0 0 97.497491550191626 2.8412746579451778 0 2.8412746579451778 0.0078618918487336487 0 0 0 0 148.70853645644092 42.382991816582944 0 42.382991816582944 16.820933471788521 0 0 0 0 56.945231121474535 45.320691209315555 0 45.320691209315555 97.619821099702676 0 0 0 0 31.462657686666716 -72.547541720057779 0 -72.547541720057779 9.6311419254416251 0 0 0 0 10.415637582372943 -10.486494312323785 0 -10.486494312323785 -5.6789155539409677 0 0 0 0 53.515975562982931 -7.375809909775132 0 -7.375809909775132 -1.1892866382393521 0 0 0 0 113.49787059553819 65.961359154825914 0 65.961359154825914 62.984950254309297 0 0 0 0 55.006506854504529 24.433589112855799 0 24.433589112855799 7.6477707566187689 0 0 0 0 287.40090478202183 117.08948487093949 0 117.08948487093949 78.821597724338062 0 0 0 0 91.98901714058411 -22.206951030671917 0 -22.206951030671917 16.729548305906064 0 0 0 0 -57.730757438432192 -541.88729029368551 0 -541.88729029368551 -368.19291669373342 0 0 0 0 252.40115192516532 352.03292247774516 0 352.03292247774516 824.32707877180655 0 0 0 0 330.22280109224812 -120.93644889754069 0 -120.93644889754069 24.31778625799052 0 0 0 0 344.36789376625165 -66.289842722057074 0 -66.289842722057074 205.35061691552983 0 0 0 0 257.73959529529384 -199.94784020335646 0 -199.94784020335646 188.63170965033714 0 0 0 0 273.49995112697616 -248.15677899472757 0 -248.15677899472757 138.24787730895332 0 0 0 0 289.15806511723713 -272.51809509247687 0 -272.51809509247687 163.62466566942749 0 0 0 0 316.17715481871346 -268.30100114191737 0 -268.30100114191737 123.87465479868115 0 0 0 0 308.61805206045392 -251.05073117719439 0 -251.05073117719439 87.439022337304777 0 0 0 0 210.79368136298217 -199.46095930158481 0 -199.46095930158481 160.73755945386074 0 0 0 0 232.60056036749302 -254.84710098875803 0 -254.84710098875803 184.84624865870137 0 0 0 0 72.520109476172365 -33.74924859209932 0 -33.74924859209932 -16.592895968773519 0 0 0 0 40.28118980041836 19.646052096060885 0 19.646052096060885 -129.7405584242224 0 0 0 0 14.029336504345082 -5.830700313756175 0 -5.830700313756175 -8.2797148739780937 0 0 0 0 11.705960621582577 5.4560993429212203 0 5.4560993429212203 -0.061790088227752449 0 0 0 0 49.732619865626475 -76.569765095562616 0 -76.569765095562616 218.66837227533688 0 0 0 0 316.51225846773832 -280.43638381023766 0 -280.43638381023766 -119.46362297015003 0 0 0 0 147.50070480258364 -319.22161605493238 0 -319.22161605493238 212.03304721669792 0 0 0 0 20.881240740640351 -118.2365860270038 0 -118.2365860270038 123.97810627748549 0 0 0 0 168.48960214385079 -193.01748092459093 0 -193.01748092459093 -0.56630784352455521 0 0 0 0 66.501427027485079 -5.7136757684693293 0 -5.7136757684693293 -142.63899968381156 0 0 0 0 95.608880542589759 -72.774231500632595 0 -72.774231500632595 -114.29039774297416 0 0 0 0 77.243362650325253 -57.314913240064925 0 -57.314913240064925 -90.229549706054968 0 0 0 0 -16.680051642248145 0.77447114025562769 0 0.77447114025562769 -95.440650954162265 0 0 0 0 36.413631708209792 8.7170131443043175 0 8.7170131443043175 3.1128805753614941 0 0 0 0 25.48206820407313 0.35845447761312244 0 0.35845447761312244 7.6694418852912349 0 0 0 0 28.384676356966111 6.5688819915185377 0 6.5688819915185377 7.2197272473495104 0 0 0 0 21.34598405882247 -4.0137302463464763 0 -4.0137302463464763 2.41491201915548 0 0 0 0 51.479486359620353 15.787157730554554 0 15.787157730554554 30.908915131592948 0 0 0 0 20.163768983053615 9.3088644020936044 0 9.3088644020936044 15.757418144530675 0 0 0 0 20.790923496275241 10.034990498568618 0 10.034990498568618 6.6271935118784313 0 0 0 0 13.71226417232856 2.534748928163026 0 2.534748928163026 9.0618073448931682 0 0 0 0 131.57736523862059 119.85619585180484 0 119.85619585180484 -312.08984223538209 0 0 0 0 17.865621745740967 7.3279723994893828 0 7.3279723994893828 2.8055437867849022 0 0 0 0 19.427103871230429 15.75154785693303 0 15.75154785693303 -4.6888974440048514 0 0 0 0 14.496249813944136 7.0476933223886675 0 7.0476933223886675 4.1591395913905203 0 0 0 0 235.34512940989771 -157.12529161030761 0 -157.12529161030761 -78.627414433114609 0 0 0 0 170.82240785887325 82.106069447758728 0 82.106069447758728 -82.830140296577156 0 0 0 0 260.3976984940291 -225.63980024867669 0 -225.63980024867669 -14.587139402516186 0 0 0 0 158.15339149944521 -165.95481641345032 0 -165.95481641345032 26.884237738198863 0 0 0 0 169.4021880568871 -41.306971631700435 0 -41.306971631700435 -165.35482388958189 0 0 0 0 133.54619043122511 -166.37483197513211 0 -166.37483197513211 -24.802815647155512 0 0 0 0 300.56072413362199 -145.9702264797379 0 -145.9702264797379 28.973726415419151 0 0 0 0 186.02917134261588 -211.67463511678943 0 -211.67463511678943 -1.425991630606859 0 0 0 0 232.64110865439034 -263.58084970884011 0 -263.58084970884011 7.0716514266896411 0 0 0 0 293.38535943245915 -191.86270196158148 0 -191.86270196158148 91.743599990793882 0 0 0 0 105.01663784694574 -164.46378377568544 0 -164.46378377568544 3.6111088409015792 0 0 0 0 230.57162152395176 -269.62639195787779 0 -269.62639195787779 8.839780867261652 0 0 0 0 333.34097339467871 -299.38197471339117 0 -299.38197471339117 17.453182760502386 0 0 0 0 217.28116171600232 -240.4158040207767 0 -240.4158040207767 10.907798983622342 0 0 0 0 308.38634722571442 -269.06038285440445 0 -269.06038285440445 18.512694518547505 0 0 0 0 229.10570804206736 -258.86801039993861 0 -258.86801039993861 120.47942132187745 0 0 0 0 242.36313778062322 -269.34175766075896 0 -269.34175766075896 -6.3854692389941192 0 0 0 0 216.16821854267619 -212.78797009533446 0 -212.78797009533446 -31.53347280336493 0 0 0 0 118.39037777343583 -165.17423163769126 0 -165.17423163769126 63.072271690572961 0 0 0 0 97.867183640733856 -76.570841722067598 0 -76.570841722067598 180.05522138880769 0 0 0 0 196.64080133472817 -173.39556215558696 0 -173.39556215558696 49.196088298198447 0 0 0 0 275.65060533054384 -278.83516834886177 0 -278.83516834886177 285.1616002446317 0 0 0 0 196.57369493987778 -152.62877272757189 0 -152.62877272757189 131.17290556467196 0 0 0 0 117.71256928058756 20.148722945201371 0 20.148722945201371 396.9778322909624 0 0 0 0 131.12818975658593 61.194893046606012 0 61.194893046606012 329.48777916729887 0 0 0 0 144.24726896033462 22.718702733854116 0 22.718702733854116 313.50056309172214 0 0 0 0 164.39454553169708 6.5515226696443278 0 6.5515226696443278 61.511041822966945 0 0 0 0 453.98259312099094 134.844560475874 0 134.844560475874 161.78193593191827 0 0 0 0 363.9826312399025 -238.10005943920555 0 -238.10005943920555 124.54944201315084 0 0 0 0 371.83298878455571 -107.11654507775893 0 -107.11654507775893 245.53850234740821 0 0 0 0 220.09511195305322 -161.50891891757783 0 -161.50891891757783 821.59055104510844 0 0 0 0 822.77339858158143 437.80584825287337 0 437.80584825287337 621.0680752767621 0 0 0 0 812.84272074538239 -236.61644835025982 0 -236.61644835025982 274.69875093166229 0 0 0 0 93.247689792828169 131.60542070203883 0 131.60542070203883 1187.8823304060115 0 0 0 0 237.1734844190396 14.172056518767931 0 14.172056518767931 337.5379241113551 0 0 0 0 299.26854328374429 257.00506149575904 0 257.00506149575904 408.34959316004097 0 0 0 0 5.2581165875126317 60.184313201596524 0 60.184313201596524 298.71566803441601 0 0 0 0 63.619828693896125 138.34422702408119 0 138.34422702408119 168.63130181068846 0 0 0 0 120.44207712345178 143.41931362331479 0 143.41931362331479 775.67795994522385 0 0 0 0 -88.019948597238908 156.08307296036946 0 156.08307296036946 797.25919366937524 0 0 0 0 -155.3517936091157 143.63030966706719 0 143.63030966706719 787.61786281512286 0 0 0 0 -156.77810167179632 183.32422513686106 0 183.32422513686106 750.40176514950508 0 0 0 0 -207.16894975263858 214.28122888561848 0 214.28122888561848 902.77597731565038 0 0 0 0 -191.34183597232732 108.61009693687083 0 108.61009693687083 776.32231144571051 0 0 0 0 -170.39954102010188 112.94886078475793 0 112.94886078475793 772.51933333196212 0 0 0 0 -125.62186538672177 101.43700973836894 0 101.43700973836894 446.55375094991905 0 0 0 0 -154.98142404310784 113.38263180305512 0 113.38263180305512 443.67554062714953 0 0 0 0 -58.893834099584637 116.47222554231121 0 116.47222554231121 501.6816245210066 0 0 0 0 -119.65903068729313 190.61250484668562 0 190.61250484668562 474.1664407525368 0 0 0 0 -73.174107566889006 168.0013302410307 0 168.0013302410307 239.48921044524468 0 0 0 0 -125.63475192312762 119.95084497213975 0 119.95084497213975 200.62411527643053 0 0 0 0 -69.901486276332434 104.66847746834537 0 104.66847746834537 192.51014785534062 0 0 0 0 -71.480934016308311 85.67375632225594 0 85.67375632225594 180.87250737148861 0 0 0 0 -79.103887724329979 170.42224824172445 0 170.42224824172445 64.160864239151124 0 0 0 0 -47.05128710291865 132.34344690289618 0 132.34344690289618 28.926005095912842 0 0 0 0 -117.01160831390371 238.99865865819447 0 238.99865865819447 -75.403727071352478 0 0 0 0 -148.35588491885574 100.801187615456 0 100.801187615456 -42.1312078747942 0 0 0 0 -72.765522561560374 204.14749032216378 0 204.14749032216378 47.297094785433728 0 0 0 0 19.404127719850262 17.166632442143353 0 17.166632442143353 13.349427076117308 0 0 0 0 -52.820343787621539 124.72108521307507 0 124.72108521307507 92.458523048400821 0 0 0 0 -23.520656619886722 191.21411404110404 0 191.21411404110404 -124.92610288023934 0 0 0 0 -35.281869294031821 -5.4137215031878441 0 -5.4137215031878441 68.010017876789789 0 0 0 0 23.482674526487244 31.934291395926266 0 31.934291395926266 -57.071001108764904 0 0 0 0 -60.894483682148348 -21.409868111379183 0 -21.409868111379183 252.43373431652435 0 0 0 0 -53.138491819423507 145.7074094179552 0 145.7074094179552 61.917610545220668 0 0 0 0 -1.6442227379216092 189.16356566501418 0 189.16356566501418 -127.45953953920252 0 0 0 0 35.279930833436538 68.386916038549316 0 68.386916038549316 -57.252665667132533 0 0 0 0 -2.0404585924533807 2.3524527126449044 0 2.3524527126449044 5.3850037519348675 0 0 0 0 -10.986951817760882 51.362268753848184 0 51.362268753848184 16.692070772402076 0 0 0 0 3.8439015406029284 50.949660568930994 0 50.949660568930994 52.156593067476933 0 0 0 0 30.103802961689325 10.102763537244755 0 10.102763537244755 23.981826378393635 0 0 0 0 -12.708937312900161 47.772915487505088 0 47.772915487505088 16.616390852286713 0 0 0 0 10.905901436625562 8.7781833428112606 0 8.7781833428112606 6.6702963353408009 0 0 0 0 80.04759245824971 -21.64984127504249 0 -21.64984127504249 -99.975839130362147 0 0 0 0 4.339082470138603 0.15317221515964263 0 0.15317221515964263 -4.5586989889204546 0 0 0 0 -135.69397234851931 314.16085830024895 0 314.16085830024895 -383.10804825946616 0 0 0 0 -50.251430648058886 134.96006044890237 0 134.96006044890237 -239.41887993294222 0 0 0 0 1.5493870429581875 3.3272363775140548 0 3.3272363775140548 -32.6875070323822 0 0 0 0 -27.608311899706223 25.070411838654763 0 25.070411838654763 28.305789814970922 0 0 0 0 10.048159842770563 13.872599779663219 0 13.872599779663219 14.989938382235231 0 0 0 0 11.754115133815235 2.4771493281786334 0 2.4771493281786334 -4.483411632741678 0 0 0 0 -45.64265115643866 60.152540171406145 0 60.152540171406145 -134.83616407729642 0 0 0 0 -0.7565229022220592 22.920409517435473 0 22.920409517435473 -15.31147858301847 0 0 0 0 -186.29155567053931 219.05406664042494 0 219.05406664042494 -72.159785826763255 0 0 0 0 -30.673105246713021 -39.71152946849179 0 -39.71152946849179 -156.19827338561299 0 0 0 0 57.666787163439949 227.37856525287498 0 227.37856525287498 -303.02746402562843 0 0 0 0 215.17259166737676 -64.226036391602975 0 -64.226036391602975 0.8557101280639472 0 0 0 0 135.19852407582539 212.48546701709301 0 212.48546701709301 118.41485518393893 0 0 0 0 -58.977998665988707 171.50831350361841 0 171.50831350361841 165.93504452985098 0 0 0 0 -57.651691609289401 58.455530129106137 0 58.455530129106137 -84.965836641480564 0 0 0 0 101.91248895414719 94.988853137529077 0 94.988853137529077 -126.82236846485466 0 0 0 0 -111.83542929181249 440.4150191445151 0 440.4150191445151 1192.9043651899447 0 0 0 0 -97.13167326940038 404.80188390500916 0 404.80188390500916 1041.0710808180211 0 0 0 0 -146.46983914262637 557.07713081151633 0 557.07713081151633 1196.9830903618713 0 0 0 0 -144.25378336591984 533.48587510981815 0 533.48587510981815 1084.3490569516343 0 0 0 0 -8.2313171234663969 396.42553462310389 0 396.42553462310389 934.4019697869046 0 0 0 0 -83.382797330515814 512.73076574641073 0 512.73076574641073 931.21373388472421 0 0 0 0 -4.9763580098533566 270.47950550462519 0 270.47950550462519 469.5253333267392 0 0 0 0 -66.919316937249732 181.87896547525088 0 181.87896547525088 1067.8335708708328 0 0 0 0 246.55952333960317 -32.748136619451543 0 -32.748136619451543 1210.5081626119354 0 0 0 0 87.866078933747303 271.13176085651503 0 271.13176085651503 840.7747896721271 0 0 0 0 290.40018514622852 804.06276616457035 0 804.06276616457035 1397.4814679186416 0 0 0 0 154.61600602600583 503.20560488098363 0 503.20560488098363 747.29700548887195 0 0 0 0 439.67021568392056 264.06245986469003 0 264.06245986469003 -72.990470837092289 0 0 0 0 -12.570593265146272 -43.77041615647795 0 -43.77041615647795 1792.1529206711857 0 0 0 0 4.2601571094417903 4.9088505360081101 0 4.9088505360081101 5.8371008327219442 0 0 0 0 671.74961786621543 634.16170655358746 0 634.16170655358746 1224.035167693306 0 0 0 0 802.37153296654833 474.34683208576644 0 474.34683208576644 824.62956167649781 0 0 0 0 0.80658724729801179 450.40945596335041 0 450.40945596335041 1020.8817283361059 0 0 0 0 -201.46378268208537 173.71263468234247 0 173.71263468234247 1228.2634651613716 0 0 0 0 -20.845643872362189 -163.57381799784423 0 -163.57381799784423 784.83173116733087 0 0 0 0 20.068405631156566 45.306271784855198 0 45.306271784855198 338.65045485122039 0 0 0 0 11.8629102740252 13.066377824801336 0 13.066377824801336 12.901472092961683 0 0 0 0 -32.311941135491907 116.33766926536919 0 116.33766926536919 -80.150438347489398 0 0 0 0 -94.367311320456793 65.921965429193733 0 65.921965429193733 337.93900796665912 0 0 0 0 -21.610430974016424 -87.421178868081597 0 -87.421178868081597 -33.162400483808597 0 0 0 0 -27.634713629842281 -47.132617482972364 0 -47.132617482972364 62.495646199142357 0 0 0 0 14.481187438435882 32.234230977945117 0 32.234230977945117 27.695660977191437 0 0 0 0 43.404433732846428 -73.895880147902062 0 -73.895880147902062 39.700191112073298 0 0 0 0 33.774605030664134 -11.7444928864752 0 -11.7444928864752 42.043450989140865 0 0 0 0 -109.79033481291901 -19.007103950679721 0 -19.007103950679721 136.33678044517001 0 0 0 0 94.784847181682835 -86.7383250231087 0 -86.7383250231087 56.996129139532059 0 0 0 0 -8.3738234750317133 192.59620540250035 0 192.59620540250035 473.78452403527626 0 0 0 0 29.228927220938886 154.62141491081366 0 154.62141491081366 486.82963269742686 0 0 0 0 214.21459779248585 20.191995546148974 0 20.191995546148974 38.326523906722286 0 0 0 0 11.340315196041468 13.571749536007644 0 13.571749536007644 14.66394319348089 0 0 0 0 -70.031259296289591 220.97339729266787 0 220.97339729266787 -18.186764512890477 0 0 0 0 132.3394518765881 2.4173693217362597 0 2.4173693217362597 -33.797168066754921 0 0 0 0 -169.77225847878617 -163.74616671589865 0 -163.74616671589865 791.31149879951408 0 0 0 0 -216.41876894089046 141.49387495244764 0 141.49387495244764 -21.047937637606083 0 0 0 0 -79.840451106086789 28.510069937248772 0 28.510069937248772 13.071621388456151 0 0 0 0 33.342432962434032 -57.756374516240157 0 -57.756374516240157 -39.574355587337777 0 0 0 0 14.443606204216634 16.235062203985805 0 16.235062203985805 16.994869625613802 0 0 0 0 -110.77264767964488 104.96683931599819 0 104.96683931599819 -20.199621511339501 0 0 0 0 -125.31378486681001 58.328472363165019 0 58.328472363165019 16.860506133587478 0 0 0 0 -14.530314789296426 124.66662135944352 0 124.66662135944352 -116.75437664128185 0 0 0 0 -25.68255993093311 30.657099912149192 0 30.657099912149192 75.857196078079141 0 0 0 0 93.252886764193136 -60.219681474211029 0 -60.219681474211029 8.9150579694069165 0 0 0 0 83.650715144732629 50.717615003964511 0 50.717615003964511 50.433129728298809 0 0 0 0 81.780563778017495 35.028376892680171 0 35.028376892680171 -73.998767697074072 0 0 0 0 21.559076873990307 79.602604048028297 0 79.602604048028297 -72.576301268537975 0 0 0 0 16.344696759268441 17.371600871075451 0 17.371600871075451 18.083978341027105 0 0 0 0 -9.291992212997684 31.898075829602021 0 31.898075829602021 7.3951471762020446 0 0 0 0 -10.989537743436472 26.324150647445549 0 26.324150647445549 30.366930356143712 0 0 0 0 -36.484728420198735 52.070641316827277 0 52.070641316827277 -22.2988216052442 0 0 0 0 -36.882602783706716 51.500982665316769 0 51.500982665316769 2.0665003027006605 0 0 0 0 -82.850401464776098 35.028052286013917 0 35.028052286013917 44.45749102083937 0 0 0 0 -75.772359154829473 33.018194226670857 0 33.018194226670857 43.057220010807214 0 0 0 0 -76.555614020036046 29.163728389296921 0 29.163728389296921 57.666281041531875 0 0 0 0 -71.505005831425819 32.470232169196606 0 32.470232169196606 13.33621789306676 0 0 0 0 -77.430115014051239 28.408181918405717 0 28.408181918405717 37.475266874762383 0 0 0 0 15.870740055020406 7.621778317987264 0 7.621778317987264 5.1578319913878659 0 0 0 0 10.313678193133455 5.194293811575335 0 5.194293811575335 10.882642694246897 0 0 0 0 13.736592297923835 8.0737225833254342 0 8.0737225833254342 6.0081667687645677 0 0 0 0 16.514299687189236 5.3993890904221189 0 5.3993890904221189 7.3341612440999597 0 0 0 0 9.2464913352423537 9.7104247821644094 0 9.7104247821644094 11.810917509836145 0 0 0 0 9.7669430820395924 7.3127659898469197 0 7.3127659898469197 6.9303005376351621 0 0 0 0 13.195482571127242 5.6197311678077781 0 5.6197311678077781 4.7124879763856073 0 0 0 0 -11.083374431638731 10.28997858735238 0 10.28997858735238 24.258939157066379 0 0 0 0 40.932076211027379 4.0363803073159943 0 4.0363803073159943 -11.785194222386053 0 0 0 0 5.0687979821644076 1.5956293259479963 0 1.5956293259479963 2.4514937678131652 0 0 0 0 -7.6212035359528727 5.7143837281173546 0 5.7143837281173546 38.982996447582991 0 0 0 0 14.475763959599853 9.1223391550814057 0 9.1223391550814057 4.6501778981143005 0 0 0 0 31.402796955459053 9.6522206590743735 0 9.6522206590743735 18.129554464714602 0 0 0 0 22.577524223932414 22.924526451839483 0 22.924526451839483 -12.467205003536947 0 0 0 0 41.540336858030059 26.410130147763994 0 26.410130147763994 -12.09684369230672 0 0 0 0 -3.3333796088358056 1.0162756385003604 0 1.0162756385003604 3.5254559287340328 0 0 0 0 14.789048316033144 10.623848440586386 0 10.623848440586386 9.798743996908911 0 0 0 0 5.207010080013788 37.610686959658779 0 37.610686959658779 12.839218688759502 0 0 0 0 24.008943618732701 14.478372979869164 0 14.478372979869164 22.364657397847623 0 0 0 0 1.7401540092731391 -0.57026696913455055 0 -0.57026696913455055 -0.27206515944443765 0 0 0 0 -4.1216222750417728 20.31239881658621 0 20.31239881658621 128.57533354472162 0 0 0 0 4.1107045694336648 -19.422775326437659 0 -19.422775326437659 57.891445984059828 0 0 0 0 69.104197319932297 -20.445779435674012 0 -20.445779435674012 -26.650784347864828 0 0 0 0 18.047112056214928 -19.58392604022265 0 -19.58392604022265 25.72882790872336 0 0 0 0 13.762058342027331 7.2418521015842998 0 7.2418521015842998 -2.9753552766469511 0 0 0 0 6.4468227787249361 -0.67124479799713299 0 -0.67124479799713299 2.7267408279294614 0 0 0 0 13.79920722278672 12.036448655452659 0 12.036448655452659 1.2325521587554249 0 0 0 0 16.005300862689182 13.485678637173805 0 13.485678637173805 -13.095609484807937 0 0 0 0 4.6280139011527126 23.857547952414507 0 23.857547952414507 -21.49440247959501 0 0 0 0 16.404921958167268 18.631482026881567 0 18.631482026881567 18.675362159943532 0 0 0 0 -8.4430833006645116 33.229773726672647 0 33.229773726672647 34.891793143087853 0 0 0 0 9.5240804902903164 28.667179038104223 0 28.667179038104223 -8.9520429846047591 0 0 0 0 9.7457174275189118 24.488468938408914 0 24.488468938408914 9.9793768190720584 0 0 0 0 13.074086663669732 13.512822888436858 0 13.512822888436858 -1.100343773709028 0 0 0 0 9.9551203308542426 24.78252350992625 0 24.78252350992625 7.6689542345866357 0 0 0 0 11.982234548162239 12.072866628346674 0 12.072866628346674 12.986248005061498 0 0 0 0 13.045288375074961 13.598549743053809 0 13.598549743053809 8.0426376359937422 0 0 0 0 14.593136586818673 10.088105726752474 0 10.088105726752474 3.3089641334227053 0 0 0 0 11.715224299923761 7.6559715807088651 0 7.6559715807088651 11.837000245661329 0 0 0 0 12.09023016715264 10.998424303254069 0 10.998424303254069 12.42094384563552 0 0 0 0 14.646467582473434 9.389737289290224 0 9.389737289290224 9.7050506851810496 0 0 0 0 13.07194002930396 7.207774944450648 0 7.207774944450648 6.8163284117154035 0 0 0 0 0.46035544172126319 -0.91370495645095673 0 -0.91370495645095673 3.9533949361872942 0 0 0 0 12.167142627889802 11.087126222590086 0 11.087126222590086 8.7627510753973183 0 0 0 0 30.042560940015392 15.151122466394099 0 15.151122466394099 -15.970500406081555 0 0 0 0 11.745926200990652 0.72124560038537311 0 0.72124560038537311 11.318207568343496 0 0 0 0 -0.44910997516328544 1.0449480246053611 0 1.0449480246053611 2.4661167723365551 0 0 0 0 22.88431956449142 31.720757343204241 0 31.720757343204241 1.5091459072791622 0 0 0 0 12.455694015506253 -3.5685096387396698 0 -3.5685096387396698 -10.975140731101419 0 0 0 0 16.271495811306245 1.9802967625363834 0 1.9802967625363834 -1.0038152085133945 0 0 0 0 6.3602315916375574 11.585795526045331 0 11.585795526045331 13.955942205458996 0 0 0 0 8.4997245833330908 4.4157843540269823 0 4.4157843540269823 3.1245367014234944 0 0 0 0 8.2117315604732308 5.3268377150506083 0 5.3268377150506083 3.7172632762211748 0 0 0 0 9.0658938902833928 6.3670052984617627 0 6.3670052984617627 3.0993592613756249 0 0 0 0 -3.7590795131747656 3.7602037106576596 0 3.7602037106576596 2.0751591731295775 0 0 0 0 7.6419810129168582 19.983566498834989 0 19.983566498834989 16.519401990005917 0 0 0 0 22.147853226478674 29.71423405348969 0 29.71423405348969 8.641895498149097 0 0 0 0 3.0081922449517151 18.537115581788385 0 18.537115581788385 23.125412020930526 0 0 0 0 7.4670638325517302 20.557865443799528 0 20.557865443799528 17.981255261391198 0 0 0 0 1.3442288375081493 2.5703532969350817 0 2.5703532969350817 4.87020474959197 0 0 0 0 -0.61604871139081752 8.3909076273084793 0 8.3909076273084793 16.917225770779623 0 0 0 0 3.1459952121837609 9.9072332579732247 0 9.9072332579732247 15.223074991057764 0 0 0 0 -0.41408418368251887 7.1729189525467518 0 7.1729189525467518 18.837782084854553 0 0 0 0 -9.2964771395309924 0.061208677668659561 0 0.061208677668659561 9.234394296380529 0 0 0 0 -4.1824234404516574 36.880019211746912 0 36.880019211746912 35.740178493581425 0 0 0 0 -0.38286561387894835 7.6144327111906023 0 7.6144327111906023 17.493520525960776 0 0 0 0 -1.4433929446747698 4.8860848226941016 0 4.8860848226941016 18.300709211922367 0 0 0 0 -1.6187197633462347 6.0538158990093507 0 6.0538158990093507 18.783433113068895 0 0 0 0 1.107000626716399 6.5281071350109414 0 6.5281071350109414 17.817860589405427 0 0 0 0 1.02105124950549 5.5923092085577082 0 5.5923092085577082 17.799577666723053 0 0 0 0 7.8750759230749736 4.5191231727803824 0 4.5191231727803824 6.6080012395213998 0 0 0 0 0.1238500083914118 1.0121828532585226 0 1.0121828532585226 5.6700276840754924 0 0 0 0 0.36664016855434056 7.4020384580308018 0 7.4020384580308018 17.307033311323721 0 0 0 0 2.6931712519367466 2.7112670463802715 0 2.7112670463802715 12.270603058965207 0 0 0 0 4.8620816809424987 2.8302179064161521 0 2.8302179064161521 1.0966249361553553 0 0 0 0 3.4503941465031769 -1.8090704641516808 0 -1.8090704641516808 4.6533791408499141 0 0 0 0 -0.69788919260541826 1.3665955546324042 0 1.3665955546324042 0.61470302539457711 0 0 0 0 14.268663817123592 -12.171631803526907 0 -12.171631803526907 22.504028896266391 0 0 0 0 -0.40973637713424793 0.59194624495782833 0 0.59194624495782833 2.1648905654641766 0 0 0 0 6.1927320204293892 3.8021821287923103 0 3.8021821287923103 9.2189058746953378 0 0 0 0 10.285151038840155 -20.427361379099239 0 -20.427361379099239 4.7158512456371682 0 0 0 0 9.9595598076653005 -10.647789426635427 0 -10.647789426635427 29.441835595076554 0 0 0 0 29.17361765630443 2.0411255127842196 0 2.0411255127842196 9.2000268214360403 0 0 0 0 -0.25220841736070732 -1.3007274058566551 0 -1.3007274058566551 2.1424734166440018 0 0 0 0 35.642560258217983 -15.317438595436215 0 -15.317438595436215 -5.1796128211099131 0 0 0 0 -155.15310433817274 -25.816711978188323 0 -25.816711978188323 227.03507298541808 0 0 0 0 -13.526497881987325 5.2106874044575306 0 5.2106874044575306 60.956113876246491 0 0 0 0 -19.291406062469378 -13.431609660268805 0 -13.431609660268805 98.66507464827373 0 0 0 0 52.770844498861152 -41.507966838868015 0 -41.507966838868015 2.0702945600933162 0 0 0 0 72.476975339059209 -61.26262637858963 0 -61.26262637858963 72.536534560277687 0 0 0 0 37.438671703785985 32.73177854546725 0 32.73177854546725 -1.3765067870899657 0 0 0 0 3.5979681962726318 21.32048540692449 0 21.32048540692449 -4.2717317346614436 0 0 0 0 5.2241781035958255 -1.2123572278477219 0 -1.2123572278477219 -1.9408966336270481 0 0 0 0 9.6986219513105425 1.1935283988204901 0 1.1935283988204901 -3.9469007955631241 0 0 0 0 41.476095424480263 3.7453798443384585 0 3.7453798443384585 -40.985095354471696 0 0 0 0 11.303589998821924 -0.16591093990918893 0 -0.16591093990918893 0.5626286746890683 0 0 0 0 1.9528136457583969 -23.963421734484655 0 -23.963421734484655 -2.1550610539561603 0 0 0 0 -163.47298817917579 59.668023693260693 0 59.668023693260693 91.565354243894944 0 0 0 0 -119.64200464481044 19.163955353038091 0 19.163955353038091 37.773510029601312 0 0 0 0 -81.23144848222762 48.227277161734264 0 48.227277161734264 89.672580292568455 0 0 0 0 -44.342107501438477 -0.53034031175411656 0 -0.53034031175411656 78.866785280350086 0 0 0 0 -0.22191141006850312 -0.052985303411766438 0 -0.052985303411766438 0.57911341147141115 0 0 0 0 -139.53830870678684 21.367800840737573 0 21.367800840737573 15.851137146433757 0 0 0 0 -1.9665914658123711 -31.876724756775729 0 -31.876724756775729 80.23207408119822 0 0 0 0 -10.893916463400455 3.5660868155281022 0 3.5660868155281022 57.071492084973215 0 0 0 0 -10.990515265511412 -4.1093771255862066 0 -4.1093771255862066 32.574266880081268 0 0 0 0 -3.6722512881176188 2.0241691510905113 0 2.0241691510905113 3.2473748755335103 0 0 0 0 -7.7381483434729885 1.2843760889189468 0 1.2843760889189468 14.934800699144851 0 0 0 0 -43.189264779035774 37.61465631228026 0 37.61465631228026 41.108987199284456 0 0 0 0 1.2503074146770814 31.698348025147425 0 31.698348025147425 31.241061468275575 0 0 0 0 -16.611220447124197 11.973377545120456 0 11.973377545120456 63.890076828645761 0 0 0 0 -7.8534755776637191 -5.2782541110399777 0 -5.2782541110399777 6.7300400840159114 0 0 0 0 -3.2809388615302169 2.2968710476307024 0 2.2968710476307024 24.88721472405814 0 0 0 0 -4.1138349095514286 5.07021747766521 0 5.07021747766521 19.20915906157461 0 0 0 0 -8.7365685459769935 -18.31428502727249 0 -18.31428502727249 30.554660395282554 0 0 0 0 -12.034948360785386 11.121941320024689 0 11.121941320024689 27.042708885419415 0 0 0 0 -41.560727362996886 -2.4445381880759669 0 -2.4445381880759669 21.176874570752261 0 0 0 0 -11.014462565210863 10.063096943018536 0 10.063096943018536 16.149812885662868 0 0 0 0 6.0299834615515104 7.5110479703972057 0 7.5110479703972057 8.9479766063556454 0 0 0 0 -13.131688820329373 62.894993346530555 0 62.894993346530555 -38.110146142415033 0 0 0 0 -107.62342751872717 97.201332295697284 0 97.201332295697284 10.992632126373337 0 0 0 0 -9.3024096157291751 -0.20825496489305806 0 -0.20825496489305806 -28.833252291056851 0 0 0 0 -39.38640972965095 51.757736355913949 0 51.757736355913949 -30.719593487161262 0 0 0 0 -11.823750475233965 45.402432659112492 0 45.402432659112492 -36.269459248034764 0 0 0 0 -17.974261153906355 53.532625576345708 0 53.532625576345708 -28.26888678926116 0 0 0 0 4.3952565085792186 7.7610848210908436 0 7.7610848210908436 10.126264258786883 0 0 0 0 -0.037759973321044527 -2.5028720002501359 0 -2.5028720002501359 -32.730447877407641 0 0 0 0 -34.004116175156923 21.164852046326359 0 21.164852046326359 20.750891415256774 0 0 0 0 -31.497288846602714 8.2870541855954798 0 8.2870541855954798 37.385495594638542 0 0 0 0 10.667874686128926 5.1278519219740701 0 5.1278519219740701 3.8015991581269191 0 0 0 0 -15.22353565498927 49.747113106120651 0 49.747113106120651 -68.779707961408349 0 0 0 0 -203.22262613699485 -15.688559040328983 0 -15.688559040328983 4.3123716967165819 0 0 0 0 -1.4140557097497191 0.8816988136658459 0 0.8816988136658459 2.6824688694377663 0 0 0 0 -160.35884861218585 60.928359047125014 0 60.928359047125014 -35.543488949952007 0 0 0 0 -38.10784383026612 30.044441912305047 0 30.044441912305047 -51.300652656376769 0 0 0 0 -162.55540182522842 -34.407889834131311 0 -34.407889834131311 -41.000691948320309 0 0 0 0 -166.00442171242855 -36.354556028740248 0 -36.354556028740248 -42.067349058852415 0 0 0 0 -117.23884282175199 -0.450034696266016 0 -0.450034696266016 -85.426704797280763 0 0 0 0 -170.58592361810753 65.518845420856451 0 65.518845420856451 -1.1195159676044568 0 0 0 0 -64.254279878793 48.509709921824651 0 48.509709921824651 73.95488913002373 0 0 0 0 -100.57490012243208 81.863589842744034 0 81.863589842744034 47.11144041343141 0 0 0 0 -94.307841436759134 13.58165555130654 0 13.58165555130654 37.928401000517624 0 0 0 0 -108.8999476871254 32.100266429587009 0 32.100266429587009 -3.7522329924286169 0 0 0 0 -89.457278104089625 23.493724656209451 0 23.493724656209451 -118.91517158927854 0 0 0 0 -185.45310717203748 55.77479379360102 0 55.77479379360102 18.654944786423584 0 0 0 0 -60.334653198797469 41.696098319764133 0 41.696098319764133 -18.717908662883019 0 0 0 0 -67.817471485420924 65.625327119271788 0 65.625327119271788 -39.635034069873655 0 0 0 0 -37.575785422701301 38.162475394681678 0 38.162475394681678 -14.856943677381423 0 0 0 0 -60.154060154804142 73.251573968869707 0 73.251573968869707 24.111843739281539 0 0 0 0 -37.763365581323797 51.795217973534818 0 51.795217973534818 41.431200854465715 0 0 0 0 -69.405205919441755 83.78430104772815 0 83.78430104772815 107.6902958540868 0 0 0 0 -46.087121111681199 47.597748007597147 0 47.597748007597147 111.83149395501187 0 0 0 0 -37.879332445576317 74.844529672088612 0 74.844529672088612 69.307506946755893 0 0 0 0 -19.60461380866991 36.08954039155833 0 36.08954039155833 21.703277974993398 0 0 0 0 -33.873824990940449 60.003773178993583 0 60.003773178993583 -5.9364083966429462 0 0 0 0 -14.377992466235241 54.665117237629602 0 54.665117237629602 15.437050149432253 0 0 0 0 -10.259071401830624 32.474132374613873 0 32.474132374613873 -5.59188364185502 0 0 0 0 -0.5710763929141649 39.300881966681118 0 39.300881966681118 -51.30092610659085 0 0 0 0 -41.483514765701102 71.483832469681147 0 71.483832469681147 146.94145464487519 0 0 0 0 -28.796631847531899 4.4929503215726072 0 4.4929503215726072 77.392669366294285 0 0 0 0 -43.735784334559185 126.09871730191435 0 126.09871730191435 250.05558883213598 0 0 0 0 -73.107051669540851 39.438601990177631 0 39.438601990177631 199.11539107833414 0 0 0 0 35.070016214755469 183.15904977064838 0 183.15904977064838 283.51174102312507 0 0 0 0 -72.764502982507565 121.85690661654007 0 121.85690661654007 319.81457764380139 0 0 0 0 -62.810350362134841 144.44401522315184 0 144.44401522315184 271.08514007322265 0 0 0 0 -48.439880053587331 113.51055394348532 0 113.51055394348532 186.69069750718154 0 0 0 0 -59.594041971055191 88.200883993840989 0 88.200883993840989 217.37031286821184 0 0 0 0 -31.221560200405335 77.422813752633374 0 77.422813752633374 107.52037708214266 0 0 0 0 -65.069551742340423 67.587144167742281 0 67.587144167742281 149.66026676584806 0 0 0 0 8.8412273770033494 161.39416022222849 0 161.39416022222849 179.95447183395481 0 0 0 0 -67.012358933788704 111.33026847098421 0 111.33026847098421 306.32869119611496 0 0 0 0 -2.2275946256692691 74.451902429721486 0 74.451902429721486 30.478190119685678 0 0 0 0 -68.57934480003496 19.872654484996019 0 19.872654484996019 107.16860155059476 0 0 0 0 -56.877968820233377 86.926965972930702 0 86.926965972930702 107.37968998900305 0 0 0 0 66.245706819158841 225.04314769167195 0 225.04314769167195 187.61560533317243 0 0 0 0 32.263587532503152 109.55402139206308 0 109.55402139206308 207.33514018345636 0 0 0 0 70.734093271688835 277.27457350340137 0 277.27457350340137 379.05813452244638 0 0 0 0 16.81503012291796 61.158670091363092 0 61.158670091363092 229.74196853038302 0 0 0 0 62.910279226250623 125.83080879010322 0 125.83080879010322 199.14636093272566 0 0 0 0 34.157624887830934 120.62070704528651 0 120.62070704528651 270.44939946611339 0 0 0 0 106.8822127225651 101.94401937643852 0 101.94401937643852 109.39100578717807 0 0 0 0 33.003562790528292 -9.8732262798596366 0 -9.8732262798596366 63.183092542605664 0 0 0 0 -120.93950539368257 54.776357436747276 0 54.776357436747276 25.314135782459743 0 0 0 0 -60.674542524094477 48.656538421114419 0 48.656538421114419 31.543294465479448 0 0 0 0 -64.027738397312532 -42.309793748583616 0 -42.309793748583616 85.229969799713217 0 0 0 0 5.2204678435708356 6.2745532132607913 0 6.2745532132607913 6.969193792187717 0 0 0 0 -83.838894374707252 151.86718452508649 0 151.86718452508649 -80.037092188064889 0 0 0 0 148.99078277458193 16.15996551299304 0 16.15996551299304 -201.10631651897711 0 0 0 0 -0.076936784176268702 -80.03338772747702 0 -80.03338772747702 130.31016628075304 0 0 0 0 -7.3393905695459694 61.85432951043731 0 61.85432951043731 34.138213820204328 0 0 0 0 209.30404897121298 185.6724635883802 0 185.6724635883802 -52.359984378899298 0 0 0 0 0.41799781597262609 -41.972928365347798 0 -41.972928365347798 -3.7247130748710333 0 0 0 0 2.8958292587690782 2.5488422994497419 0 2.5488422994497419 2.1701650465535209 0 0 0 0 -56.571749692553567 157.24341098413151 0 157.24341098413151 584.26398049403178 0 0 0 0 -29.937905823363053 -94.573689028294211 0 -94.573689028294211 489.88809595146631 0 0 0 0 -66.252510747940846 81.272697963095879 0 81.272697963095879 305.59236447172225 0 0 0 0 -48.715614751797602 104.21901628216074 0 104.21901628216074 284.05678504061325 0 0 0 0 50.193628072823685 171.08059523866359 0 171.08059523866359 196.36091308708438 0 0 0 0 176.77633028381464 319.71484303950399 0 319.71484303950399 348.35269016396705 0 0 0 0 224.68732658472391 -29.743178180070231 0 -29.743178180070231 131.95500174375047 0 0 0 0 21.790510600426387 93.368414351516549 0 93.368414351516549 477.76325617530051 0 0 0 0 156.60222093210359 370.90674187904892 0 370.90674187904892 365.3780800998793 0 0 0 0 55.696921139909591 36.666653416891904 0 36.666653416891904 89.18340975512001 0 0 0 0 196.18534446954982 280.41678340124645 0 280.41678340124645 207.72621684939077 0 0 0 0 -90.184464622007454 24.239269636785139 0 24.239269636785139 161.54520261295238 0 0 0 0 -183.25086814683436 8.3495978575483605 0 8.3495978575483605 63.640496456984692 0 0 0 0 -1.3195651917753271 0.76658937385985837 0 0.76658937385985837 10.4752437642803 0 0 0 0 -21.049083898891269 73.424185392933225 0 73.424185392933225 79.338747555349983 0 0 0 0 -20.227839774438507 41.786231000015505 0 41.786231000015505 11.10464149453037 0 0 0 0 -32.573680432096808 -90.72433138299948 0 -90.72433138299948 48.314674418981667 0 0 0 0 -0.79565089546176715 1.083768192907101 0 1.083768192907101 4.921989451718936 0 0 0 0 270.09690104485753 390.14248625611253 0 390.14248625611253 329.28071309142615 0 0 0 0 -208.15240871606056 -114.76382124082011 0 -114.76382124082011 271.76937548734713 0 0 0 0 100.87396615861144 251.76083994695909 0 251.76083994695909 529.7255387847872 0 0 0 0 -2.5441995157402744 77.040143064197764 0 77.040143064197764 287.05263172365994 0 0 0 0 45.272894589407542 213.41298189347299 0 213.41298189347299 603.65923955159815 0 0 0 0 236.46311649132804 16.710415470103726 0 16.710415470103726 265.34195576861021 0 0 0 0 138.73121343823914 98.190800722624772 0 98.190800722624772 184.36769211656042 0 0 0 0 81.477018361310002 55.644105480376311 0 55.644105480376311 178.33495728666821 0 0 0 0 1.0834043288214161 107.32617791720259 0 107.32617791720259 254.07604810635917 0 0 0 0 23.781415375007782 75.070136835831363 0 75.070136835831363 258.78349015442245 0 0 0 0 9.7259231857187842 69.975721648518629 0 69.975721648518629 277.90799356899151 0 0 0 0 -14.317669520864001 -20.344734070917184 0 -20.344734070917184 262.00257264603601 0 0 0 0 72.374640448253558 17.292806102625036 0 17.292806102625036 175.59304531519729 0 0 0 0 63.157684020018678 37.971842041546097 0 37.971842041546097 168.49853490097667 0 0 0 0 55.22559346539947 -21.292462801381589 0 -21.292462801381589 113.2595249194419 0 0 0 0 39.447866636915933 10.943896388668691 0 10.943896388668691 119.64021604993286 0 0 0 0 35.309464988475156 -9.0352290862942937 0 -9.0352290862942937 47.552266189484726 0 0 0 0 72.826875503574229 2.0629561909215681 0 2.0629561909215681 103.98976197390948 0 0 0 0 70.898067744192304 3.9051469845512656 0 3.9051469845512656 134.18422455759719 0 0 0 0 40.803385030516438 -11.411367838551996 0 -11.411367838551996 150.30351962414352 0 0 0 0 51.364786502026618 6.6161303382750702 0 6.6161303382750702 173.01658673041493 0 0 0 0 30.102128085693039 -31.642345577004562 0 -31.642345577004562 128.73726906271258 0 0 0 0 63.715094623998993 -8.9833812558581485 0 -8.9833812558581485 143.0321356850036 0 0 0 0 67.310311984194414 -11.953726496118179 0 -11.953726496118179 119.49942876491059 0 0 0 0 -165.46306239063301 -146.26866952915225 0 -146.26866952915225 90.187533961856388 0 0 0 0 -138.19049533852967 -194.09812335271272 0 -194.09812335271272 169.52114549703401 0 0 0 0 43.14131621942704 3.6880279174762336 0 3.6880279174762336 153.58754749172658 0 0 0 0 -35.566569033940411 -34.183506961359285 0 -34.183506961359285 149.49872838876058 0 0 0 0 -130.20894518440332 -458.48319510889633 0 -458.48319510889633 -2.3888626832324462 0 0 0 0 2.0173104058721947 1.3154616431947943 0 1.3154616431947943 155.48651206160412 0 0 0 0 18.942741733877483 -64.560154130071169 0 -64.560154130071169 -148.4585961215198 0 0 0 0 -9.4360390448869893 3.8407729278648404 0 3.8407729278648404 94.757377838631015 0 0 0 0 -28.598066644479786 -71.89319238907774 0 -71.89319238907774 -149.0504104032907 0 0 0 0 18.942741733875209 -64.560154130100273 0 -64.560154130100273 -148.45859612175263 0 0 0 0 18.942741733872026 -64.560154130129376 0 -64.560154130129376 -148.45859612171262 0 0 0 0 -39.877545559233113 3.766463631121951 0 3.766463631121951 85.143687349736865 0 0 0 0 -7.8063111709138422 4.3007302180679794 0 4.3007302180679794 90.423882845981751 0 0 0 0 -20.295223463016555 3.8178445486155397 0 3.8178445486155397 103.79340055400462 0 0 0 0 -22.791905727565215 -7.5029303898928248 0 -7.5029303898928248 72.005303097452483 0 0 0 0 -12.485201281281888 -15.088293120375965 0 -15.088293120375965 137.34984744731264 0 0 0 0 -48.240126573755333 31.726555838395143 0 31.726555838395143 89.157544031471843 0 0 0 0 -28.651064165421076 -51.61265408507029 0 -51.61265408507029 120.65901601712176 0 0 0 0 -128.16895487583133 -40.070620295732624 0 -40.070620295732624 124.14508598002976 0 0 0 0 -86.049055245845011 -64.961063925058625 0 -64.961063925058625 92.969652680314539 0 0 0 0 -6.7571084077282855 -5.0064157685453257 0 -5.0064157685453257 22.780703290587553 0 0 0 0 -32.145618187118089 33.977098334684342 0 33.977098334684342 53.226529492076224 0 0 0 0 -0.080976154756204011 9.7391837975193418 0 9.7391837975193418 84.133111394385139 0 0 0 0 68.680368661965986 -4.1804574417759568 0 -4.1804574417759568 133.03357103443341 0 0 0 0 87.430136081160526 -13.488345219509938 0 -13.488345219509938 118.43680645760742 0 0 0 0 116.48032201743808 34.409358811992206 0 34.409358811992206 144.8791351508462 0 0 0 0 58.445425675336082 -23.44286213088526 0 -23.44286213088526 115.71842365791417 0 0 0 0 59.797720295931867 -26.32301523183105 0 -26.32301523183105 119.4553606301306 0 0 0 0 59.070819496449985 -24.464684000688067 0 -24.464684000688067 122.37522020249162 0 0 0 0 127.81536984233026 -8.480751825392872 0 -8.480751825392872 97.412173020900809 0 0 0 0 64.29438262097392 -31.026665611421777 0 -31.026665611421777 69.984430470489315 0 0 0 0 159.34928369323097 -29.232671977139034 0 -29.232671977139034 94.120738499628715 0 0 0 0 189.51756893184938 64.763979879277031 0 64.763979879277031 132.15362955078899 0 0 0 0 101.67785735779762 12.520441412023501 0 12.520441412023501 122.3475280682942 0 0 0 0 323.132252459347 204.90678341985853 0 204.90678341985853 215.42452789678646 0 0 0 0 127.09475179671972 81.536781035529202 0 81.536781035529202 166.28149816000951 0 0 0 0 303.11520426597235 -32.044982109506236 0 -32.044982109506236 131.41204459849359 0 0 0 0 53.160805646135486 17.100968514967462 0 17.100968514967462 148.7616663245044 0 0 0 0 81.995253541188504 13.605585290364616 0 13.605585290364616 347.28547243976209 0 0 0 0 48.44559527209276 258.0084721920739 0 258.0084721920739 350.52965094538496 0 0 0 0 21.476711232597154 -77.735372930441372 0 -77.735372930441372 52.550990895841096 0 0 0 0 17.061406898098085 11.313119807222392 0 11.313119807222392 -23.954402959330764 0 0 0 0 -169.65615690173581 46.944300704704801 0 46.944300704704801 136.54670398644157 0 0 0 0 57.918241887643717 -15.654155618709524 0 -15.654155618709524 45.18053366773529 0 0 0 0 -0.19287886277394151 4.185761010722878 0 4.185761010722878 57.341319308048128 0 0 0 0 -275.46379426060594 -19.046314315079144 0 -19.046314315079144 163.45423602923256 0 0 0 0 -109.19948790604576 -76.158123780704045 0 -76.158123780704045 25.548149556245335 0 0 0 0 77.70255077028196 59.29603651706384 0 59.29603651706384 60.333286300829059 0 0 0 0 171.99920492243837 192.11961703897032 0 192.11961703897032 -23.138656963183166 0 0 0 0 -303.55364019656577 220.73991960399644 0 220.73991960399644 238.65954612527275 0 0 0 0 301.91052022439544 -247.35326596840423 0 -247.35326596840423 281.79397201750544 0 0 0 0 701.00999735403821 701.05005243339838 0 701.05005243339838 -29.425221587734995 0 0 0 0 171.94665583910137 170.44374831785171 0 170.44374831785171 408.98719572445043 0 0 0 0 75.394039819559111 -82.20432047011127 0 -82.20432047011127 573.58826889655393 0 0 0 0 75.262011899179925 -59.815803378791315 0 -59.815803378791315 188.4797350104418 0 0 0 0 129.41675419066451 -42.713377585154376 0 -42.713377585154376 58.566177518747281 0 0 0 0 12.987497696565697 -127.83296651457567 0 -127.83296651457567 257.30822313964018 0 0 0 0 291.51657742885254 145.21062044405789 0 145.21062044405789 96.605678909167182 0 0 0 0 2.5124308161275 -1.2442147406658819 0 -1.2442147406658819 9.2107818242168946 0 0 0 0 -76.460936181554644 342.97928971865622 0 342.97928971865622 473.7996415640082 0 0 0 0 134.63841266386225 71.222471837030753 0 71.222471837030753 175.60049532226549 0 0 0 0 238.90963040619999 -235.55635783201933 0 -235.55635783201933 -231.64009862344028 0 0 0 0 -0.77083769642859323 -1.1040047502433055 0 -1.1040047502433055 6.3565121586340467 0 0 0 0 -1223.2098158778826 -452.84521649509043 0 -452.84521649509043 2755.7624698496365 0 0 0 0 -0.45926014289204753 0.65485876547750266 0 0.65485876547750266 21.565392564618705 0 0 0 0 228.12939408897364 349.80077963185249 0 349.80077963185249 297.68328037435276 0 0 0 0 -784.57689088291954 -301.5350279544582 0 -301.5350279544582 60.65865790924056 0 0 0 0 153.97991253272994 420.83046338580425 0 420.83046338580425 563.94817427124872 0 0 0 0 226.55258565328404 317.76105788715358 0 317.76105788715358 160.72226393164601 0 0 0 0 68.953737300827015 308.28773548890172 0 308.28773548890172 322.36124376276712 0 0 0 0 51.867287776954981 249.81094465608658 0 249.81094465608658 290.9100960240612 0 0 0 0 62.581674269342329 272.65594828865142 0 272.65594828865142 359.3163049686118 0 0 0 0 -68.247395017828239 316.1710282099848 0 316.1710282099848 835.2452683675474 0 0 0 0 -115.51235908079616 180.31916159110551 0 180.31916159110551 550.34683605074679 0 0 0 0 19.415648783304277 365.79616372235614 0 365.79616372235614 -638.38373171501371 0 0 0 0 20.270215150834233 14.527096283423228 0 14.527096283423228 8.8688919638809338 0 0 0 0 26.828682572755497 8.5908353598642861 0 8.5908353598642861 21.747929084587668 0 0 0 0 1442.4826007236488 -3380.9911699721843 0 -3380.9911699721843 -76.140903539100691 0 0 0 0 21.585402211918726 2.0088202899389138 0 2.0088202899389138 -7.7835268884976756 0 0 0 0 60.683384508563904 124.08075128718701 0 124.08075128718701 -36.703291012890986 0 0 0 0 103.50613269685982 -47.551855974925274 0 -47.551855974925274 142.55285060052847 0 0 0 0 34.893094142765911 41.409881028676978 0 41.409881028676978 54.985451339338084 0 0 0 0 123.8731364148025 -29.449176438203722 0 -29.449176438203722 142.29384291932365 0 0 0 0 104.07365300030142 -46.964734211429459 0 -46.964734211429459 132.13233950550057 0 0 0 0 104.37493140501374 -54.51160762908512 0 -54.51160762908512 18.695919170993875 0 0 0 0 296.23156969081538 23.217223461076628 0 23.217223461076628 9.6661175534609356 0 0 0 0 239.13410130437887 242.6289156507778 0 242.6289156507778 254.52516942377042 0 0 0 0 -10.493801261256522 32.35176978061827 0 32.35176978061827 101.76652258252216 0 0 0 0 11.220987856784575 -62.73597990314093 0 -62.73597990314093 -20.458096419766662 0 0 0 0 106.05546373799007 47.814448195986188 0 47.814448195986188 73.499649807048627 0 0 0 0 105.36995286298043 -35.908893136995175 0 -35.908893136995175 -27.85119316143755 0 0 0 0 96.674695296253049 -6.4849083393946785 0 -6.4849083393946785 -52.755621173357213 0 0 0 0 159.06584042652003 -44.009266573521927 0 -44.009266573521927 -42.613202839027508 0 0 0 0 75.046393925563962 -54.200092577151281 0 -54.200092577151281 18.3650698699239 0 0 0 0 91.610425813905749 -31.591012532622699 0 -31.591012532622699 -19.756128312954388 0 0 0 0 -15.365798947809708 -7.9325203418247838 0 -7.9325203418247838 21.672993126774941 0 0 0 0 27.957750167246559 21.291584389833588 0 21.291584389833588 -57.304843027715833 0 0 0 0 28.543334516918549 -19.885161822041482 0 -19.885161822041482 1.2089538760046707 0 0 0 0 67.116876491204494 -22.173460767240613 0 -22.173460767240613 1.005091589413496 0 0 0 0 41.55231443954483 3.7272402977641832 0 3.7272402977641832 -11.559891964356211 0 0 0 0 33.687121059646415 -1.526831417788344 0 -1.526831417788344 0.889683181610053 0 0 0 0 29.48497744534825 20.139978116078055 0 20.139978116078055 -6.7794706359127304 0 0 0 0 32.1230836818022 6.2427536664836225 0 6.2427536664836225 4.5260088616669236 0 0 0 0 26.916321747030452 21.167492520520682 0 21.167492520520682 -21.095574816423323 0 0 0 0 8.8007089638285834 24.279490665934645 0 24.279490665934645 -9.6019128552397888 0 0 0 0 26.106594463973124 18.19018885435753 0 18.19018885435753 -7.7883019511900784 0 0 0 0 16.582177173952459 -5.7231373019385501 0 -5.7231373019385501 -14.318796071944234 0 0 0 0 109.54129967087283 94.318966105748132 0 94.318966105748132 70.384828226844547 0 0 0 0 30.229466008375312 -14.225332636740859 0 -14.225332636740859 -27.091314829301155 0 0 0 0 19.390934063891581 1.2534428040982419 0 1.2534428040982419 0.38985932018300096 0 0 0 0 -31.205136593238421 -31.135599490165987 0 -31.135599490165987 47.047939043124643 0 0 0 0 192.92154127768663 80.583733858866253 0 80.583733858866253 44.478469945858507 0 0 0 0 -27.29061235498466 96.258641844659905 0 96.258641844659905 241.41637875668675 0 0 0 0 1.0018086967023052 0.28098978298294242 0 0.28098978298294242 -0.53709444129558648 0 0 0 0 1.6197586523376231 99.478634132839943 0 99.478634132839943 307.99195830780445 0 0 0 0 48.180665134714218 169.92577723724662 0 169.92577723724662 269.75311541571864 0 0 0 0 -10.753808238139754 70.371981074931682 0 70.371981074931682 283.40642545249511 0 0 0 0 61.706935018719378 145.33841550944817 0 145.33841550944817 266.68278719833688 0 0 0 0 5.1070610348888685 -0.69976500412280984 0 -0.69976500412280984 0.2632943547016442 0 0 0 0 126.69197493801721 -76.678533103541668 0 -76.678533103541668 -1.1993395027911902 0 0 0 0 67.476590571548513 189.89076628568637 0 189.89076628568637 465.72180573264086 0 0 0 0 29.501942665283423 53.36482613291264 0 53.36482613291264 130.15067753167205 0 0 0 0 13.569544511657172 0.23303983299896203 0 0.23303983299896203 -0.0085246720334382076 0 0 0 0 
</DataArray>
<DataArray type="Float64" Name="cross_section_updated" format="ascii">
1 1 0.0098958259202221628 1 1 1 1 1 1 1 1 1 0.014990737355103423 1 1 1 0.016972308999039072 0.0097093349552190011 1 1 1 0.010117973187186848 1 1 0.011099090123263334 1 0.010621165273994334 1 1 1 1 1 1 1 1 1 1 1 0.012506608332974378 1 1 1 1 1 1 1 1 0.016220819860796723 1 0.01817649678234233 1 1 1 1 1 1 0.0097734151883083244 1 1 1 1 1 1 1 1 1 1 1 1 1 1 1 1 1 1 1 1 1 1 1 0.011801940664105545 1 1 1 1 1 1 0.013498889005338353 1 1 1 0.013623884305221063 0.0081805839530268917 1 1 0.012482819758918618 1 0.0077786231709743702 1 1 1 1 1 1 1 1 1 1 1 1 0.012576975878014084 1 1 1 1 1 1 1 1 1 1 1 1 0.0097882913794904904 0.012776518388925044 1 0.0082334184307678374 1 1 1 1 1 1 0.0096049974387548767 1 1 1 1 1 1 1 1 1 1 1 1 1 1 1 1 1 1 0.019554812548016207 1 1 0.0088590313290843516 1 1 1 1 1 1 1 0.0096533252714642494 1 1 1 0.010364140668010977 1 1 1 1 1 1 1 1 1 1 1 1 1 1 1 1 1 1 1 1 1 1 1 0.0099021090039487693 1 1 1 1 1 1 1 1 1 1 1 1 1 0.0091418834292443796 1 1 1 1 0.0099944137573362811 1 1 1 1 1 1 0.0098844465631385686 1 1 1 1 1 1 0.011000671797467314 0.010508361942030987 1 1 0.0098600694387335208 1 1 1 0.011260027882177193 0.011671251435114306 0.0088861000067151797 1 0.012451944326602753 1 1 0.013055777304948028 1 1 1 1 1 1 0.012978045348500359 0.0099941995117202951 1 1 1 1 1 1 1 1 1 1 1 1 1 1 1 1 1 0.010158609719868393 1 1 1 1 1 1 0.010696091424114219 1 1 1 0.010837608829472331 1 1 1 1 1 0.011811470935622551 0.01000180617459397 1 0.011706221330411163 1 1 0.0091528676498435942 1 1 0.010579673708307097 1 1 1 1 1 1 1 1 1 0.018449197256030427 1 1 1 1 1 0.0093410485778736511 1 1 1 1 0.0083290452097746388 1 1 1 0.0097667642954781565 1 0.0094105072059905755 1 1 1 1 1 1 1 1 1 1 0.012515412205316288 1 1 1 1 1 1 0.019050508405054907 1 1 1 1 1 1 1 1 0.018717974987884259 1 1 1 1 1 0.0073676414755283193 1 1 1 1 1 1 1 1 1 1 0.010142334950346103 1 0.011634320287477008 1 1 1 1 1 1 1 1 1 1 1 1 1 1 1 1 1 1 1 1 1 1 1 1 0.017585028180709623 1 1 0.0074627860475667065 1 1 1 1 1 1 1 1 0.009575180038999067 1 1 1 1 0.012225335212208571 1 1 1 1 1 1 1 1 1 1 1 1 1 1 0.010253053269869859 1 1 1 1 1 1 1 1 0.012316996562993489 1 1 1 1 1 1 1 1 1 0.0087737537694172196 1 1 1 1 1 1 1 1 0.0096556780426009618 1 1 1 1 1 1 1 1 1 1 1 1 1 1 1 1 1 1 1 1 1 1 1 1 1 1 0.0093267729481817732 1 1 1 1 1 1 1 1 1 1 0.009724598316569695 1 1 1 1 1 0.0071549258714932121 1 1 1 1 1 1 0.0077768519367835201 1 1 1 0.0099274792290562318 1 0.009903750466138863 1 1 1 0.0071397401845026288 1 1 1 1 1 1 1 1 1 1 1 1 1 1 1 1 1 1 1 1 1 0.0099891070166714252 1 1 0.010012851795767826 1 1 1 1 1 1 1 1 1 1 1 1 0.010044256332091196 1 1 1 0.0099814053203729977 0.010426080038880639 1 1 1 1 1 0.010688298858783326 1 0.011587271245250014 1 1 1 0.01165274989757082 1 1 0.011694725703923887 1 1 1 1 1 1 1 1 0.010030900849744706 1 1 1 1 1 1 1 0.012293103160902437 1 0.010007396108273062 0.010455502800416305 1 1 0.013155171689243329 0.010176580920991702 1 1 1 1 1 1 1 1 1 1 1 0.011787977392868491 1 1 0.010307093886938956 0.0093574252247167165 1 1 1 1 1 1 1 1 1 1 1 1 1 1 1 1 0.010701537620156751 1 1 1 1 1 1 1 1 1 0.010182069335264381 1 0.010021813916145816 1 1 1 1 1 1 1 1 1 1 1 1 1 1 1 1 1 1 0.01018702510888627 1 1 1 1 0.01274672982730468 1 1 0.013000566720745175 1 1 0.010989305044104954 1 0.011196007704432421 1 1 1 1 1 1 1 1 1 0.01215587565592585 1 1 0.009984532112155324 1 1 1 1 1 1 1 1 1 1 1 1 1 1 1 1 1 1 1 0.013973783123500907 1 1 1 0.010155402655919424 1 1 1 1 1 1 1 1 1 1 1 1 1 1 1 1 1 1 1 1 1 1 1 1 1 1 1 1 1 1 0.01005018882735622 1 1 0.0099150209469210174 1 1 1 0.0095141279090038659 1 1 1 0.0096188623626685746 1 1 0.011117534396987738 0.011119901393107708 0.011240800440012053 1 1 1 1 1 1 1 1 1 1 1 1 1 1 1 1 1 0.010632751339007311 0.012383776232721681 1 1 0.010585161902282224 1 1 1 0.011130802511404686 0.012225052551110564 0.011776575641572183 1 1 1 0.010392528682334833 1 0.010415980534639949 1 0.012107866535433309 1 1 1 1 0.012386579959368985 1 1 1 1 1 1 1 1 1 1 1 1 1 1 1 1 1 1 1 0.0089038321748112909 1 0.010360197232586495 1 1 1 1 1 1 1 1 1 1 1 1 1 1 1 1 1 1 1 1 1 1 1 1 0.015496473731595213 1 1 0.014591407175347165 1 1 0.010448293982289369 1 1 1 1 0.0096777007463606686 1 0.0093817817417791265 1 0.011423431669314588 1 0.0058229887647421649 1 1 1 1 0.013140549677505706 1 1 0.0067118926459802369 1 0.013585717227845916 0.012830978052336035 1 1 1 1 1 1 1 1 1 1 1 1 1 1 1 1 1 1 1 1 1 1 1 1 1 1 1 1 1 1 1 1 1 1 1 1 1 1 1 1 1 1 1 1 1 1 1 1 0.0099405104180389642 1 0.010216164044705441 1 1 1 0.0099812725248282427 1 0.0097569708210615332 1 1 1 1 1 1 1 1 1 1 1 1 1 1 1 1 1 1 1 1 1 1 1 1 1 1 1 1 0.011018991461242376 1 1 1 1 1 1 1 1 0.0099533610990912569 1 1 1 1 1 1 0.011459601059784153 1 1 0.011945202913941137 1 0.012965017438294776 1 1 1 1 1 1 1 1 1 1 1 1 1 1 1 1 1 1 0.010300229413827709 1 1 1 1 0.014079898795605731 1 0.0092912146994758409 1 1 1 0.015289111022244683 0.014069212668204904 0.010555844588767748 1 1 1 1 1 1 0.017533816477011046 0.010168417131105634 1 1 1 0.0038738360419179507 1 1 1 1 1 1 1 1 1 1 0.010793433298004289 1 0.016706977827019867 1 1 1 1 1 0.010081496759541439 1 1 0.013000886945099882 0.0097469142932276164 0.015932559783529011 1 1 1 1 1 0.015229234740719763 1 0.013362771338315253 1 1 1 1 1 1 0.013299679468201361 1 0.015132309048379819 1 1 1 1 0.010533389607085393 1 1 1 1 1 0.010447121529978783 1 1 1 0.0098357274285288902 1 1 1 1 1 1 1 1 1 1 1 1 1 1 1 1 1 0.010700879650651557 1 1 0.010651144919765002 1 1 1 1 1 1 1 1 0.012327358837065936 1 1 0.012517737809231799 1 1 1 1 1 1 1 1 1 1 1 1 1 1 1 1 1 1 1 1 1 0.010072813402261533 1 1 1 1 0.0099867795440650772 1 1 1 0.0100907010454796 1 0.0099533686212984699 1 1 1 1 1 1 1 1 0.0098935687581590617 1 0.010008764856385141 1 0.012016183110330245 1 1 1 0.01006084105047729 0.015284639086684241 1 1 0.010012258639520814 0.013807214470309859 1 1 0.010018154593221012 1 1 1 1 1 1 1 1 1 1 0.0098617564153717138 1 1 1 1 1 1 0.013265538008058832 1 1 1 1 1 1 1 1 1 1 1 1 1 1 0.010282080786564771 1 1 1 1 1 1 0.010565207344071664 1 1 1 1 1 1 1 1 1 0.012143146604900817 1 1 1 1 1 1 1 1 1 1 0.012075438699904177 1 1 1 1 1 1 1 1 1 1 1 1 1 1 1 1 1 1 1 1 1 0.010363513932686211 1 1 1 1 1 1 0.014874972448911592 1 0.010037276127296079 1 1 1 1 1 0.01160709773119622 1 1 1 1 1 1 1 1 1 1 1 1 1 1 1 1 1 1 1 1 1 1 1 1 1 1 1 1 1 1 1 0.0090239881054913606 1 1 1 1 1 1 1 1 0.010098414935817928 1 1 1 1 1 1 1 1 0.011240465823970812 1 1 1 1 1 1 1 1 1 1 1 1 1 1 1 1 1 1 1 1 1 1 1 1 1 1 1 1 1 1 1 0.010758902291351253 1 1 1 1 1 1 1 1 1 1 1 1 1 1 1 1 1 1 1 1 1 1 1 1 1 1 1 1 1 1 1 1 1 1 1 1 1 1 1 1 1 1 1 1 1 1 1 1 1 1 1 1 1 1 1 1 1 1 1 1 1 1 1 1 1 1 1 1 1 1 1 1 1 1 1 1 1 1 1 1 1 1 1 1 1 1 1 1 1 1 1 1 1 1 1 1 1 1 1 1 1 1 1 0.011809092595977552 1 1 1 1 1 1 0.010098246619158664 0.010919168662452112 1 1 1 1 1 1 1 1 1 1 1 1 1 1 1 1 1 1 1 1 1 1 0.0090024786049117036 0.012336659766491098 1 1 0.010301241244692873 1 1 1 1 0.0094472602398513513 1 1 1 1 1 1 1 1 1 1 1 1 1 1 1 1 1 1 1 1 1 1 1 1 1 1 1 1 1 0.010568626772006739 1 1 1 1 1 1 1 1 1 1 1 1 1 1 1 1 1 1 1 1 1 1 1 1 1 1 1 1 1 1 1 1 1 1 1 1 1 1 1 1 1 1 1 1 1 1 1 1 1 1 1 0.010994747530045049 1 1 1 1 1 1 1 0.012370395804955912 1 1 1 1 1 1 1 0.013857920647999374 1 1 1 1 0.010336773229793443 1 1 1 1 1 1 1 1 1 0.011375648274910862 1 1 1 1 1 0.0089201401040418325 1 1 1 1 1 0.0066265294235266919 1 1 1 1 1 1 1 1 1 1 1 1 1 1 1 1 1 1 1 1 1 1 1 1 1 1 1 1 1 1 1 1 1 1 1 1 0.0079914177307013647 1 1 1 1 1 0.020481641592338638 1 1 1 1 1 1 1 1 1 1 1 1 1 1 1 1 1 1 1 0.0099625978348209313 1 1 1 1 1 1 1 1 1 1 1 1 1 1 1 1 1 1 1 1 1 1 1 0.0099764681403781835 1 0.025516396537193183 1 1 1 1 0.024281845071830607 1 1 1 1 1 1 1 1 1 1 1 1 0.00071420408293430479 1 1 0.011488855167486602 1 1 0.010033576764503128 1 1 1 0.011330654013203418 0.0098552222871983643 1 1 0.019413890666418722 1 1 1 1 1 1 0.012192739440093451 1 1 1 0.0095687063699461151 1 0.01306306620872784 1 0.011411627253924006 1 1 1 1 1 1 1 1 1 1 1 0.010174959586438354 1 1 1 1 0.0079419093660110691 1 1 1 1 1 1 1 1 1 1 1 1 1 1 1 0.008185413418028923 1 0.010773766246245842 1 1 1 1 1 1 1 1 0.0095338528636371416 1 1 1 1 1 0.011423047142214728 1 0.010415070421689245 1 0.012654629636318315 1 1 1 1 1 1 1 1 1 1 1 0.010569592220766996 1 1 0.011857938069488826 1 1 1 1 1 1 1 0.010966386162322999 1 0.017684425901209236 1 1 0.010037306018999869 1 1 1 1 1 1 1 1 1 1 1 1 1 1 1 1 1 1 0.010677798853850456 1 1 1 1 1 1 1 1 1 1 1 1 1 1 1 1 1 1 1 1 1 1 1 1 1 1 1 0.0098240860580778005 0.020688577265976865 1 1 0.022135323746590409 1 0.011399006013770724 0.020156626584203641 1 1 1 1 0.02197893744276954 1 0.010694834912846654 1 1 1 0.020461537817406485 0.021807054022062365 1 1 1 1 1 1 1 1 1 1 1 1 0.010248021301545993 1 1 1 1 0.016072991894821656 1 0.010015483508350357 1 1 1 1 1 1 0.022160002284495595 1 1 1 1 1 1 1 1 1 1 1 1 1 1 1 0.017481272076838871 1 1 1 0.019985970910350551 1 1 1 1 0.010195374115209887 1 1 1 1 1 1 1 1 0.010087883815745179 1 1 1 1 1 1 1 1 1 1 1 1 1 1 1 1 1 1 1 1 1 1 1 1 1 1 1 1 1 0.010602191430463597 1 1 1 1 1 1 1 1 1 1 1 1 1 1 1 1 1 1 1 1 1 1 1 1 1 1 1 1 1 1 1 0.010700679408965037 1 1 1 0.010193465020422308 1 1 1 1 1 1 0.010314136962097254 1 1 1 1 1 0.010229030031177722 1 0.010978542959258335 1 1 0.010184662481790854 1 1 0.0092727030145022971 1 1 1 0.0094855651577503176 1 1 1 1 1 1 1 1 1 1 1 1 1 1 1 1 1 1 1 1 1 1 1 0.0097469754503753288 1 1 1 1 0.009745569935410649 1 0.0091943496154742541 1 1 0.0099643315512755459 1 1 1 1 1 1 1 1 0.021250072975047645 1 1 1 1 1 0.020837808822801396 1 1 1 1 1 0.020503353723251318 0.020774769514838372 1 1 1 1 0.020544579158657074 1 1 1 1 1 1 1 1 1 1 1 1 1 1 1 1 1 1 0.0098680970466275258 1 1 1 1 0.019886056133746569 0.0093776657024683737 0.018191134878225469 1 1 1 0.010006353456102582 1 1 1 0.018658528138101208 1 1 0.016994193820819677 1 1 0.018295303754383999 1 1 0.0070587253049859628 1 1 0.0088093613282684956 1 1 0.010050916047614732 1 1 1 1 1 1 1 0.021661092504084239 1 1 0.0097032029195881411 1 1 0.0098814084182041843 1 1 1 1 1 1 1 1 1 1 1 1 1 1 1 0.012365229984731706 1 1 1 0.010856916342318279 1 1 1 1 1 1 1 1 1 1 1 1 1 1 1 1 1 1 1 1 1 1 1 1 1 1 1 1 1 1 0.015606548382943557 1 1 1 1 0.012294233006463741 1 1 1 1 1 1 1 1 1 0.012420413462890391 1 1 1 1 1 1 1 1 1 1 1 1 1 1 1 1 1 1 1 1 1 1 1 1 1 1 1 1 1 1 1 1 1 1 1 1 1 1 1 1 1 1 1 1 1 1 1 1 1 1 1 1 0.011092566618749654 1 1 1 1 0.01236360541099304 1 1 1 1 0.013027122001082641 1 1 1 1 1 0.010030338338325624 1 1 1 1 1 1 1 1 0.01021514251055922 1 1 0.011709033961969656 1 0.010617812286312027 1 1 1 1 0.01060732091889633 1 1 1 1 0.010951683419216594 1 1 1 1 1 1 1 1 1 1 0.0069891771424317253 1 1 1 1 1 1 1 1 1 0.0073161029259566097 1 1 1 1 1 1 0.013236303028848408 1 1 1 1 0.014286707386113691 0.0076668775406114505 1 1 1 1 1 0.017869092861077962 1 1 1 1 0.0095578178652795925 1 1 0.0099595646595555358 1 1 0.010965279147983897 1 0.0098029399382214191 1 0.011349791636050665 1 1 1 1 1 1 1 1 1 1 1 1 1 1 1 1 1 1 0.011412492879558749 1 1 1 1 1 1 1 1 1 1 1 1 1 1 1 1 1 1 1 1 1 1 1 1 1 1 1 1 1 1 1 1 1 1 1 1 1 1 1 1 1 1 1 1 1 1 1 1 1 1 1 1 1 1 1 1 1 0.0092887850470716963 1 1 1 1 1 1 1 1 1 1 1 1 1 1 1 1 1 1 1 1 1 0.0079460446951021939 0.010540221115388106 1 1 1 1 1 1 1 1 1 1 1 1 1 1 1 1 1 0.01843882473414972 1 1 1 1 1 1 1 1 0.018551448205161053 1 1 1 0.010613251678790172 1 1 1 1 1 1 1 1 1 0.0092229606372396886 1 1 0.0098055186558016708 1 1 1 1 0.010149229449300166 1 1 1 1 1 1 0.010584843849537073 1 0.013390361305925268 1 1 1 0.0092500301984571702 1 1 0.0092688924501739458 1 1 1 1 1 0.0078090653411691992 1 1 0.01450429092981162 1 1 1 1 1 1 1 1 1 1 0.013566594000806429 1 1 1 1 1 1 1 1 1 1 1 1 1 1 1 1 1 1 0.017326735393744554 0.010033246936744667 1 1 1 1 1 1 1 0.015088756536806674 1 1 1 0.013609296761565488 1 1 1 1 1 1 1 1 1 0.015990369250037967 1 1 1 1 1 0.013677785456341379 1 1 0.009990893062329172 1 1 0.011327217633724636 1 1 0.011828914214015388 1 1 0.0099181069240952477 1 1 1 1 0.01119380769312393 1 1 1 1 1 1 1 1 1 1 1 1 1 1 1 1 1 1 1 1 1 1 0.0099618568356206263 1 1 1 1 1 1 1 1 1 1 1 0.01181975972721404 1 0.014429691568612426 1 1 1 1 1 1 0.0076336962303443804 1 1 1 0.015641453248184903 1 1 1 1 1 1 1 1 1 1 1 1 1 1 1 1 1 1 1 1 1 1 0.011450635217086634 1 1 1 1 1 1 1 0.0099959302577802486 1 0.013401239463854613 0.012551733355914578 1 1 0.0097297345521051119 1 1 1 1 1 1 0.013106897972122325 0.012987739993513391 1 1 1 0.010442707676046922 1 1 1 1 1 0.011023914178924735 1 1 1 0.0081082786821194582 1 1 1 0.010056092797989922 1 1 1 0.011865176093179653 1 0.013921595178454768 1 1 0.0097197645498199488 0.012342082232150005 1 0.010001743755984119 1 1 1 0.012218415678473402 0.010618666012948742 0.012143066600701852 0.0099517340653530843 1 1 0.010098563664435572 1 1 1 1 1 1 0.01000339486071726 1 1 1 1 1 1 1 1 1 1 1 1 0.010005845892221907 1 0.014129484751465828 1 1 1 1 1 1 1 1 1 1 1 1 0.013273549417092594 1 1 1 0.013615446877011109 1 1 1 1 1 1 0.013793470544011791 1 1 1 0.0099446301762939719 1 0.0099807635420980437 1 1 1 1 1 1 1 1 1 1 1 1 1 1 0.0098564653947032788 0.0097219198134281311 1 1 0.014366254605061666 1 1 0.013270478753072704 0.0098909192249995014 1 1 1 1 0.01331547598195134 1 1 1 1 1 1 0.011227294184205754 1 1 1 1 1 0.011614851193008582 1 1 1 1 1 1 1 1 1 1 1 1 1 1 1 1 1 1 1 1 1 1 0.0097378282370564687 1 1 1 1 1 0.013858534983838985 1 0.0097369231318935254 1 1 0.011584674667375455 1 1 1 1 1 0.014623129210720578 1 1 1 1 1 1 0.014418216989222746 1 1 1 1 1 0.0093470962905941504 1 1 1 1 0.0095734198167409679 1 1 1 1 1 1 1 1 0.010269500382004117 1 1 1 1 1 1 1 1 1 1 1 1 1 0.0098869390351099505 1 1 1 1 1 1 1 1 1 0.0099851026880759999 1 1 1 1 1 0.0097030063963380164 1 1 1 1 1 1 1 0.0099482319498278744 1 1 0.0098217321376650474 1 1 1 1 1 1 1 1 1 1 0.010024795556104183 1 1 1 1 0.010108259336996816 1 1 1 1 1 1 1 1 1 1 1 1 1 1 1 0.0096666957743581014 0.010644726776860361 1 1 0.0095346966747569574 1 1 1 1 1 1 1 1 1 1 1 1 1 1 1 1 1 1 1 1 1 1 1 1 1 1 1 1 1 1 1 1 1 0.010031372730747277 1 0.010002966774261891 1 1 1 1 1 1 1 1 1 1 1 0.010047877071867198 1 1 0.010674427064749067 1 1 0.011041981716412338 1 1 1 1 1 1 1 0.012261265857703809 1 1 1 1 1 1 1 1 1 1 1 1 1 1 1 1 1 1 1 0.0098817023082426354 1 1 1 1 1 1 1 1 1 1 1 1 1 1 1 1 1 1 1 1 1 1 1 1 1 1 1 1 1 1 1 1 1 1 1 1 1 0.011505437582041533 1 0.010280214780155185 1 1 1 1 1 0.010200400838767958 0.011566985607903056 1 1 0.012565745215536873 1 0.010224993285232161 1 1 0.0095214645452830326 1 1 1 1 1 0.010093722185477603 1 1 1 1 1 1 1 1 1 1 0.01000154036789247 1 1 1 1 0.011559267320059935 1 1 1 0.0098710137363433488 1 1 1 1 1 1 1 1 1 1 1 1 0.011269306151152739 1 1 1 1 1 1 1 1 1 1 1 1 1 1 1 1 1 1 1 1 1 1 1 0.010234389369279367 1 1 1 1 1 1 1 1 1 1 1 1 1 1 1 1 1 1 1 1 1 0.010522966027100445 1 1 1 1 1 1 1 1 0.017507493755800081 1 1 1 1 1 1 1 1 1 1 1 1 1 0.015363521530961067 1 1 1 1 1 1 0.010834406451765366 0.01300648200321973 1 1 1 1 0.010093509732323558 1 0.010013320068598029 1 1 1 1 1 1 1 1 0.013727039971142626 1 0.011184525740540047 1 1 0.014476190299887594 0.014019814931381703 1 1 1 1 1 1 1 1 1 0.009973452143252284 1 1 1 0.020521839734599676 1 1 1 1 1 1 1 1 1 1 1 1 1 1 1 1 0.011988028679342448 1 1 1 1 1 1 1 1 1 1 1 1 1 1 1 0.021663641231804691 1 1 1 1 1 1 1 1 1 1 1 1 0.021795826673676223 1 1 1 1 1 1 0.015432328918605569 0.012422238951008305 1 1 1 0.011261727459039583 1 1 1 1 1 1 1 0.010004000857752408 1 1 1 1 1 1 1 1 1 1 1 1 1 1 1 1 0.009988259148134105 0.010287981310838388 1 1 1 1 1 0.011053881948453978 1 1 1 0.01044869820847549 1 1 1 1 1 1 0.011418179655773627 1 0.010258494208179363 1 1 0.010807840012524089 1 0.0097532628036802842 0.011527205662659579 1 1 0.010212650830256863 1 0.010097461022111745 1 1 0.010047654906496076 1 1 1 1 1 0.010036222371395445 1 1 1 0.010624738042556307 1 0.011010659667544845 1 0.0098844300409620806 1 1 1 1 1 1 1 1 1 1 0.012823552511750054 1 1 1 0.0099475311940623277 1 1 1 1 1 1 0.011508316419355048 1 1 1 1 1 1 1 1 1 1 1 1 1 1 0.0090128662816279514 1 1 1 0.0088915217520948026 1 1 1 0.010341489058207497 1 0.009710085425665458 1 0.0084361295472653239 1 0.010019879473163755 1 0.0098954161595493223 1 1 1 1 1 1 1 1 1 1 1 1 1 1 1 1 1 0.017047029974235899 1 1 0.009872618965874342 1 0.010063540417681857 0.010180210606815319 1 1 1 1 1 0.016225401219483619 0.0099821717105525662 1 1 1 1 0.011967077862072587 1 1 1 1 0.014835247609078226 1 1 1 1 1 1 1 0.010205592355024091 1 1 1 1 1 1 1 1 1 1 1 1 1 1 1 1 0.010793411043830869 0.010334398943749403 1 0.010280962201324257 0.010198978445520361 1 1 1 1 1 1 1 0.010224190705196118 1 1 1 1 1 0.010518490752979988 1 1 0.010843527084283862 1 1 0.0099420475795333613 1 1 1 1 1 0.010297144308298398 1 1 1 1 1 1 0.01102086952540563 1 1 1 0.010145931866668735 1 0.010872220623943777 1 1 1 1 1 1 1 1 1 0.019833002165690436 1 1 1 1 1 1 1 1 0.020607723290346887 1 1 1 1 1 1 1 1 0.011827546321590861 1 1 0.009055883561598168 1 1 0.0098955956333099566 0.0098300076080599166 1 0.012981263962074406 1 1 0.012650318518567093 0.012073775170405058 1 0.0090607483308117274 1 0.0081598159468040578 1 1 0.011644793501712899 1 1 1 1 1 1 1 1 1 0.015627882747096134 1 1 1 1 0.0099987237746547459 1 0.010806158301015589 1 1 1 1 1 1 1 1 1 1 1 1 0.011247111826217075 0.011835235834187356 1 1 1 0.014264322139956704 0.010154674719033989 0.010003583408180887 1 0.010290581878448165 0.010838456413316983 0.010075099405124688 1 1 1 0.010880529297890925 1 0.012138340171791209 1 1 1 1 0.011810293638833212 1 0.010505004943267691 1 1 1 1 1 1 1 1 1 1 1 0.010632216140338522 1 1 1 1 1 1 1 0.011797325735303944 1 1 1 1 0.015051036336568411 1 1 1 1 1 1 1 1 1 1 1 1 1 1 1 1 1 1 1 1 1 1 1 1 1 0.014502962089143317 1 1 1 1 1 1 1 1 1 1 1 0.01207791649169521 1 1 1 1 1 1 1 1 1 1 1 1 1 1 1 1 1 1 1 1 1 1 1 1 1 1 1 1 1 1 0.010920589125626207 0.0097518745404020103 1 1 0.011832995865745937 0.0099679076263109578 1 1 1 1 1 1 1 1 1 1 1 1 1 1 1 1 0.0086810168151482871 1 1 1 0.010181323249280928 1 0.008542931215282051 1 1 1 1 1 1 1 0.012866562847808238 1 1 0.012524844307111132 1 1 0.012456599712793082 1 0.0092210153604322023 0.011687060761156587 1 0.0087110568700576839 1 1 1 1 1 0.010912918764390418 1 0.010874458784162723 1 1 1 1 0.01220324426678604 1 1 1 1 1 1 0.010910185783850885 1 1 0.010377781638347166 1 1 1 1 1 1 1 0.0096170897522380918 1 1 1 1 0.010084560029577952 1 1 1 1 1 1 1 1 1 1 0.010268103148637119 1 1 1 0.011070099634792307 1 1 1 1 1 0.011884628005369843 1 1 1 1 0.0098257555017474858 1 1 1 1 1 1 1 0.010225528361423845 1 1 1 1 1 1 1 1 1 1 1 1 1 1 0.011552371057006152 0.010360887080065329 1 1 0.010442452584840589 0.010318903657912467 1 1 0.010103282062746221 1 1 1 1 1 1 1 1 1 1 1 1 0.01075675021045587 1 1 0.011564385845776782 1 1 0.010472284518653566 1 1 1 1 1 0.011230555282612204 1 1 1 1 1 1 1 1 1 1 0.010993648251475027 1 0.010006355733345454 1 1 0.010551168953152589 1 1 1 1 1 1 1 1 1 1 1 1 1 1 1 0.011043196308652031 1 1 1 1 0.0099981357865538065 1 1 1 0.010630065991343408 1 1 1 1 1 1 0.012808580264653369 1 1 1 0.010287370620927751 1 0.010959119857048713 1 1 1 1 1 1 1 1 1 1 1 1 1 1 1 0.0080776985285480433 1 1 1 1 1 1 1 1 1 1 1 0.010619548231004824 1 1 1 1 1 1 0.009969051256385926 1 1 1 0.010615394766737285 1 1 1 1 1 1 0.011391669200677813 1 1 1 0.010336544269376111 1 1 1 1 1 1 1 1 1 1 1 1 1 1 1 1 1 1 1 0.01786389551470504 1 0.020471336548051017 1 0.0045988185148514403 1 1 0.010528718586188271 1 0.008965404977084852 1 0.01006141066464636 1 1 1 1 1 0.010409798777802036 1 1 0.010641110218341219 1 1 1 0.0091783928333454834 1 1 0.0094962327027342374 1 1 1 1 1 1 1 1 1 1 1 0.01913564897409855 1 1 1 1 1 0.020212546923080318 1 1 1 1 1 1 1 1 1 1 1 1 1 1 1 1 1 0.010000844558464079 1 1 1 0.024890136831265321 1 1 1 0.02093292431830298 0.010079751809664896 1 1 1 1 1 1 1 1 1 1 1 1 1 1 1 1 1 1 1 1 1 1 1 1 1 1 1 1 1 1 1 1 1 1 1 1 1 1 1 1 0.010009968366021962 1 1 0.010009950093574261 1 1 1 1 1 1 1 1 1 1 1 1 1 1 1 1 1 1 1 1 1 1 1 1 0.009846312169682854 1 1 1 1 1 0.010339884367095592 1 1 1 1 1 1 1 1 1 1 1 1 1 1 0.010552625929395099 1 1 1 1 1 1 1 1 1 1 0.0099902989624836343 1 1 1 1 1 1 1 1 1 1 1 0.0099560698489492734 1 1 1 1 1 1 1 1 1 1 1 1 1 1 1 1 1 1 1 1 1 1 1 1 1 1 1 1 0.024043869986411504 1 1 1 1 1 1 1 1 1 0.024681919049947966 1 1 1 1 1 1 0.010677424761147431 1 1 1 1 1 1 1 1 1 1 1 1 1 1 1 1 1 1 0.01600205956041794 1 1 1 0.01220599135389866 1 0.021679857689498802 1 1 1 1 1 1 1 1 1 1 1 1 1 1 1 1 0.017252350441386531 1 0.0099657708864656566 1 1 1 0.012401038516610764 1 1 1 1 1 1 1 1 1 1 1 1 0.0186482744087553 1 1 1 1 0.0099400855954704711 1 1 1 1 1 1 0.010565214931904418 1 0.01032617291747256 1 1 1 1 1 1 1 0.027358723430246472 1 1 1 0.0099547598438653757 1 1 1 0.012002169240627445 1 1 1 1 0.017302840641257596 1 1 1 0.010554355940939772 1 1 1 1 0.013328001633685501 1 0.010129034273844977 1 1 1 1 1 1 1 1 1 1 1 1 1 1 1 1 1 1 1 1 1 1 1 1 1 1 1 1 1 1 0.011395637555464157 1 1 1 1 1 1 1 1 1 1 1 1 1 1 1 1 0.010401543897032564 1 1 1 0.010718212794316732 1 1 1 1 0.010101660734877079 1 1 1 1 0.011002924740585521 1 1 1 1 1 1 0.010921931623946449 1 1 1 1 1 1 0.010973001096139232 1 1 1 1 1 0.010281961488262523 1 1 1 1 0.0084477813440711168 1 1 1 1 0.0078135489576662605 1 1 1 1 1 1 1 1 1 1 1 1 1 1 1 1 0.012626327547049615 1 1 0.010208607734975938 1 1 1 1 1 0.010396966398777656 1 1 1 1 1 1 1 1 1 1 1 1 1 1 1 1 1 1 1 1 0.010540216371458019 1 1 1 1 0.0098642823335918731 1 1 1 1 1 1 1 1 1 1 1 1 1 1 0.011133676324440782 1 1 1 0.0096323111262699677 1 1 1 1 1 1 1 1 1 1 1 1 1 1 1 1 1 1 1 1 1 1 1 1 1 1 1 1 1 1 1 1 1 1 1 1 1 1 1 1 1 1 1 1 1 1 1 1 1 0.0069672357117256389 1 0.016991496679564178 1 0.014293555492312444 1 1 1 1 1 1 1 1 1 1 0.009993788268743569 1 1 0.009707367681414121 1 1 1 1 1 1 1 1 0.01054529380860884 1 1 1 0.014972510818195527 1 1 1 1 0.010041599067444977 1 1 0.0098098427023751659 1 1 0.018468366182651484 1 1 0.012889061779671114 1 1 1 0.0067560418711217641 1 1 1 1 1 1 1 1 1 1 1 1 1 0.011644814787524407 1 1 1 1 0.012576277993417227 1 1 1 1 1 1 1 1 1 1 0.01103767211371732 1 1 1 0.0093038247363339474 1 0.0098622611083510718 1 1 1 0.0091202264542440195 1 0.0096329753052562042 1 0.013307727080936416 1 1 1 0.013227549190529448 0.012630712428471261 1 1 0.010322979279806637 1 1 1 0.014884846387120981 1 0.0076953974028893569 1 0.010161895857233979 1 1 1 1 1 1 1 1 0.0064447876156610382 0.010076533824940129 1 1 0.014996431323172431 1 1 0.0098233159189922495 1 1 1 0.012738755631875197 1 1 0.016207660721571152 0.010003724581309381 0.011588191737145023 1 1 0.013654715389553278 1 0.0068435664614558325 1 1 0.017236118578520913 1 1 1 0.01499795083163649 1 1 1 0.002942512886605313 1 1 1 1 1 1 1 0.020779933353249805 1 0.011902025053017335 1 0.016234580169009024 0.019717101322893678 1 1 1 1 1 1 1 1 1 1 1 1 1 1 1 1 1 1 1 1 1 1 1 1 1 1 1 0.0087616522539991464 1 1 1 1 1 1 1 1 1 1 1 1 1 1 1 1 0.010086433330450388 1 1 1 1 1 1 1 0.010086132278493472 1 1 1 1 1 1 0.010030680014802503 0.010054994159533082 1 1 1 1 1 1 1 0.010395255341857009 1 1 1 0.010353748043265713 0.0099662442018968733 1 1 0.0096999898200257964 1 1 1 1 1 1 1 1 0.0096891157409028025 1 1 1 1 1 0.010030720305668643 1 0.0099403636206117588 1 1 0.010200832389632597 1 1 1 0.010969048137231508 1 1 1 1 0.011195017425009411 1 1 1 1 0.0097948315609382389 1 1 0.0099850503840076283 1 1 1 1 1 1 1 1 1 1 0.010422358315006465 1 1 1 1 1 1 1 1 1 1 1 1 1 1 1 1 1 1 1 1 1 1 1 1 1 1 1 1 0.0070380278189504522 1 0.0081157352376250366 1 1 1 1 1 1 1 1 1 0.010107441777159753 1 1 1 1 1 1 1 1 1 1 1 1 1 0.013887591834305718 1 1 1 0.01061828416089787 1 0.010017607295577054 1 1 0.0077790168882609003 1 0.010906801009884701 1 0.0085311839944613426 1 1 1 1 1 1 1 0.0092854091631591751 1 1 1 1 0.007225731603982528 1 0.010076537220179519 1 1 1 1 1 0.0099987435032520451 0.010908341069550475 1 1 1 1 0.012066162819753761 1 1 0.011230790393444328 1 1 1 1 1 1 1 1 1 1 1 1 1 1 1 1 1 1 1 1 1 1 1 1 1 1 1 0.0081708312119761397 1 0.0097737895712890974 1 1 1 1 1 1 0.011688337399047677 1 0.0081947835596479137 1 1 0.0093645763479731879 0.011575750860617759 1 1 0.011516285015863156 0.0099919185457634611 1 0.0099887630907632471 1 1 1 1 1 1 1 1 1 0.0080496394820772227 1 1 1 0.0094365331202176661 1 1 0.011839340183592305 1 1 1 1 1 1 1 1 1 1 1 1 1 1 1 1 1 1 1 1 1 1 1 1 0.010548999067466916 1 1 1 1 1 1 1 1 0.011357191308285636 0.012150258322863948 0.011079371872174608 1 1 1 1 1 1 1 1 1 1 1 1 1 1 1 1 1 1 1 0.012537047364092955 0.0091667330347812871 1 1 1 0.010022577369744441 1 1 0.011278530502446702 1 1 0.011208051266516469 1 1 1 1 1 1 1 0.01307919817153155 1 1 1 1 1 1 1 0.010665127210834773 1 1 1 1 1 1 1 1 1 0.010529552214937603 0.0099511705706696769 1 1 1 1 1 0.018561873843729051 1 1 1 1 1 1 1 1 1 1 1 1 1 1 1 1 0.010628186208443064 1 1 1 1 1 1 0.01838106559564031 1 1 1 1 1 0.018836891458091913 1 1 1 0.010452613369225339 1 1 1 1 1 1 1 0.010684318766917651 1 1 0.011312504975360715 1 1 1 1 1 1 0.010317243447356654 1 1 1 1 1 1 1 1 1 1 1 1 1 0.0069228571267303547 1 1 1 0.0062603453373699502 1 0.010380211796717363 1 1 1 1 1 1 0.014589185384834868 1 1 0.010629385484494524 1 0.012254244372559319 1 0.0060582900632901102 1 1 1 1 1 1 1 1 1 1 1 1 1 1 1 1 1 1 1 1 1 1 1 1 1 1 1 1 1 1 1 1 1 1 1 1 1 1 1 0.010156515862500631 1 1 0.01690821261249632 1 1 1 1 1 1 1 1 1 1 1 1 1 1 1 1 1 1 1 1 1 0.0098613659293412641 0.0098898765264590505 1 1 1 0.010236070841586394 1 1 1 1 1 1 1 1 1 1 1 1 1 1 1 1 1 1 1 1 1 1 1 1 1 1 1 0.010324804770107283 1 1 1 1 1 1 1 1 1 1 0.010007996618748041 1 1 1 1 1 0.010876666678579554 1 0.010341465260804079 1 1 1 1 1 1 1 1 1 0.010658273412163324 1 1 1 1 1 1 1 1 1 0.0089926761892008319 1 1 1 1 1 1 1 1 1 1 1 0.011653570234563692 1 1 1 1 1 1 1 1 1 1 1 1 1 1 1 0.011486281032214324 1 1 1 1 1 1 1 1 1 1 1 1 1 1 1 1 1 1 1 1 1 0.009937632477704161 1 1 1 0.01455749804073081 1 1 1 0.012710276345300735 1 1 0.010677093605665981 1 1 1 1 1 1 1 1 1 0.0088666561927085372 1 1 1 1 1 0.022710444865212495 0.010387213636231673 1 1 1 1 1 1 1 1 0.015048515396586814 1 1 1 1 1 1 0.010400376523048916 1 0.014798903897236662 1 1 1 1 1 1 1 1 1 0.013829330344862304 1 1 0.011205461248709988 1 0.022533078496652842 1 1 1 1 1 1 1 1 0.021854220587511002 1 1 0.01907856622572205 1 1 0.012192868824597617 1 1 1 1 1 1 1 1 1 1 1 1 1 1 1 1 0.011064227240101417 1 0.01198217338982966 1 1 1 1 1 1 1 1 0.016212859320680128 1 1 1 1 1 1 1 0.013392902766963307 1 1 1 1 1 1 1 1 1 1 1 0.012922572779087087 1 1 1 1 1 1 0.012356583638781247 0.010408192146665661 1 1 1 1 1 1 1 1 1 1 1 1 1 1 0.018544627737203501 1 1 1 1 1 1 1 1 1 1 1 1 1 0.010789055608025538 1 1 1 1 1 1 0.010545420327445473 1 1 1 1 1 1 1 1 1 1 1 1 1 1 1 1 1 1 1 1 1 1 1 1 1 1 1 1 1 1 1 1 1 1 1 0.011884415334350244 1 1 1 1 1 1 1 1 1 1 1 1 1 1 1 1 1 1 1 1 1 1 1 1 1 1 1 1 1 1 1 1 1 1 1 1 1 1 1 1 1 1 1 1 1 1 1 1 1 1 1 1 1 1 1 1 1 1 1 1 1 1 1 1 1 1 1 1 1 1 1 1 1 1 1 1 1 1 1 1 1 1 1 1 1 1 1 1 1 0.0099660631224558066 1 1 1 1 1 1 1 1 1 0.010015945397701509 0.0098104259573046429 1 1 0.0099476102712282247 1 1 1 1 0.0099944509084208578 1 1 1 1 0.011560225601275786 0.010406626987016146 1 1 1 1 1 1 0.010251909845184823 1 0.011291241197205483 1 1 1 1 1 1 1 0.0099460096302753133 1 1 0.010563088200742215 1 1 1 1 1 1 1 1 1 1 1 1 1 1 0.01113931807296465 1 1 1 1 1 1 1 1 1 1 1 1 1 1 1 1 1 1 1 1 1 1 1 0.010911874266572051 1 1 1 1 1 1 1 1 1 1 1 1 1 1 1 1 1 0.0098042847742243477 1 1 1 1 1 1 1 1 1 1 1 0.0099771794616781602 1 1 1 1 1 0.010433834809449743 1 1 1 1 1 1 1 1 1 1 1 1 1 1 1 1 0.011688958665285975 1 1 1 1 1 1 1 1 1 1 1 1 1 1 0.0097209580784065226 1 1 1 0.0099871579977966318 1 1 1 1 1 1 1 1 1 1 1 1 1 1 1 1 1 1 1 1 1 1 1 1 1 0.0093808155353520585 1 1 1 0.010011251291080665 1 1 0.014436873238738804 1 1 1 1 1 1 1 0.020417770465691387 1 0.015402088079917137 1 1 1 1 1 1 1 0.0042933505130969213 1 1 1 1 1 0.011205058181965048 1 0.020002430819715498 1 1 0.00702559055704669 1 1 1 1 1 1 1 1 1 1 0.015373338337047517 1 1 1 0.010386440160175503 0.015060671856768621 1 1 1 1 0.017607893108163228 1 1 1 1 1 1 0.011529050287149595 1 1 0.0090129056604424489 1 0.021722250469712115 1 1 1 1 1 0.027147013892300162 1 1 1 1 1 1 1 1 1 1 0.0088343078313244377 1 1 1 1 1 1 1 0.012121164848338577 1 1 1 1 0.01123146147670229 1 1 0.010947171682336786 1 1 1 1 1 1 1 1 1 0.010261004014243324 1 1 1 1 1 1 1 1 1 1 1 1 1 1 1 1 1 1 1 1 1 1 1 1 1 1 1 1 1 0.020567675189597855 1 1 1 1 1 1 1 1 1 0.020454917626824408 1 1 1 1 0.0098196415738870894 1 1 1 1 0.0099680281824007216 1 0.021585072875485251 1 1 1 1 1 0.0097975632456204081 1 1 0.02915166529882094 1 1 1 1 1 1 1 1 1 1 1 1 1 0.021774012648950503 1 1 0.010012317229119733 1 0.010155882956841132 1 1 1 1 1 1 1 1 1 1 0.022137588451485484 1 1 1 1 1 1 1 1 1 0.02239590093056552 1 1 1 1 1 0.0096440409691985335 1 1 1 1 1 1 0.0159654319463579 1 1 0.0097255890570622124 1 0.027493878280965462 1 1 0.010037099784291263 1 0.0099115880583343641 0.012788901775854806 1 1 1 1 1 1 1 1 1 1 1 1 1 1 1 1 1 1 1 1 1 1 1 1 1 1 1 0.014864764870129565 1 1 0.010000773989212647 1 1 1 1 1 1 1 1 1 1 1 1 1 1 1 1 1 1 1 1 1 0.018077049774950508 1 1 1 0.011408514679155407 1 1 1 1 1 1 1 1 1 1 1 1 1 1 1 0.013813729244171716 1 1 1 1 1 1 1 1 1 1 1 1 0.010124717944462673 1 1 1 0.014044255685210756 0.014544551768166231 1 1 1 1 1 1 1 0.019412291219099504 1 1 0.014712474924631304 1 0.014210034626978046 1 0.014982322714840018 1 1 0.0095754113291703687 1 1 1 0.012977287809316198 1 1 1 0.01021424915834898 0.013774459725909582 1 1 0.014208991478285358 0.013090697036485683 0.0093618934487432939 0.017087974535521654 1 0.0092233612968052846 1 1 1 1 0.010080144267969639 1 1 1 1 1 1 1 1 1 1 1 1 0.017601325163181525 1 1 0.017812206913169554 1 1 1 1 1 1 0.010409734234266886 1 1 1 1 0.010288958282964967 1 1 1 0.010242713712455047 1 1 1 1 1 1 1 1 1 1 1 1 0.010025943388882757 1 1 1 1 0.0099388485196250601 1 1 0.010167020521811841 1 1 1 1 1 1 1 1 0.010470668681768084 0.010947954958990379 1 0.010945587718671643 1 1 1 1 1 1 1 0.011557339746772616 1 1 1 1 1 1 1 1 1 1 1 0.01265210125029256 1 0.010212509306346696 1 1 1 1 1 1 1 1 1 0.013445430478439902 1 1 1 1 0.010027008556637082 0.011345200080907711 1 1 1 0.011182660479310828 1 1 0.01240013136404702 1 1 1 1 1 1 1 1 1 1 0.01218359215376328 1 1 1 1 1 1 1 1 1 1 1 1 1 1 1 1 1 1 1 1 1 1 0.01004296434904892 1 1 1 1 1 1 1 1 1 1 1 1 1 0.010034184277446314 1 0.010105088023505449 0.009697667577827437 1 1 0.0098892676905534566 1 1 1 1 1 1 1 1 1 1 1 1 1 1 1 1 0.0099718372899544154 1 1 0.010067440466477829 0.0099125220934051933 1 1 1 0.0099977166736472181 0.010370886500680736 0.010044536810649629 1 1 1 1 1 1 0.01108291684673389 1 1 1 1 1 1 1 1 1 1 1 1 1 1 1 1 1 1 1 1 1 0.01047803945712231 1 1 1 1 0.01045158835953657 1 1 1 1 1 1 1 1 1 1 1 1 1 1 1 1 1 1 1 1 1 1 1 1 1 1 1 1 1 1 1 1 1 1 1 1 1 0.010024132493791674 1 1 1 1 1 1 1 0.010847268087655742 1 1 1 0.012098238789816966 1 1 1 1 0.010003416019009091 1 1 1 1 0.011425906422818592 1 1 0.010090652096999699 1 0.010138694111443074 1 1 0.009764261102799909 1 1 1 1 0.0095522267953289889 1 0.010363660361882946 1 1 0.0095444381154472027 1 0.01002972324704305 1 0.0099257437301474849 1 0.01008679514366357 1 1 1 0.010038283478624337 1 1 0.011469446103492771 1 1 1 1 1 1 1 1 1 0.011230403753510379 1 1 1 1 0.01000093009215236 1 1 1 0.011093253811734288 1 1 0.011818966175312036 1 1 1 1 1 1 1 1 1 1 1 1 1 0.0099922009929291344 1 1 1 1 1 1 1 1 1 1 1 1 1 1 1 1 1 1 1 1 1 1 1 1 1 1 1 1 0.011453518291434685 1 1 1 1 1 0.0106128411159346 1 1 1 0.010373812220645769 1 1 1 1 1 1 1 0.011589519970556482 1 1 1 1 1 1 1 0.014161862565056305 1 1 1 1 1 1 1 1 1 1 1 1 1 1 1 1 1 1 1 1 1 1 1 1 1 1 1 1 1 1 1 1 1 1 1 0.010067300120635002 1 1 1 1 0.016587480671840571 1 1 1 1 1 1 1 1 1 0.010409243589158658 1 1 0.01630510202317241 1 1 1 1 1 1 1 0.0096860186727649317 1 1 1 1 1 1 1 1 1 1 1 1 1 1 1 1 1 1 1 1 1 1 1 1 1 1 1 1 1 0.015773787555558794 1 1 1 1 1 1 1 1 1 1 1 1 1 0.010553939696911742 1 1 1 0.013276447206068643 1 1 0.012856571949501553 1 1 1 1 1 0.013050422131651855 1 1 1 1 0.012811477886226661 1 0.01001190011553434 0.0090667867454626485 1 1 0.011858305387220602 1 0.0099755265413907918 1 1 1 1 1 1 1 1 1 1 1 1 1 1 1 1 1 1 1 1 1 1 1 0.014801437450108808 1 1 0.0097991436354337019 1 1 1 1 1 0.011596349962748857 0.011358450694374512 1 1 1 1 1 1 1 1 1 1 1 1 1 1 1 1 1 1 1 0.01287956206994029 1 1 1 0.010948571477755523 0.010358849316378803 1 1 1 1 1 0.010210462707865154 1 1 1 1 1 1 1 1 1 1 1 1 1 1 1 1 1 1 1 1 1 1 1 1 1 1 1 1 1 1 0.0098333869257948171 1 0.010864011780525755 1 1 1 1 1 1 1 1 1 1 1 1 1 1 1 1 1 1 1 1 1 1 1 1 1 1 1 1 1 1 1 1 1 1 1 1 1 1 1 1 1 1 1 1 0.012634064185176987 1 0.012057855965479198 1 1 1 0.011492625442403669 1 0.011026337341431779 1 1 1 1 1 0.0095146731277649232 0.017641079076908345 1 0.013293340615154156 1 0.011844866004566312 1 0.012802484969501097 1 1 1 1 0.015487695832349345 1 1 1 0.014919103646589956 0.015591978341624067 1 0.017496559426313812 1 1 0.009449512279749047 1 0.013203442438814656 0.01174122316214378 1 1 1 0.012265935991224219 0.01920473265141498 1 1 1 0.01164615553363875 1 1 1 0.013979409686993348 1 0.010089714306272732 1 1 1 0.014864683806660006 1 1 1 1 1 1 1 1 1 1 1 1 1 1 1 1 1 0.014636164791659641 1 1 1 1 0.015156985750554405 1 1 1 1 1 1 1 1 1 1 1 1 1 1 1 1 1 1 1 1 1 1 1 0.011430788429784336 1 1 1 1 0.0076935574046344511 1 0.01000423894072283 1 0.010027604777152116 1 1 1 1 1 1 1 1 1 1 1 1 1 1 1 1 1 1 1 1 1 1 1 1 1 1 1 1 1 1 1 1 1 1 1 0.010439402567270356 1 1 1 1 1 1 1 1 1 1 0.012515671753714952 1 1 1 1 1 1 1 0.012270704917159488 0.012567778801653252 1 1 1 0.011284905505590883 1 1 1 1 1 1 1 1 1 0.0091520082052859442 1 1 1 0.01019117836080592 0.011194546381759353 1 0.010099199986240499 0.01066553300350509 1 1 1 1 1 1 1 1 1 1 1 1 1 1 1 1 1 0.011103329311542523 1 1 0.010377231885671863 1 1 1 1 1 1 1 0.010154601838466247 1 1 1 1 1 0.010091121513481634 1 1 1 1 1 1 1 1 1 1 1 1 1 1 1 1 1 1 1 1 1 1 1 1 1 1 1 1 1 1 0.0097086777273321604 1 1 1 0.0098506455918351381 1 0.011634611838891334 1 1 1 1 1 0.011734431676306979 1 1 1 1 1 1 0.011196969058154267 1 1 1 1 1 1 1 1 1 1 1 1 1 1 1 0.0100326212160323 1 1 1 0.0097748678418303689 1 1 1 0.010049071179750697 1 0.0099672621501914801 1 1 1 0.010029553433022122 0.009994421554611636 1 1 1 1 1 1 1 1 1 1 1 1 1 1 0.010386211001430359 1 1 0.011489754401249559 1 1 1 1 1 1 1 1 1 1 1 1 0.022221792275455787 1 1 1 1 1 1 1 1 1 0.010811871410871726 1 1 1 1 0.021362437797055843 0.012486567860366234 1 0.01392785276084459 1 1 1 0.015224105415279245 1 0.010717791868502628 1 1 0.011681427420341998 1 1 0.0099977097557879951 1 1 1 1 0.0110466745938975 1 1 1 0.010385192776515693 1 1 1 1 1 1 1 1 1 1 1 1 0.010323295796097524 1 1 1 1 1 1 1 0.010461586919743157 0.010232630410261522 1 0.015131461247472206 1 1 1 1 0.011410873056911115 1 1 1 1 1 1 1 1 1 1 1 1 1 0.011237755966753372 1 1 1 1 1 0.012417359467762163 1 1 1 1 1 0.018388505581921965 1 0.017575046245677697 1 1 1 0.0182339275078785 1 1 1 0.010004445661182601 1 1 1 1 1 1 1 1 1 1 1 1 1 1 1 1 1 1 1 0.015660719688649256 1 1 1 1 1 1 1 1 1 1 1 0.010684436785071291 1 0.011832519278615491 1 1 1 1 1 1 1 1 1 1 1 1 1 1 1 1 1 1 1 1 1 1 1 1 1 1 1 1 1 1 1 1 1 1 1 1 0.0098999273782014573 1 1 1 1 0.011175854219814561 1 1 1 1 1 1 1 1 1 0.014398852379375401 1 1 1 1 1 1 1 1 1 1 1 1 1 1 0.010451210482497484 1 1 0.011334498556496922 1 1 1 1 1 0.023363105637315078 1 1 1 1 1 1 0.013863661689486417 1 0.026708552222647404 1 1 0.011270914757953786 1 1 1 1 1 1 1 1 0.028120656362680168 1 1 1 1 1 1 1 1 1 1 1 0.0093082403565851821 0.028059055919915806 1 1 1 1 0.0097285806041514673 1 1 1 1 1 1 1 1 0.0099235695446822005 1 1 0.01826835058394622 1 1 1 1 0.016839706361437903 1 1 1 1 1 1 1 1 1 1 1 1 1 1 1 1 1 1 1 1 1 1 1 0.012752910131213203 1 1 0.01444865543304065 1 1 1 1 1 1 1 0.023633823605842111 0.011315429555341606 0.015925614434164674 1 1 1 1 0.010975403981838565 1 1 0.01162340317935219 1 1 1 1 1 1 1 1 1 1 1 0.024767358741010825 1 1 0.025833825788724063 1 1 1 1 1 1 0.009893591969808796 1 1 1 0.010005963931625903 1 1 0.010023070905157866 1 1 1 1 1 1 1 1 1 1 1 0.0096426103123181065 1 0.011170932741221147 0.0093137590240238918 1 1 1 1 1 0.012713231171353546 1 1 1 1 1 1 1 0.010141381892951384 1 0.0090118670256547091 1 1 1 1 1 1 1 1 1 1 1 1 1 1 0.009839582015338395 1 1 1 0.010409109550250331 1 1 1 1 1 1 1 1 1 1 1 0.011393187182131899 1 1 0.012305701809844204 1 1 1 0.015688543712681774 1 1 1 0.0086126845570607471 0.010787799874672255 1 1 0.010525328418777957 1 0.009900348925791197 1 1 1 1 1 1 1 1 1 1 1 0.01865957477948392 1 0.011559547859546691 1 1 0.0085976246230118573 1 1 1 0.017605684737841916 1 1 1 1 1 1 1 0.01061229704764128 1 1 0.0096073544999225272 1 1 1 1 0.01133700707887283 0.014344711638857831 1 0.010395178768365767 0.010555274035092177 1 0.0099996335002109568 0.010000164163655309 1 0.010083105708257751 1 0.011364772208469237 1 1 1 1 0.013221229475332587 0.010000540151596155 0.014776857977116011 1 1 1 1 1 1 1 0.01519730262627875 1 1 1 0.011378452398801765 1 1 0.010581052948700513 0.009986547494708984 1 1 1 1 0.015466725042430605 1 1 1 0.010458375629271642 0.012020701463249748 1 1 1 1 0.010107388443864081 0.017825601929071955 0.0099845857560779926 1 1 1 1 1 1 1 1 0.021899866825227189 1 1 1 1 1 1 1 1 1 1 0.0099975392851713654 1 0.010070056793856398 1 1 0.011688485538299327 1 1 1 1 1 1 0.010004781034593234 1 0.010105413957708502 1 1 1 1 1 0.011517014320508013 1 1 1 0.0098306730327875087 1 1 1 1 1 1 1 0.010596851709745298 1 1 1 1 1 1 0.011169258953644949 1 1 1 1 1 0.010536351846620315 1 1 1 1 1 1 1 1 1 1 1 1 1 1 1 1 1 1 1 1 1 1 1 1 1 1 0.0099604229980279468 1 1 1 1 1 1 1 1 1 0.0098364964577008183 1 1 1 1 0.0096116359556854825 0.011984943914355643 1 1 1 0.011661022673981176 1 1 1 1 1 1 1 1 1 0.010675128453367804 1 0.0098862182352959013 1 1 1 1 1 1 1 0.0094859293823556391 1 1 1 1 0.0091614706279088964 1 0.011944213415545324 1 1 1 1 1 1 1 1 1 1 1 1 1 1 1 0.010232500275970783 1 1 1 1 1 1 1 1 1 1 1 1 1 1 1 1 1 1 1 1 1 1 1 1 1 1 1 1 0.010761764053959401 1 1 1 1 0.010756379104902389 1 1 1 1 1 0.010471294312789026 1 1 1 1 1 0.011267005624276863 1 1 1 1 1 1 1 1 1 1 0.010369365339549869 1 1 1 1 1 1 1 1 1 1 1 1 1 1 1 1 0.016551280601008942 1 1 0.0097893388210368078 0.010153725450146913 1 1 0.010500754558684733 1 1 1 1 1 1 1 0.01065345752243709 1 1 1 1 1 1 1 1 1 1 1 1 1 1 1 1 1 1 1 1 1 1 1 1 1 1 1 1 1 1 1 1 1 0.0099488776302960047 1 1 1 0.010323546899532601 1 1 1 1 1 1 1 1 1 1 1 1 1 1 1 1 1 1 1 1 1 1 1 1 1 1 1 1 1 1 0.010191226284054864 1 1 1 1 0.01023740973084988 1 1 1 1 1 1 1 1 1 1 1 1 1 1 1 1 1 1 1 1 1 1 0.01059675698873728 1 1 0.011059103326980724 1 1 1 1 1 1 0.01105207514894275 1 1 1 0.010653572622298308 1 1 1 1 0.013005149705419905 0.014723568184749694 1 1 1 1 1 1 1 1 1 1 0.012039022088532955 1 1 0.011557956186950611 1 1 1 0.010807103746307615 1 1 1 1 1 1 1 1 1 1 1 1 1 1 1 1 1 1 1 1 1 1 1 1 1 1 1 1 1 1 0.012542770295333065 1 1 0.010151986961829819 1 1 1 1 1 1 0.012269833624590927 1 1 0.010288319737082706 1 1 0.012044326483705743 1 1 1 1 1 1 1 0.011695824212226581 1 1 1 1 1 1 0.010422254419401476 1 1 0.010136332775252888 1 1 1 1 1 1 1 1 1 0.010522463647241621 1 1 1 0.011038008474543181 1 1 1 0.010361720017643333 1 1 1 0.010443943240051289 1 1 1 0.010177043153089295 1 0.010572407243899653 1 1 1 1 1 1 1 1 1 1 0.010127725417095987 1 1 0.010004946967640687 0.010098296539845675 1 1 1 1 1 1 1 0.010591318525588247 1 1 1 1 1 1 1 1 0.010803424684561906 1 1 1 0.010792934855116445 1 1 1 1 1 1 1 1 1 1 1 0.0098768711064780249 1 1 1 1 1 1 1 1 1 1 1 1 1 1 0.011171873146210192 1 1 0.010437774284824831 1 1 1 1 1 1 1 1 1 1 0.01133618749368653 0.011035309716646572 1 1 1 1 1 0.01292604635240264 1 1 1 1 1 1 1 1 1 1 1 1 1 1 1 1 1 0.012721694190529693 1 1 0.01346296181498555 1 0.013746044253410604 1 1 1 1 1 0.010258613607260773 1 1 1 1 1 1 1 1 1 1 1 1 1 1 1 1 0.0098881328806440551 1 1 1 1 1 0.016936094752201855 1 0.013679348227963638 1 0.0083447343522760602 1 1 1 1 1 1 1 1 1 1 1 1 1 1 1 0.017306391525515601 1 1 1 1 1 0.016877810346213773 1 1 0.010524372848376332 1 1 1 1 1 0.009521997849977518 1 1 1 1 1 1 1 0.0089490076564556608 1 1 1 1 1 0.0094939999351455733 1 0.010142674988733703 1 1 1 0.010055534884510435 1 1 1 1 1 1 1 1 1 1 1 1 0.010137018276059916 1 1 1 1 1 1 1 1 1 1 1 1 1 1 1 1 1 1 1 1 1 1 1 1 1 1 1 1 1 1 1 1 1 1 1 1 1 1 1 1 1 1 1 1 1 1 1 1 1 1 1 1 1 1 1 1 1 1 1 1 1 1 1 1 1 1 1 1 1 1 1 1 1 1 1 1 1 1 1 1 1 1 1 1 1 1 1 1 1 1 1 1 1 1 1 1 1 1 1 1 1 1 1 1 1 1 1 1 1 1 1 1 1 1 1 1 1 1 1 1 1 1 1 1 1 1 1 1 1 1 1 1 1 1 1 1 1 1 1 1 1 1 1 1 0.010108213949419079 1 1 1 1 0.011052101144898879 0.010050902997285113 1 1 1 1 1 0.010280469309736353 1 1 0.009800104656754724 1 0.0099309987768066623 1 1 1 1 1 1 1 0.0098511635401786323 1 0.0099456863887119086 1 1 1 1 1 1 1 1 1 1 1 1 1 1 1 1 1 1 1 1 1 1 1 1 1 0.010454990162959261 0.010170242368244018 1 1 1 0.020772799691340601 1 1 1 0.010845624619606318 1 1 1 1 1 1 0.010417860123751774 1 1 1 1 1 0.021476495849686625 1 1 1 1 1 1 1 1 1 0.010057176172110976 1 1 1 1 1 1 1 1 1 1 1 1 1 1 1 1 1 1 1 1 0.019993332076631769 1 1 1 0.018830832015545026 1 1 1 1 1 1 1 1 1 1 1 1 1 1 1 1 0.010387727330435434 0.0055810314745787532 0.010061200975383763 1 1 1 0.010048733003610637 1 1 1 1 1 1 0.013348253274308813 0.014510756805726503 1 0.013405298170969216 1 1 0.011322082826232148 1 0.015589644158361038 1 1 1 1 0.011609870452308567 1 1 1 0.017075995124729904 1 1 1 1 1 1 1 1 1 1 1 0.010029608118352726 1 1 1 1 1 1 1 1 1 1 1 1 1 1 1 0.010808999911601223 1 1 1 1 1 1 1 1 1 0.010381235415746683 0.010308125933228223 1 1 1 0.010412447406374641 1 1 1 1 1 1 1 1 1 1 0.01052440862926538 1 1 1 1 1 0.013722125549747695 1 1 0.01086922535718287 1 1 1 1 1 1 1 1 0.011364042386832121 0.010509905437856047 1 1 1 1 1 1 1 1 1 1 1 1 1 1 1 1 1 0.011598550502055433 1 1 1 1 0.015514365822129849 1 1 1 1 1 1 1 0.01086051373758597 1 1 1 1 1 1 1 1 1 0.01189092954051623 0.013954023670190149 1 1 1 1 1 1 1 1 1 1 1 1 1 1 1 1 1 0.012066675207297119 1 1 1 1 1 1 1 1 1 1 1 1 1 1 1 1 1 1 1 1 1 1 1 1 1 1 1 1 1 1 1 1 1 1 1 1 1 1 1 1 1 1 1 1 1 0.0096282384288258194 1 1 0.01160527809770767 1 0.01692971676341247 1 1 1 1 0.0098983521195939936 1 1 1 1 0.017754111914154484 1 1 0.0092676581145603593 1 1 1 0.010673716073503856 1 1 1 1 1 1 0.0094567536346682347 1 1 1 0.0087877865162449276 1 1 0.010398493313074129 1 1 0.011085086741072558 1 1 1 1 1 1 1 0.0097734242739601039 0.0093873311405853269 1 1 1 0.010395292651881036 1 1 1 1 1 1 1 1 1 1 0.0099601290537996816 1 1 1 1 1 1 0.0081083236830258466 1 0.010366109181069949 1 1 1 1 0.006738844971408327 1 1 1 1 0.023639672402922002 1 0.010733217628823908 1 0.020950594088965539 1 1 1 0.010542109678942646 1 1 1 1 1 1 1 1 1 1 1 1 1 1 1 1 1 1 1 1 1 1 1 1 1 1 1 1 1 1 1 1 1 1 1 1 1 1 1 1 1 0.010076370271530053 1 1 1 1 0.01014266176583461 0.009464323081629443 1 1 1 1 1 1 1 1 1 0.010938549299302824 1 1 1 1 1 1 1 1 1 1 1 1 1 0.01060757610096558 0.010027635727488552 1 1 0.010429607080663421 1 1 0.011059066435046519 1 1 1 1 1 1 1 1 1 0.009721179513968628 1 1 0.0091232253873280503 1 1 1 1 1 1 1 1 0.011174650586692276 0.0095524464166114858 1 1 1 0.0096535468647283487 1 1 1 0.010436730511808882 1 0.018784046031980133 1 0.01888993626465893 1 1 0.0085153312523929374 1 0.018476243667337612 1 1 1 1 1 1 1 0.0094724565175998664 1 1 1 1 1 0.010438537803353746 1 1 1 1 0.010266027639051727 1 1 1 1 0.0098139671975944996 1 1 1 1 1 1 1 0.011725068110909911 1 1 1 1 1 1 1 1 0.010119270092722071 1 1 1 1 1 1 1 1 1 1 1 1 1 1 1 0.013030029324066675 1 1 0.011283646862820001 1 1 1 1 1 1 0.012779471917137006 1 1 0.010666001675863394 1 1 1 1 1 1 1 0.010553394103792149 1 1 0.011741721381397334 1 1 1 1 1 0.013605178914251982 1 1 1 1 1 0.015508967490917638 1 1 1 1 1 1 0.017161538018587226 1 1 1 0.0099703521240231876 1 1 0.013116979762714247 1 1 1 0.010904501854234253 1 0.0099743237439144355 1 1 1 1 1 0.010146757546329668 1 1 1 1 1 1 1 0.010902329975141428 1 1 1 1 1 1 1 0.011359164629207497 1 1 0.01183178447547991 1 1 0.0140532841995533 1 0.012077508346027339 1 1 1 1 1 1 0.014623425752197978 0.0094614052321983361 1 1 0.012551979369862706 0.018020319332206228 1 1 1 1 1 1 1 1 1 1 1 1 1 1 1 1 1 1 1 1 1 1 1 1 0.01002078240489928 1 1 0.010751569583582069 1 1 1 0.011953620987629802 1 0.0090473077859067573 1 1 1 0.0048252012327524938 1 0.010014231545277412 1 1 0.019721518556441525 1 1 0.010078035909683867 1 1 1 0.018001536676712948 1 1 1 1 1 1 1 1 1 1 0.0092754325369117981 1 0.0097752549130416255 1 1 1 1 0.010626709085044933 1 1 0.010260266977810364 1 1 1 1 1 1 0.01040945162116446 1 1 1 1 1 1 0.010145010229933575 1 1 1 1 1 1 1 0.010654981503488765 1 1 0.013725300910924016 0.01001345359237614 1 1 1 1 1 0.010288539396254199 1 1 1 1 1 1 1 1 1 1 1 1 1 1 1 1 1 0.015583957117067334 1 1 1 0.017020985058635019 1 1 1 1 1 1 1 1 1 1 1 1 1 1 0.010261093300529862 1 0.013854104563039201 1 1 1 1 1 1 1 1 1 1 1 1 1 1 1 0.011462497388906187 1 1 1 1 1 0.010015545827168898 1 1 1 0.0097270098093118606 1 1 1 1 1 0.014914155738858671 1 1 0.014949810425459139 1 1 1 1 1 1 1 1 1 0.010753648172127771 1 1 1 1 0.011203473735180618 1 0.014149281131779519 1 0.0058236882652487471 0.013893811082995774 1 1 1 1 1 1 0.014596253271612252 1 1 1 1 1 1 1 1 1 0.010370226096513576 1 1 1 1 1 1 1 1 1 1 1 1 1 1 1 1 0.0092558712009097165 1 1 0.0097802811443649072 1 1 1 1 1 0.02179162381313671 0.022108981976972669 1 1 1 1 1 1 1 1 1 1 0.016538354664137705 1 1 1 1 0.014373901008669298 1 1 1 1 1 1 1 1 0.017199669933942618 1 1 0.015199568355283379 1 1 1 0.022342623574708106 1 1 1 1 1 1 1 1 1 1 1 1 1 1 1 1 0.015734450425933424 1 1 1 1 1 1 1 1 1 1 1 1 0.010042497918664947 0.0099026411493610966 1 1 1 1 1 1 0.012203783614004225 1 1 1 1 1 1 1 1 0.01140391110132939 1 1 1 0.007994111142442601 1 1 1 1 1 0.010656426248353015 1 1 0.010304046038607111 1 1 1 1 1 0.010699949998727261 1 1 0.009909978540799733 1 0.01100118557542523 0.0096901436357874193 1 1 0.0099054310441673912 1 1 0.010804537084546855 0.0098726448036508731 1 1 1 1 1 1 0.011394542801493393 1 1 1 0.011173072036892315 1 0.010452977834931969 1 0.010110237004162206 1 1 1 1 1 1 1 1 1 1 1 1 1 1 1 0.010301828789963531 1 1 1 1 1 1 1 1 1 0.0099420053884264128 1 1 1 1 1 0.01071498294087009 1 1 0.010009758239036926 1 1 1 1 0.0099837454051050073 1 0.010734354252450983 1 0.010085537744315309 1 1 1 1 0.010035123746407894 1 1 0.010309477403352764 1 1 1 1 0.0099420114045076155 0.0099951731935123134 1 1 0.0098180986122039186 1 1 0.01030769224528482 0.010523665039216319 1 1 1 1 1 1 1 0.010103035482319819 1 1 1 1 1 1 1 0.010671665707121462 1 1 1 1 1 1 0.010046145686272871 1 1 1 1 1 1 0.010423076032993243 1 1 1 1 0.010159817229073262 1 1 1 1 1 1 1 1 1 1 1 0.010559231204391797 1 1 1 1 1 0.010858017917279632 1 1 1 0.010328320661398384 0.011078896862676747 1 0.011843264851254469 1 1 0.0097921208573411526 1 1 1 0.012751781795139756 0.010000812694225458 1 1 0.010000585504318191 0.0097303089112998568 1 1 1 1 0.012183405341954705 1 1 1 0.011011559156561898 1 1 1 1 1 1 1 1 1 1 1 1 1 0.012503457939915289 1 1 1 1 1 0.010201428008084733 1 1 1 1 1 1 1 1 1 1 1 1 1 1 1 1 1 1 1 1 1 1 0.010308812062200204 1 1 1 1 1 1 1 0.010771378035521445 1 1 1 1 0.010036996733408472 0.011010933821462461 1 1 1 1 1 1 1 1 1 1 1 1 1 1 0.010012197697781555 1 1 1 1 1 0.0099812920163872693 1 1 0.0099076509372267637 1 1 0.0086383968599332648 1 0.020802507058502548 1 1 1 0.0099033268696289423 1 1 1 1 1 1 1 0.012351369717046616 0.011682053737906059 1 1 1 1 1 1 1 0.019529001018240188 1 1 1 1 0.012231656940705644 0.011880303454827452 1 0.010202788050828053 1 1 0.016757309413234923 1 1 1 1 1 0.012169836696164921 1 1 1 1 1 1 0.010332861288393454 1 1 1 1 1 1 1 0.017478232070248692 1 0.010120968798195747 1 1 1 1 1 1 1 1 1 1 1 1 0.017170831633185488 1 1 1 1 1 1 0.010619985845643623 1 1 0.011306561324588651 0.010052520194027775 1 1 1 1 1 1 1 0.010139211623159146 1 1 0.010206537498754491 0.010003482733805099 0.010361666610208802 1 1 1 0.016212548868367802 1 1 0.018197480632107542 0.016847888201756315 1 1 1 1 0.010538705995997457 1 1 1 1 1 1 1 1 1 1 1 0.01016009280618569 1 1 1 1 1 1 1 1 1 0.0099123475283557604 1 0.016277760692379573 1 1 1 1 1 1 1 1 1 1 1 1 1 1 1 0.010551718308762099 1 1 1 1 1 1 1 1 1 1 1 0.010009825523680137 1 1 1 1 1 1 1 1 1 1 1 1 1 1 1 1 1 1 1 1 1 1 1 1 1 1 1 1 1 1 1 1 1 1 1 1 1 1 1 1 1 1 0.010317060154996508 1 1 0.012859289145033242 1 0.012539689944885902 1 1 1 1 0.016767036822394617 1 1 1 1 0.010390793479688238 1 1 1 1 1 0.013301524220587812 0.012720691615401708 1 0.017008103370567774 0.011270641077813956 1 1 1 1 1 1 1 1 1 1 1 1 1 1 0.011154579002976329 1 0.011670611431215634 1 0.010009699365585959 1 1 1 1 1 1 1 1 1 1 1 1 1 1 1 1 1 1 1 1 1 1 1 1 1 1 1 1 0.010056463183721149 0.013742187589129623 1 0.016064213078599988 1 1 1 1 1 1 1 1 1 1 1 1 1 1 1 0.0099829421174552312 0.010127542097176185 1 1 1 1 1 1 1 1 1 0.013768736222445397 1 1 0.011722241756852313 1 1 1 1 1 0.012084021369207842 1 0.011529742848938186 1 1 1 1 1 1 1 1 1 1 1 1 1 1 1 1 1 1 1 1 1 1 1 1 1 1 1 1 1 1 1 1 1 1 1 1 1 1 1 1 1 1 1 1 1 1 1 1 1 1 1 1 1 1 1 1 1 1 0.013363922407463579 1 1 1 1 1 1 1 1 0.010073627189447803 1 1 1 1 0.011779123004602508 1 0.0099361194976583991 1 1 1 1 0.012065076976197176 0.010484176306561963 1 1 1 1 1 1 1 1 1 1 1 1 1 1 1 1 1 1 1 1 1 1 1 1 0.010947404549498945 1 1 1 1 1 1 0.012464953471765549 1 1 1 1 1 1 1 1 1 1 1 1 0.012642473444237672 1 1 1 1 1 1 0.013182561924121749 1 1 1 1 1 1 1 1 0.013448282972991272 1 1 1 1 1 1 1 1 1 1 1 1 1 1 0.011535846497053744 0.011383347900448697 1 1 0.010524920649051759 1 0.01195050649123326 1 1 1 0.010000357230696534 0.012241119441922185 1 1 0.010166522586448536 1 1 1 1 1 1 1 1 1 0.013604689858001645 1 1 1 1 1 1 1 1 1 1 1 1 0.010285806919716485 1 1 1 0.009974421416451551 1 1 0.011021237251357688 1 1 0.010106484137203818 0.011264238172917251 0.0095015084738286782 1 1 1 1 0.0099996311930832527 1 0.011864599021275866 1 0.0095157931081344543 1 1 1 1 1 1 1 0.010149390070160058 1 1 0.01051116495078561 0.010574170008947375 0.0099429102622067261 1 0.010010547579950378 1 1 1 1 0.010203798147940788 1 1 1 1 1 1 1 1 0.010068236930583842 1 1 0.011126625147410894 1 1 1 1 1 0.010019440459867537 1 1 1 1 0.0096643474644228129 0.0096674130926154671 1 1 1 0.01002223826297706 1 1 1 1 1 1 0.01151386992811289 1 1 1 1 1 1 0.011539575202735587 1 1 1 1 1 1 0.0098825731368489822 1 1 1 1 1 1 1 1 1 1 1 1 1 1 1 1 1 1 1 1 1 1 1 1 1 1 1 1 1 1 1 1 1 1 1 1 1 1 1 1 1 1 1 1 1 1 1 1 1 1 1 1 0.01124267289165411 1 1 1 1 1 1 0.010498319324265135 1 1 1 1 1 1 1 1 1 1 1 1 1 0.010929589515814367 1 1 1 0.010399319653592832 1 1 1 1 1 1 1 1 1 1 1 1 1 1 1 1 1 1 1 1 1 1 1 1 1 1 1 0.021626844974051911 1 1 1 0.015393327821464194 1 1 1 1 0.019048415621903 1 0.010669472768263938 1 1 1 1 1 0.0099829609206569473 1 0.018514493344685617 1 1 1 1 1 1 1 1 1 1 1 1 1 1 1 1 1 1 1 1 1 0.015764105302385256 1 1 1 1 1 1 1 1 1 1 1 1 1 0.010812944584659059 1 1 1 0.010189687530801629 1 0.012152981689860138 1 1 1 1 1 1 1 1 1 1 0.012874247410432093 1 1 0.0095222988651055863 1 1 0.018282749904597457 1 1 1 1 1 1 1 1 1 1 1 1 1 1 1 1 1 1 1 1 1 1 1 1 1 1 1 0.011946555389556494 1 1 1 0.010056638315068317 1 1 1 1 0.010503339278951309 1 1 1 0.011356260751114556 
</DataArray>
</CellData>
</Piece>
</UnstructuredGrid>
</VTKFile>
