<?xml version="1.0"?>
<VTKFile type="UnstructuredGrid" version="0.1" byte_order="LittleEndian">
<UnstructuredGrid>
<Piece NumberOfPoints="32048" NumberOfCells="11191">
<Points>
<DataArray type="Float64" NumberOfComponents="3" format="ascii">
-0.5 -0.5 0 -0.48556746540584711 -0.47804328693087489 0 -0.48386249292258082 -0.45608657386174872 0 -0.5 -0.5 0 -0.48386249292258082 -0.45608657386174872 0 -0.5 -0.42594233992876779 0 -0.48727243788911351 -0.50000000000000122 0 -0.5 -0.5 0 -0.48556746540584711 -0.47804328693087489 0 -0.48727243788911351 -0.50000000000000122 0 -0.48556746540584711 -0.47804328693087489 0 -0.48556746540584711 -0.47804328693087489 0 -0.46936377834411469 -0.48490752494438671 0 -0.46456618662985127 -0.46539182825365449 0 -0.48727243788911351 -0.50000000000000122 0 -0.46936377834411469 -0.48490752494438671 0 -0.46049781074122031 -0.5 0 -0.48727243788911351 -0.50000000000000122 0 -0.48556746540584711 -0.47804328693087489 0 -0.46936377834411469 -0.48490752494438671 0 -0.46936377834411469 -0.48490752494438671 0 -0.46049781074122031 -0.5 0 -0.44891499105454102 -0.48110250953740402 0 -0.46936377834411469 -0.48490752494438671 0 -0.44891499105454102 -0.48110250953740402 0 -0.46456618662985127 -0.46539182825365449 0 -0.46049781074122031 -0.5 0 -0.44891499105454102 -0.48110250953740402 0 -0.43372318359332718 -0.5 0 -0.44159469221644831 -0.45840685133256848 0 -0.45497417052763012 -0.43935325943465081 0 -0.42266469403802631 -0.43820863216503408 0 -0.44891499105454102 -0.48110250953740402 0 -0.44159469221644831 -0.45840685133256848 0 -0.46456618662985127 -0.46539182825365449 0 -0.44159469221644831 -0.45840685133256848 0 -0.46456618662985127 -0.46539182825365449 0 -0.45497417052763012 -0.43935325943465081 0 -0.46456618662985127 -0.46539182825365449 0 -0.45497417052763012 -0.43935325943465081 0 -0.4713900926298441 -0.44874038058566912 0 -0.48386249292258082 -0.45608657386174872 0 -0.48215752043931448 -0.43412986079262239 0 -0.4713900926298441 -0.44874038058566912 0 -0.48386249292258082 -0.45608657386174872 0 -0.48215752043931448 -0.43412986079262239 0 -0.45497417052763012 -0.43935325943465081 0 -0.4713900926298441 -0.44874038058566912 0 -0.48215752043931448 -0.43412986079262239 0 -0.48556746540584711 -0.47804328693087489 0 -0.46456618662985127 -0.46539182825365449 0 -0.48386249292258082 -0.45608657386174872 0 -0.46456618662985127 -0.46539182825365449 0 -0.4713900926298441 -0.44874038058566912 0 -0.48386249292258082 -0.45608657386174872 0 -0.48556746540584711 -0.47804328693087489 0 -0.48386249292258082 -0.45608657386174872 0 -0.48386249292258082 -0.45608657386174872 0 -0.5 -0.42594233992876779 0 -0.48215752043931448 -0.43412986079262239 0 -0.5 -0.42594233992876779 0 -0.48325259359460299 -0.41742018380506662 0 -0.48215752043931448 -0.43412986079262239 0 -0.5 -0.42594233992876779 0 -0.48325259359460299 -0.41742018380506662 0 -0.48764671722829989 -0.39959123299779059 0 -0.48325259359460299 -0.41742018380506662 0 -0.48215752043931448 -0.43412986079262239 0 -0.46555791949460801 -0.41354675993824358 0 -0.48325259359460299 -0.41742018380506662 0 -0.48764671722829989 -0.39959123299779059 0 -0.46555791949460801 -0.41354675993824358 0 -0.5 -0.42594233992876779 0 -0.48764671722829989 -0.39959123299779059 0 -0.5 -0.37091851046886509 0 -0.48930929269217349 -0.37661775028857258 0 -0.48764671722829989 -0.39959123299779059 0 -0.48930929269217349 -0.37661775028857258 0 -0.48764671722829989 -0.39959123299779059 0 -0.47688204742435603 -0.37969825332881069 0 -0.48930929269217349 -0.37661775028857258 0 -0.48764671722829989 -0.39959123299779059 0 -0.5 -0.37091851046886509 0 -0.48764671722829989 -0.39959123299779059 0 -0.46412641546702249 -0.38634218351993449 0 -0.46555791949460801 -0.41354675993824358 0 -0.48764671722829989 -0.39959123299779059 0 -0.47688204742435603 -0.37969825332881069 0 -0.46412641546702249 -0.38634218351993449 0 -0.47688204742435603 -0.37969825332881069 0 -0.46412641546702249 -0.38634218351993449 0 -0.47266237187275462 -0.36386612275811631 0 -0.46412641546702249 -0.38634218351993449 0 -0.4517870154025781 -0.40160474006116431 0 -0.46555791949460801 -0.41354675993824358 0 -0.4517870154025781 -0.40160474006116431 0 -0.43863885096022842 -0.39036388964841429 0 -0.43882487568845352 -0.41616612713806461 0 -0.46412641546702249 -0.38634218351993449 0 -0.4517870154025781 -0.40160474006116431 0 -0.43863885096022842 -0.39036388964841429 0 -0.43863885096022842 -0.39036388964841429 0 -0.44943404419366889 -0.36749830938864309 0 -0.42452368003979191 -0.37279063138748619 0 -0.46412641546702249 -0.38634218351993449 0 -0.43863885096022842 -0.39036388964841429 0 -0.44943404419366889 -0.36749830938864309 0 -0.45497417052763012 -0.43935325943465081 0 -0.43882487568845352 -0.41616612713806461 0 -0.42266469403802631 -0.43820863216503408 0 -0.45497417052763012 -0.43935325943465081 0 -0.48215752043931448 -0.43412986079262239 0 -0.46555791949460801 -0.41354675993824358 0 -0.4517870154025781 -0.40160474006116431 0 -0.46555791949460801 -0.41354675993824358 0 -0.43882487568845352 -0.41616612713806461 0 -0.45497417052763012 -0.43935325943465081 0 -0.46555791949460801 -0.41354675993824358 0 -0.43882487568845352 -0.41616612713806461 0 -0.43882487568845352 -0.41616612713806461 0 -0.4137072500395802 -0.40357895387174553 0 -0.42266469403802631 -0.43820863216503408 0 -0.4137072500395802 -0.40357895387174553 0 -0.39695840231774621 -0.42725525130702668 0 -0.42266469403802631 -0.43820863216503408 0 -0.43882487568845352 -0.41616612713806461 0 -0.4137072500395802 -0.40357895387174553 0 -0.4137072500395802 -0.40357895387174553 0 -0.42452368003979191 -0.37279063138748619 0 -0.39819601722778702 -0.37063510406979222 0 -0.43863885096022842 -0.39036388964841429 0 -0.4137072500395802 -0.40357895387174553 0 -0.42452368003979191 -0.37279063138748619 0 -0.43863885096022842 -0.39036388964841429 0 -0.43882487568845352 -0.41616612713806461 0 -0.4137072500395802 -0.40357895387174553 0 -0.4137072500395802 -0.40357895387174553 0 -0.38858962439070688 -0.39099178060542639 0 -0.39819601722778702 -0.37063510406979222 0 -0.4137072500395802 -0.40357895387174553 0 -0.38858962439070688 -0.39099178060542639 0 -0.3821663646035654 -0.41146547394949368 0 -0.4137072500395802 -0.40357895387174553 0 -0.38858962439070688 -0.39099178060542639 0 -0.38858962439070688 -0.39099178060542639 0 -0.3821663646035654 -0.41146547394949368 0 -0.36252382498171631 -0.40113905631972241 0 -0.38858962439070688 -0.39099178060542639 0 -0.36347199874183372 -0.37840460733910741 0 -0.38858962439070688 -0.39099178060542639 0 -0.38027509019960581 -0.3752569555279206 0 -0.36347199874183372 -0.37840460733910741 0 -0.38858962439070688 -0.39099178060542639 0 -0.38027509019960581 -0.3752569555279206 0 -0.39819601722778702 -0.37063510406979222 0 -0.4137072500395802 -0.40357895387174553 0 -0.39695840231774621 -0.42725525130702668 0 -0.3821663646035654 -0.41146547394949368 0 -0.39695840231774621 -0.42725525130702668 0 -0.37505608221433301 -0.43091143740690568 0 -0.39190855484970538 -0.45235952297299797 0 -0.39695840231774621 -0.42725525130702668 0 -0.3821663646035654 -0.41146547394949368 0 -0.37505608221433301 -0.43091143740690568 0 -0.37505608221433301 -0.43091143740690568 0 -0.39190855484970538 -0.45235952297299797 0 -0.36747109467781908 -0.45009213450057511 0 -0.39695840231774621 -0.42725525130702668 0 -0.39190855484970538 -0.45235952297299797 0 -0.42266469403802631 -0.43820863216503408 0 -0.39190855484970538 -0.45235952297299797 0 -0.39331870592113027 -0.47957017199253738 0 -0.41922294883123329 -0.47282138558380099 0 -0.39190855484970538 -0.45235952297299797 0 -0.36833954018173781 -0.47266995140588808 0 -0.36747109467781908 -0.45009213450057511 0 -0.39190855484970538 -0.45235952297299797 0 -0.39331870592113027 -0.47957017199253738 0 -0.36833954018173781 -0.47266995140588808 0 -0.38017392929754079 -0.5 0 -0.39331870592113027 -0.47957017199253738 0 -0.36833954018173781 -0.47266995140588808 0 -0.38017392929754079 -0.5 0 -0.39331870592113027 -0.47957017199253738 0 -0.40694855644543398 -0.5 0 -0.39331870592113027 -0.47957017199253738 0 -0.41922294883123329 -0.47282138558380099 0 -0.40694855644543398 -0.5 0 -0.41922294883123329 -0.47282138558380099 0 -0.40694855644543398 -0.5 0 -0.43372318359332718 -0.5 0 -0.44891499105454102 -0.48110250953740402 0 -0.41922294883123329 -0.47282138558380099 0 -0.43372318359332718 -0.5 0 -0.44891499105454102 -0.48110250953740402 0 -0.44159469221644831 -0.45840685133256848 0 -0.41922294883123329 -0.47282138558380099 0 -0.39190855484970538 -0.45235952297299797 0 -0.41922294883123329 -0.47282138558380099 0 -0.42266469403802631 -0.43820863216503408 0 -0.44159469221644831 -0.45840685133256848 0 -0.41922294883123329 -0.47282138558380099 0 -0.42266469403802631 -0.43820863216503408 0 -0.44196826618057822 -0.25847988818253897 0 -0.44838465456654047 -0.2703752456780546 0 -0.45671639277957082 -0.2604348468599762 0 -0.44196826618057822 -0.25847988818253897 0 -0.45671639277957082 -0.2604348468599762 0 -0.4473161120999406 -0.2448583222308145 0 -0.44196826618057822 -0.25847988818253897 0 -0.44838465456654047 -0.2703752456780546 0 -0.43259540283512588 -0.27174491149756441 0 -0.44838465456654047 -0.2703752456780546 0 -0.44969090939170647 -0.28535256018627009 0 -0.43259540283512588 -0.27174491149756441 0 -0.44838465456654047 -0.2703752456780546 0 -0.46095230164572121 -0.27586402166392332 0 -0.44969090939170647 -0.28535256018627009 0 -0.44838465456654047 -0.2703752456780546 0 -0.46095230164572121 -0.27586402166392332 0 -0.45671639277957082 -0.2604348468599762 0 -0.46095230164572121 -0.27586402166392332 0 -0.45671639277957082 -0.2604348468599762 0 -0.4717969467520664 -0.26576658642147688 0 -0.45671639277957082 -0.2604348468599762 0 -0.46985781557381873 -0.24680838074819941 0 -0.4473161120999406 -0.2448583222308145 0 -0.45671639277957082 -0.2604348468599762 0 -0.4717969467520664 -0.26576658642147688 0 -0.46985781557381873 -0.24680838074819941 0 -0.48492890778690811 -0.25613398921828362 0 -0.47382042158124382 -0.24715118153096849 0 -0.46985781557381873 -0.24680838074819941 0 -0.48492890778690811 -0.25613398921828362 0 -0.48595628040263411 -0.27319085672434812 0 -0.4717969467520664 -0.26576658642147688 0 -0.48492890778690811 -0.25613398921828362 0 -0.4717969467520664 -0.26576658642147688 0 -0.46985781557381873 -0.24680838074819941 0 -0.48492890778690811 -0.25613398921828362 0 -0.46985781557381873 -0.24680838074819941 0 -0.48492890778690811 -0.25613398921828362 0 -0.49999999999999828 -0.26545959768836652 0 -0.48773282140710728 -0.24627909207288859 0 -0.48492890778690811 -0.25613398921828362 0 -0.49999999999999828 -0.26545959768836652 0 -0.48595628040263411 -0.27319085672434812 0 -0.48492890778690811 -0.25613398921828362 0 -0.49999999999999828 -0.26545959768836652 0 -0.49999999999999828 -0.26545959768836652 0 -0.48595628040263411 -0.27319085672434812 0 -0.5 -0.28255963638853548 0 -0.48595628040263411 -0.27319085672434812 0 -0.48714551974956333 -0.28780977110809791 0 -0.5 -0.28255963638853548 0 -0.46095230164572121 -0.27586402166392332 0 -0.4717969467520664 -0.26576658642147688 0 -0.47420302978898521 -0.28251665777353252 0 -0.48595628040263411 -0.27319085672434812 0 -0.47420302978898521 -0.28251665777353252 0 -0.48714551974956333 -0.28780977110809791 0 -0.48595628040263411 -0.27319085672434812 0 -0.4717969467520664 -0.26576658642147688 0 -0.47420302978898521 -0.28251665777353252 0 -0.47420302978898521 -0.28251665777353252 0 -0.48714551974956333 -0.28780977110809791 0 -0.47740133602143558 -0.30147126402477092 0 -0.47420302978898521 -0.28251665777353252 0 -0.47740133602143558 -0.30147126402477092 0 -0.46196579416249067 -0.29099744669857819 0 -0.48714551974956333 -0.28780977110809791 0 -0.5 -0.28255963638853548 0 -0.49999999999999628 -0.29965967508870461 0 -0.48714551974956333 -0.28780977110809791 0 -0.49999999999999628 -0.29965967508870461 0 -0.47740133602143558 -0.30147126402477092 0 -0.49429701908379431 -0.3076973021609184 0 -0.47740133602143558 -0.30147126402477092 0 -0.48180889213278549 -0.31747907206197201 0 -0.49999999999999628 -0.29965967508870461 0 -0.47740133602143558 -0.30147126402477092 0 -0.49999999999999628 -0.29965967508870461 0 -0.49429701908379431 -0.3076973021609184 0 -0.47740133602143558 -0.30147126402477092 0 -0.47740133602143558 -0.30147126402477092 0 -0.454802672042875 -0.3032828529608374 0 -0.47740133602143558 -0.30147126402477092 0 -0.454802672042875 -0.3032828529608374 0 -0.4570319557541081 -0.31582270545838981 0 -0.47740133602143558 -0.30147126402477092 0 -0.454802672042875 -0.3032828529608374 0 -0.46196579416249067 -0.29099744669857819 0 -0.46095230164572121 -0.27586402166392332 0 -0.47420302978898521 -0.28251665777353252 0 -0.46196579416249067 -0.29099744669857819 0 -0.46095230164572121 -0.27586402166392332 0 -0.46196579416249067 -0.29099744669857819 0 -0.44969090939170647 -0.28535256018627009 0 -0.454802672042875 -0.3032828529608374 0 -0.46196579416249067 -0.29099744669857819 0 -0.45171894316031508 -0.29505360478184622 0 -0.46196579416249067 -0.29099744669857819 0 -0.45171894316031508 -0.29505360478184622 0 -0.44969090939170647 -0.28535256018627009 0 -0.44969090939170647 -0.28535256018627009 0 -0.44041639704418811 -0.30058155928169911 0 -0.43259540283512588 -0.27174491149756441 0 -0.45171894316031508 -0.29505360478184622 0 -0.44969090939170647 -0.28535256018627009 0 -0.44041639704418811 -0.30058155928169911 0 -0.454802672042875 -0.3032828529608374 0 -0.44434554005565191 -0.31469467032971482 0 -0.43220400806431442 -0.30509444189690399 0 -0.454802672042875 -0.3032828529608374 0 -0.44041639704418811 -0.30058155928169911 0 -0.43220400806431442 -0.30509444189690399 0 -0.454802672042875 -0.3032828529608374 0 -0.43220400806431442 -0.30509444189690399 0 -0.454802672042875 -0.3032828529608374 0 -0.44434554005565191 -0.31469467032971482 0 -0.4570319557541081 -0.31582270545838981 0 -0.454802672042875 -0.3032828529608374 0 -0.45171894316031508 -0.29505360478184622 0 -0.44041639704418811 -0.30058155928169911 0 -0.49999999999999628 -0.29965967508870461 0 -0.4926344436199207 -0.33067078487013629 0 -0.5 -0.37091851046886509 0 -0.44434554005565191 -0.31469467032971482 0 -0.44956745568527279 -0.32816255971636549 0 -0.42786743673046401 -0.32412447976559622 0 -0.44434554005565191 -0.31469467032971482 0 -0.44956745568527279 -0.32816255971636549 0 -0.4570319557541081 -0.31582270545838981 0 -0.44956745568527279 -0.32816255971636549 0 -0.45944690855204978 -0.34563585470510871 0 -0.43556591496539537 -0.34807708028125461 0 -0.44956745568527279 -0.32816255971636549 0 -0.43556591496539537 -0.34807708028125461 0 -0.42786743673046401 -0.32412447976559622 0 -0.4681783065707058 -0.32450647869541499 0 -0.47761713181737719 -0.33930043011168382 0 -0.45944690855204978 -0.34563585470510871 0 -0.44956745568527279 -0.32816255971636549 0 -0.4681783065707058 -0.32450647869541499 0 -0.45944690855204978 -0.34563585470510871 0 -0.44956745568527279 -0.32816255971636549 0 -0.4681783065707058 -0.32450647869541499 0 -0.4570319557541081 -0.31582270545838981 0 -0.47740133602143558 -0.30147126402477092 0 -0.4681783065707058 -0.32450647869541499 0 -0.4570319557541081 -0.31582270545838981 0 -0.4681783065707058 -0.32450647869541499 0 -0.48180889213278549 -0.31747907206197201 0 -0.47761713181737719 -0.33930043011168382 0 -0.47740133602143558 -0.30147126402477092 0 -0.4681783065707058 -0.32450647869541499 0 -0.48180889213278549 -0.31747907206197201 0 -0.49429701908379431 -0.3076973021609184 0 -0.48180889213278549 -0.31747907206197201 0 -0.4926344436199207 -0.33067078487013629 0 -0.49429701908379431 -0.3076973021609184 0 -0.4926344436199207 -0.33067078487013629 0 -0.49999999999999628 -0.29965967508870461 0 -0.49429701908379431 -0.3076973021609184 0 -0.4926344436199207 -0.33067078487013629 0 -0.4926344436199207 -0.33067078487013629 0 -0.4909718681560471 -0.35364426757935441 0 -0.4926344436199207 -0.33067078487013629 0 -0.47761713181737719 -0.33930043011168382 0 -0.4909718681560471 -0.35364426757935441 0 -0.48180889213278549 -0.31747907206197201 0 -0.4926344436199207 -0.33067078487013629 0 -0.47761713181737719 -0.33930043011168382 0 -0.4926344436199207 -0.33067078487013629 0 -0.4909718681560471 -0.35364426757935441 0 -0.5 -0.37091851046886509 0 -0.47761713181737719 -0.33930043011168382 0 -0.47266237187275462 -0.36386612275811631 0 -0.45944690855204978 -0.34563585470510871 0 -0.47761713181737719 -0.33930043011168382 0 -0.4909718681560471 -0.35364426757935441 0 -0.47266237187275462 -0.36386612275811631 0 -0.48930929269217349 -0.37661775028857258 0 -0.4909718681560471 -0.35364426757935441 0 -0.5 -0.37091851046886509 0 -0.48930929269217349 -0.37661775028857258 0 -0.4909718681560471 -0.35364426757935441 0 -0.48930929269217349 -0.37661775028857258 0 -0.47688204742435603 -0.37969825332881069 0 -0.47266237187275462 -0.36386612275811631 0 -0.48930929269217349 -0.37661775028857258 0 -0.4909718681560471 -0.35364426757935441 0 -0.47266237187275462 -0.36386612275811631 0 -0.46412641546702249 -0.38634218351993449 0 -0.47266237187275462 -0.36386612275811631 0 -0.44943404419366889 -0.36749830938864309 0 -0.47266237187275462 -0.36386612275811631 0 -0.45944690855204978 -0.34563585470510871 0 -0.44943404419366889 -0.36749830938864309 0 -0.45944690855204978 -0.34563585470510871 0 -0.44943404419366889 -0.36749830938864309 0 -0.43556591496539537 -0.34807708028125461 0 -0.44943404419366889 -0.36749830938864309 0 -0.42452368003979191 -0.37279063138748619 0 -0.43556591496539537 -0.34807708028125461 0 -0.42452368003979191 -0.37279063138748619 0 -0.43556591496539537 -0.34807708028125461 0 -0.41024367912422588 -0.35618320928839309 0 -0.43556591496539537 -0.34807708028125461 0 -0.41024367912422588 -0.35618320928839309 0 -0.41876370498103732 -0.33940785297793541 0 -0.41024367912422588 -0.35618320928839309 0 -0.39007571043807637 -0.34595665693175298 0 -0.41876370498103732 -0.33940785297793541 0 -0.42452368003979191 -0.37279063138748619 0 -0.41024367912422588 -0.35618320928839309 0 -0.39819601722778702 -0.37063510406979222 0 -0.38027509019960581 -0.3752569555279206 0 -0.39819601722778702 -0.37063510406979222 0 -0.38148746416894519 -0.36526730147034181 0 -0.39819601722778702 -0.37063510406979222 0 -0.38148746416894519 -0.36526730147034181 0 -0.39007571043807637 -0.34595665693175298 0 -0.38027509019960581 -0.3752569555279206 0 -0.38148746416894519 -0.36526730147034181 0 -0.36963034646875631 -0.37098598415493522 0 -0.38148746416894519 -0.36526730147034181 0 -0.39007571043807637 -0.34595665693175298 0 -0.36995075168124553 -0.36173484813807838 0 -0.39007571043807637 -0.34595665693175298 0 -0.36138771589511581 -0.35250546088557072 0 -0.41024367912422588 -0.35618320928839309 0 -0.39819601722778702 -0.37063510406979222 0 -0.39007571043807637 -0.34595665693175298 0 -0.39007571043807637 -0.34595665693175298 0 -0.41876370498103732 -0.33940785297793541 0 -0.39007571043807637 -0.34595665693175298 0 -0.40366376554795752 -0.32612148054735379 0 -0.41876370498103732 -0.33940785297793541 0 -0.39007571043807637 -0.34595665693175298 0 -0.38427759762019348 -0.31890087283248358 0 -0.40366376554795752 -0.32612148054735379 0 -0.39007571043807637 -0.34595665693175298 0 -0.38427759762019348 -0.31890087283248358 0 -0.36086376607381182 -0.33007666074863817 0 -0.38427759762019348 -0.31890087283248358 0 -0.40366376554795752 -0.32612148054735379 0 -0.40960534408575378 -0.30690603083297052 0 -0.40366376554795752 -0.32612148054735379 0 -0.42786743673046401 -0.32412447976559622 0 -0.40960534408575378 -0.30690603083297052 0 -0.40366376554795752 -0.32612148054735379 0 -0.41876370498103732 -0.33940785297793541 0 -0.42786743673046401 -0.32412447976559622 0 -0.43556591496539537 -0.34807708028125461 0 -0.41876370498103732 -0.33940785297793541 0 -0.42786743673046401 -0.32412447976559622 0 -0.44434554005565191 -0.31469467032971482 0 -0.42786743673046401 -0.32412447976559622 0 -0.43220400806431442 -0.30509444189690399 0 -0.42786743673046401 -0.32412447976559622 0 -0.43220400806431442 -0.30509444189690399 0 -0.40960534408575378 -0.30690603083297052 0 -0.44041639704418811 -0.30058155928169911 0 -0.43220400806431442 -0.30509444189690399 0 -0.42739082245572818 -0.28863074569748831 0 -0.43220400806431442 -0.30509444189690399 0 -0.42739082245572818 -0.28863074569748831 0 -0.4204280482444101 -0.29771560928644891 0 -0.44041639704418811 -0.30058155928169911 0 -0.43259540283512588 -0.27174491149756441 0 -0.44041639704418811 -0.30058155928169911 0 -0.42739082245572818 -0.28863074569748831 0 -0.43259540283512588 -0.27174491149756441 0 -0.42739082245572818 -0.28863074569748831 0 -0.41251201837184431 -0.29023121871843299 0 -0.4204280482444101 -0.29771560928644891 0 -0.41251201837184431 -0.29023121871843299 0 -0.39557466125420637 -0.28469573868304482 0 -0.41070059737934173 -0.27212527972617778 0 -0.42739082245572818 -0.28863074569748831 0 -0.41251201837184431 -0.29023121871843299 0 -0.41070059737934173 -0.27212527972617778 0 -0.43220400806431442 -0.30509444189690399 0 -0.40960534408575378 -0.30690603083297052 0 -0.43220400806431442 -0.30509444189690399 0 -0.40960534408575378 -0.30690603083297052 0 -0.4204280482444101 -0.29771560928644891 0 -0.41251201837184431 -0.29023121871843299 0 -0.40960534408575378 -0.30690603083297052 0 -0.4204280482444101 -0.29771560928644891 0 -0.40960534408575378 -0.30690603083297052 0 -0.38379702976113972 -0.29928107496152478 0 -0.39557466125420637 -0.28469573868304482 0 -0.38427759762019348 -0.31890087283248358 0 -0.40960534408575378 -0.30690603083297052 0 -0.38379702976113972 -0.29928107496152478 0 -0.38427759762019348 -0.31890087283248358 0 -0.38379702976113972 -0.29928107496152478 0 -0.36033981625250749 -0.30764786061170563 0 -0.38379702976113972 -0.29928107496152478 0 -0.39557466125420637 -0.28469573868304482 0 -0.36918772959303731 -0.27825487184741959 0 -0.41251201837184431 -0.29023121871843299 0 -0.40960534408575378 -0.30690603083297052 0 -0.39557466125420637 -0.28469573868304482 0 -0.39557466125420637 -0.28469573868304482 0 -0.39183919649100157 -0.26755182523888182 0 -0.41070059737934173 -0.27212527972617778 0 -0.39183919649100157 -0.26755182523888182 0 -0.38074508585518668 -0.25421534150978842 0 -0.36918772959303731 -0.27825487184741959 0 -0.39557466125420637 -0.28469573868304482 0 -0.39183919649100157 -0.26755182523888182 0 -0.36918772959303731 -0.27825487184741959 0 -0.39183919649100157 -0.26755182523888182 0 -0.40224585676488289 -0.25398193675224329 0 -0.41070059737934173 -0.27212527972617778 0 -0.39183919649100157 -0.26755182523888182 0 -0.38074508585518668 -0.25421534150978842 0 -0.40224585676488289 -0.25398193675224329 0 -0.40224585676488289 -0.25398193675224329 0 -0.41568380624184192 -0.2559762603997448 0 -0.40889358840404327 -0.24153443104045269 0 -0.40224585676488289 -0.25398193675224329 0 -0.41568380624184192 -0.2559762603997448 0 -0.41070059737934173 -0.27212527972617778 0 -0.41568380624184192 -0.2559762603997448 0 -0.41070059737934173 -0.27212527972617778 0 -0.43259540283512588 -0.27174491149756441 0 -0.42739082245572818 -0.28863074569748831 0 -0.41070059737934173 -0.27212527972617778 0 -0.43259540283512588 -0.27174491149756441 0 -0.43259540283512588 -0.27174491149756441 0 -0.42477440862606253 -0.24290826371343011 0 -0.41568380624184192 -0.2559762603997448 0 -0.43259540283512588 -0.27174491149756441 0 -0.42477440862606253 -0.24290826371343011 0 -0.44196826618057822 -0.25847988818253897 0 -0.43259540283512588 -0.27174491149756441 0 -0.42477440862606253 -0.24290826371343011 0 -0.32736887726821839 -0.26274473013516542 0 -0.31176911985105321 -0.26045419090658101 0 -0.32031645000864067 -0.24840857397210689 0 -0.32736887726821839 -0.26274473013516542 0 -0.31725402093880239 -0.27239087193162648 0 -0.31176911985105321 -0.26045419090658101 0 -0.31725402093880239 -0.27239087193162648 0 -0.31663280036476921 -0.28482780244662043 0 -0.31053393013950148 -0.27825500400670328 0 -0.31725402093880239 -0.27239087193162648 0 -0.32946801534767423 -0.27768557367062568 0 -0.31663280036476921 -0.28482780244662043 0 -0.32736887726821839 -0.26274473013516542 0 -0.31725402093880239 -0.27239087193162648 0 -0.32946801534767423 -0.27768557367062568 0 -0.32736887726821839 -0.26274473013516542 0 -0.32946801534767423 -0.27768557367062568 0 -0.34609965740883081 -0.26627566979741701 0 -0.32946801534767423 -0.27768557367062568 0 -0.34609965740883081 -0.26627566979741701 0 -0.34312280424835839 -0.28432964686772932 0 -0.32736887726821839 -0.26274473013516542 0 -0.33671520655461767 -0.24935135154202859 0 -0.32031645000864067 -0.24840857397210689 0 -0.32736887726821839 -0.26274473013516542 0 -0.34609965740883081 -0.26627566979741701 0 -0.33671520655461767 -0.24935135154202859 0 -0.34609965740883081 -0.26627566979741701 0 -0.3605303030498811 -0.24946323169453549 0 -0.33671520655461767 -0.24935135154202859 0 -0.36918772959303731 -0.27825487184741959 0 -0.34609965740883081 -0.26627566979741701 0 -0.3605303030498811 -0.24946323169453549 0 -0.36918772959303731 -0.27825487184741959 0 -0.3605303030498811 -0.24946323169453549 0 -0.38074508585518668 -0.25421534150978842 0 -0.36918772959303731 -0.27825487184741959 0 -0.3605303030498811 -0.24946323169453549 0 -0.36918772959303731 -0.27825487184741959 0 -0.34609965740883081 -0.26627566979741701 0 -0.34312280424835839 -0.28432964686772932 0 -0.36918772959303731 -0.27825487184741959 0 -0.36033981625250749 -0.30764786061170563 0 -0.34555570561533211 -0.30047699958009261 0 -0.36918772959303731 -0.27825487184741959 0 -0.34555570561533211 -0.30047699958009261 0 -0.34312280424835839 -0.28432964686772932 0 -0.38379702976113972 -0.29928107496152478 0 -0.36918772959303731 -0.27825487184741959 0 -0.36033981625250749 -0.30764786061170563 0 -0.36033981625250749 -0.30764786061170563 0 -0.34555570561533211 -0.30047699958009261 0 -0.34295966540192269 -0.3209144305216558 0 -0.34555570561533211 -0.30047699958009261 0 -0.33036666007359472 -0.31040502067767578 0 -0.32632993185706588 -0.29554472084519567 0 -0.34555570561533211 -0.30047699958009261 0 -0.33036666007359472 -0.31040502067767578 0 -0.34295966540192269 -0.3209144305216558 0 -0.32946801534767423 -0.27768557367062568 0 -0.34312280424835839 -0.28432964686772932 0 -0.32632993185706588 -0.29554472084519567 0 -0.34555570561533211 -0.30047699958009261 0 -0.34312280424835839 -0.28432964686772932 0 -0.32632993185706588 -0.29554472084519567 0 -0.32946801534767423 -0.27768557367062568 0 -0.32632993185706588 -0.29554472084519567 0 -0.31663280036476921 -0.28482780244662043 0 -0.32632993185706588 -0.29554472084519567 0 -0.31663280036476921 -0.28482780244662043 0 -0.31289368644860022 -0.29468216049306167 0 -0.32632993185706588 -0.29554472084519567 0 -0.31289368644860022 -0.29468216049306167 0 -0.314685509243044 -0.30819259139422978 0 -0.33036666007359472 -0.31040502067767578 0 -0.32632993185706588 -0.29554472084519567 0 -0.314685509243044 -0.30819259139422978 0 -0.33036666007359472 -0.31040502067767578 0 -0.314685509243044 -0.30819259139422978 0 -0.32317541174237302 -0.3225485679173018 0 -0.314685509243044 -0.30819259139422978 0 -0.32317541174237302 -0.3225485679173018 0 -0.3084663241086173 -0.32231021730451098 0 -0.32317541174237302 -0.3225485679173018 0 -0.31695018101712058 -0.33267519399680451 0 -0.3084663241086173 -0.32231021730451098 0 -0.31695018101712058 -0.33267519399680451 0 -0.33214732751442161 -0.33467782231288967 0 -0.31845984852497761 -0.34651991227442652 0 -0.32317541174237302 -0.3225485679173018 0 -0.31695018101712058 -0.33267519399680451 0 -0.33214732751442161 -0.33467782231288967 0 -0.33214732751442161 -0.33467782231288967 0 -0.33540285775587508 -0.34735012410229199 0 -0.31845984852497761 -0.34651991227442652 0 -0.33214732751442161 -0.33467782231288967 0 -0.34295966540192269 -0.3209144305216558 0 -0.34657640221789732 -0.34024763208402409 0 -0.33214732751442161 -0.33467782231288967 0 -0.34657640221789732 -0.34024763208402409 0 -0.33540285775587508 -0.34735012410229199 0 -0.33036666007359472 -0.31040502067767578 0 -0.32317541174237302 -0.3225485679173018 0 -0.34295966540192269 -0.3209144305216558 0 -0.32317541174237302 -0.3225485679173018 0 -0.33214732751442161 -0.33467782231288967 0 -0.34295966540192269 -0.3209144305216558 0 -0.36033981625250749 -0.30764786061170563 0 -0.34295966540192269 -0.3209144305216558 0 -0.36086376607381182 -0.33007666074863817 0 -0.38427759762019348 -0.31890087283248358 0 -0.36033981625250749 -0.30764786061170563 0 -0.36086376607381182 -0.33007666074863817 0 -0.36033981625250749 -0.30764786061170563 0 -0.36086376607381182 -0.33007666074863817 0 -0.39007571043807637 -0.34595665693175298 0 -0.36086376607381182 -0.33007666074863817 0 -0.36138771589511581 -0.35250546088557072 0 -0.36086376607381182 -0.33007666074863817 0 -0.36138771589511581 -0.35250546088557072 0 -0.34295966540192269 -0.3209144305216558 0 -0.36086376607381182 -0.33007666074863817 0 -0.34657640221789732 -0.34024763208402409 0 -0.36086376607381182 -0.33007666074863817 0 -0.34657640221789732 -0.34024763208402409 0 -0.36138771589511581 -0.35250546088557072 0 -0.34657640221789732 -0.34024763208402409 0 -0.34607086710041118 -0.35600194230732268 0 -0.36138771589511581 -0.35250546088557072 0 -0.34607086710041118 -0.35600194230732268 0 -0.36138771589511581 -0.35250546088557072 0 -0.34607086710041118 -0.35600194230732268 0 -0.36138771589511581 -0.35250546088557072 0 -0.35386399985770578 -0.36486995801823952 0 -0.39007571043807637 -0.34595665693175298 0 -0.36138771589511581 -0.35250546088557072 0 -0.36995075168124553 -0.36173484813807838 0 -0.36138771589511581 -0.35250546088557072 0 -0.36995075168124553 -0.36173484813807838 0 -0.3619557704384162 -0.37682225860264651 0 -0.38027509019960581 -0.3752569555279206 0 -0.36963034646875631 -0.37098598415493522 0 -0.36347199874183372 -0.37840460733910741 0 -0.36138771589511581 -0.35250546088557072 0 -0.3619557704384162 -0.37682225860264651 0 -0.38148746416894519 -0.36526730147034181 0 -0.36963034646875631 -0.37098598415493522 0 -0.36995075168124553 -0.36173484813807838 0 -0.36963034646875631 -0.37098598415493522 0 -0.36995075168124553 -0.36173484813807838 0 -0.3619557704384162 -0.37682225860264651 0 -0.36138771589511581 -0.35250546088557072 0 -0.35386399985770578 -0.36486995801823952 0 -0.3619557704384162 -0.37682225860264651 0 -0.35176333772288632 -0.37386437523460608 0 -0.35386399985770578 -0.36486995801823952 0 -0.3619557704384162 -0.37682225860264651 0 -0.34607086710041118 -0.35600194230732268 0 -0.35386399985770578 -0.36486995801823952 0 -0.34674772895282752 -0.36764968940309067 0 -0.35176333772288632 -0.37386437523460608 0 -0.35386399985770578 -0.36486995801823952 0 -0.34674772895282752 -0.36764968940309067 0 -0.35176333772288632 -0.37386437523460608 0 -0.34674772895282752 -0.36764968940309067 0 -0.34392802686874491 -0.37514519813040992 0 -0.33811241321438962 -0.36836697332487561 0 -0.34392802686874491 -0.37514519813040992 0 -0.33505887395586798 -0.37984337088155368 0 -0.34674772895282752 -0.36764968940309067 0 -0.33811241321438962 -0.36836697332487561 0 -0.34392802686874491 -0.37514519813040992 0 -0.33811241321438962 -0.36836697332487561 0 -0.33075401830570678 -0.35949842372907481 0 -0.32647976364281311 -0.37488189422483842 0 -0.33811241321438962 -0.36836697332487561 0 -0.32647976364281311 -0.37488189422483842 0 -0.33505887395586798 -0.37984337088155368 0 -0.34607086710041118 -0.35600194230732268 0 -0.33811241321438962 -0.36836697332487561 0 -0.33075401830570678 -0.35949842372907481 0 -0.34607086710041118 -0.35600194230732268 0 -0.34674772895282752 -0.36764968940309067 0 -0.33811241321438962 -0.36836697332487561 0 -0.34657640221789732 -0.34024763208402409 0 -0.34607086710041118 -0.35600194230732268 0 -0.33540285775587508 -0.34735012410229199 0 -0.34607086710041118 -0.35600194230732268 0 -0.33075401830570678 -0.35949842372907481 0 -0.33540285775587508 -0.34735012410229199 0 -0.34607086710041118 -0.35600194230732268 0 -0.33075401830570678 -0.35949842372907481 0 -0.33075401830570678 -0.35949842372907481 0 -0.33540285775587508 -0.34735012410229199 0 -0.31845984852497761 -0.34651991227442652 0 -0.33075401830570678 -0.35949842372907481 0 -0.31845984852497761 -0.34651991227442652 0 -0.31317108550977818 -0.36123805959731831 0 -0.33075401830570678 -0.35949842372907481 0 -0.31317108550977818 -0.36123805959731831 0 -0.32027636214998922 -0.36823425885275202 0 -0.31317108550977818 -0.36123805959731831 0 -0.32027636214998922 -0.36823425885275202 0 -0.31070058114165883 -0.37731865785977647 0 -0.32027636214998922 -0.36823425885275202 0 -0.32647976364281311 -0.37488189422483842 0 -0.31070058114165883 -0.37731865785977647 0 -0.33075401830570678 -0.35949842372907481 0 -0.32027636214998922 -0.36823425885275202 0 -0.32647976364281311 -0.37488189422483842 0 -0.31317108550977818 -0.36123805959731831 0 -0.29817338024421292 -0.36754344373142989 0 -0.31070058114165883 -0.37731865785977647 0 -0.31317108550977818 -0.36123805959731831 0 -0.29817338024421292 -0.36754344373142989 0 -0.30010567061127918 -0.35242148541953378 0 -0.31845984852497761 -0.34651991227442652 0 -0.30010567061127918 -0.35242148541953378 0 -0.30201948463025041 -0.33603911802086589 0 -0.31845984852497761 -0.34651991227442652 0 -0.31317108550977818 -0.36123805959731831 0 -0.30010567061127918 -0.35242148541953378 0 -0.30010567061127918 -0.35242148541953378 0 -0.28644823235627781 -0.34438712197567822 0 -0.30201948463025041 -0.33603911802086589 0 -0.30010567061127918 -0.35242148541953378 0 -0.28644823235627781 -0.34438712197567822 0 -0.28492391618840052 -0.35933034549991671 0 -0.29817338024421292 -0.36754344373142989 0 -0.30010567061127918 -0.35242148541953378 0 -0.28492391618840052 -0.35933034549991671 0 -0.29817338024421292 -0.36754344373142989 0 -0.28399901910972392 -0.37472488230661138 0 -0.29777529628074428 -0.38071380812329741 0 -0.29817338024421292 -0.36754344373142989 0 -0.28492391618840052 -0.35933034549991671 0 -0.28399901910972392 -0.37472488230661138 0 -0.28492391618840052 -0.35933034549991671 0 -0.28399901910972392 -0.37472488230661138 0 -0.27025262155115132 -0.36713529080086488 0 -0.27025262155115132 -0.36713529080086488 0 -0.25022735047356381 -0.36263498336160049 0 -0.26820187098962439 -0.34920451821977577 0 -0.25022735047356381 -0.36263498336160049 0 -0.25864909410656911 -0.37819467530721201 0 -0.2412766011524696 -0.37876179105319813 0 -0.27025262155115132 -0.36713529080086488 0 -0.25022735047356381 -0.36263498336160049 0 -0.25864909410656911 -0.37819467530721201 0 -0.25022735047356381 -0.36263498336160049 0 -0.26820187098962439 -0.34920451821977577 0 -0.2492510651675042 -0.34708834461625349 0 -0.28644823235627781 -0.34438712197567822 0 -0.28492391618840052 -0.35933034549991671 0 -0.26820187098962439 -0.34920451821977577 0 -0.28492391618840052 -0.35933034549991671 0 -0.27025262155115132 -0.36713529080086488 0 -0.26820187098962439 -0.34920451821977577 0 -0.28644823235627781 -0.34438712197567822 0 -0.26820187098962439 -0.34920451821977577 0 -0.27391971148508432 -0.33337606661164731 0 -0.26820187098962439 -0.34920451821977577 0 -0.27391971148508432 -0.33337606661164731 0 -0.2584894331033093 -0.33311402868874179 0 -0.27391971148508432 -0.33337606661164731 0 -0.2584894331033093 -0.33311402868874179 0 -0.26724510649816519 -0.31881920876792019 0 -0.26820187098962439 -0.34920451821977577 0 -0.2584894331033093 -0.33311402868874179 0 -0.2492510651675042 -0.34708834461625349 0 -0.26724510649816519 -0.31881920876792019 0 -0.26050254443401499 -0.305954901588253 0 -0.24909772607832131 -0.3135269474204414 0 -0.2584894331033093 -0.33311402868874179 0 -0.26724510649816519 -0.31881920876792019 0 -0.24909772607832131 -0.3135269474204414 0 -0.27391971148508432 -0.33337606661164731 0 -0.28114537145151508 -0.31896464278826769 0 -0.28692714800668501 -0.33138066746881262 0 -0.27391971148508432 -0.33337606661164731 0 -0.26724510649816519 -0.31881920876792019 0 -0.28114537145151508 -0.31896464278826769 0 -0.26724510649816519 -0.31881920876792019 0 -0.28114537145151508 -0.31896464278826769 0 -0.27768298777184552 -0.30423116807185691 0 -0.28114537145151508 -0.31896464278826769 0 -0.29460045662266537 -0.32079616897099122 0 -0.29034889623935878 -0.30579579188097089 0 -0.29460045662266537 -0.32079616897099122 0 -0.30220853535018921 -0.31135375872610271 0 -0.29034889623935878 -0.30579579188097089 0 -0.28114537145151508 -0.31896464278826769 0 -0.29460045662266537 -0.32079616897099122 0 -0.28692714800668501 -0.33138066746881262 0 -0.28644823235627781 -0.34438712197567822 0 -0.27391971148508432 -0.33337606661164731 0 -0.28692714800668501 -0.33138066746881262 0 -0.28644823235627781 -0.34438712197567822 0 -0.28692714800668501 -0.33138066746881262 0 -0.30201948463025041 -0.33603911802086589 0 -0.29460045662266537 -0.32079616897099122 0 -0.28692714800668501 -0.33138066746881262 0 -0.30201948463025041 -0.33603911802086589 0 -0.31695018101712058 -0.33267519399680451 0 -0.31845984852497761 -0.34651991227442652 0 -0.30201948463025041 -0.33603911802086589 0 -0.31695018101712058 -0.33267519399680451 0 -0.30201948463025041 -0.33603911802086589 0 -0.3084663241086173 -0.32231021730451098 0 -0.314685509243044 -0.30819259139422978 0 -0.3084663241086173 -0.32231021730451098 0 -0.30220853535018921 -0.31135375872610271 0 -0.29460045662266537 -0.32079616897099122 0 -0.3084663241086173 -0.32231021730451098 0 -0.30220853535018921 -0.31135375872610271 0 -0.29460045662266537 -0.32079616897099122 0 -0.30201948463025041 -0.33603911802086589 0 -0.3084663241086173 -0.32231021730451098 0 -0.30294149053726038 -0.29967402407981047 0 -0.30220853535018921 -0.31135375872610271 0 -0.29034889623935878 -0.30579579188097089 0 -0.314685509243044 -0.30819259139422978 0 -0.30294149053726038 -0.29967402407981047 0 -0.30220853535018921 -0.31135375872610271 0 -0.31289368644860022 -0.29468216049306167 0 -0.314685509243044 -0.30819259139422978 0 -0.30294149053726038 -0.29967402407981047 0 -0.31289368644860022 -0.29468216049306167 0 -0.30294149053726038 -0.29967402407981047 0 -0.30387870024086128 -0.28517166369945213 0 -0.31663280036476921 -0.28482780244662043 0 -0.31289368644860022 -0.29468216049306167 0 -0.30387870024086128 -0.28517166369945213 0 -0.31663280036476921 -0.28482780244662043 0 -0.30387870024086128 -0.28517166369945213 0 -0.31053393013950148 -0.27825500400670328 0 -0.30387870024086128 -0.28517166369945213 0 -0.29123341537416031 -0.28368375139694668 0 -0.2985907499314655 -0.27846350297725031 0 -0.30294149053726038 -0.29967402407981047 0 -0.30387870024086128 -0.28517166369945213 0 -0.29339094345218719 -0.29350451781314851 0 -0.29339094345218719 -0.29350451781314851 0 -0.29123341537416031 -0.28368375139694668 0 -0.28472144235911068 -0.2886025945991505 0 -0.30387870024086128 -0.28517166369945213 0 -0.29339094345218719 -0.29350451781314851 0 -0.29123341537416031 -0.28368375139694668 0 -0.28472144235911068 -0.2886025945991505 0 -0.27758865551589451 -0.28455657063074458 0 -0.28418918697486761 -0.27961495799579689 0 -0.29123341537416031 -0.28368375139694668 0 -0.28472144235911068 -0.2886025945991505 0 -0.28418918697486761 -0.27961495799579689 0 -0.29339094345218719 -0.29350451781314851 0 -0.28472144235911068 -0.2886025945991505 0 -0.28379476170416129 -0.29674614922149822 0 -0.28472144235911068 -0.2886025945991505 0 -0.28379476170416129 -0.29674614922149822 0 -0.27813169113339359 -0.29350962053676849 0 -0.28379476170416129 -0.29674614922149822 0 -0.29034889623935878 -0.30579579188097089 0 -0.27768298777184552 -0.30423116807185691 0 -0.29339094345218719 -0.29350451781314851 0 -0.28379476170416129 -0.29674614922149822 0 -0.29034889623935878 -0.30579579188097089 0 -0.30294149053726038 -0.29967402407981047 0 -0.29339094345218719 -0.29350451781314851 0 -0.29034889623935878 -0.30579579188097089 0 -0.28114537145151508 -0.31896464278826769 0 -0.29034889623935878 -0.30579579188097089 0 -0.27768298777184552 -0.30423116807185691 0 -0.26724510649816519 -0.31881920876792019 0 -0.27768298777184552 -0.30423116807185691 0 -0.26833040852003193 -0.29472412674134402 0 -0.26724510649816519 -0.31881920876792019 0 -0.26833040852003193 -0.29472412674134402 0 -0.27768298777184552 -0.30423116807185691 0 -0.26833040852003193 -0.29472412674134402 0 -0.27813169113339359 -0.29350962053676849 0 -0.28379476170416129 -0.29674614922149822 0 -0.27768298777184552 -0.30423116807185691 0 -0.27813169113339359 -0.29350962053676849 0 -0.26050254443401499 -0.305954901588253 0 -0.25871731970686102 -0.29238218143035261 0 -0.24909772607832131 -0.3135269474204414 0 -0.26724510649816519 -0.31881920876792019 0 -0.26050254443401499 -0.305954901588253 0 -0.26833040852003193 -0.29472412674134402 0 -0.25871731970686102 -0.29238218143035261 0 -0.24909772607832131 -0.3135269474204414 0 -0.25871731970686102 -0.29238218143035261 0 -0.24909772607832131 -0.3135269474204414 0 -0.2440617820064547 -0.29741399827415538 0 -0.26050254443401499 -0.305954901588253 0 -0.25871731970686102 -0.29238218143035261 0 -0.26833040852003193 -0.29472412674134402 0 -0.25871731970686102 -0.29238218143035261 0 -0.26833691333540061 -0.27123741544026381 0 -0.25871731970686102 -0.29238218143035261 0 -0.26620008802604811 -0.28224319208168203 0 -0.26833691333540061 -0.27123741544026381 0 -0.25413533345296319 -0.28687610575409961 0 -0.2574974986487642 -0.28420278080076639 0 -0.25871731970686102 -0.29238218143035261 0 -0.25413533345296319 -0.28687610575409961 0 -0.2574974986487642 -0.28420278080076639 0 -0.25506711204869142 -0.2792283234016365 0 -0.25413533345296319 -0.28687610575409961 0 -0.25506711204869142 -0.2792283234016365 0 -0.24792629652492049 -0.28449887147353531 0 -0.25413533345296319 -0.28687610575409961 0 -0.25871731970686102 -0.29238218143035261 0 -0.2440617820064547 -0.29741399827415538 0 -0.25871731970686102 -0.29238218143035261 0 -0.26620008802604811 -0.28224319208168203 0 -0.26833040852003193 -0.29472412674134402 0 -0.2574974986487642 -0.28420278080076639 0 -0.25871731970686102 -0.29238218143035261 0 -0.26207022938654129 -0.27832451261697722 0 -0.26833040852003193 -0.29472412674134402 0 -0.27498227958885252 -0.2785792861321611 0 -0.26833691333540061 -0.27123741544026381 0 -0.26620008802604811 -0.28224319208168203 0 -0.26833040852003193 -0.29472412674134402 0 -0.26833691333540061 -0.27123741544026381 0 -0.26833040852003193 -0.29472412674134402 0 -0.27758865551589451 -0.28455657063074458 0 -0.27498227958885252 -0.2785792861321611 0 -0.26833040852003193 -0.29472412674134402 0 -0.26833691333540061 -0.27123741544026381 0 -0.26833040852003193 -0.29472412674134402 0 -0.27813169113339359 -0.29350962053676849 0 -0.27758865551589451 -0.28455657063074458 0 -0.28472144235911068 -0.2886025945991505 0 -0.27813169113339359 -0.29350962053676849 0 -0.27758865551589451 -0.28455657063074458 0 -0.27498227958885252 -0.2785792861321611 0 -0.27624196614403962 -0.26977150819566231 0 -0.2800158513274561 -0.27316798329234782 0 -0.27758865551589451 -0.28455657063074458 0 -0.27919399335176759 -0.27897969951276258 0 -0.28418918697486761 -0.27961495799579689 0 -0.27919399335176759 -0.27897969951276258 0 -0.2800158513274561 -0.27316798329234782 0 -0.28418918697486761 -0.27961495799579689 0 -0.27919399335176759 -0.27897969951276258 0 -0.27498227958885252 -0.2785792861321611 0 -0.2800158513274561 -0.27316798329234782 0 -0.27758865551589451 -0.28455657063074458 0 -0.27919399335176759 -0.27897969951276258 0 -0.27498227958885252 -0.2785792861321611 0 -0.27624196614403962 -0.26977150819566231 0 -0.26833691333540061 -0.27123741544026381 0 -0.27660173829363249 -0.2606321401902425 0 -0.27624196614403962 -0.26977150819566231 0 -0.2800158513274561 -0.27316798329234782 0 -0.28205617796686488 -0.26506352263188521 0 -0.27498227958885252 -0.2785792861321611 0 -0.27624196614403962 -0.26977150819566231 0 -0.26833691333540061 -0.27123741544026381 0 -0.26833691333540061 -0.27123741544026381 0 -0.26442697938727627 -0.27313472838064518 0 -0.26486548694042222 -0.26998785266014408 0 -0.25871731970686102 -0.29238218143035261 0 -0.26833691333540061 -0.27123741544026381 0 -0.26207022938654129 -0.27832451261697722 0 -0.26207022938654129 -0.27832451261697722 0 -0.25895075216511559 -0.27448480928308688 0 -0.25506711204869142 -0.2792283234016365 0 -0.2574974986487642 -0.28420278080076639 0 -0.26207022938654129 -0.27832451261697722 0 -0.25506711204869142 -0.2792283234016365 0 -0.26207022938654129 -0.27832451261697722 0 -0.25895075216511559 -0.27448480928308688 0 -0.26243528788674131 -0.27298913280519599 0 -0.26207022938654129 -0.27832451261697722 0 -0.26442697938727627 -0.27313472838064518 0 -0.26243528788674131 -0.27298913280519599 0 -0.26833691333540061 -0.27123741544026381 0 -0.26207022938654129 -0.27832451261697722 0 -0.26442697938727627 -0.27313472838064518 0 -0.26486548694042222 -0.26998785266014408 0 -0.26243528788674131 -0.27298913280519599 0 -0.26008536628387541 -0.26960887736002309 0 -0.26833691333540061 -0.27123741544026381 0 -0.26486548694042222 -0.26998785266014408 0 -0.26276086621804851 -0.26291299354206221 0 -0.26442697938727627 -0.27313472838064518 0 -0.26486548694042222 -0.26998785266014408 0 -0.26243528788674131 -0.27298913280519599 0 -0.26486548694042222 -0.26998785266014408 0 -0.26008536628387541 -0.26960887736002309 0 -0.26276086621804851 -0.26291299354206221 0 -0.26008536628387541 -0.26960887736002309 0 -0.25575906762302741 -0.26527274584547839 0 -0.26276086621804851 -0.26291299354206221 0 -0.25895075216511559 -0.27448480928308688 0 -0.26243528788674131 -0.27298913280519599 0 -0.26008536628387541 -0.26960887736002309 0 -0.25895075216511559 -0.27448480928308688 0 -0.26008536628387541 -0.26960887736002309 0 -0.25454035348765042 -0.27180343303274213 0 -0.25454035348765042 -0.27180343303274213 0 -0.25575906762302741 -0.26527274584547839 0 -0.2471998145496638 -0.26641072453148013 0 -0.26008536628387541 -0.26960887736002309 0 -0.25454035348765042 -0.27180343303274213 0 -0.25575906762302741 -0.26527274584547839 0 -0.25506711204869142 -0.2792283234016365 0 -0.24798205258738221 -0.27571191013195179 0 -0.24792629652492049 -0.28449887147353531 0 -0.25454035348765042 -0.27180343303274213 0 -0.25506711204869142 -0.2792283234016365 0 -0.24798205258738221 -0.27571191013195179 0 -0.25895075216511559 -0.27448480928308688 0 -0.25454035348765042 -0.27180343303274213 0 -0.25506711204869142 -0.2792283234016365 0 -0.25474374153892049 -0.25656385063704817 0 -0.26276086621804851 -0.26291299354206221 0 -0.2705010125637653 -0.2465339626881913 0 -0.25474374153892049 -0.25656385063704817 0 -0.25575906762302741 -0.26527274584547839 0 -0.26276086621804851 -0.26291299354206221 0 -0.25474374153892049 -0.25656385063704817 0 -0.25575906762302741 -0.26527274584547839 0 -0.2471998145496638 -0.26641072453148013 0 -0.26833691333540061 -0.27123741544026381 0 -0.27660173829363249 -0.2606321401902425 0 -0.2705010125637653 -0.2465339626881913 0 -0.26833691333540061 -0.27123741544026381 0 -0.26276086621804851 -0.26291299354206221 0 -0.2705010125637653 -0.2465339626881913 0 -0.26833691333540061 -0.27123741544026381 0 -0.2705010125637653 -0.2465339626881913 0 -0.27624196614403962 -0.26977150819566231 0 -0.27660173829363249 -0.2606321401902425 0 -0.28205617796686488 -0.26506352263188521 0 -0.27660173829363249 -0.2606321401902425 0 -0.28430071098223358 -0.25431289089373671 0 -0.28205617796686488 -0.26506352263188521 0 -0.27660173829363249 -0.2606321401902425 0 -0.28430071098223358 -0.25431289089373671 0 -0.2705010125637653 -0.2465339626881913 0 -0.28430071098223358 -0.25431289089373671 0 -0.29634616938401409 -0.25939316167864152 0 -0.28779811064535649 -0.24352834899224121 0 -0.29634616938401409 -0.25939316167864152 0 -0.30482697000556092 -0.24816729758378589 0 -0.28779811064535649 -0.24352834899224121 0 -0.28430071098223358 -0.25431289089373671 0 -0.29634616938401409 -0.25939316167864152 0 -0.28862397540633927 -0.26328598828819738 0 -0.29634616938401409 -0.25939316167864152 0 -0.28862397540633927 -0.26328598828819738 0 -0.29325126515174299 -0.27246311308252408 0 -0.28430071098223358 -0.25431289089373671 0 -0.28862397540633927 -0.26328598828819738 0 -0.28205617796686488 -0.26506352263188521 0 -0.2800158513274561 -0.27316798329234782 0 -0.28205617796686488 -0.26506352263188521 0 -0.28562729136545417 -0.27071911305815027 0 -0.28862397540633927 -0.26328598828819738 0 -0.28205617796686488 -0.26506352263188521 0 -0.28562729136545417 -0.27071911305815027 0 -0.2800158513274561 -0.27316798329234782 0 -0.28562729136545417 -0.27071911305815027 0 -0.28418918697486761 -0.27961495799579689 0 -0.28562729136545417 -0.27071911305815027 0 -0.28418918697486761 -0.27961495799579689 0 -0.29325126515174299 -0.27246311308252408 0 -0.29123341537416031 -0.28368375139694668 0 -0.29325126515174299 -0.27246311308252408 0 -0.2985907499314655 -0.27846350297725031 0 -0.29123341537416031 -0.28368375139694668 0 -0.28418918697486761 -0.27961495799579689 0 -0.29325126515174299 -0.27246311308252408 0 -0.28862397540633927 -0.26328598828819738 0 -0.28562729136545417 -0.27071911305815027 0 -0.29325126515174299 -0.27246311308252408 0 -0.29634616938401409 -0.25939316167864152 0 -0.29325126515174299 -0.27246311308252408 0 -0.30450223150108269 -0.27162051013816002 0 -0.30450223150108269 -0.27162051013816002 0 -0.2985907499314655 -0.27846350297725031 0 -0.31053393013950148 -0.27825500400670328 0 -0.30387870024086128 -0.28517166369945213 0 -0.2985907499314655 -0.27846350297725031 0 -0.31053393013950148 -0.27825500400670328 0 -0.29325126515174299 -0.27246311308252408 0 -0.30450223150108269 -0.27162051013816002 0 -0.2985907499314655 -0.27846350297725031 0 -0.31725402093880239 -0.27239087193162648 0 -0.30450223150108269 -0.27162051013816002 0 -0.31053393013950148 -0.27825500400670328 0 -0.31725402093880239 -0.27239087193162648 0 -0.30450223150108269 -0.27162051013816002 0 -0.31176911985105321 -0.26045419090658101 0 -0.31176911985105321 -0.26045419090658101 0 -0.30482697000556092 -0.24816729758378589 0 -0.32031645000864067 -0.24840857397210689 0 -0.29634616938401409 -0.25939316167864152 0 -0.31176911985105321 -0.26045419090658101 0 -0.30482697000556092 -0.24816729758378589 0 -0.29634616938401409 -0.25939316167864152 0 -0.30450223150108269 -0.27162051013816002 0 -0.31176911985105321 -0.26045419090658101 0 -0.33061271919851898 -0.45603063119494092 0 -0.32000137088002228 -0.4696256994872795 0 -0.3419830617682148 -0.47490760026506779 0 -0.33061271919851898 -0.45603063119494092 0 -0.3419830617682148 -0.47490760026506779 0 -0.34794864589031171 -0.45063158181760848 0 -0.32562165131046589 -0.43837521109257982 0 -0.34794864589031171 -0.45063158181760848 0 -0.35049958617918819 -0.43128637372876888 0 -0.33061271919851898 -0.45603063119494092 0 -0.32562165131046589 -0.43837521109257982 0 -0.34794864589031171 -0.45063158181760848 0 -0.32562165131046589 -0.43837521109257982 0 -0.31529989120879343 -0.45192747166001468 0 -0.30025139103351151 -0.43978854318336952 0 -0.33061271919851898 -0.45603063119494092 0 -0.32562165131046589 -0.43837521109257982 0 -0.31529989120879343 -0.45192747166001468 0 -0.33061271919851898 -0.45603063119494092 0 -0.31529989120879343 -0.45192747166001468 0 -0.32000137088002228 -0.4696256994872795 0 -0.32000137088002228 -0.4696256994872795 0 -0.32662467500175468 -0.5 0 -0.30292779473211012 -0.48049927169606188 0 -0.32662467500175468 -0.5 0 -0.3419830617682148 -0.47490760026506779 0 -0.35339930214964771 -0.5 0 -0.32000137088002228 -0.4696256994872795 0 -0.32662467500175468 -0.5 0 -0.3419830617682148 -0.47490760026506779 0 -0.3419830617682148 -0.47490760026506779 0 -0.35339930214964771 -0.5 0 -0.36833954018173781 -0.47266995140588808 0 -0.38017392929754079 -0.5 0 -0.35339930214964771 -0.5 0 -0.36833954018173781 -0.47266995140588808 0 -0.36833954018173781 -0.47266995140588808 0 -0.34794864589031171 -0.45063158181760848 0 -0.36747109467781908 -0.45009213450057511 0 -0.3419830617682148 -0.47490760026506779 0 -0.36833954018173781 -0.47266995140588808 0 -0.34794864589031171 -0.45063158181760848 0 -0.34794864589031171 -0.45063158181760848 0 -0.36747109467781908 -0.45009213450057511 0 -0.35049958617918819 -0.43128637372876888 0 -0.37505608221433301 -0.43091143740690568 0 -0.36747109467781908 -0.45009213450057511 0 -0.35049958617918819 -0.43128637372876888 0 -0.37505608221433301 -0.43091143740690568 0 -0.36360221869070952 -0.41750896491417833 0 -0.35049958617918819 -0.43128637372876888 0 -0.3821663646035654 -0.41146547394949368 0 -0.36360221869070952 -0.41750896491417833 0 -0.36252382498171631 -0.40113905631972241 0 -0.3821663646035654 -0.41146547394949368 0 -0.37505608221433301 -0.43091143740690568 0 -0.36360221869070952 -0.41750896491417833 0 -0.36360221869070952 -0.41750896491417833 0 -0.34650407197114702 -0.4115478652554555 0 -0.36252382498171631 -0.40113905631972241 0 -0.36360221869070952 -0.41750896491417833 0 -0.34650407197114702 -0.4115478652554555 0 -0.35049958617918819 -0.43128637372876888 0 -0.3619557704384162 -0.37682225860264651 0 -0.36252382498171631 -0.40113905631972241 0 -0.35510976054204568 -0.3842194839531482 0 -0.38858962439070688 -0.39099178060542639 0 -0.36347199874183372 -0.37840460733910741 0 -0.36252382498171631 -0.40113905631972241 0 -0.3619557704384162 -0.37682225860264651 0 -0.36252382498171631 -0.40113905631972241 0 -0.3619557704384162 -0.37682225860264651 0 -0.36347199874183372 -0.37840460733910741 0 -0.36252382498171631 -0.40113905631972241 0 -0.36963034646875631 -0.37098598415493522 0 -0.3619557704384162 -0.37682225860264651 0 -0.36347199874183372 -0.37840460733910741 0 -0.36252382498171631 -0.40113905631972241 0 -0.35064589728146123 -0.38950450864215141 0 -0.34326879739785943 -0.39917203293909631 0 -0.34650407197114702 -0.4115478652554555 0 -0.36252382498171631 -0.40113905631972241 0 -0.34326879739785943 -0.39917203293909631 0 -0.36252382498171631 -0.40113905631972241 0 -0.35510976054204568 -0.3842194839531482 0 -0.35064589728146123 -0.38950450864215141 0 -0.35064589728146123 -0.38950450864215141 0 -0.34289438774866737 -0.38569859221618807 0 -0.34326879739785943 -0.39917203293909631 0 -0.35064589728146123 -0.38950450864215141 0 -0.34874267820808602 -0.38046627993883719 0 -0.34289438774866737 -0.38569859221618807 0 -0.35510976054204568 -0.3842194839531482 0 -0.35064589728146123 -0.38950450864215141 0 -0.34874267820808602 -0.38046627993883719 0 -0.34392802686874491 -0.37514519813040992 0 -0.34874267820808602 -0.38046627993883719 0 -0.34289438774866737 -0.38569859221618807 0 -0.35176333772288632 -0.37386437523460608 0 -0.34392802686874491 -0.37514519813040992 0 -0.34874267820808602 -0.38046627993883719 0 -0.35176333772288632 -0.37386437523460608 0 -0.35510976054204568 -0.3842194839531482 0 -0.34874267820808602 -0.38046627993883719 0 -0.35176333772288632 -0.37386437523460608 0 -0.3619557704384162 -0.37682225860264651 0 -0.35510976054204568 -0.3842194839531482 0 -0.32647976364281311 -0.37488189422483842 0 -0.33505887395586798 -0.37984337088155368 0 -0.32571744244242051 -0.38588706595142108 0 -0.34392802686874491 -0.37514519813040992 0 -0.33505887395586798 -0.37984337088155368 0 -0.34289438774866737 -0.38569859221618807 0 -0.33505887395586798 -0.37984337088155368 0 -0.34289438774866737 -0.38569859221618807 0 -0.33549842913341171 -0.39007207695196772 0 -0.33505887395586798 -0.37984337088155368 0 -0.33549842913341171 -0.39007207695196772 0 -0.32571744244242051 -0.38588706595142108 0 -0.34650407197114702 -0.4115478652554555 0 -0.34326879739785943 -0.39917203293909631 0 -0.33014281751819657 -0.40149867104429848 0 -0.33549842913341171 -0.39007207695196772 0 -0.33014281751819657 -0.40149867104429848 0 -0.32571744244242051 -0.38588706595142108 0 -0.33549842913341171 -0.39007207695196772 0 -0.34326879739785943 -0.39917203293909631 0 -0.33014281751819657 -0.40149867104429848 0 -0.34289438774866737 -0.38569859221618807 0 -0.33549842913341171 -0.39007207695196772 0 -0.34326879739785943 -0.39917203293909631 0 -0.33014281751819657 -0.40149867104429848 0 -0.31730849957851809 -0.39348476294380919 0 -0.31622704017359071 -0.40950589765647039 0 -0.33014281751819657 -0.40149867104429848 0 -0.31730849957851809 -0.39348476294380919 0 -0.32571744244242051 -0.38588706595142108 0 -0.32647976364281311 -0.37488189422483842 0 -0.32571744244242051 -0.38588706595142108 0 -0.31070058114165883 -0.37731865785977647 0 -0.31730849957851809 -0.39348476294380919 0 -0.32571744244242051 -0.38588706595142108 0 -0.31070058114165883 -0.37731865785977647 0 -0.32562165131046589 -0.43837521109257982 0 -0.35049958617918819 -0.43128637372876888 0 -0.32925186728100297 -0.41928319215440613 0 -0.34650407197114702 -0.4115478652554555 0 -0.33014281751819657 -0.40149867104429848 0 -0.32925186728100297 -0.41928319215440613 0 -0.34650407197114702 -0.4115478652554555 0 -0.35049958617918819 -0.43128637372876888 0 -0.32925186728100297 -0.41928319215440613 0 -0.33014281751819657 -0.40149867104429848 0 -0.32925186728100297 -0.41928319215440613 0 -0.31622704017359071 -0.40950589765647039 0 -0.32925186728100297 -0.41928319215440613 0 -0.31622704017359071 -0.40950589765647039 0 -0.30651603653342979 -0.42348513414886352 0 -0.32562165131046589 -0.43837521109257982 0 -0.32925186728100297 -0.41928319215440613 0 -0.30651603653342979 -0.42348513414886352 0 -0.30651603653342979 -0.42348513414886352 0 -0.29320936695619559 -0.42797272708906442 0 -0.30025139103351151 -0.43978854318336952 0 -0.32562165131046589 -0.43837521109257982 0 -0.30651603653342979 -0.42348513414886352 0 -0.30025139103351151 -0.43978854318336952 0 -0.30651603653342979 -0.42348513414886352 0 -0.29219771923818422 -0.41343863744297749 0 -0.30290830328780088 -0.40341247613189352 0 -0.31622704017359071 -0.40950589765647039 0 -0.30651603653342979 -0.42348513414886352 0 -0.30290830328780088 -0.40341247613189352 0 -0.30651603653342979 -0.42348513414886352 0 -0.29219771923818422 -0.41343863744297749 0 -0.29320936695619559 -0.42797272708906442 0 -0.29219771923818422 -0.41343863744297749 0 -0.28320848564379503 -0.42350732685560222 0 -0.29320936695619559 -0.42797272708906442 0 -0.29219771923818422 -0.41343863744297749 0 -0.28610403823014108 -0.40178136758568611 0 -0.28010248291146272 -0.41241022268991329 0 -0.29219771923818422 -0.41343863744297749 0 -0.28320848564379503 -0.42350732685560222 0 -0.28010248291146272 -0.41241022268991329 0 -0.29320936695619559 -0.42797272708906442 0 -0.28387320233205737 -0.43964399381450908 0 -0.30025139103351151 -0.43978854318336952 0 -0.28320848564379503 -0.42350732685560222 0 -0.29320936695619559 -0.42797272708906442 0 -0.28387320233205737 -0.43964399381450908 0 -0.31730849957851809 -0.39348476294380919 0 -0.31070058114165883 -0.37731865785977647 0 -0.30533182657080438 -0.38950284466913299 0 -0.29817338024421292 -0.36754344373142989 0 -0.29777529628074428 -0.38071380812329741 0 -0.31070058114165883 -0.37731865785977647 0 -0.29777529628074428 -0.38071380812329741 0 -0.31070058114165883 -0.37731865785977647 0 -0.30533182657080438 -0.38950284466913299 0 -0.29777529628074428 -0.38071380812329741 0 -0.30533182657080438 -0.38950284466913299 0 -0.29537947281457722 -0.3927928586657401 0 -0.31730849957851809 -0.39348476294380919 0 -0.31622704017359071 -0.40950589765647039 0 -0.30290830328780088 -0.40341247613189352 0 -0.30533182657080438 -0.38950284466913299 0 -0.30290830328780088 -0.40341247613189352 0 -0.29537947281457722 -0.3927928586657401 0 -0.31730849957851809 -0.39348476294380919 0 -0.30533182657080438 -0.38950284466913299 0 -0.30290830328780088 -0.40341247613189352 0 -0.29219771923818422 -0.41343863744297749 0 -0.30290830328780088 -0.40341247613189352 0 -0.28610403823014108 -0.40178136758568611 0 -0.30290830328780088 -0.40341247613189352 0 -0.28610403823014108 -0.40178136758568611 0 -0.29537947281457722 -0.3927928586657401 0 -0.28610403823014108 -0.40178136758568611 0 -0.29537947281457722 -0.3927928586657401 0 -0.28360029876353621 -0.38864223431000777 0 -0.28610403823014108 -0.40178136758568611 0 -0.28360029876353621 -0.38864223431000777 0 -0.27599326564913129 -0.39564703773235987 0 -0.29777529628074428 -0.38071380812329741 0 -0.29537947281457722 -0.3927928586657401 0 -0.28360029876353621 -0.38864223431000777 0 -0.28399901910972392 -0.37472488230661138 0 -0.29777529628074428 -0.38071380812329741 0 -0.28360029876353621 -0.38864223431000777 0 -0.27025262155115132 -0.36713529080086488 0 -0.27106282719484021 -0.38476595005719683 0 -0.25864909410656911 -0.37819467530721201 0 -0.28399901910972392 -0.37472488230661138 0 -0.27025262155115132 -0.36713529080086488 0 -0.27106282719484021 -0.38476595005719683 0 -0.28399901910972392 -0.37472488230661138 0 -0.28360029876353621 -0.38864223431000777 0 -0.27106282719484021 -0.38476595005719683 0 -0.28360029876353621 -0.38864223431000777 0 -0.27106282719484021 -0.38476595005719683 0 -0.27599326564913129 -0.39564703773235987 0 -0.27106282719484021 -0.38476595005719683 0 -0.26640076501454713 -0.39828627567295638 0 -0.27599326564913129 -0.39564703773235987 0 -0.28610403823014108 -0.40178136758568611 0 -0.27599326564913129 -0.39564703773235987 0 -0.27306803905756 -0.40521755419656419 0 -0.26640076501454713 -0.39828627567295638 0 -0.27599326564913129 -0.39564703773235987 0 -0.27306803905756 -0.40521755419656419 0 -0.26640076501454713 -0.39828627567295638 0 -0.27306803905756 -0.40521755419656419 0 -0.26481833892817019 -0.40609646144150469 0 -0.26640076501454713 -0.39828627567295638 0 -0.26481833892817019 -0.40609646144150469 0 -0.25799174876031539 -0.40106875386536017 0 -0.26481833892817019 -0.40609646144150469 0 -0.25799174876031539 -0.40106875386536017 0 -0.25836582569779681 -0.40722311095924812 0 -0.25799174876031539 -0.40106875386536017 0 -0.25214856727766632 -0.40571484683448811 0 -0.25836582569779681 -0.40722311095924812 0 -0.25799174876031539 -0.40106875386536017 0 -0.25214856727766632 -0.40571484683448811 0 -0.2474787673176887 -0.39828290807301209 0 -0.25865840635571158 -0.3912039749719225 0 -0.25013711378382347 -0.38666074987636639 0 -0.2474787673176887 -0.39828290807301209 0 -0.25799174876031539 -0.40106875386536017 0 -0.25865840635571158 -0.3912039749719225 0 -0.2474787673176887 -0.39828290807301209 0 -0.26640076501454713 -0.39828627567295638 0 -0.25799174876031539 -0.40106875386536017 0 -0.25865840635571158 -0.3912039749719225 0 -0.27106282719484021 -0.38476595005719683 0 -0.26640076501454713 -0.39828627567295638 0 -0.25865840635571158 -0.3912039749719225 0 -0.25013711378382347 -0.38666074987636639 0 -0.25864909410656911 -0.37819467530721201 0 -0.2412766011524696 -0.37876179105319813 0 -0.27106282719484021 -0.38476595005719683 0 -0.25865840635571158 -0.3912039749719225 0 -0.25864909410656911 -0.37819467530721201 0 -0.25865840635571158 -0.3912039749719225 0 -0.25013711378382347 -0.38666074987636639 0 -0.25864909410656911 -0.37819467530721201 0 -0.28320848564379503 -0.42350732685560222 0 -0.27348018219038223 -0.42893298220145681 0 -0.28387320233205737 -0.43964399381450908 0 -0.27348018219038223 -0.42893298220145681 0 -0.26450795688065271 -0.44108579202268072 0 -0.28387320233205737 -0.43964399381450908 0 -0.27348018219038223 -0.42893298220145681 0 -0.26981834746766459 -0.42180761313660808 0 -0.26350923561594691 -0.42978071054706529 0 -0.27348018219038223 -0.42893298220145681 0 -0.27573987309699338 -0.41857075580898401 0 -0.26981834746766459 -0.42180761313660808 0 -0.27348018219038223 -0.42893298220145681 0 -0.26350923561594691 -0.42978071054706529 0 -0.26450795688065271 -0.44108579202268072 0 -0.28320848564379503 -0.42350732685560222 0 -0.27348018219038223 -0.42893298220145681 0 -0.27573987309699338 -0.41857075580898401 0 -0.28320848564379503 -0.42350732685560222 0 -0.27573987309699338 -0.41857075580898401 0 -0.28010248291146272 -0.41241022268991329 0 -0.27573987309699338 -0.41857075580898401 0 -0.28010248291146272 -0.41241022268991329 0 -0.27013665611446208 -0.41315680123823573 0 -0.28610403823014108 -0.40178136758568611 0 -0.27306803905756 -0.40521755419656419 0 -0.28010248291146272 -0.41241022268991329 0 -0.27306803905756 -0.40521755419656419 0 -0.28010248291146272 -0.41241022268991329 0 -0.27013665611446208 -0.41315680123823573 0 -0.27013665611446208 -0.41315680123823573 0 -0.26527888728433913 -0.41576629187259578 0 -0.26178361821199148 -0.41156194489641551 0 -0.27306803905756 -0.40521755419656419 0 -0.26481833892817019 -0.40609646144150469 0 -0.27013665611446208 -0.41315680123823573 0 -0.27573987309699338 -0.41857075580898401 0 -0.27013665611446208 -0.41315680123823573 0 -0.26981834746766459 -0.42180761313660808 0 -0.27013665611446208 -0.41315680123823573 0 -0.26981834746766459 -0.42180761313660808 0 -0.26527888728433913 -0.41576629187259578 0 -0.26981834746766459 -0.42180761313660808 0 -0.25682869482005433 -0.41960364941840822 0 -0.26981834746766459 -0.42180761313660808 0 -0.26018140479271068 -0.41774343921959728 0 -0.25682869482005433 -0.41960364941840822 0 -0.26981834746766459 -0.42180761313660808 0 -0.26527888728433913 -0.41576629187259578 0 -0.26018140479271068 -0.41774343921959728 0 -0.26527888728433913 -0.41576629187259578 0 -0.26018140479271068 -0.41774343921959728 0 -0.26178361821199148 -0.41156194489641551 0 -0.26018140479271068 -0.41774343921959728 0 -0.25682869482005433 -0.41960364941840822 0 -0.26481833892817019 -0.40609646144150469 0 -0.27013665611446208 -0.41315680123823573 0 -0.26178361821199148 -0.41156194489641551 0 -0.26018140479271068 -0.41774343921959728 0 -0.26178361821199148 -0.41156194489641551 0 -0.25508685531084058 -0.41167354775847143 0 -0.26481833892817019 -0.40609646144150469 0 -0.26178361821199148 -0.41156194489641551 0 -0.25836582569779681 -0.40722311095924812 0 -0.26178361821199148 -0.41156194489641551 0 -0.25836582569779681 -0.40722311095924812 0 -0.25508685531084058 -0.41167354775847143 0 -0.25508685531084058 -0.41167354775847143 0 -0.25682869482005433 -0.41960364941840822 0 -0.245599123709521 -0.4083577600650401 0 -0.25214856727766632 -0.40571484683448811 0 -0.25508685531084058 -0.41167354775847143 0 -0.245599123709521 -0.4083577600650401 0 -0.25214856727766632 -0.40571484683448811 0 -0.25836582569779681 -0.40722311095924812 0 -0.25508685531084058 -0.41167354775847143 0 -0.26018140479271068 -0.41774343921959728 0 -0.25508685531084058 -0.41167354775847143 0 -0.25682869482005433 -0.41960364941840822 0 -0.25682869482005433 -0.41960364941840822 0 -0.26350923561594691 -0.42978071054706529 0 -0.251005275665307 -0.43486661529208442 0 -0.26981834746766459 -0.42180761313660808 0 -0.25682869482005433 -0.41960364941840822 0 -0.26350923561594691 -0.42978071054706529 0 -0.26350923561594691 -0.42978071054706529 0 -0.251005275665307 -0.43486661529208442 0 -0.26450795688065271 -0.44108579202268072 0 -0.26450795688065271 -0.44108579202268072 0 -0.25843890243979373 -0.46072386134845422 0 -0.251005275665307 -0.43486661529208442 0 -0.26450795688065271 -0.44108579202268072 0 -0.24644310801391869 -0.44830730469635682 0 -0.26450795688065271 -0.44108579202268072 0 -0.25843890243979373 -0.46072386134845422 0 -0.24644310801391869 -0.44830730469635682 0 -0.25843890243979373 -0.46072386134845422 0 -0.2755220071510977 -0.4570489898405104 0 -0.27141698571204698 -0.47559583037883812 0 -0.2755220071510977 -0.4570489898405104 0 -0.28745017855057642 -0.47018863191507171 0 -0.27141698571204698 -0.47559583037883812 0 -0.26450795688065271 -0.44108579202268072 0 -0.2755220071510977 -0.4570489898405104 0 -0.28387320233205737 -0.43964399381450908 0 -0.26450795688065271 -0.44108579202268072 0 -0.25843890243979373 -0.46072386134845422 0 -0.2755220071510977 -0.4570489898405104 0 -0.2755220071510977 -0.4570489898405104 0 -0.28387320233205737 -0.43964399381450908 0 -0.29912302074200342 -0.45730566346197909 0 -0.28387320233205737 -0.43964399381450908 0 -0.29912302074200342 -0.45730566346197909 0 -0.30025139103351151 -0.43978854318336952 0 -0.2755220071510977 -0.4570489898405104 0 -0.29912302074200342 -0.45730566346197909 0 -0.28745017855057642 -0.47018863191507171 0 -0.31529989120879343 -0.45192747166001468 0 -0.32000137088002228 -0.4696256994872795 0 -0.29912302074200342 -0.45730566346197909 0 -0.31529989120879343 -0.45192747166001468 0 -0.29912302074200342 -0.45730566346197909 0 -0.30025139103351151 -0.43978854318336952 0 -0.32662467500175468 -0.5 0 -0.29985004785386171 -0.5 0 -0.30292779473211012 -0.48049927169606188 0 -0.32000137088002228 -0.4696256994872795 0 -0.29912302074200342 -0.45730566346197909 0 -0.30292779473211012 -0.48049927169606188 0 -0.29912302074200342 -0.45730566346197909 0 -0.30292779473211012 -0.48049927169606188 0 -0.28745017855057642 -0.47018863191507171 0 -0.30292779473211012 -0.48049927169606188 0 -0.28745017855057642 -0.47018863191507171 0 -0.28694408551091283 -0.48525674679799441 0 -0.28745017855057642 -0.47018863191507171 0 -0.28694408551091283 -0.48525674679799441 0 -0.27141698571204698 -0.47559583037883812 0 -0.29985004785386171 -0.5 0 -0.28694408551091283 -0.48525674679799441 0 -0.27307542070596869 -0.5 0 -0.29985004785386171 -0.5 0 -0.30292779473211012 -0.48049927169606188 0 -0.28694408551091283 -0.48525674679799441 0 -0.28694408551091283 -0.48525674679799441 0 -0.27307542070596869 -0.5 0 -0.27141698571204698 -0.47559583037883812 0 -0.25843890243979373 -0.46072386134845422 0 -0.27141698571204698 -0.47559583037883812 0 -0.2523698479989348 -0.48036193067422761 0 -0.25843890243979373 -0.46072386134845422 0 -0.2523698479989348 -0.48036193067422761 0 -0.27307542070596869 -0.5 0 -0.2523698479989348 -0.48036193067422761 0 -0.24630079355807569 -0.500000000000001 0 -0.27307542070596869 -0.5 0 -0.27141698571204698 -0.47559583037883812 0 -0.2523698479989348 -0.48036193067422761 0 -0.2523698479989348 -0.48036193067422761 0 -0.24630079355807569 -0.500000000000001 0 -0.2314312102061751 -0.48182952149228542 0 -0.2523698479989348 -0.48036193067422761 0 -0.24630079355807569 -0.500000000000001 0 -0.2523698479989348 -0.48036193067422761 0 -0.2314312102061751 -0.48182952149228542 0 -0.23204190150212339 -0.46041406843185823 0 -0.2314312102061751 -0.48182952149228542 0 -0.23204190150212339 -0.46041406843185823 0 -0.20834046040233409 -0.47569007731799617 0 -0.2314312102061751 -0.48182952149228542 0 -0.22123718167194831 -0.5 0 -0.20834046040233409 -0.47569007731799617 0 -0.24630079355807569 -0.500000000000001 0 -0.2314312102061751 -0.48182952149228542 0 -0.22123718167194831 -0.5 0 -0.251005275665307 -0.43486661529208442 0 -0.24644310801391869 -0.44830730469635682 0 -0.23242240773334749 -0.43314517985919299 0 -0.24644310801391869 -0.44830730469635682 0 -0.23204190150212339 -0.46041406843185823 0 -0.23242240773334749 -0.43314517985919299 0 -0.25843890243979373 -0.46072386134845422 0 -0.24644310801391869 -0.44830730469635682 0 -0.23204190150212339 -0.46041406843185823 0 -0.25843890243979373 -0.46072386134845422 0 -0.2523698479989348 -0.48036193067422761 0 -0.23204190150212339 -0.46041406843185823 0 -0.23204190150212339 -0.46041406843185823 0 -0.20801612064663999 -0.44668671029997647 0 -0.23242240773334749 -0.43314517985919299 0 -0.20801612064663999 -0.44668671029997647 0 -0.23242240773334749 -0.43314517985919299 0 -0.23204190150212339 -0.46041406843185823 0 -0.20801612064663999 -0.44668671029997647 0 -0.20834046040233409 -0.47569007731799617 0 -0.20801612064663999 -0.44668671029997647 0 -0.20834046040233409 -0.47569007731799617 0 -0.1836098335599326 -0.46022824074076002 0 -0.20801612064663999 -0.44668671029997647 0 -0.1836098335599326 -0.46022824074076002 0 -0.20801612064663999 -0.44668671029997647 0 -0.1836098335599326 -0.46022824074076002 0 -0.1962750023472434 -0.4294079095075673 0 -0.22123718167194831 -0.5 0 -0.20834046040233409 -0.47569007731799617 0 -0.19617356978582101 -0.5 0 -0.20834046040233409 -0.47569007731799617 0 -0.18364176384275729 -0.48208845019104501 0 -0.1836098335599326 -0.46022824074076002 0 -0.20834046040233409 -0.47569007731799617 0 -0.19617356978582101 -0.5 0 -0.18364176384275729 -0.48208845019104501 0 -0.19617356978582101 -0.5 0 -0.1711099578996936 -0.5 0 -0.18364176384275729 -0.48208845019104501 0 -0.1711099578996936 -0.5 0 -0.1592035464732251 -0.47376977118154329 0 -0.14604634601356609 -0.5 0 -0.1711099578996936 -0.5 0 -0.1592035464732251 -0.47376977118154329 0 -0.18364176384275729 -0.48208845019104501 0 -0.1592035464732251 -0.47376977118154329 0 -0.18364176384275729 -0.48208845019104501 0 -0.1836098335599326 -0.46022824074076002 0 -0.1836098335599326 -0.46022824074076002 0 -0.17647077296734751 -0.43275461438223228 0 -0.1962750023472434 -0.4294079095075673 0 -0.1836098335599326 -0.46022824074076002 0 -0.1628636915319622 -0.44515755765322162 0 -0.17647077296734751 -0.43275461438223228 0 -0.1592035464732251 -0.47376977118154329 0 -0.1836098335599326 -0.46022824074076002 0 -0.1592035464732251 -0.47376977118154329 0 -0.1836098335599326 -0.46022824074076002 0 -0.1628636915319622 -0.44515755765322162 0 -0.1592035464732251 -0.47376977118154329 0 -0.1628636915319622 -0.44515755765322162 0 -0.14634867888978861 -0.45262069508912661 0 -0.1592035464732251 -0.47376977118154329 0 -0.14634867888978861 -0.45262069508912661 0 -0.13301330704800651 -0.46933200050178031 0 -0.1628636915319622 -0.44515755765322162 0 -0.14634867888978861 -0.45262069508912661 0 -0.1484550063723421 -0.43190587160137578 0 -0.14634867888978861 -0.45262069508912661 0 -0.1351496264628031 -0.44011795755641092 0 -0.1484550063723421 -0.43190587160137578 0 -0.14634867888978861 -0.45262069508912661 0 -0.12821452228866201 -0.4521700320706401 0 -0.1351496264628031 -0.44011795755641092 0 -0.12821452228866201 -0.4521700320706401 0 -0.1351496264628031 -0.44011795755641092 0 -0.11954884964877439 -0.43607079633439882 0 -0.14634867888978861 -0.45262069508912661 0 -0.12821452228866201 -0.4521700320706401 0 -0.13301330704800651 -0.46933200050178031 0 -0.12821452228866201 -0.4521700320706401 0 -0.13301330704800651 -0.46933200050178031 0 -0.1148577257484745 -0.46153671402195717 0 -0.13301330704800651 -0.46933200050178031 0 -0.1347972593865176 -0.48731130162232678 0 -0.1206489211485175 -0.48561620535029443 0 -0.1347972593865176 -0.48731130162232678 0 -0.1206489211485175 -0.48561620535029443 0 -0.12098273412743871 -0.50000000000000544 0 -0.1347972593865176 -0.48731130162232678 0 -0.14604634601356609 -0.5 0 -0.12098273412743871 -0.50000000000000544 0 -0.1592035464732251 -0.47376977118154329 0 -0.1347972593865176 -0.48731130162232678 0 -0.14604634601356609 -0.5 0 -0.1592035464732251 -0.47376977118154329 0 -0.1347972593865176 -0.48731130162232678 0 -0.1592035464732251 -0.47376977118154329 0 -0.13301330704800651 -0.46933200050178031 0 -0.1347972593865176 -0.48731130162232678 0 -0.15509411971384501 -0.40234227080394958 0 -0.12960206346899769 -0.39792434379352087 0 -0.1400602258376219 -0.41384088511851502 0 -0.15509411971384501 -0.40234227080394958 0 -0.12960206346899769 -0.39792434379352087 0 -0.1380824882562722 -0.39309541843637802 0 -0.15509411971384501 -0.40234227080394958 0 -0.12960206346899769 -0.39792434379352087 0 -0.15509411971384501 -0.40234227080394958 0 -0.1380824882562722 -0.39309541843637802 0 -0.1612426231807603 -0.37990756928765168 0 -0.1380824882562722 -0.39309541843637802 0 -0.1612426231807603 -0.37990756928765168 0 -0.1454223019370979 -0.37688709850472152 0 -0.1380824882562722 -0.39309541843637802 0 -0.1612426231807603 -0.37990756928765168 0 -0.12854237267555391 -0.3804154425905748 0 -0.12960206346899769 -0.39792434379352087 0 -0.1380824882562722 -0.39309541843637802 0 -0.1454223019370979 -0.37688709850472152 0 -0.12854237267555391 -0.3804154425905748 0 -0.1380824882562722 -0.39309541843637802 0 -0.12960206346899769 -0.39792434379352087 0 -0.1380824882562722 -0.39309541843637802 0 -0.12960206346899769 -0.39792434379352087 0 -0.13042110992933989 -0.41022440829452528 0 -0.12061492411456561 -0.41074750946472471 0 -0.12960206346899769 -0.39792434379352087 0 -0.13042110992933989 -0.41022440829452528 0 -0.1400602258376219 -0.41384088511851502 0 -0.13042110992933989 -0.41022440829452528 0 -0.13078189362478529 -0.41771698139759572 0 -0.12061492411456561 -0.41074750946472471 0 -0.13078189362478529 -0.41771698139759572 0 -0.13318107511444849 -0.42782239268651312 0 -0.1215773308823918 -0.41791748790890337 0 -0.13078189362478529 -0.41771698139759572 0 -0.1400602258376219 -0.41384088511851502 0 -0.13318107511444849 -0.42782239268651312 0 -0.13042110992933989 -0.41022440829452528 0 -0.13078189362478529 -0.41771698139759572 0 -0.1400602258376219 -0.41384088511851502 0 -0.1400602258376219 -0.41384088511851502 0 -0.13318107511444849 -0.42782239268651312 0 -0.1484550063723421 -0.43190587160137578 0 -0.1351496264628031 -0.44011795755641092 0 -0.13318107511444849 -0.42782239268651312 0 -0.11954884964877439 -0.43607079633439882 0 -0.1351496264628031 -0.44011795755641092 0 -0.13318107511444849 -0.42782239268651312 0 -0.1484550063723421 -0.43190587160137578 0 -0.15509411971384501 -0.40234227080394958 0 -0.1400602258376219 -0.41384088511851502 0 -0.1630943109291374 -0.41966615292429182 0 -0.1400602258376219 -0.41384088511851502 0 -0.1484550063723421 -0.43190587160137578 0 -0.1630943109291374 -0.41966615292429182 0 -0.15509411971384501 -0.40234227080394958 0 -0.1630943109291374 -0.41966615292429182 0 -0.18052776349039731 -0.4066576154575639 0 -0.1628636915319622 -0.44515755765322162 0 -0.1484550063723421 -0.43190587160137578 0 -0.1630943109291374 -0.41966615292429182 0 -0.1628636915319622 -0.44515755765322162 0 -0.1630943109291374 -0.41966615292429182 0 -0.17647077296734751 -0.43275461438223228 0 -0.17647077296734751 -0.43275461438223228 0 -0.18052776349039731 -0.4066576154575639 0 -0.1962750023472434 -0.4294079095075673 0 -0.1630943109291374 -0.41966615292429182 0 -0.17647077296734751 -0.43275461438223228 0 -0.18052776349039731 -0.4066576154575639 0 -0.18052776349039731 -0.4066576154575639 0 -0.17737416505392611 -0.38833191988859422 0 -0.19667497061117631 -0.3885973902528842 0 -0.15509411971384501 -0.40234227080394958 0 -0.18052776349039731 -0.4066576154575639 0 -0.17737416505392611 -0.38833191988859422 0 -0.15509411971384501 -0.40234227080394958 0 -0.18052776349039731 -0.4066576154575639 0 -0.15509411971384501 -0.40234227080394958 0 -0.1612426231807603 -0.37990756928765168 0 -0.17737416505392611 -0.38833191988859422 0 -0.1612426231807603 -0.37990756928765168 0 -0.17737416505392611 -0.38833191988859422 0 -0.18440275810524839 -0.36671972013892529 0 -0.17737416505392611 -0.38833191988859422 0 -0.19667497061117631 -0.3885973902528842 0 -0.18440275810524839 -0.36671972013892529 0 -0.19667497061117631 -0.3885973902528842 0 -0.20707031695449321 -0.37300225202731019 0 -0.18440275810524839 -0.36671972013892529 0 -0.18052776349039731 -0.4066576154575639 0 -0.19667497061117631 -0.3885973902528842 0 -0.2059614072669497 -0.41097296011117829 0 -0.19667497061117631 -0.3885973902528842 0 -0.2059614072669497 -0.41097296011117829 0 -0.2208702471938794 -0.38655563018989292 0 -0.2208702471938794 -0.38655563018989292 0 -0.22758143916403881 -0.37094755748667302 0 -0.20707031695449321 -0.37300225202731019 0 -0.19667497061117631 -0.3885973902528842 0 -0.2208702471938794 -0.38655563018989292 0 -0.20707031695449321 -0.37300225202731019 0 -0.18052776349039731 -0.4066576154575639 0 -0.1962750023472434 -0.4294079095075673 0 -0.2059614072669497 -0.41097296011117829 0 -0.18052776349039731 -0.4066576154575639 0 -0.2059614072669497 -0.41097296011117829 0 -0.2059614072669497 -0.41097296011117829 0 -0.23139505104350211 -0.41528830476479273 0 -0.2059614072669497 -0.41097296011117829 0 -0.21481399780753649 -0.42710021290854161 0 -0.23139505104350211 -0.41528830476479273 0 -0.1962750023472434 -0.4294079095075673 0 -0.2059614072669497 -0.41097296011117829 0 -0.21481399780753649 -0.42710021290854161 0 -0.20801612064663999 -0.44668671029997647 0 -0.1962750023472434 -0.4294079095075673 0 -0.21481399780753649 -0.42710021290854161 0 -0.20801612064663999 -0.44668671029997647 0 -0.21481399780753649 -0.42710021290854161 0 -0.23242240773334749 -0.43314517985919299 0 -0.21481399780753649 -0.42710021290854161 0 -0.23242240773334749 -0.43314517985919299 0 -0.23139505104350211 -0.41528830476479273 0 -0.2059614072669497 -0.41097296011117829 0 -0.23139505104350211 -0.41528830476479273 0 -0.23065680648737399 -0.3995833035410683 0 -0.25682869482005433 -0.41960364941840822 0 -0.23139505104350211 -0.41528830476479273 0 -0.23139505104350211 -0.41528830476479273 0 -0.245599123709521 -0.4083577600650401 0 -0.23065680648737399 -0.3995833035410683 0 -0.25682869482005433 -0.41960364941840822 0 -0.23139505104350211 -0.41528830476479273 0 -0.245599123709521 -0.4083577600650401 0 -0.25682869482005433 -0.41960364941840822 0 -0.23242240773334749 -0.43314517985919299 0 -0.23139505104350211 -0.41528830476479273 0 -0.25682869482005433 -0.41960364941840822 0 -0.251005275665307 -0.43486661529208442 0 -0.23242240773334749 -0.43314517985919299 0 -0.25682869482005433 -0.41960364941840822 0 -0.23242240773334749 -0.43314517985919299 0 -0.2208702471938794 -0.38655563018989292 0 -0.2400893840733449 -0.39054000584493392 0 -0.2412766011524696 -0.37876179105319813 0 -0.2208702471938794 -0.38655563018989292 0 -0.2412766011524696 -0.37876179105319813 0 -0.22758143916403881 -0.37094755748667302 0 -0.2208702471938794 -0.38655563018989292 0 -0.23065680648737399 -0.3995833035410683 0 -0.2400893840733449 -0.39054000584493392 0 -0.2059614072669497 -0.41097296011117829 0 -0.2208702471938794 -0.38655563018989292 0 -0.23065680648737399 -0.3995833035410683 0 -0.245599123709521 -0.4083577600650401 0 -0.23065680648737399 -0.3995833035410683 0 -0.2474787673176887 -0.39828290807301209 0 -0.23065680648737399 -0.3995833035410683 0 -0.2474787673176887 -0.39828290807301209 0 -0.2400893840733449 -0.39054000584493392 0 -0.25214856727766632 -0.40571484683448811 0 -0.245599123709521 -0.4083577600650401 0 -0.2474787673176887 -0.39828290807301209 0 -0.25013711378382347 -0.38666074987636639 0 -0.2474787673176887 -0.39828290807301209 0 -0.2400893840733449 -0.39054000584493392 0 -0.25013711378382347 -0.38666074987636639 0 -0.2400893840733449 -0.39054000584493392 0 -0.2412766011524696 -0.37876179105319813 0 -0.25022735047356381 -0.36263498336160049 0 -0.2412766011524696 -0.37876179105319813 0 -0.22758143916403881 -0.37094755748667302 0 -0.25022735047356381 -0.36263498336160049 0 -0.22758143916403881 -0.37094755748667302 0 -0.22985853882124191 -0.35581647940061922 0 -0.22758143916403881 -0.37094755748667302 0 -0.22985853882124191 -0.35581647940061922 0 -0.20756289302973641 -0.353531870990199 0 -0.22985853882124191 -0.35581647940061922 0 -0.21950258193884351 -0.33374054334020492 0 -0.20756289302973641 -0.353531870990199 0 -0.22985853882124191 -0.35581647940061922 0 -0.2492510651675042 -0.34708834461625349 0 -0.23947813244978161 -0.33467171341053031 0 -0.25022735047356381 -0.36263498336160049 0 -0.22985853882124191 -0.35581647940061922 0 -0.2492510651675042 -0.34708834461625349 0 -0.22985853882124191 -0.35581647940061922 0 -0.23947813244978161 -0.33467171341053031 0 -0.2584894331033093 -0.33311402868874179 0 -0.2492510651675042 -0.34708834461625349 0 -0.23947813244978161 -0.33467171341053031 0 -0.23947813244978161 -0.33467171341053031 0 -0.24909772607832131 -0.3135269474204414 0 -0.2296771188139671 -0.31450791668107109 0 -0.2584894331033093 -0.33311402868874179 0 -0.23947813244978161 -0.33467171341053031 0 -0.24909772607832131 -0.3135269474204414 0 -0.23947813244978161 -0.33467171341053031 0 -0.24909772607832131 -0.3135269474204414 0 -0.2296771188139671 -0.31450791668107109 0 -0.21950258193884351 -0.33374054334020492 0 -0.21224748249579831 -0.31475516174164903 0 -0.23947813244978161 -0.33467171341053031 0 -0.2296771188139671 -0.31450791668107109 0 -0.21950258193884351 -0.33374054334020492 0 -0.22985853882124191 -0.35581647940061922 0 -0.23947813244978161 -0.33467171341053031 0 -0.21950258193884351 -0.33374054334020492 0 -0.21950258193884351 -0.33374054334020492 0 -0.20056546654209159 -0.33199481664808311 0 -0.20756289302973641 -0.353531870990199 0 -0.21224748249579831 -0.31475516174164903 0 -0.1993946605637836 -0.31704000016916362 0 -0.20056546654209159 -0.33199481664808311 0 -0.21950258193884351 -0.33374054334020492 0 -0.21224748249579831 -0.31475516174164903 0 -0.20056546654209159 -0.33199481664808311 0 -0.1993946605637836 -0.31704000016916362 0 -0.191429208907058 -0.32369443169998358 0 -0.20056546654209159 -0.33199481664808311 0 -0.1993946605637836 -0.31704000016916362 0 -0.191429208907058 -0.32369443169998358 0 -0.1899296086227325 -0.31279093401712149 0 -0.191429208907058 -0.32369443169998358 0 -0.20056546654209159 -0.33199481664808311 0 -0.18465745737618999 -0.33318099293335102 0 -0.20056546654209159 -0.33199481664808311 0 -0.192485960276393 -0.34691645432849483 0 -0.18465745737618999 -0.33318099293335102 0 -0.20056546654209159 -0.33199481664808311 0 -0.192485960276393 -0.34691645432849483 0 -0.20756289302973641 -0.353531870990199 0 -0.192485960276393 -0.34691645432849483 0 -0.20756289302973641 -0.353531870990199 0 -0.18440275810524839 -0.36671972013892529 0 -0.20756289302973641 -0.353531870990199 0 -0.18440275810524839 -0.36671972013892529 0 -0.20707031695449321 -0.37300225202731019 0 -0.20756289302973641 -0.353531870990199 0 -0.18440275810524839 -0.36671972013892529 0 -0.22758143916403881 -0.37094755748667302 0 -0.20707031695449321 -0.37300225202731019 0 -0.20756289302973641 -0.353531870990199 0 -0.22088369275761879 -0.25278963368124702 0 -0.22903809125285751 -0.26136286090305261 0 -0.215099965649933 -0.26865740202662258 0 -0.22088369275761879 -0.25278963368124702 0 -0.22903809125285751 -0.26136286090305261 0 -0.23340172527887901 -0.24754589786496711 0 -0.25474374153892049 -0.25656385063704817 0 -0.2415193013900496 -0.25667657336603761 0 -0.24949476319461411 -0.24101062627542019 0 -0.22903809125285751 -0.26136286090305261 0 -0.2415193013900496 -0.25667657336603761 0 -0.23340172527887901 -0.24754589786496711 0 -0.25474374153892049 -0.25656385063704817 0 -0.2415193013900496 -0.25667657336603761 0 -0.2471998145496638 -0.26641072453148013 0 -0.2415193013900496 -0.25667657336603761 0 -0.23715989084634809 -0.26563438510100029 0 -0.2471998145496638 -0.26641072453148013 0 -0.22903809125285751 -0.26136286090305261 0 -0.2415193013900496 -0.25667657336603761 0 -0.23715989084634809 -0.26563438510100029 0 -0.2397824923915802 -0.27342840641164728 0 -0.23715989084634809 -0.26563438510100029 0 -0.22855680870348319 -0.27606521403160889 0 -0.2397824923915802 -0.27342840641164728 0 -0.23715989084634809 -0.26563438510100029 0 -0.2471998145496638 -0.26641072453148013 0 -0.2397824923915802 -0.27342840641164728 0 -0.2471998145496638 -0.26641072453148013 0 -0.24798205258738221 -0.27571191013195179 0 -0.25454035348765042 -0.27180343303274213 0 -0.2471998145496638 -0.26641072453148013 0 -0.24798205258738221 -0.27571191013195179 0 -0.24798205258738221 -0.27571191013195179 0 -0.2381821006298119 -0.28275031407567652 0 -0.24792629652492049 -0.28449887147353531 0 -0.2397824923915802 -0.27342840641164728 0 -0.22855680870348319 -0.27606521403160889 0 -0.2381821006298119 -0.28275031407567652 0 -0.2397824923915802 -0.27342840641164728 0 -0.24798205258738221 -0.27571191013195179 0 -0.2381821006298119 -0.28275031407567652 0 -0.22855680870348319 -0.27606521403160889 0 -0.22238854223195009 -0.29158265935384692 0 -0.215099965649933 -0.26865740202662258 0 -0.22903809125285751 -0.26136286090305261 0 -0.23715989084634809 -0.26563438510100029 0 -0.22855680870348319 -0.27606521403160889 0 -0.22903809125285751 -0.26136286090305261 0 -0.22855680870348319 -0.27606521403160889 0 -0.215099965649933 -0.26865740202662258 0 -0.22855680870348319 -0.27606521403160889 0 -0.22238854223195009 -0.29158265935384692 0 -0.2381821006298119 -0.28275031407567652 0 -0.22238854223195009 -0.29158265935384692 0 -0.2381821006298119 -0.28275031407567652 0 -0.2440617820064547 -0.29741399827415538 0 -0.2381821006298119 -0.28275031407567652 0 -0.24792629652492049 -0.28449887147353531 0 -0.2440617820064547 -0.29741399827415538 0 -0.25413533345296319 -0.28687610575409961 0 -0.24792629652492049 -0.28449887147353531 0 -0.2440617820064547 -0.29741399827415538 0 -0.24909772607832131 -0.3135269474204414 0 -0.2296771188139671 -0.31450791668107109 0 -0.2440617820064547 -0.29741399827415538 0 -0.2296771188139671 -0.31450791668107109 0 -0.21224748249579831 -0.31475516174164903 0 -0.22238854223195009 -0.29158265935384692 0 -0.2296771188139671 -0.31450791668107109 0 -0.22238854223195009 -0.29158265935384692 0 -0.2296771188139671 -0.31450791668107109 0 -0.22238854223195009 -0.29158265935384692 0 -0.2440617820064547 -0.29741399827415538 0 -0.21224748249579831 -0.31475516174164903 0 -0.22238854223195009 -0.29158265935384692 0 -0.20266668305774971 -0.30020181514141231 0 -0.21224748249579831 -0.31475516174164903 0 -0.1993946605637836 -0.31704000016916362 0 -0.20266668305774971 -0.30020181514141231 0 -0.1899296086227325 -0.31279093401712149 0 -0.20266668305774971 -0.30020181514141231 0 -0.19035414063110781 -0.28648581604654971 0 -0.1899296086227325 -0.31279093401712149 0 -0.19035414063110781 -0.28648581604654971 0 -0.1993946605637836 -0.31704000016916362 0 -0.1899296086227325 -0.31279093401712149 0 -0.20266668305774971 -0.30020181514141231 0 -0.20266668305774971 -0.30020181514141231 0 -0.19035414063110781 -0.28648581604654971 0 -0.2059184192840508 -0.28260733458828108 0 -0.22238854223195009 -0.29158265935384692 0 -0.20266668305774971 -0.30020181514141231 0 -0.2059184192840508 -0.28260733458828108 0 -0.22238854223195009 -0.29158265935384692 0 -0.2059184192840508 -0.28260733458828108 0 -0.215099965649933 -0.26865740202662258 0 -0.2059184192840508 -0.28260733458828108 0 -0.215099965649933 -0.26865740202662258 0 -0.19908276484951329 -0.2661089803729742 0 -0.22238854223195009 -0.29158265935384692 0 -0.215099965649933 -0.26865740202662258 0 -0.19035414063110781 -0.28648581604654971 0 -0.19908276484951329 -0.2661089803729742 0 -0.19035414063110781 -0.28648581604654971 0 -0.19081044409573611 -0.25821205522141499 0 -0.19035414063110781 -0.28648581604654971 0 -0.19908276484951329 -0.2661089803729742 0 -0.19081044409573611 -0.25821205522141499 0 -0.19035414063110781 -0.28648581604654971 0 -0.2059184192840508 -0.28260733458828108 0 -0.19908276484951329 -0.2661089803729742 0 -0.19908276484951329 -0.2661089803729742 0 -0.2078113890679173 -0.24573214469939811 0 -0.19771406546484879 -0.24761342631633729 0 -0.19908276484951329 -0.2661089803729742 0 -0.19081044409573611 -0.25821205522141499 0 -0.19771406546484879 -0.24761342631633729 0 -0.19908276484951329 -0.2661089803729742 0 -0.2078113890679173 -0.24573214469939811 0 -0.22088369275761879 -0.25278963368124702 0 -0.215099965649933 -0.26865740202662258 0 -0.2078113890679173 -0.24573214469939811 0 -0.215099965649933 -0.26865740202662258 0 -0.19908276484951329 -0.2661089803729742 0 -0.2078113890679173 -0.24573214469939811 0 -0.215099965649933 -0.26865740202662258 0 -0.2078113890679173 -0.24573214469939811 0 -0.17043920635738191 -0.25558086003822728 0 -0.15751755766948991 -0.27181531178778923 0 -0.15290993660381361 -0.24859222687263499 0 -0.19081044409573611 -0.25821205522141499 0 -0.17043920635738191 -0.25558086003822728 0 -0.17702317199319539 -0.27251953113739191 0 -0.19081044409573611 -0.25821205522141499 0 -0.17043920635738191 -0.25558086003822728 0 -0.1803427228494808 -0.24262331171368259 0 -0.19035414063110781 -0.28648581604654971 0 -0.19081044409573611 -0.25821205522141499 0 -0.17702317199319539 -0.27251953113739191 0 -0.17043920635738191 -0.25558086003822728 0 -0.17702317199319539 -0.27251953113739191 0 -0.15751755766948991 -0.27181531178778923 0 -0.17702317199319539 -0.27251953113739191 0 -0.15751755766948991 -0.27181531178778923 0 -0.17042086630195041 -0.28866154951987327 0 -0.17042086630195041 -0.28866154951987327 0 -0.16796524069729479 -0.30404546919958031 0 -0.1512375369905902 -0.29277357682198379 0 -0.15751755766948991 -0.27181531178778923 0 -0.17042086630195041 -0.28866154951987327 0 -0.1512375369905902 -0.29277357682198379 0 -0.19035414063110781 -0.28648581604654971 0 -0.18179329631270619 -0.30647097218779917 0 -0.19035414063110781 -0.28648581604654971 0 -0.17702317199319539 -0.27251953113739191 0 -0.17042086630195041 -0.28866154951987327 0 -0.19035414063110781 -0.28648581604654971 0 -0.17042086630195041 -0.28866154951987327 0 -0.18179329631270619 -0.30647097218779917 0 -0.18179329631270619 -0.30647097218779917 0 -0.16796524069729479 -0.30404546919958031 0 -0.18098075228186489 -0.32030387781809738 0 -0.1899296086227325 -0.31279093401712149 0 -0.19035414063110781 -0.28648581604654971 0 -0.18179329631270619 -0.30647097218779917 0 -0.17042086630195041 -0.28866154951987327 0 -0.18179329631270619 -0.30647097218779917 0 -0.16796524069729479 -0.30404546919958031 0 -0.16796524069729479 -0.30404546919958031 0 -0.15539375159936211 -0.31201736965014792 0 -0.1512375369905902 -0.29277357682198379 0 -0.16796524069729479 -0.30404546919958031 0 -0.15539375159936211 -0.31201736965014792 0 -0.18098075228186489 -0.32030387781809738 0 -0.15539375159936211 -0.31201736965014792 0 -0.12980675091685939 -0.30373086148219841 0 -0.1512375369905902 -0.29277357682198379 0 -0.15539375159936211 -0.31201736965014792 0 -0.12980675091685939 -0.30373086148219841 0 -0.12980675091685939 -0.30373086148219841 0 -0.13623321376662911 -0.28170565964734012 0 -0.1512375369905902 -0.29277357682198379 0 -0.12980675091685939 -0.30373086148219841 0 -0.13623321376662911 -0.28170565964734012 0 -0.1207767616799474 -0.2879666737982553 0 -0.15751755766948991 -0.27181531178778923 0 -0.13623321376662911 -0.28170565964734012 0 -0.1512375369905902 -0.29277357682198379 0 -0.15751755766948991 -0.27181531178778923 0 -0.13623321376662911 -0.28170565964734012 0 -0.13875639560043251 -0.264088375649013 0 -0.13623321376662911 -0.28170565964734012 0 -0.1193042797424554 -0.26985915834480101 0 -0.1207767616799474 -0.2879666737982553 0 -0.13623321376662911 -0.28170565964734012 0 -0.13875639560043251 -0.264088375649013 0 -0.1193042797424554 -0.26985915834480101 0 -0.13875639560043251 -0.264088375649013 0 -0.1193042797424554 -0.26985915834480101 0 -0.13438880925055521 -0.24427396337535401 0 -0.1193042797424554 -0.26985915834480101 0 -0.13438880925055521 -0.24427396337535401 0 -0.15751755766948991 -0.27181531178778923 0 -0.13875639560043251 -0.264088375649013 0 -0.15290993660381361 -0.24859222687263499 0 -0.13875639560043251 -0.264088375649013 0 -0.15290993660381361 -0.24859222687263499 0 -0.13438880925055521 -0.24427396337535401 0 -0.16322075971013811 -0.35917998070371238 0 -0.17800415303228789 -0.34559517434019033 0 -0.16364926361923279 -0.33017298067904988 0 -0.16322075971013811 -0.35917998070371238 0 -0.16364926361923279 -0.33017298067904988 0 -0.14216239201932121 -0.35454761759604297 0 -0.1612426231807603 -0.37990756928765168 0 -0.16322075971013811 -0.35917998070371238 0 -0.18440275810524839 -0.36671972013892529 0 -0.1454223019370979 -0.37688709850472152 0 -0.1612426231807603 -0.37990756928765168 0 -0.16322075971013811 -0.35917998070371238 0 -0.1612426231807603 -0.37990756928765168 0 -0.18440275810524839 -0.36671972013892529 0 -0.16322075971013811 -0.35917998070371238 0 -0.18440275810524839 -0.36671972013892529 0 -0.17800415303228789 -0.34559517434019033 0 -0.192485960276393 -0.34691645432849483 0 -0.18440275810524839 -0.36671972013892529 0 -0.17800415303228789 -0.34559517434019033 0 -0.17800415303228789 -0.34559517434019033 0 -0.18465745737618999 -0.33318099293335102 0 -0.16364926361923279 -0.33017298067904988 0 -0.192485960276393 -0.34691645432849483 0 -0.17800415303228789 -0.34559517434019033 0 -0.18465745737618999 -0.33318099293335102 0 -0.18465745737618999 -0.33318099293335102 0 -0.18098075228186489 -0.32030387781809738 0 -0.16364926361923279 -0.33017298067904988 0 -0.1899296086227325 -0.31279093401712149 0 -0.18179329631270619 -0.30647097218779917 0 -0.18098075228186489 -0.32030387781809738 0 -0.191429208907058 -0.32369443169998358 0 -0.1899296086227325 -0.31279093401712149 0 -0.18098075228186489 -0.32030387781809738 0 -0.191429208907058 -0.32369443169998358 0 -0.18465745737618999 -0.33318099293335102 0 -0.18098075228186489 -0.32030387781809738 0 -0.15539375159936211 -0.31201736965014792 0 -0.18098075228186489 -0.32030387781809738 0 -0.15539375159936211 -0.31201736965014792 0 -0.18098075228186489 -0.32030387781809738 0 -0.16364926361923279 -0.33017298067904988 0 -0.16364926361923279 -0.33017298067904988 0 -0.13371746159404019 -0.327744711746696 0 -0.14216239201932121 -0.35454761759604297 0 -0.15539375159936211 -0.31201736965014792 0 -0.16364926361923279 -0.33017298067904988 0 -0.13371746159404019 -0.327744711746696 0 -0.15539375159936211 -0.31201736965014792 0 -0.12980675091685939 -0.30373086148219841 0 -0.13371746159404019 -0.327744711746696 0 -0.12980675091685939 -0.30373086148219841 0 -0.13371746159404019 -0.327744711746696 0 -0.1124908248440052 -0.31417862385492468 0 -0.14216239201932121 -0.35454761759604297 0 -0.1237362678613031 -0.3653125924413973 0 -0.1207161981109235 -0.34936728638398717 0 -0.13371746159404019 -0.327744711746696 0 -0.14216239201932121 -0.35454761759604297 0 -0.1207161981109235 -0.34936728638398717 0 -0.1454223019370979 -0.37688709850472152 0 -0.16322075971013811 -0.35917998070371238 0 -0.14216239201932121 -0.35454761759604297 0 -0.12854237267555391 -0.3804154425905748 0 -0.14216239201932121 -0.35454761759604297 0 -0.12854237267555391 -0.3804154425905748 0 -0.14216239201932121 -0.35454761759604297 0 -0.1237362678613031 -0.3653125924413973 0 -0.1454223019370979 -0.37688709850472152 0 -0.12854237267555391 -0.3804154425905748 0 -0.14216239201932121 -0.35454761759604297 0 -0.12854237267555391 -0.3804154425905748 0 -0.1237362678613031 -0.3653125924413973 0 -0.1155347256555123 -0.37527697194126403 0 -0.1237362678613031 -0.3653125924413973 0 -0.11021593594232371 -0.36394768981681869 0 -0.1207161981109235 -0.34936728638398717 0 -0.1237362678613031 -0.3653125924413973 0 -0.11021593594232371 -0.36394768981681869 0 -0.1155347256555123 -0.37527697194126403 0 -0.11021593594232371 -0.36394768981681869 0 -0.1155347256555123 -0.37527697194126403 0 -0.1032359822407381 -0.37669194290174951 0 -0.097477336848404622 -0.36380014477446232 0 -0.084224317893437983 -0.37357002519957799 0 -0.1032359822407381 -0.37669194290174951 0 -0.11021593594232371 -0.36394768981681869 0 -0.097477336848404622 -0.36380014477446232 0 -0.1032359822407381 -0.37669194290174951 0 -0.097477336848404622 -0.36380014477446232 0 -0.1001825257123482 -0.34995947949264228 0 -0.088082933360586563 -0.35574682556388543 0 -0.11021593594232371 -0.36394768981681869 0 -0.097477336848404622 -0.36380014477446232 0 -0.1001825257123482 -0.34995947949264228 0 -0.1001825257123482 -0.34995947949264228 0 -0.1207161981109235 -0.34936728638398717 0 -0.110660907165762 -0.33313858733962459 0 -0.11021593594232371 -0.36394768981681869 0 -0.1001825257123482 -0.34995947949264228 0 -0.1207161981109235 -0.34936728638398717 0 -0.13371746159404019 -0.327744711746696 0 -0.1207161981109235 -0.34936728638398717 0 -0.110660907165762 -0.33313858733962459 0 -0.13371746159404019 -0.327744711746696 0 -0.110660907165762 -0.33313858733962459 0 -0.1124908248440052 -0.31417862385492468 0 -0.1124908248440052 -0.31417862385492468 0 -0.098623117855643733 -0.32522768279027081 0 -0.095422532404415381 -0.31036550370524019 0 -0.110660907165762 -0.33313858733962459 0 -0.1124908248440052 -0.31417862385492468 0 -0.098623117855643733 -0.32522768279027081 0 -0.1001825257123482 -0.34995947949264228 0 -0.110660907165762 -0.33313858733962459 0 -0.097475524536296113 -0.3362602117125309 0 -0.110660907165762 -0.33313858733962459 0 -0.098623117855643733 -0.32522768279027081 0 -0.097475524536296113 -0.3362602117125309 0 -0.098623117855643733 -0.32522768279027081 0 -0.097475524536296113 -0.3362602117125309 0 -0.089400808618463723 -0.33322007476704713 0 -0.1001825257123482 -0.34995947949264228 0 -0.097475524536296113 -0.3362602117125309 0 -0.089151142725174881 -0.34358646627184342 0 -0.097475524536296113 -0.3362602117125309 0 -0.089151142725174881 -0.34358646627184342 0 -0.089400808618463723 -0.33322007476704713 0 -0.089151142725174881 -0.34358646627184342 0 -0.089400808618463723 -0.33322007476704713 0 -0.080664445146043068 -0.33885944504719218 0 -0.089400808618463723 -0.33322007476704713 0 -0.083865306873149512 -0.33009998868421309 0 -0.086625314574475087 -0.32528665409623259 0 -0.083865306873149512 -0.33009998868421309 0 -0.080664445146043068 -0.33885944504719218 0 -0.079107864163171143 -0.32411733956035521 0 -0.089400808618463723 -0.33322007476704713 0 -0.083865306873149512 -0.33009998868421309 0 -0.080664445146043068 -0.33885944504719218 0 -0.089151142725174881 -0.34358646627184342 0 -0.080664445146043068 -0.33885944504719218 0 -0.081176731600275609 -0.34873522179767141 0 -0.086625314574475087 -0.32528665409623259 0 -0.079107864163171143 -0.32411733956035521 0 -0.095422532404415381 -0.31036550370524019 0 -0.086625314574475087 -0.32528665409623259 0 -0.095422532404415381 -0.31036550370524019 0 -0.098623117855643733 -0.32522768279027081 0 -0.086625314574475087 -0.32528665409623259 0 -0.095422532404415381 -0.31036550370524019 0 -0.098623117855643733 -0.32522768279027081 0 -0.089400808618463723 -0.33322007476704713 0 -0.086625314574475087 -0.32528665409623259 0 -0.083865306873149512 -0.33009998868421309 0 -0.086625314574475087 -0.32528665409623259 0 -0.079107864163171143 -0.32411733956035521 0 -0.079107864163171143 -0.32411733956035521 0 -0.070677267769554131 -0.31905759938532913 0 -0.075464603954002368 -0.30937478007041691 0 -0.079107864163171143 -0.32411733956035521 0 -0.070677267769554131 -0.31905759938532913 0 -0.071185531175026698 -0.32545198516566848 0 -0.079107864163171143 -0.32411733956035521 0 -0.071185531175026698 -0.32545198516566848 0 -0.071586551224529435 -0.33085512262510591 0 -0.071185531175026698 -0.32545198516566848 0 -0.067875314336107384 -0.32379777932428161 0 -0.06668065838177141 -0.32943208493327042 0 -0.067875314336107384 -0.32379777932428161 0 -0.06668065838177141 -0.32943208493327042 0 -0.061729479890013067 -0.3268838612384129 0 -0.067875314336107384 -0.32379777932428161 0 -0.064261712939945217 -0.31993032272123811 0 -0.061729479890013067 -0.3268838612384129 0 -0.070677267769554131 -0.31905759938532913 0 -0.067875314336107384 -0.32379777932428161 0 -0.064261712939945217 -0.31993032272123811 0 -0.070677267769554131 -0.31905759938532913 0 -0.071185531175026698 -0.32545198516566848 0 -0.067875314336107384 -0.32379777932428161 0 -0.070677267769554131 -0.31905759938532913 0 -0.075464603954002368 -0.30937478007041691 0 -0.064443545325132232 -0.31178658017004268 0 -0.070677267769554131 -0.31905759938532913 0 -0.064261712939945217 -0.31993032272123811 0 -0.064443545325132232 -0.31178658017004268 0 -0.079107864163171143 -0.32411733956035521 0 -0.071415908753279841 -0.35044465946614012 0 -0.079107864163171143 -0.32411733956035521 0 -0.070521688867803189 -0.33913738613246969 0 -0.071415908753279841 -0.35044465946614012 0 -0.080664445146043068 -0.33885944504719218 0 -0.079107864163171143 -0.32411733956035521 0 -0.071415908753279841 -0.35044465946614012 0 -0.079107864163171143 -0.32411733956035521 0 -0.070521688867803189 -0.33913738613246969 0 -0.071586551224529435 -0.33085512262510591 0 -0.070521688867803189 -0.33913738613246969 0 -0.071586551224529435 -0.33085512262510591 0 -0.067384881803869354 -0.33462359353640558 0 -0.071586551224529435 -0.33085512262510591 0 -0.067384881803869354 -0.33462359353640558 0 -0.06668065838177141 -0.32943208493327042 0 -0.071185531175026698 -0.32545198516566848 0 -0.071586551224529435 -0.33085512262510591 0 -0.06668065838177141 -0.32943208493327042 0 -0.06668065838177141 -0.32943208493327042 0 -0.06315794331055008 -0.33374463533683479 0 -0.061729479890013067 -0.3268838612384129 0 -0.067384881803869354 -0.33462359353640558 0 -0.06668065838177141 -0.32943208493327042 0 -0.06315794331055008 -0.33374463533683479 0 -0.067384881803869354 -0.33462359353640558 0 -0.06315794331055008 -0.33374463533683479 0 -0.064977567234692654 -0.33994873865434738 0 -0.070521688867803189 -0.33913738613246969 0 -0.067384881803869354 -0.33462359353640558 0 -0.064977567234692654 -0.33994873865434738 0 -0.070521688867803189 -0.33913738613246969 0 -0.064977567234692654 -0.33994873865434738 0 -0.066603693085499363 -0.34547053681318041 0 -0.064977567234692654 -0.33994873865434738 0 -0.066603693085499363 -0.34547053681318041 0 -0.062338573996696338 -0.34572680041635762 0 -0.063364929254381239 -0.35027185986477888 0 -0.066603693085499363 -0.34547053681318041 0 -0.062338573996696338 -0.34572680041635762 0 -0.070521688867803189 -0.33913738613246969 0 -0.066603693085499363 -0.34547053681318041 0 -0.071415908753279841 -0.35044465946614012 0 -0.063364929254381239 -0.35027185986477888 0 -0.066603693085499363 -0.34547053681318041 0 -0.071415908753279841 -0.35044465946614012 0 -0.080664445146043068 -0.33885944504719218 0 -0.071415908753279841 -0.35044465946614012 0 -0.081176731600275609 -0.34873522179767141 0 -0.071415908753279841 -0.35044465946614012 0 -0.081176731600275609 -0.34873522179767141 0 -0.078967546950045958 -0.35702102051642698 0 -0.071415908753279841 -0.35044465946614012 0 -0.069640464708112873 -0.35652148660060629 0 -0.078967546950045958 -0.35702102051642698 0 -0.071415908753279841 -0.35044465946614012 0 -0.069640464708112873 -0.35652148660060629 0 -0.071415908753279841 -0.35044465946614012 0 -0.069640464708112873 -0.35652148660060629 0 -0.060199386423970207 -0.35883478475831831 0 -0.063364929254381239 -0.35027185986477888 0 -0.071415908753279841 -0.35044465946614012 0 -0.060199386423970207 -0.35883478475831831 0 -0.069640464708112873 -0.35652148660060629 0 -0.060199386423970207 -0.35883478475831831 0 -0.063723953343388512 -0.37677197937192519 0 -0.069640464708112873 -0.35652148660060629 0 -0.084224317893437983 -0.37357002519957799 0 -0.063723953343388512 -0.37677197937192519 0 -0.069640464708112873 -0.35652148660060629 0 -0.084224317893437983 -0.37357002519957799 0 -0.069640464708112873 -0.35652148660060629 0 -0.084224317893437983 -0.37357002519957799 0 -0.078967546950045958 -0.35702102051642698 0 -0.069640464708112873 -0.35652148660060629 0 -0.063723953343388512 -0.37677197937192519 0 -0.084224317893437983 -0.37357002519957799 0 -0.088082933360586563 -0.35574682556388543 0 -0.078967546950045958 -0.35702102051642698 0 -0.097477336848404622 -0.36380014477446232 0 -0.084224317893437983 -0.37357002519957799 0 -0.088082933360586563 -0.35574682556388543 0 -0.089151142725174881 -0.34358646627184342 0 -0.088082933360586563 -0.35574682556388543 0 -0.081176731600275609 -0.34873522179767141 0 -0.1001825257123482 -0.34995947949264228 0 -0.089151142725174881 -0.34358646627184342 0 -0.088082933360586563 -0.35574682556388543 0 -0.088082933360586563 -0.35574682556388543 0 -0.081176731600275609 -0.34873522179767141 0 -0.078967546950045958 -0.35702102051642698 0 -0.1193042797424554 -0.26985915834480101 0 -0.096089349267273721 -0.26761959970860022 0 -0.1116747426996843 -0.24762916063610449 0 -0.096089349267273721 -0.26761959970860022 0 -0.090231661288065937 -0.24505988721783761 0 -0.1116747426996843 -0.24762916063610449 0 -0.1193042797424554 -0.26985915834480101 0 -0.1116747426996843 -0.24762916063610449 0 -0.13438880925055521 -0.24427396337535401 0 -0.1193042797424554 -0.26985915834480101 0 -0.096089349267273721 -0.26761959970860022 0 -0.098867634766930071 -0.28036623989567788 0 -0.096089349267273721 -0.26761959970860022 0 -0.098867634766930071 -0.28036623989567788 0 -0.088431054177764035 -0.27926918376834498 0 -0.098867634766930071 -0.28036623989567788 0 -0.1042197502343566 -0.29544435331424862 0 -0.086293740412800607 -0.28963890434239481 0 -0.1042197502343566 -0.29544435331424862 0 -0.086293740412800607 -0.28963890434239481 0 -0.1193042797424554 -0.26985915834480101 0 -0.098867634766930071 -0.28036623989567788 0 -0.1042197502343566 -0.29544435331424862 0 -0.1193042797424554 -0.26985915834480101 0 -0.1042197502343566 -0.29544435331424862 0 -0.1207767616799474 -0.2879666737982553 0 -0.1193042797424554 -0.26985915834480101 0 -0.1042197502343566 -0.29544435331424862 0 -0.12980675091685939 -0.30373086148219841 0 -0.1042197502343566 -0.29544435331424862 0 -0.1207767616799474 -0.2879666737982553 0 -0.12980675091685939 -0.30373086148219841 0 -0.1124908248440052 -0.31417862385492468 0 -0.1042197502343566 -0.29544435331424862 0 -0.12980675091685939 -0.30373086148219841 0 -0.1042197502343566 -0.29544435331424862 0 -0.1124908248440052 -0.31417862385492468 0 -0.1042197502343566 -0.29544435331424862 0 -0.095422532404415381 -0.31036550370524019 0 -0.1042197502343566 -0.29544435331424862 0 -0.095422532404415381 -0.31036550370524019 0 -0.086799819573062514 -0.29779001965457008 0 -0.1042197502343566 -0.29544435331424862 0 -0.095422532404415381 -0.31036550370524019 0 -0.079107864163171143 -0.32411733956035521 0 -0.086799819573062514 -0.29779001965457008 0 -0.079107864163171143 -0.32411733956035521 0 -0.086799819573062514 -0.29779001965457008 0 -0.075464603954002368 -0.30937478007041691 0 -0.079107864163171143 -0.32411733956035521 0 -0.095422532404415381 -0.31036550370524019 0 -0.086799819573062514 -0.29779001965457008 0 -0.086799819573062514 -0.29779001965457008 0 -0.076848312665954405 -0.29961150706386491 0 -0.080163047852867347 -0.29341886985108118 0 -0.086799819573062514 -0.29779001965457008 0 -0.075464603954002368 -0.30937478007041691 0 -0.076848312665954405 -0.29961150706386491 0 -0.075464603954002368 -0.30937478007041691 0 -0.064443545325132232 -0.31178658017004268 0 -0.068393034695322832 -0.30187884887623823 0 -0.064443545325132232 -0.31178658017004268 0 -0.068393034695322832 -0.30187884887623823 0 -0.059147505833569737 -0.30366781769205692 0 -0.068393034695322832 -0.30187884887623823 0 -0.061399451017288033 -0.29228026761121739 0 -0.059147505833569737 -0.30366781769205692 0 -0.068393034695322832 -0.30187884887623823 0 -0.076848312665954405 -0.29961150706386491 0 -0.073054789375990303 -0.2945521406498306 0 -0.075464603954002368 -0.30937478007041691 0 -0.068393034695322832 -0.30187884887623823 0 -0.076848312665954405 -0.29961150706386491 0 -0.073054789375990303 -0.2945521406498306 0 -0.076738497868118122 -0.28418495734427129 0 -0.061399451017288033 -0.29228026761121739 0 -0.073054789375990303 -0.2945521406498306 0 -0.076738497868118122 -0.28418495734427129 0 -0.080163047852867347 -0.29341886985108118 0 -0.076848312665954405 -0.29961150706386491 0 -0.073054789375990303 -0.2945521406498306 0 -0.080163047852867347 -0.29341886985108118 0 -0.068393034695322832 -0.30187884887623823 0 -0.073054789375990303 -0.2945521406498306 0 -0.061399451017288033 -0.29228026761121739 0 -0.076738497868118122 -0.28418495734427129 0 -0.06255175746301779 -0.27763866284870781 0 -0.061399451017288033 -0.29228026761121739 0 -0.1042197502343566 -0.29544435331424862 0 -0.086799819573062514 -0.29779001965457008 0 -0.086293740412800607 -0.28963890434239481 0 -0.076738497868118122 -0.28418495734427129 0 -0.086293740412800607 -0.28963890434239481 0 -0.088431054177764035 -0.27926918376834498 0 -0.076738497868118122 -0.28418495734427129 0 -0.080163047852867347 -0.29341886985108118 0 -0.086293740412800607 -0.28963890434239481 0 -0.086799819573062514 -0.29779001965457008 0 -0.080163047852867347 -0.29341886985108118 0 -0.086293740412800607 -0.28963890434239481 0 -0.098867634766930071 -0.28036623989567788 0 -0.086293740412800607 -0.28963890434239481 0 -0.088431054177764035 -0.27926918376834498 0 -0.096089349267273721 -0.26761959970860022 0 -0.088431054177764035 -0.27926918376834498 0 -0.078506154791474797 -0.27248641192446821 0 -0.076738497868118122 -0.28418495734427129 0 -0.088431054177764035 -0.27926918376834498 0 -0.078506154791474797 -0.27248641192446821 0 -0.078506154791474797 -0.27248641192446821 0 -0.06255175746301779 -0.27763866284870781 0 -0.058444421254402058 -0.25857504562544742 0 -0.076738497868118122 -0.28418495734427129 0 -0.078506154791474797 -0.27248641192446821 0 -0.06255175746301779 -0.27763866284870781 0 -0.078107994815919513 -0.25658747229334328 0 -0.058444421254402058 -0.25857504562544742 0 -0.070364306568185556 -0.24297021997726739 0 -0.078506154791474797 -0.27248641192446821 0 -0.078107994815919513 -0.25658747229334328 0 -0.058444421254402058 -0.25857504562544742 0 -0.096089349267273721 -0.26761959970860022 0 -0.078107994815919513 -0.25658747229334328 0 -0.090231661288065937 -0.24505988721783761 0 -0.096089349267273721 -0.26761959970860022 0 -0.078506154791474797 -0.27248641192446821 0 -0.078107994815919513 -0.25658747229334328 0 -0.039188399313944737 -0.25549327155938928 0 -0.058444421254402058 -0.25857504562544742 0 -0.045962108753601252 -0.27195682087856488 0 -0.06255175746301779 -0.27763866284870781 0 -0.045962108753601252 -0.27195682087856488 0 -0.045128209186593361 -0.28743485634376131 0 -0.06255175746301779 -0.27763866284870781 0 -0.058444421254402058 -0.25857504562544742 0 -0.045962108753601252 -0.27195682087856488 0 -0.045962108753601252 -0.27195682087856488 0 -0.045128209186593361 -0.28743485634376131 0 -0.024497756550048329 -0.28064226801551873 0 -0.039188399313944737 -0.25549327155938928 0 -0.045962108753601252 -0.27195682087856488 0 -0.024497756550048329 -0.28064226801551873 0 -0.039188399313944737 -0.25549327155938928 0 -0.024497756550048329 -0.28064226801551873 0 -0.045128209186593361 -0.28743485634376131 0 -0.048463102419458282 -0.30074681265577552 0 -0.031401480595176903 -0.30009629051984837 0 -0.045128209186593361 -0.28743485634376131 0 -0.031401480595176903 -0.30009629051984837 0 -0.024497756550048329 -0.28064226801551873 0 -0.045128209186593361 -0.28743485634376131 0 -0.061399451017288033 -0.29228026761121739 0 -0.048463102419458282 -0.30074681265577552 0 -0.06255175746301779 -0.27763866284870781 0 -0.045128209186593361 -0.28743485634376131 0 -0.061399451017288033 -0.29228026761121739 0 -0.061399451017288033 -0.29228026761121739 0 -0.048463102419458282 -0.30074681265577552 0 -0.059147505833569737 -0.30366781769205692 0 -0.064443545325132232 -0.31178658017004268 0 -0.059147505833569737 -0.30366781769205692 0 -0.0528295026585223 -0.31062794782841269 0 -0.048463102419458282 -0.30074681265577552 0 -0.059147505833569737 -0.30366781769205692 0 -0.0528295026585223 -0.31062794782841269 0 -0.048463102419458282 -0.30074681265577552 0 -0.0528295026585223 -0.31062794782841269 0 -0.040872465225599397 -0.31037369593935649 0 -0.048463102419458282 -0.30074681265577552 0 -0.040872465225599397 -0.31037369593935649 0 -0.031401480595176903 -0.30009629051984837 0 -0.040872465225599397 -0.31037369593935649 0 -0.031401480595176903 -0.30009629051984837 0 -0.03052615059643202 -0.3139856799315463 0 -0.031401480595176903 -0.30009629051984837 0 -0.020502460123308239 -0.30994054869748539 0 -0.03052615059643202 -0.3139856799315463 0 -0.031401480595176903 -0.30009629051984837 0 -0.020502460123308239 -0.30994054869748539 0 -0.016979618275967501 -0.29642761654743549 0 -0.0067298388885113653 -0.30830308727990929 0 -0.002020478746885553 -0.289586447709826 0 -0.016979618275967501 -0.29642761654743549 0 -0.020502460123308239 -0.30994054869748539 0 -0.0067298388885113653 -0.30830308727990929 0 -0.01461958908626616 -0.31801952532985972 0 -0.020502460123308239 -0.30994054869748539 0 -0.0067298388885113653 -0.30830308727990929 0 -0.016979618275967501 -0.29642761654743549 0 -0.002020478746885553 -0.289586447709826 0 -0.016979618275967501 -0.29642761654743549 0 -0.024497756550048329 -0.28064226801551873 0 -0.031401480595176903 -0.30009629051984837 0 -0.016979618275967501 -0.29642761654743549 0 -0.024497756550048329 -0.28064226801551873 0 -0.039188399313944737 -0.25549327155938928 0 -0.024497756550048329 -0.28064226801551873 0 -0.01510146458964157 -0.26197869244374961 0 -0.002020478746885553 -0.289586447709826 0 -0.024497756550048329 -0.28064226801551873 0 -0.0029899779201155471 -0.27247833955681849 0 -0.024497756550048329 -0.28064226801551873 0 -0.0029899779201155471 -0.27247833955681849 0 -0.01510146458964157 -0.26197869244374961 0 -0.01510146458964157 -0.26197869244374961 0 -0.01202868521096684 -0.24298443641158721 0 0.001840154003947637 -0.2560556707182301 0 -0.0029899779201155471 -0.27247833955681849 0 -0.01510146458964157 -0.26197869244374961 0 0.001840154003947637 -0.2560556707182301 0 -0.039188399313944737 -0.25549327155938928 0 -0.01510146458964157 -0.26197869244374961 0 -0.01202868521096684 -0.24298443641158721 0 -0.040970238591736798 -0.35713693564522048 0 -0.037200070656550642 -0.34827608815137379 0 -0.048229243791249488 -0.35281256853185461 0 -0.040970238591736798 -0.35713693564522048 0 -0.048377598893494272 -0.36469407199777287 0 -0.048229243791249488 -0.35281256853185461 0 -0.037200070656550642 -0.34827608815137379 0 -0.046936993220436457 -0.34486411855367921 0 -0.041235539005650447 -0.34084637306841747 0 -0.037200070656550642 -0.34827608815137379 0 -0.048229243791249488 -0.35281256853185461 0 -0.046936993220436457 -0.34486411855367921 0 -0.040970238591736798 -0.35713693564522048 0 -0.037200070656550642 -0.34827608815137379 0 -0.030352881969934249 -0.35884527069404709 0 -0.040970238591736798 -0.35713693564522048 0 -0.037951534851504147 -0.36526137128696029 0 -0.030352881969934249 -0.35884527069404709 0 -0.037951534851504147 -0.36526137128696029 0 -0.02476096383580581 -0.37112131792937803 0 -0.038307643595086947 -0.37534410887309699 0 -0.048377598893494272 -0.36469407199777287 0 -0.051013153762145713 -0.37495414564963442 0 -0.038307643595086947 -0.37534410887309699 0 -0.037951534851504147 -0.36526137128696029 0 -0.048377598893494272 -0.36469407199777287 0 -0.038307643595086947 -0.37534410887309699 0 -0.040970238591736798 -0.35713693564522048 0 -0.037951534851504147 -0.36526137128696029 0 -0.048377598893494272 -0.36469407199777287 0 -0.055828523105749678 -0.3688137454444127 0 -0.060199386423970207 -0.35883478475831831 0 -0.063723953343388512 -0.37677197937192519 0 -0.048377598893494272 -0.36469407199777287 0 -0.051013153762145713 -0.37495414564963442 0 -0.055828523105749678 -0.3688137454444127 0 -0.051013153762145713 -0.37495414564963442 0 -0.055828523105749678 -0.3688137454444127 0 -0.063723953343388512 -0.37677197937192519 0 -0.048377598893494272 -0.36469407199777287 0 -0.055828523105749678 -0.3688137454444127 0 -0.060199386423970207 -0.35883478475831831 0 -0.060199386423970207 -0.35883478475831831 0 -0.048229243791249488 -0.35281256853185461 0 -0.056179938281519307 -0.34909200123362649 0 -0.063364929254381239 -0.35027185986477888 0 -0.060199386423970207 -0.35883478475831831 0 -0.056179938281519307 -0.34909200123362649 0 -0.048377598893494272 -0.36469407199777287 0 -0.060199386423970207 -0.35883478475831831 0 -0.048229243791249488 -0.35281256853185461 0 -0.048229243791249488 -0.35281256853185461 0 -0.046936993220436457 -0.34486411855367921 0 -0.056179938281519307 -0.34909200123362649 0 -0.046936993220436457 -0.34486411855367921 0 -0.056179938281519307 -0.34909200123362649 0 -0.052373249020527528 -0.33986646916705548 0 -0.056179938281519307 -0.34909200123362649 0 -0.062338573996696338 -0.34572680041635762 0 -0.059308715935641583 -0.34037410552534542 0 -0.063364929254381239 -0.35027185986477888 0 -0.056179938281519307 -0.34909200123362649 0 -0.062338573996696338 -0.34572680041635762 0 -0.056179938281519307 -0.34909200123362649 0 -0.059308715935641583 -0.34037410552534542 0 -0.052373249020527528 -0.33986646916705548 0 -0.064977567234692654 -0.33994873865434738 0 -0.062338573996696338 -0.34572680041635762 0 -0.059308715935641583 -0.34037410552534542 0 -0.059308715935641583 -0.34037410552534542 0 -0.056825023769863613 -0.33386598834385101 0 -0.052373249020527528 -0.33986646916705548 0 -0.06315794331055008 -0.33374463533683479 0 -0.059308715935641583 -0.34037410552534542 0 -0.056825023769863613 -0.33386598834385101 0 -0.06315794331055008 -0.33374463533683479 0 -0.064977567234692654 -0.33994873865434738 0 -0.059308715935641583 -0.34037410552534542 0 -0.06315794331055008 -0.33374463533683479 0 -0.056825023769863613 -0.33386598834385101 0 -0.061729479890013067 -0.3268838612384129 0 -0.056825023769863613 -0.33386598834385101 0 -0.061729479890013067 -0.3268838612384129 0 -0.055262761774045467 -0.32763022756999333 0 -0.049647872263854392 -0.33244757914204448 0 -0.049871530839766483 -0.32451913269671401 0 -0.045275343301671343 -0.32851994241809251 0 -0.049647872263854392 -0.33244757914204448 0 -0.055262761774045467 -0.32763022756999333 0 -0.049871530839766483 -0.32451913269671401 0 -0.056825023769863613 -0.33386598834385101 0 -0.049647872263854392 -0.33244757914204448 0 -0.052373249020527528 -0.33986646916705548 0 -0.056825023769863613 -0.33386598834385101 0 -0.049647872263854392 -0.33244757914204448 0 -0.055262761774045467 -0.32763022756999333 0 -0.049647872263854392 -0.33244757914204448 0 -0.052373249020527528 -0.33986646916705548 0 -0.046403918567121338 -0.33829121116974709 0 -0.046936993220436457 -0.34486411855367921 0 -0.052373249020527528 -0.33986646916705548 0 -0.046403918567121338 -0.33829121116974709 0 -0.064443545325132232 -0.31178658017004268 0 -0.0528295026585223 -0.31062794782841269 0 -0.057656990560287828 -0.31935698364997439 0 -0.064261712939945217 -0.31993032272123811 0 -0.064443545325132232 -0.31178658017004268 0 -0.057656990560287828 -0.31935698364997439 0 -0.057656990560287828 -0.31935698364997439 0 -0.061729479890013067 -0.3268838612384129 0 -0.055262761774045467 -0.32763022756999333 0 -0.064261712939945217 -0.31993032272123811 0 -0.057656990560287828 -0.31935698364997439 0 -0.061729479890013067 -0.3268838612384129 0 -0.057656990560287828 -0.31935698364997439 0 -0.049871530839766483 -0.32451913269671401 0 -0.046791716445742031 -0.31811000893412389 0 -0.057656990560287828 -0.31935698364997439 0 -0.055262761774045467 -0.32763022756999333 0 -0.049871530839766483 -0.32451913269671401 0 -0.0528295026585223 -0.31062794782841269 0 -0.057656990560287828 -0.31935698364997439 0 -0.046791716445742031 -0.31811000893412389 0 -0.0528295026585223 -0.31062794782841269 0 -0.040872465225599397 -0.31037369593935649 0 -0.046791716445742031 -0.31811000893412389 0 -0.040872465225599397 -0.31037369593935649 0 -0.046791716445742031 -0.31811000893412389 0 -0.037424714073981527 -0.32122446970597718 0 -0.046791716445742031 -0.31811000893412389 0 -0.043667118998005051 -0.32404011786668557 0 -0.037424714073981527 -0.32122446970597718 0 -0.049871530839766483 -0.32451913269671401 0 -0.046791716445742031 -0.31811000893412389 0 -0.043667118998005051 -0.32404011786668557 0 -0.049871530839766483 -0.32451913269671401 0 -0.043667118998005051 -0.32404011786668557 0 -0.045275343301671343 -0.32851994241809251 0 -0.043667118998005051 -0.32404011786668557 0 -0.038972290328863901 -0.32782703557852 0 -0.045275343301671343 -0.32851994241809251 0 -0.043667118998005051 -0.32404011786668557 0 -0.038972290328863901 -0.32782703557852 0 -0.037424714073981527 -0.32122446970597718 0 -0.03353397208683917 -0.32700715990173951 0 -0.037424714073981527 -0.32122446970597718 0 -0.029019756730198559 -0.32332280748999609 0 -0.038972290328863901 -0.32782703557852 0 -0.03353397208683917 -0.32700715990173951 0 -0.037424714073981527 -0.32122446970597718 0 -0.040872465225599397 -0.31037369593935649 0 -0.037424714073981527 -0.32122446970597718 0 -0.03052615059643202 -0.3139856799315463 0 -0.037424714073981527 -0.32122446970597718 0 -0.03052615059643202 -0.3139856799315463 0 -0.029019756730198559 -0.32332280748999609 0 -0.041235539005650447 -0.34084637306841747 0 -0.041662908301044931 -0.3341750406443138 0 -0.035088844265126713 -0.33923459004203799 0 -0.046936993220436457 -0.34486411855367921 0 -0.041235539005650447 -0.34084637306841747 0 -0.046403918567121338 -0.33829121116974709 0 -0.041235539005650447 -0.34084637306841747 0 -0.046403918567121338 -0.33829121116974709 0 -0.041662908301044931 -0.3341750406443138 0 -0.049647872263854392 -0.33244757914204448 0 -0.046403918567121338 -0.33829121116974709 0 -0.041662908301044931 -0.3341750406443138 0 -0.049647872263854392 -0.33244757914204448 0 -0.045275343301671343 -0.32851994241809251 0 -0.041662908301044931 -0.3341750406443138 0 -0.038972290328863901 -0.32782703557852 0 -0.045275343301671343 -0.32851994241809251 0 -0.041662908301044931 -0.3341750406443138 0 -0.041662908301044931 -0.3341750406443138 0 -0.034178512508314503 -0.33250709846353399 0 -0.035088844265126713 -0.33923459004203799 0 -0.038972290328863901 -0.32782703557852 0 -0.03353397208683917 -0.32700715990173951 0 -0.034178512508314503 -0.33250709846353399 0 -0.038972290328863901 -0.32782703557852 0 -0.041662908301044931 -0.3341750406443138 0 -0.034178512508314503 -0.33250709846353399 0 -0.03353397208683917 -0.32700715990173951 0 -0.034178512508314503 -0.33250709846353399 0 -0.028074586792837381 -0.33015438827067012 0 -0.034178512508314503 -0.33250709846353399 0 -0.035088844265126713 -0.33923459004203799 0 -0.028163046566918461 -0.33641956053164951 0 -0.037200070656550642 -0.34827608815137379 0 -0.041235539005650447 -0.34084637306841747 0 -0.035088844265126713 -0.33923459004203799 0 -0.037200070656550642 -0.34827608815137379 0 -0.035088844265126713 -0.33923459004203799 0 -0.028092988552281241 -0.34318337939294019 0 -0.028092988552281241 -0.34318337939294019 0 -0.023315148048814769 -0.3394932695634596 0 -0.02164691101867432 -0.34616175460243831 0 -0.028092988552281241 -0.34318337939294019 0 -0.028163046566918461 -0.33641956053164951 0 -0.023315148048814769 -0.3394932695634596 0 -0.028163046566918461 -0.33641956053164951 0 -0.021555616267889051 -0.33400029894312733 0 -0.023315148048814769 -0.3394932695634596 0 -0.035088844265126713 -0.33923459004203799 0 -0.028092988552281241 -0.34318337939294019 0 -0.028163046566918461 -0.33641956053164951 0 -0.034178512508314503 -0.33250709846353399 0 -0.028163046566918461 -0.33641956053164951 0 -0.028074586792837381 -0.33015438827067012 0 -0.028074586792837381 -0.33015438827067012 0 -0.021555616267889051 -0.33400029894312733 0 -0.022962575487050049 -0.3279420199800786 0 -0.028163046566918461 -0.33641956053164951 0 -0.028074586792837381 -0.33015438827067012 0 -0.021555616267889051 -0.33400029894312733 0 -0.021555616267889051 -0.33400029894312733 0 -0.0179585152471772 -0.32994205761310369 0 -0.022962575487050049 -0.3279420199800786 0 -0.0179585152471772 -0.32994205761310369 0 -0.016427457806256821 -0.33340129231597138 0 -0.0132242772309054 -0.32885254795225682 0 -0.021555616267889051 -0.33400029894312733 0 -0.0179585152471772 -0.32994205761310369 0 -0.016427457806256821 -0.33340129231597138 0 -0.021555616267889051 -0.33400029894312733 0 -0.016427457806256821 -0.33340129231597138 0 -0.01792710370061178 -0.34107195481968561 0 -0.01792710370061178 -0.34107195481968561 0 -0.023315148048814769 -0.3394932695634596 0 -0.02164691101867432 -0.34616175460243831 0 -0.021555616267889051 -0.33400029894312733 0 -0.01792710370061178 -0.34107195481968561 0 -0.023315148048814769 -0.3394932695634596 0 -0.020502460123308239 -0.30994054869748539 0 -0.03052615059643202 -0.3139856799315463 0 -0.022476947830358071 -0.31982485858446219 0 -0.03052615059643202 -0.3139856799315463 0 -0.029019756730198559 -0.32332280748999609 0 -0.022476947830358071 -0.31982485858446219 0 -0.029019756730198559 -0.32332280748999609 0 -0.022962575487050049 -0.3279420199800786 0 -0.022476947830358071 -0.31982485858446219 0 -0.03353397208683917 -0.32700715990173951 0 -0.028074586792837381 -0.33015438827067012 0 -0.029019756730198559 -0.32332280748999609 0 -0.028074586792837381 -0.33015438827067012 0 -0.029019756730198559 -0.32332280748999609 0 -0.022962575487050049 -0.3279420199800786 0 -0.022962575487050049 -0.3279420199800786 0 -0.017102896563798081 -0.32477481822733278 0 -0.022476947830358071 -0.31982485858446219 0 -0.017102896563798081 -0.32477481822733278 0 -0.022476947830358071 -0.31982485858446219 0 -0.01461958908626616 -0.31801952532985972 0 -0.0179585152471772 -0.32994205761310369 0 -0.017102896563798081 -0.32477481822733278 0 -0.0132242772309054 -0.32885254795225682 0 -0.0179585152471772 -0.32994205761310369 0 -0.022962575487050049 -0.3279420199800786 0 -0.017102896563798081 -0.32477481822733278 0 -0.020502460123308239 -0.30994054869748539 0 -0.022476947830358071 -0.31982485858446219 0 -0.01461958908626616 -0.31801952532985972 0 -0.0067298388885113653 -0.30830308727990929 0 -0.01461958908626616 -0.31801952532985972 0 -0.0076118670126628461 -0.31922030886070563 0 -0.01461958908626616 -0.31801952532985972 0 -0.012449028299350091 -0.32347156163171559 0 -0.0076118670126628461 -0.31922030886070563 0 -0.012449028299350091 -0.32347156163171559 0 -0.0086131603003588887 -0.32595267927560362 0 -0.0076118670126628461 -0.31922030886070563 0 -0.017102896563798081 -0.32477481822733278 0 -0.01461958908626616 -0.31801952532985972 0 -0.012449028299350091 -0.32347156163171559 0 -0.017102896563798081 -0.32477481822733278 0 -0.012449028299350091 -0.32347156163171559 0 -0.0132242772309054 -0.32885254795225682 0 -0.012449028299350091 -0.32347156163171559 0 -0.0086131603003588887 -0.32595267927560362 0 -0.0132242772309054 -0.32885254795225682 0 -0.0086131603003588887 -0.32595267927560362 0 -0.0028984470069264899 -0.32374095362905292 0 -0.0056847684978834643 -0.32897975362832582 0 -0.0086131603003588887 -0.32595267927560362 0 -0.0028984470069264899 -0.32374095362905292 0 -0.0076118670126628461 -0.31922030886070563 0 -0.0028984470069264899 -0.32374095362905292 0 -0.0076118670126628461 -0.31922030886070563 0 0.0018218712204055871 -0.31650540371877861 0 -0.0067298388885113653 -0.30830308727990929 0 -0.0076118670126628461 -0.31922030886070563 0 0.0018218712204055871 -0.31650540371877861 0 -0.016427457806256821 -0.33340129231597138 0 -0.01792710370061178 -0.34107195481968561 0 -0.011471776584700669 -0.3331396022516836 0 -0.016427457806256821 -0.33340129231597138 0 -0.0132242772309054 -0.32885254795225682 0 -0.011471776584700669 -0.3331396022516836 0 -0.0086131603003588887 -0.32595267927560362 0 -0.0093958002790081215 -0.33013220399693771 0 -0.0056847684978834643 -0.32897975362832582 0 -0.0086131603003588887 -0.32595267927560362 0 -0.0132242772309054 -0.32885254795225682 0 -0.0093958002790081215 -0.33013220399693771 0 -0.0132242772309054 -0.32885254795225682 0 -0.0093958002790081215 -0.33013220399693771 0 -0.011471776584700669 -0.3331396022516836 0 -0.0093958002790081215 -0.33013220399693771 0 -0.011471776584700669 -0.3331396022516836 0 -0.0083032927095371828 -0.33359783761539591 0 -0.0083032927095371828 -0.33359783761539591 0 -0.0056847684978834643 -0.32897975362832582 0 0.001169888875712684 -0.33178113742189169 0 -0.0028984470069264899 -0.32374095362905292 0 -0.0056847684978834643 -0.32897975362832582 0 0.001169888875712684 -0.33178113742189169 0 -0.0093958002790081215 -0.33013220399693771 0 -0.0083032927095371828 -0.33359783761539591 0 -0.0056847684978834643 -0.32897975362832582 0 -0.011471776584700669 -0.3331396022516836 0 -0.0083032927095371828 -0.33359783761539591 0 -0.0028658714993471009 -0.34779572035617068 0 -0.011471776584700669 -0.3331396022516836 0 -0.0028658714993471009 -0.34779572035617068 0 -0.014595605720539461 -0.3594764747079261 0 -0.0028658714993471009 -0.34779572035617068 0 -0.014595605720539461 -0.3594764747079261 0 0.0054053067099310639 -0.3668202613418648 0 -0.01792710370061178 -0.34107195481968561 0 -0.011471776584700669 -0.3331396022516836 0 -0.014595605720539461 -0.3594764747079261 0 -0.011471776584700669 -0.3331396022516836 0 -0.014595605720539461 -0.3594764747079261 0 -0.030352881969934249 -0.35884527069404709 0 -0.026078690279606621 -0.35090416912648281 0 -0.014595605720539461 -0.3594764747079261 0 -0.01792710370061178 -0.34107195481968561 0 -0.02164691101867432 -0.34616175460243831 0 -0.014595605720539461 -0.3594764747079261 0 -0.02164691101867432 -0.34616175460243831 0 -0.026078690279606621 -0.35090416912648281 0 -0.014595605720539461 -0.3594764747079261 0 -0.037200070656550642 -0.34827608815137379 0 -0.030352881969934249 -0.35884527069404709 0 -0.026078690279606621 -0.35090416912648281 0 -0.037200070656550642 -0.34827608815137379 0 -0.028092988552281241 -0.34318337939294019 0 -0.026078690279606621 -0.35090416912648281 0 -0.028092988552281241 -0.34318337939294019 0 -0.02164691101867432 -0.34616175460243831 0 -0.026078690279606621 -0.35090416912648281 0 -0.030352881969934249 -0.35884527069404709 0 -0.02476096383580581 -0.37112131792937803 0 -0.014595605720539461 -0.3594764747079261 0 -0.02476096383580581 -0.37112131792937803 0 -0.014595605720539461 -0.3594764747079261 0 -0.017719434856378249 -0.38581334716416849 0 -0.014595605720539461 -0.3594764747079261 0 -0.017719434856378249 -0.38581334716416849 0 -0.037951534851504147 -0.36526137128696029 0 -0.030352881969934249 -0.35884527069404709 0 -0.02476096383580581 -0.37112131792937803 0 -0.0087970844721565432 -0.37446606268012328 0 -0.014595605720539461 -0.3594764747079261 0 0.0054053067099310639 -0.3668202613418648 0 -0.0087970844721565432 -0.37446606268012328 0 -0.014595605720539461 -0.3594764747079261 0 -0.017719434856378249 -0.38581334716416849 0 -0.0087970844721565432 -0.37446606268012328 0 -0.003825397388248677 -0.38769609681974632 0 0.0054053067099310639 -0.3668202613418648 0 -0.0087970844721565432 -0.37446606268012328 0 -0.003825397388248677 -0.38769609681974632 0 -0.010710308451832041 -0.38629638899045421 0 -0.003825397388248677 -0.38769609681974632 0 -0.010710308451832041 -0.38629638899045421 0 -0.0133004241589863 -0.39282727583562249 0 -0.010710308451832041 -0.38629638899045421 0 -0.0133004241589863 -0.39282727583562249 0 -0.017719434856378249 -0.38581334716416849 0 -0.0087970844721565432 -0.37446606268012328 0 -0.010710308451832041 -0.38629638899045421 0 -0.017719434856378249 -0.38581334716416849 0 -0.003825397388248677 -0.38769609681974632 0 -0.0133004241589863 -0.39282727583562249 0 0.0029304367515351668 -0.39652668871224012 0 -0.0133004241589863 -0.39282727583562249 0 -0.020843263992217032 -0.41215021962041087 0 0.001511885519548556 -0.40876938373709409 0 -0.0133004241589863 -0.39282727583562249 0 0.001511885519548556 -0.40876938373709409 0 -0.0133004241589863 -0.39282727583562249 0 0.0029304367515351668 -0.39652668871224012 0 0.001511885519548556 -0.40876938373709409 0 -0.0133004241589863 -0.39282727583562249 0 -0.017719434856378249 -0.38581334716416849 0 -0.020843263992217032 -0.41215021962041087 0 -0.02730574041155678 -0.39678028359831652 0 -0.017719434856378249 -0.38581334716416849 0 -0.020843263992217032 -0.41215021962041087 0 -0.017719434856378249 -0.38581334716416849 0 -0.020843263992217032 -0.41215021962041087 0 -0.02730574041155678 -0.39678028359831652 0 -0.031912903720799912 -0.40506021542306431 0 -0.020843263992217032 -0.41215021962041087 0 -0.02476096383580581 -0.37112131792937803 0 -0.017719434856378249 -0.38581334716416849 0 -0.02686503496376132 -0.37948395402006369 0 -0.017719434856378249 -0.38581334716416849 0 -0.02686503496376132 -0.37948395402006369 0 -0.031428773664431732 -0.38525004153635167 0 -0.02730574041155678 -0.39678028359831652 0 -0.017719434856378249 -0.38581334716416849 0 -0.031428773664431732 -0.38525004153635167 0 -0.02476096383580581 -0.37112131792937803 0 -0.02686503496376132 -0.37948395402006369 0 -0.038307643595086947 -0.37534410887309699 0 -0.038307643595086947 -0.37534410887309699 0 -0.031428773664431732 -0.38525004153635167 0 -0.050429874283835857 -0.38654005669808927 0 -0.02686503496376132 -0.37948395402006369 0 -0.038307643595086947 -0.37534410887309699 0 -0.031428773664431732 -0.38525004153635167 0 -0.031428773664431732 -0.38525004153635167 0 -0.04041325136172428 -0.39823411663718078 0 -0.050429874283835857 -0.38654005669808927 0 -0.051013153762145713 -0.37495414564963442 0 -0.038307643595086947 -0.37534410887309699 0 -0.050429874283835857 -0.38654005669808927 0 -0.02730574041155678 -0.39678028359831652 0 -0.031428773664431732 -0.38525004153635167 0 -0.04041325136172428 -0.39823411663718078 0 -0.031912903720799912 -0.40506021542306431 0 -0.04041325136172428 -0.39823411663718078 0 -0.039089359117701547 -0.41307624183634889 0 -0.02730574041155678 -0.39678028359831652 0 -0.031912903720799912 -0.40506021542306431 0 -0.04041325136172428 -0.39823411663718078 0 -0.04041325136172428 -0.39823411663718078 0 -0.060414277288201659 -0.3966959156673826 0 -0.050429874283835857 -0.38654005669808927 0 -0.04041325136172428 -0.39823411663718078 0 -0.060414277288201659 -0.3966959156673826 0 -0.055611276812373198 -0.41110047393447691 0 -0.060414277288201659 -0.3966959156673826 0 -0.050429874283835857 -0.38654005669808927 0 -0.063723953343388512 -0.37677197937192519 0 -0.051013153762145713 -0.37495414564963442 0 -0.050429874283835857 -0.38654005669808927 0 -0.063723953343388512 -0.37677197937192519 0 -0.05308480139045435 -0.42450485779113989 0 -0.059965374801084152 -0.44213288238090709 0 -0.068491248269416022 -0.42508210197471991 0 -0.05308480139045435 -0.42450485779113989 0 -0.039586496158982222 -0.43040928596907141 0 -0.059965374801084152 -0.44213288238090709 0 -0.05308480139045435 -0.42450485779113989 0 -0.055611276812373198 -0.41110047393447691 0 -0.039089359117701547 -0.41307624183634889 0 -0.05308480139045435 -0.42450485779113989 0 -0.055611276812373198 -0.41110047393447691 0 -0.068491248269416022 -0.42508210197471991 0 -0.039089359117701547 -0.41307624183634889 0 -0.039586496158982222 -0.43040928596907141 0 -0.020843263992217032 -0.41215021962041087 0 -0.04041325136172428 -0.39823411663718078 0 -0.055611276812373198 -0.41110047393447691 0 -0.039089359117701547 -0.41307624183634889 0 -0.05308480139045435 -0.42450485779113989 0 -0.039089359117701547 -0.41307624183634889 0 -0.039586496158982222 -0.43040928596907141 0 -0.039586496158982222 -0.43040928596907141 0 -0.020843263992217032 -0.41215021962041087 0 -0.02301962934725648 -0.44090878364420732 0 -0.020843263992217032 -0.41215021962041087 0 -0.005429102141262133 -0.43229093911168959 0 -0.02301962934725648 -0.44090878364420732 0 -0.031912903720799912 -0.40506021542306431 0 -0.039089359117701547 -0.41307624183634889 0 -0.020843263992217032 -0.41215021962041087 0 -0.020843263992217032 -0.41215021962041087 0 0.001511885519548556 -0.40876938373709409 0 0.0035557924323105358 -0.42172266948248099 0 -0.020843263992217032 -0.41215021962041087 0 -0.005429102141262133 -0.43229093911168959 0 0.0035557924323105358 -0.42172266948248099 0 -0.005429102141262133 -0.43229093911168959 0 -0.02301962934725648 -0.44090878364420732 0 0.0057832983759422141 -0.45054466628336548 0 -0.019569908124733779 -0.46043573302669449 0 -0.02301962934725648 -0.44090878364420732 0 0.0057832983759422141 -0.45054466628336548 0 -0.019569908124733779 -0.46043573302669449 0 0.0057832983759422141 -0.45054466628336548 0 -0.0021773900229133808 -0.46546624057839919 0 -0.019569908124733779 -0.46043573302669449 0 0.0057832983759422141 -0.45054466628336548 0 -0.019569908124733779 -0.46043573302669449 0 -0.02301962934725648 -0.44090878364420732 0 -0.037412904611493228 -0.44884269695818069 0 -6.7175555761023187e-05 -0.5 0 -0.0063902333702228614 -0.48184543134464008 0 -0.027421934365323031 -0.49999999999999428 0 -0.0021773900229133808 -0.46546624057839919 0 -0.019569908124733779 -0.46043573302669449 0 -0.0063902333702228614 -0.48184543134464008 0 -0.019569908124733779 -0.46043573302669449 0 -0.0063902333702228614 -0.48184543134464008 0 -0.02982346495830826 -0.48252159282827162 0 -0.0063902333702228614 -0.48184543134464008 0 -0.027421934365323031 -0.49999999999999428 0 -0.0063902333702228614 -0.48184543134464008 0 -0.02982346495830826 -0.48252159282827162 0 -0.027421934365323031 -0.49999999999999428 0 -0.02982346495830826 -0.48252159282827162 0 -0.027421934365323031 -0.49999999999999428 0 -0.050812134305852068 -0.5 0 -0.02982346495830826 -0.48252159282827162 0 -0.044923114625409558 -0.4703267997700234 0 -0.050812134305852068 -0.5 0 -0.019569908124733779 -0.46043573302669449 0 -0.02982346495830826 -0.48252159282827162 0 -0.044923114625409558 -0.4703267997700234 0 -0.044923114625409558 -0.4703267997700234 0 -0.050812134305852068 -0.5 0 -0.070276321126085367 -0.4802178665133523 0 -0.044923114625409558 -0.4703267997700234 0 -0.070276321126085367 -0.4802178665133523 0 -0.039586496158982222 -0.43040928596907141 0 -0.02301962934725648 -0.44090878364420732 0 -0.037412904611493228 -0.44884269695818069 0 -0.039586496158982222 -0.43040928596907141 0 -0.037412904611493228 -0.44884269695818069 0 -0.059965374801084152 -0.44213288238090709 0 -0.019569908124733779 -0.46043573302669449 0 -0.044923114625409558 -0.4703267997700234 0 -0.019569908124733779 -0.46043573302669449 0 -0.044923114625409558 -0.4703267997700234 0 -0.037412904611493228 -0.44884269695818069 0 -0.044923114625409558 -0.4703267997700234 0 -0.059965374801084152 -0.44213288238090709 0 -0.073324220870110091 -0.46002544547144297 0 -0.044923114625409558 -0.4703267997700234 0 -0.037412904611493228 -0.44884269695818069 0 -0.059965374801084152 -0.44213288238090709 0 -0.059965374801084152 -0.44213288238090709 0 -0.073324220870110091 -0.46002544547144297 0 -0.08063822981528404 -0.44095901335808457 0 -0.073324220870110091 -0.46002544547144297 0 -0.096961523227737101 -0.47291930433206653 0 -0.09569172947368676 -0.45409025965621591 0 -0.073324220870110091 -0.46002544547144297 0 -0.08063822981528404 -0.44095901335808457 0 -0.09569172947368676 -0.45409025965621591 0 -0.08063822981528404 -0.44095901335808457 0 -0.098530863790204898 -0.43851298828236179 0 -0.09569172947368676 -0.45409025965621591 0 -0.050812134305852068 -0.5 0 -0.074202334246381008 -0.5 0 -0.070276321126085367 -0.4802178665133523 0 -0.044923114625409558 -0.4703267997700234 0 -0.073324220870110091 -0.46002544547144297 0 -0.070276321126085367 -0.4802178665133523 0 -0.070276321126085367 -0.4802178665133523 0 -0.095629527626761093 -0.4901089332566812 0 -0.096961523227737101 -0.47291930433206653 0 -0.073324220870110091 -0.46002544547144297 0 -0.070276321126085367 -0.4802178665133523 0 -0.096961523227737101 -0.47291930433206653 0 -0.070276321126085367 -0.4802178665133523 0 -0.095629527626761093 -0.4901089332566812 0 -0.074202334246381008 -0.5 0 -0.070276321126085367 -0.4802178665133523 0 -0.095629527626761093 -0.4901089332566812 0 -0.074202334246381008 -0.5 0 -0.095629527626761093 -0.4901089332566812 0 -0.09759253418690983 -0.5 0 -0.095629527626761093 -0.4901089332566812 0 -0.09759253418690983 -0.5 0 -0.12098273412743871 -0.50000000000000544 0 -0.095629527626761093 -0.4901089332566812 0 -0.12098273412743871 -0.50000000000000544 0 -0.096961523227737101 -0.47291930433206653 0 -0.11416590097383431 -0.47404488916518911 0 -0.1148577257484745 -0.46153671402195717 0 -0.095629527626761093 -0.4901089332566812 0 -0.096961523227737101 -0.47291930433206653 0 -0.11416590097383431 -0.47404488916518911 0 -0.13301330704800651 -0.46933200050178031 0 -0.11416590097383431 -0.47404488916518911 0 -0.1206489211485175 -0.48561620535029443 0 -0.095629527626761093 -0.4901089332566812 0 -0.11416590097383431 -0.47404488916518911 0 -0.1206489211485175 -0.48561620535029443 0 -0.095629527626761093 -0.4901089332566812 0 -0.1206489211485175 -0.48561620535029443 0 -0.12098273412743871 -0.50000000000000544 0 -0.098530863790204898 -0.43851298828236179 0 -0.09569172947368676 -0.45409025965621591 0 -0.1114204902813356 -0.44856142968263901 0 -0.096961523227737101 -0.47291930433206653 0 -0.09569172947368676 -0.45409025965621591 0 -0.1148577257484745 -0.46153671402195717 0 -0.09569172947368676 -0.45409025965621591 0 -0.1148577257484745 -0.46153671402195717 0 -0.1114204902813356 -0.44856142968263901 0 -0.13301330704800651 -0.46933200050178031 0 -0.11416590097383431 -0.47404488916518911 0 -0.1148577257484745 -0.46153671402195717 0 -0.12821452228866201 -0.4521700320706401 0 -0.1148577257484745 -0.46153671402195717 0 -0.1114204902813356 -0.44856142968263901 0 -0.098530863790204898 -0.43851298828236179 0 -0.1114204902813356 -0.44856142968263901 0 -0.11954884964877439 -0.43607079633439882 0 -0.12821452228866201 -0.4521700320706401 0 -0.1114204902813356 -0.44856142968263901 0 -0.11954884964877439 -0.43607079633439882 0 -0.13318107511444849 -0.42782239268651312 0 -0.11954884964877439 -0.43607079633439882 0 -0.1215773308823918 -0.41791748790890337 0 -0.11954884964877439 -0.43607079633439882 0 -0.1051698203542507 -0.42480576817404597 0 -0.1215773308823918 -0.41791748790890337 0 -0.098530863790204898 -0.43851298828236179 0 -0.1051698203542507 -0.42480576817404597 0 -0.086904484133880217 -0.42223720885770122 0 -0.098530863790204898 -0.43851298828236179 0 -0.11954884964877439 -0.43607079633439882 0 -0.1051698203542507 -0.42480576817404597 0 -0.1127972673950141 -0.40749333448901393 0 -0.089831278610808807 -0.40592193917585551 0 -0.086904484133880217 -0.42223720885770122 0 -0.1051698203542507 -0.42480576817404597 0 -0.1127972673950141 -0.40749333448901393 0 -0.1051698203542507 -0.42480576817404597 0 -0.1127972673950141 -0.40749333448901393 0 -0.086904484133880217 -0.42223720885770122 0 -0.1127972673950141 -0.40749333448901393 0 -0.086904484133880217 -0.42223720885770122 0 -0.1127972673950141 -0.40749333448901393 0 -0.1215773308823918 -0.41791748790890337 0 -0.1051698203542507 -0.42480576817404597 0 -0.1127972673950141 -0.40749333448901393 0 -0.1215773308823918 -0.41791748790890337 0 -0.1127972673950141 -0.40749333448901393 0 -0.11492235333178499 -0.40628326758510569 0 -0.12061492411456561 -0.41074750946472471 0 -0.1127972673950141 -0.40749333448901393 0 -0.11492235333178499 -0.40628326758510569 0 -0.13078189362478529 -0.41771698139759572 0 -0.1215773308823918 -0.41791748790890337 0 -0.12061492411456561 -0.41074750946472471 0 -0.1127972673950141 -0.40749333448901393 0 -0.1215773308823918 -0.41791748790890337 0 -0.12061492411456561 -0.41074750946472471 0 -0.1127972673950141 -0.40749333448901393 0 -0.11492235333178499 -0.40628326758510569 0 -0.11194306955764299 -0.39001719195577939 0 -0.12854237267555391 -0.3804154425905748 0 -0.12960206346899769 -0.39792434379352087 0 -0.11492235333178499 -0.40628326758510569 0 -0.12960206346899769 -0.39792434379352087 0 -0.11492235333178499 -0.40628326758510569 0 -0.12061492411456561 -0.41074750946472471 0 -0.12960206346899769 -0.39792434379352087 0 -0.11492235333178499 -0.40628326758510569 0 -0.12854237267555391 -0.3804154425905748 0 -0.11492235333178499 -0.40628326758510569 0 -0.12854237267555391 -0.3804154425905748 0 -0.11492235333178499 -0.40628326758510569 0 -0.11194306955764299 -0.39001719195577939 0 -0.12854237267555391 -0.3804154425905748 0 -0.11194306955764299 -0.39001719195577939 0 -0.1155347256555123 -0.37527697194126403 0 -0.11194306955764299 -0.39001719195577939 0 -0.1155347256555123 -0.37527697194126403 0 -0.1032359822407381 -0.37669194290174951 0 -0.084224317893437983 -0.37357002519957799 0 -0.1032359822407381 -0.37669194290174951 0 -0.098510792644226117 -0.39053167984429588 0 -0.11194306955764299 -0.39001719195577939 0 -0.1032359822407381 -0.37669194290174951 0 -0.098510792644226117 -0.39053167984429588 0 -0.1127972673950141 -0.40749333448901393 0 -0.098510792644226117 -0.39053167984429588 0 -0.1127972673950141 -0.40749333448901393 0 -0.11194306955764299 -0.39001719195577939 0 -0.098510792644226117 -0.39053167984429588 0 -0.1127972673950141 -0.40749333448901393 0 -0.098510792644226117 -0.39053167984429588 0 -0.089831278610808807 -0.40592193917585551 0 -0.098510792644226117 -0.39053167984429588 0 -0.089831278610808807 -0.40592193917585551 0 -0.077636420443106077 -0.39394406084584072 0 -0.089831278610808807 -0.40592193917585551 0 -0.077636420443106077 -0.39394406084584072 0 -0.073148164259630985 -0.40916361674266277 0 -0.084224317893437983 -0.37357002519957799 0 -0.098510792644226117 -0.39053167984429588 0 -0.084224317893437983 -0.37357002519957799 0 -0.098510792644226117 -0.39053167984429588 0 -0.077636420443106077 -0.39394406084584072 0 -0.084224317893437983 -0.37357002519957799 0 -0.063723953343388512 -0.37677197937192519 0 -0.077636420443106077 -0.39394406084584072 0 -0.060414277288201659 -0.3966959156673826 0 -0.063723953343388512 -0.37677197937192519 0 -0.077636420443106077 -0.39394406084584072 0 -0.060414277288201659 -0.3966959156673826 0 -0.077636420443106077 -0.39394406084584072 0 -0.073148164259630985 -0.40916361674266277 0 -0.060414277288201659 -0.3966959156673826 0 -0.055611276812373198 -0.41110047393447691 0 -0.073148164259630985 -0.40916361674266277 0 -0.055611276812373198 -0.41110047393447691 0 -0.073148164259630985 -0.40916361674266277 0 -0.068491248269416022 -0.42508210197471991 0 -0.073148164259630985 -0.40916361674266277 0 -0.068491248269416022 -0.42508210197471991 0 -0.086904484133880217 -0.42223720885770122 0 -0.059965374801084152 -0.44213288238090709 0 -0.08063822981528404 -0.44095901335808457 0 -0.068491248269416022 -0.42508210197471991 0 -0.08063822981528404 -0.44095901335808457 0 -0.068491248269416022 -0.42508210197471991 0 -0.086904484133880217 -0.42223720885770122 0 -0.08063822981528404 -0.44095901335808457 0 -0.098530863790204898 -0.43851298828236179 0 -0.086904484133880217 -0.42223720885770122 0 -0.089831278610808807 -0.40592193917585551 0 -0.073148164259630985 -0.40916361674266277 0 -0.086904484133880217 -0.42223720885770122 0 -0.088135859503681996 -0.07818465673291039 0 -0.074345943178815127 -0.095737749263621871 0 -0.089912477409513872 -0.092614344154299505 0 -0.088135859503681996 -0.07818465673291039 0 -0.074345943178815127 -0.095737749263621871 0 -0.088135859503681996 -0.07818465673291039 0 -0.078116716963843758 -0.079959102778342367 0 -0.074345943178815127 -0.095737749263621871 0 -0.088135859503681996 -0.07818465673291039 0 -0.085257636138242887 -0.076729309931193146 0 -0.078116716963843758 -0.079959102778342367 0 -0.089912477409513872 -0.092614344154299505 0 -0.088135859503681996 -0.07818465673291039 0 -0.1021542941089128 -0.085272947451685205 0 -0.088135859503681996 -0.07818465673291039 0 -0.091582070519724945 -0.073797997711937638 0 -0.088505603294947388 -0.076593382713834798 0 -0.086974095267308427 -0.068796563153030149 0 -0.085257636138242887 -0.076729309931193146 0 -0.091582070519724945 -0.073797997711937638 0 -0.088505603294947388 -0.076593382713834798 0 -0.086974095267308427 -0.068796563153030149 0 -0.091582070519724945 -0.073797997711937638 0 -0.086974095267308427 -0.068796563153030149 0 -0.088505603294947388 -0.076593382713834798 0 -0.086974095267308427 -0.068796563153030149 0 -0.088135859503681996 -0.07818465673291039 0 -0.091582070519724945 -0.073797997711937638 0 -0.088505603294947388 -0.076593382713834798 0 -0.088135859503681996 -0.07818465673291039 0 -0.088505603294947388 -0.076593382713834798 0 -0.085257636138242887 -0.076729309931193146 0 -0.088135859503681996 -0.07818465673291039 0 -0.085257636138242887 -0.076729309931193146 0 -0.091582070519724945 -0.073797997711937638 0 -0.086974095267308427 -0.068796563153030149 0 -0.09381560541810241 -0.058575323438785618 0 -0.086974095267308427 -0.068796563153030149 0 -0.079578191453684888 -0.072077578597582306 0 -0.072792821058426285 -0.063069204200971687 0 -0.086974095267308427 -0.068796563153030149 0 -0.079578191453684888 -0.072077578597582306 0 -0.085257636138242887 -0.076729309931193146 0 -0.079578191453684888 -0.072077578597582306 0 -0.085257636138242887 -0.076729309931193146 0 -0.078116716963843758 -0.079959102778342367 0 -0.079578191453684888 -0.072077578597582306 0 -0.073628264216443473 -0.0743133246267033 0 -0.078116716963843758 -0.079959102778342367 0 -0.073628264216443473 -0.0743133246267033 0 -0.072792821058426285 -0.063069204200971687 0 -0.067161390320769759 -0.069491255050128375 0 -0.079578191453684888 -0.072077578597582306 0 -0.073628264216443473 -0.0743133246267033 0 -0.072792821058426285 -0.063069204200971687 0 -0.072792821058426285 -0.063069204200971687 0 -0.067161390320769759 -0.069491255050128375 0 -0.062544578193351075 -0.061623305443342033 0 -0.067161390320769759 -0.069491255050128375 0 -0.062544578193351075 -0.061623305443342033 0 -0.058542313933840767 -0.068628173472831899 0 -0.073628264216443473 -0.0743133246267033 0 -0.067525836471637582 -0.075618268397098759 0 -0.067754407292194105 -0.082711997518043326 0 -0.073628264216443473 -0.0743133246267033 0 -0.067161390320769759 -0.069491255050128375 0 -0.067525836471637582 -0.075618268397098759 0 -0.067161390320769759 -0.069491255050128375 0 -0.067525836471637582 -0.075618268397098759 0 -0.061559284057143018 -0.075956496393520062 0 -0.067525836471637582 -0.075618268397098759 0 -0.067754407292194105 -0.082711997518043326 0 -0.061559284057143018 -0.075956496393520062 0 -0.067754407292194105 -0.082711997518043326 0 -0.078116716963843758 -0.079959102778342367 0 -0.074345943178815127 -0.095737749263621871 0 -0.073628264216443473 -0.0743133246267033 0 -0.067754407292194105 -0.082711997518043326 0 -0.078116716963843758 -0.079959102778342367 0 -0.067754407292194105 -0.082711997518043326 0 -0.074345943178815127 -0.095737749263621871 0 -0.059300129734072463 -0.095627259438271939 0 -0.074345943178815127 -0.095737749263621871 0 -0.060556026853947668 -0.11329084179433301 0 -0.059300129734072463 -0.095627259438271939 0 -0.074345943178815127 -0.095737749263621871 0 -0.060556026853947668 -0.11329084179433301 0 -0.074345943178815127 -0.095737749263621871 0 -0.077782916403423108 -0.1139519216562922 0 -0.060556026853947668 -0.11329084179433301 0 -0.077782916403423108 -0.1139519216562922 0 -0.060556026853947668 -0.11329084179433301 0 -0.07280836113464155 -0.13624796959516219 0 -0.077782916403423108 -0.1139519216562922 0 -0.094627930946975386 -0.1190147510100359 0 -0.07280836113464155 -0.13624796959516219 0 -0.077782916403423108 -0.1139519216562922 0 -0.086576319902735732 -0.1054682966183082 0 -0.094627930946975386 -0.1190147510100359 0 -0.074345943178815127 -0.095737749263621871 0 -0.077782916403423108 -0.1139519216562922 0 -0.086576319902735732 -0.1054682966183082 0 -0.086576319902735732 -0.1054682966183082 0 -0.096890694886546669 -0.1007169754941014 0 -0.094627930946975386 -0.1190147510100359 0 -0.089912477409513872 -0.092614344154299505 0 -0.074345943178815127 -0.095737749263621871 0 -0.086576319902735732 -0.1054682966183082 0 -0.089912477409513872 -0.092614344154299505 0 -0.086576319902735732 -0.1054682966183082 0 -0.096890694886546669 -0.1007169754941014 0 -0.096890694886546669 -0.1007169754941014 0 -0.1090079706903446 -0.1007915802417048 0 -0.094627930946975386 -0.1190147510100359 0 -0.1090079706903446 -0.1007915802417048 0 -0.094627930946975386 -0.1190147510100359 0 -0.11644750075930931 -0.10178153242490991 0 -0.1090079706903446 -0.1007915802417048 0 -0.11644750075930931 -0.10178153242490991 0 -0.1021542941089128 -0.085272947451685205 0 -0.096890694886546669 -0.1007169754941014 0 -0.1090079706903446 -0.1007915802417048 0 -0.1021542941089128 -0.085272947451685205 0 -0.094627930946975386 -0.1190147510100359 0 -0.1071226961801184 -0.11997468442828529 0 -0.11644750075930931 -0.10178153242490991 0 -0.094627930946975386 -0.1190147510100359 0 -0.11644750075930931 -0.10178153242490991 0 -0.1071226961801184 -0.11997468442828529 0 -0.115352666730383 -0.1172778676702054 0 -0.11644750075930931 -0.10178153242490991 0 -0.1071226961801184 -0.11997468442828529 0 -0.115352666730383 -0.1172778676702054 0 -0.1131818821580417 -0.12521986653405789 0 -0.115352666730383 -0.1172778676702054 0 -0.11644750075930931 -0.10178153242490991 0 -0.115352666730383 -0.1172778676702054 0 -0.1187427395582174 -0.107946452146509 0 -0.12619271498104709 -0.1113639271782951 0 -0.115352666730383 -0.1172778676702054 0 -0.1131818821580417 -0.12521986653405789 0 -0.12619271498104709 -0.1113639271782951 0 -0.1131818821580417 -0.12521986653405789 0 -0.12539022321906759 -0.12505418175415881 0 -0.12619271498104709 -0.1113639271782951 0 -0.1131818821580417 -0.12521986653405789 0 -0.12619271498104709 -0.1113639271782951 0 -0.11644750075930931 -0.10178153242490991 0 -0.11708062179416739 -0.092820305839139736 0 -0.115352666730383 -0.1172778676702054 0 -0.11644750075930931 -0.10178153242490991 0 -0.1187427395582174 -0.107946452146509 0 -0.11644750075930931 -0.10178153242490991 0 -0.1236121037757702 -0.096122888788933963 0 -0.12619271498104709 -0.1113639271782951 0 -0.11644750075930931 -0.10178153242490991 0 -0.1187427395582174 -0.107946452146509 0 -0.12619271498104709 -0.1113639271782951 0 -0.11644750075930931 -0.10178153242490991 0 -0.12619271498104709 -0.1113639271782951 0 -0.1236121037757702 -0.096122888788933963 0 -0.11708062179416739 -0.092820305839139736 0 -0.12569653801426589 -0.094476590939466421 0 -0.11644750075930931 -0.10178153242490991 0 -0.1236121037757702 -0.096122888788933963 0 -0.11708062179416739 -0.092820305839139736 0 -0.11644750075930931 -0.10178153242490991 0 -0.1236121037757702 -0.096122888788933963 0 -0.1236121037757702 -0.096122888788933963 0 -0.11708062179416739 -0.092820305839139736 0 -0.1236121037757702 -0.096122888788933963 0 -0.12569653801426589 -0.094476590939466421 0 -0.11708062179416739 -0.092820305839139736 0 -0.11879731032931989 -0.068522211014163115 0 -0.11644750075930931 -0.10178153242490991 0 -0.11708062179416739 -0.092820305839139736 0 -0.1021542941089128 -0.085272947451685205 0 -0.11708062179416739 -0.092820305839139736 0 -0.11879731032931989 -0.068522211014163115 0 -0.12967672372996011 -0.081965824113955282 0 -0.11708062179416739 -0.092820305839139736 0 -0.129568967095745 -0.089657366486833756 0 -0.12569653801426589 -0.094476590939466421 0 -0.11708062179416739 -0.092820305839139736 0 -0.1021542941089128 -0.085272947451685205 0 -0.11708062179416739 -0.092820305839139736 0 -0.1021542941089128 -0.085272947451685205 0 -0.1058359079619625 -0.072576740667961909 0 -0.11644750075930931 -0.10178153242490991 0 -0.1021542941089128 -0.085272947451685205 0 -0.088135859503681996 -0.07818465673291039 0 -0.091582070519724945 -0.073797997711937638 0 -0.1021542941089128 -0.085272947451685205 0 -0.091582070519724945 -0.073797997711937638 0 -0.1021542941089128 -0.085272947451685205 0 -0.088135859503681996 -0.07818465673291039 0 -0.1021542941089128 -0.085272947451685205 0 -0.089912477409513872 -0.092614344154299505 0 -0.096890694886546669 -0.1007169754941014 0 -0.1021542941089128 -0.085272947451685205 0 -0.091582070519724945 -0.073797997711937638 0 -0.10709099102604119 -0.054056796221981007 0 -0.091582070519724945 -0.073797997711937638 0 -0.1058359079619625 -0.072576740667961909 0 -0.10709099102604119 -0.054056796221981007 0 -0.091582070519724945 -0.073797997711937638 0 -0.1021542941089128 -0.085272947451685205 0 -0.1058359079619625 -0.072576740667961909 0 -0.11708062179416739 -0.092820305839139736 0 -0.1058359079619625 -0.072576740667961909 0 -0.11879731032931989 -0.068522211014163115 0 -0.1058359079619625 -0.072576740667961909 0 -0.11879731032931989 -0.068522211014163115 0 -0.10709099102604119 -0.054056796221981007 0 -0.11879731032931989 -0.068522211014163115 0 -0.12967672372996011 -0.081965824113955282 0 -0.11879731032931989 -0.068522211014163115 0 -0.1199372045187997 -0.05238809201747794 0 -0.11879731032931989 -0.068522211014163115 0 -0.1199372045187997 -0.05238809201747794 0 -0.13052085344653089 -0.061752034530431377 0 -0.1199372045187997 -0.05238809201747794 0 -0.12107709870827919 -0.036253973020792793 0 -0.10709099102604119 -0.054056796221981007 0 -0.11879731032931989 -0.068522211014163115 0 -0.1199372045187997 -0.05238809201747794 0 -0.10709099102604119 -0.054056796221981007 0 -0.11879731032931989 -0.068522211014163115 0 -0.10709099102604119 -0.054056796221981007 0 -0.1199372045187997 -0.05238809201747794 0 -0.12107709870827919 -0.036253973020792793 0 -0.12107709870827919 -0.036253973020792793 0 -0.1084396189935381 -0.041205645323004872 0 -0.10709099102604119 -0.054056796221981007 0 -0.1199372045187997 -0.05238809201747794 0 -0.12107709870827919 -0.036253973020792793 0 -0.13120806109013 -0.043015410321764452 0 -0.12107709870827919 -0.036253973020792793 0 -0.10709099102604119 -0.054056796221981007 0 -0.12107709870827919 -0.036253973020792793 0 -0.1084396189935381 -0.041205645323004872 0 -0.105635141511389 -0.029272606341614951 0 -0.099955244728441084 -0.045239205707629279 0 -0.105635141511389 -0.029272606341614951 0 -0.093319973996143515 -0.034609724916138417 0 -0.1084396189935381 -0.041205645323004872 0 -0.099955244728441084 -0.045239205707629279 0 -0.10709099102604119 -0.054056796221981007 0 -0.1084396189935381 -0.041205645323004872 0 -0.099955244728441084 -0.045239205707629279 0 -0.105635141511389 -0.029272606341614951 0 -0.091582070519724945 -0.073797997711937638 0 -0.09381560541810241 -0.058575323438785618 0 -0.10709099102604119 -0.054056796221981007 0 -0.099955244728441084 -0.045239205707629279 0 -0.09381560541810241 -0.058575323438785618 0 -0.10709099102604119 -0.054056796221981007 0 -0.099955244728441084 -0.045239205707629279 0 -0.10709099102604119 -0.054056796221981007 0 -0.12345413124058099 -0.0026093364490894278 0 -0.12226561497443091 -0.019431654734941139 0 -0.097556702361213443 -0.01437521248642464 0 -0.12345413124058099 -0.0026093364490894278 0 -0.12226561497443091 -0.019431654734941139 0 -0.12345413124058099 -0.0026093364490894278 0 -0.097556702361213443 -0.01437521248642464 0 -0.11513624889174549 0.0044251206728230311 0 -0.12345413124058099 -0.0026093364490894278 0 -0.123578269483202 -0.00085227759491413035 0 -0.12107709870827919 -0.036253973020792793 0 -0.12226561497443091 -0.019431654734941139 0 -0.12107709870827919 -0.036253973020792793 0 -0.12226561497443091 -0.019431654734941139 0 -0.105635141511389 -0.029272606341614951 0 -0.105635141511389 -0.029272606341614951 0 -0.097556702361213443 -0.01437521248642464 0 -0.093319973996143515 -0.034609724916138417 0 -0.12226561497443091 -0.019431654734941139 0 -0.105635141511389 -0.029272606341614951 0 -0.097556702361213443 -0.01437521248642464 0 -0.097556702361213443 -0.01437521248642464 0 -0.097339793965444635 0.0014702746002475051 0 -0.11513624889174549 0.0044251206728230311 0 -0.097556702361213443 -0.01437521248642464 0 -0.11513624889174549 0.0044251206728230311 0 -0.097556702361213443 -0.01437521248642464 0 -0.086747369085949461 -0.01031645715364852 0 -0.097339793965444635 0.0014702746002475051 0 -0.086747369085949461 -0.01031645715364852 0 -0.074172204535923519 -0.003622871426795779 0 -0.077557311163558393 0.007806672819215767 0 -0.086747369085949461 -0.01031645715364852 0 -0.08774775776592722 0.00222715717532423 0 -0.077557311163558393 0.007806672819215767 0 -0.086747369085949461 -0.01031645715364852 0 -0.077557311163558393 0.007806672819215767 0 -0.086747369085949461 -0.01031645715364852 0 -0.097339793965444635 0.0014702746002475051 0 -0.08774775776592722 0.00222715717532423 0 -0.097556702361213443 -0.01437521248642464 0 -0.07997715583068063 -0.033175545645671489 0 -0.097556702361213443 -0.01437521248642464 0 -0.086747369085949461 -0.01031645715364852 0 -0.07997715583068063 -0.033175545645671489 0 -0.086747369085949461 -0.01031645715364852 0 -0.074172204535923519 -0.003622871426795779 0 -0.07997715583068063 -0.033175545645671489 0 -0.097556702361213443 -0.01437521248642464 0 -0.093319973996143515 -0.034609724916138417 0 -0.07997715583068063 -0.033175545645671489 0 -0.074172204535923519 -0.003622871426795779 0 -0.07997715583068063 -0.033175545645671489 0 -0.069124678869744369 -0.020142048745763301 0 -0.074172204535923519 -0.003622871426795779 0 -0.07997715583068063 -0.033175545645671489 0 -0.064697080530426387 -0.02989496085548585 0 -0.069124678869744369 -0.020142048745763301 0 -0.07997715583068063 -0.033175545645671489 0 -0.069124678869744369 -0.020142048745763301 0 -0.063956381696824105 -0.010653533334745479 0 -0.060095620720121257 -0.020135121965165131 0 -0.064697080530426387 -0.02989496085548585 0 -0.069124678869744369 -0.020142048745763301 0 -0.060095620720121257 -0.020135121965165131 0 -0.069124678869744369 -0.020142048745763301 0 -0.063956381696824105 -0.010653533334745479 0 -0.074172204535923519 -0.003622871426795779 0 -0.063956381696824105 -0.010653533334745479 0 -0.074172204535923519 -0.003622871426795779 0 -0.062621954844513841 0.00016814050181585479 0 -0.086974095267308427 -0.068796563153030149 0 -0.083475625548992766 -0.050986054399351138 0 -0.099955244728441084 -0.045239205707629279 0 -0.09381560541810241 -0.058575323438785618 0 -0.083475625548992766 -0.050986054399351138 0 -0.086974095267308427 -0.068796563153030149 0 -0.09381560541810241 -0.058575323438785618 0 -0.083475625548992766 -0.050986054399351138 0 -0.086974095267308427 -0.068796563153030149 0 -0.083475625548992766 -0.050986054399351138 0 -0.066970732578057385 -0.047085181479271057 0 -0.083475625548992766 -0.050986054399351138 0 -0.07997715583068063 -0.033175545645671489 0 -0.083475625548992766 -0.050986054399351138 0 -0.093319973996143515 -0.034609724916138417 0 -0.07997715583068063 -0.033175545645671489 0 -0.099955244728441084 -0.045239205707629279 0 -0.083475625548992766 -0.050986054399351138 0 -0.093319973996143515 -0.034609724916138417 0 -0.064697080530426387 -0.02989496085548585 0 -0.07997715583068063 -0.033175545645671489 0 -0.066970732578057385 -0.047085181479271057 0 -0.07997715583068063 -0.033175545645671489 0 -0.066970732578057385 -0.047085181479271057 0 -0.083475625548992766 -0.050986054399351138 0 -0.07997715583068063 -0.033175545645671489 0 -0.066970732578057385 -0.047085181479271057 0 -0.086974095267308427 -0.068796563153030149 0 -0.066970732578057385 -0.047085181479271057 0 -0.06304308531182444 -0.051285578628818801 0 -0.066970732578057385 -0.047085181479271057 0 -0.086974095267308427 -0.068796563153030149 0 -0.072792821058426285 -0.063069204200971687 0 -0.066970732578057385 -0.047085181479271057 0 -0.06304308531182444 -0.051285578628818801 0 -0.066970732578057385 -0.047085181479271057 0 -0.066337804285414609 -0.055765817438101058 0 -0.072792821058426285 -0.063069204200971687 0 -0.066970732578057385 -0.047085181479271057 0 -0.066337804285414609 -0.055765817438101058 0 -0.072792821058426285 -0.063069204200971687 0 -0.066337804285414609 -0.055765817438101058 0 -0.062544578193351075 -0.061623305443342033 0 -0.06304308531182444 -0.051285578628818801 0 -0.066337804285414609 -0.055765817438101058 0 -0.062544578193351075 -0.061623305443342033 0 -0.062544578193351075 -0.061623305443342033 0 -0.057320065766984417 -0.056578177329558402 0 -0.052230567743994927 -0.062482545508430493 0 -0.06304308531182444 -0.051285578628818801 0 -0.062544578193351075 -0.061623305443342033 0 -0.057320065766984417 -0.056578177329558402 0 -0.052230567743994927 -0.062482545508430493 0 -0.051462031818767247 -0.050921279737642301 0 -0.039720357422187991 -0.056689215317509367 0 -0.057320065766984417 -0.056578177329558402 0 -0.052230567743994927 -0.062482545508430493 0 -0.051462031818767247 -0.050921279737642301 0 -0.06304308531182444 -0.051285578628818801 0 -0.066970732578057385 -0.047085181479271057 0 -0.051462031818767247 -0.050921279737642301 0 -0.06304308531182444 -0.051285578628818801 0 -0.057320065766984417 -0.056578177329558402 0 -0.051462031818767247 -0.050921279737642301 0 -0.066970732578057385 -0.047085181479271057 0 -0.048652597888916772 -0.027202923682643199 0 -0.066970732578057385 -0.047085181479271057 0 -0.045371212120429043 -0.041064534377560212 0 -0.048652597888916772 -0.027202923682643199 0 -0.064697080530426387 -0.02989496085548585 0 -0.066970732578057385 -0.047085181479271057 0 -0.048652597888916772 -0.027202923682643199 0 -0.066970732578057385 -0.047085181479271057 0 -0.051462031818767247 -0.050921279737642301 0 -0.045371212120429043 -0.041064534377560212 0 -0.045371212120429043 -0.041064534377560212 0 -0.026529718461346111 -0.031153936626691432 0 -0.031060432104957979 -0.044321467157722352 0 -0.045371212120429043 -0.041064534377560212 0 -0.039720357422187991 -0.056689215317509367 0 -0.031060432104957979 -0.044321467157722352 0 -0.039720357422187991 -0.056689215317509367 0 -0.02596397998313495 -0.054175844977146947 0 -0.031060432104957979 -0.044321467157722352 0 -0.039720357422187991 -0.056689215317509367 0 -0.02596397998313495 -0.054175844977146947 0 -0.030345620564451808 -0.064772566334939469 0 -0.051462031818767247 -0.050921279737642301 0 -0.045371212120429043 -0.041064534377560212 0 -0.039720357422187991 -0.056689215317509367 0 -0.053767449513817532 -0.0095357650378190655 0 -0.062621954844513841 0.00016814050181585479 0 -0.05297021437178339 0.0075589418943471549 0 -0.063956381696824105 -0.010653533334745479 0 -0.053767449513817532 -0.0095357650378190655 0 -0.062621954844513841 0.00016814050181585479 0 -0.063956381696824105 -0.010653533334745479 0 -0.053767449513817532 -0.0095357650378190655 0 -0.060095620720121257 -0.020135121965165131 0 -0.053767449513817532 -0.0095357650378190655 0 -0.048652597888916772 -0.027202923682643199 0 -0.060095620720121257 -0.020135121965165131 0 -0.064697080530426387 -0.02989496085548585 0 -0.048652597888916772 -0.027202923682643199 0 -0.060095620720121257 -0.020135121965165131 0 -0.045371212120429043 -0.041064534377560212 0 -0.036445250551881428 -0.01252291571164172 0 -0.026529718461346111 -0.031153936626691432 0 -0.045371212120429043 -0.041064534377560212 0 -0.036445250551881428 -0.01252291571164172 0 -0.053767449513817532 -0.0095357650378190655 0 -0.048652597888916772 -0.027202923682643199 0 -0.036445250551881428 -0.01252291571164172 0 -0.045371212120429043 -0.041064534377560212 0 -0.048652597888916772 -0.027202923682643199 0 -0.036445250551881428 -0.01252291571164172 0 -0.053767449513817532 -0.0095357650378190655 0 -0.036445250551881428 -0.01252291571164172 0 -0.042758837776374868 0.0032432525641449832 0 -0.036445250551881428 -0.01252291571164172 0 -0.022670329290189958 -0.0019576409730586298 0 -0.016473115754490401 -0.017354095377507529 0 -0.036445250551881428 -0.01252291571164172 0 -0.016473115754490401 -0.017354095377507529 0 -0.026529718461346111 -0.031153936626691432 0 -0.016473115754490401 -0.017354095377507529 0 -0.026529718461346111 -0.031153936626691432 0 -0.014957754600759789 -0.02958950431272056 0 -0.016473115754490401 -0.017354095377507529 0 -0.0024730735629462492 -0.026919767942971181 0 -0.0054153547126200878 -0.004499944540692094 0 -0.0024730735629462492 -0.026919767942971181 0 -0.0054153547126200878 -0.004499944540692094 0 -0.016473115754490401 -0.017354095377507529 0 -0.014957754600759789 -0.02958950431272056 0 -0.0024730735629462492 -0.026919767942971181 0 -0.022670329290189958 -0.0019576409730586298 0 -0.016473115754490401 -0.017354095377507529 0 -0.0054153547126200878 -0.004499944540692094 0 -0.02596397998313495 -0.054175844977146947 0 -0.031060432104957979 -0.044321467157722352 0 -0.01435511062425641 -0.042930217303712097 0 -0.02596397998313495 -0.054175844977146947 0 -0.01435511062425641 -0.042930217303712097 0 -0.013746872580767381 -0.055274565638166268 0 -0.02596397998313495 -0.054175844977146947 0 -0.013746872580767381 -0.055274565638166268 0 -0.0199058110854155 -0.065546228970228992 0 -0.02596397998313495 -0.054175844977146947 0 -0.0199058110854155 -0.065546228970228992 0 -0.030345620564451808 -0.064772566334939469 0 -0.026529718461346111 -0.031153936626691432 0 -0.031060432104957979 -0.044321467157722352 0 -0.01435511062425641 -0.042930217303712097 0 -0.026529718461346111 -0.031153936626691432 0 -0.014957754600759789 -0.02958950431272056 0 -0.01435511062425641 -0.042930217303712097 0 -0.0024730735629462492 -0.026919767942971181 0 0.00046920758672865749 -0.049339591345250212 0 -0.014957754600759789 -0.02958950431272056 0 -0.0024730735629462492 -0.026919767942971181 0 -0.01435511062425641 -0.042930217303712097 0 -0.0024730735629462492 -0.026919767942971181 0 -0.01435511062425641 -0.042930217303712097 0 0.00046920758672865749 -0.049339591345250212 0 -0.013746872580767381 -0.055274565638166268 0 -0.0089354366208773475 -0.066658895803958451 0 0.00046920758672865749 -0.049339591345250212 0 -0.01435511062425641 -0.042930217303712097 0 -0.013746872580767381 -0.055274565638166268 0 0.00046920758672865749 -0.049339591345250212 0 -0.013746872580767381 -0.055274565638166268 0 -0.0089354366208773475 -0.066658895803958451 0 -0.0199058110854155 -0.065546228970228992 0 -0.0089354366208773475 -0.066658895803958451 0 0.0034114887364035638 -0.071759414747529227 0 0.00046920758672865749 -0.049339591345250212 0 -0.014809840351958099 -0.076898303795069969 0 -0.0089354366208773475 -0.066658895803958451 0 -0.0047705499955654831 -0.084559886398344164 0 -0.0089354366208773475 -0.066658895803958451 0 -0.0047705499955654831 -0.084559886398344164 0 0.01291569936008388 -0.081093895312462139 0 -0.014809840351958099 -0.076898303795069969 0 -0.0089354366208773475 -0.066658895803958451 0 -0.0199058110854155 -0.065546228970228992 0 -0.0047705499955654831 -0.084559886398344164 0 -0.0044022810807993768 -0.098106953359871227 0 0.0063523588477986384 -0.095620452193090053 0 -0.014809840351958099 -0.076898303795069969 0 -0.0047705499955654831 -0.084559886398344164 0 -0.018882239755431799 -0.092075332154639894 0 -0.0047705499955654831 -0.084559886398344164 0 -0.018882239755431799 -0.092075332154639894 0 -0.0044022810807993768 -0.098106953359871227 0 -0.018882239755431799 -0.092075332154639894 0 -0.035765064867291411 -0.084569240923284772 0 -0.03347161927379478 -0.098630701596457093 0 -0.014809840351958099 -0.076898303795069969 0 -0.018882239755431799 -0.092075332154639894 0 -0.02658561674651853 -0.075938765260202712 0 -0.018882239755431799 -0.092075332154639894 0 -0.02658561674651853 -0.075938765260202712 0 -0.035765064867291411 -0.084569240923284772 0 -0.014809840351958099 -0.076898303795069969 0 -0.0199058110854155 -0.065546228970228992 0 -0.02658561674651853 -0.075938765260202712 0 -0.0199058110854155 -0.065546228970228992 0 -0.02658561674651853 -0.075938765260202712 0 -0.030345620564451808 -0.064772566334939469 0 -0.039720357422187991 -0.056689215317509367 0 -0.030345620564451808 -0.064772566334939469 0 -0.039552337585002068 -0.071512777149609283 0 -0.052230567743994927 -0.062482545508430493 0 -0.039720357422187991 -0.056689215317509367 0 -0.039552337585002068 -0.071512777149609283 0 -0.039552337585002068 -0.071512777149609283 0 -0.035765064867291411 -0.084569240923284772 0 -0.050552114342320417 -0.075056813209350592 0 -0.02658561674651853 -0.075938765260202712 0 -0.039552337585002068 -0.071512777149609283 0 -0.035765064867291411 -0.084569240923284772 0 -0.02658561674651853 -0.075938765260202712 0 -0.030345620564451808 -0.064772566334939469 0 -0.039552337585002068 -0.071512777149609283 0 -0.035765064867291411 -0.084569240923284772 0 -0.04742949333449329 -0.090956692421576252 0 -0.050552114342320417 -0.075056813209350592 0 -0.035765064867291411 -0.084569240923284772 0 -0.04742949333449329 -0.090956692421576252 0 -0.03347161927379478 -0.098630701596457093 0 -0.04742949333449329 -0.090956692421576252 0 -0.0572847079589981 -0.08417802379686895 0 -0.050552114342320417 -0.075056813209350592 0 -0.04742949333449329 -0.090956692421576252 0 -0.0572847079589981 -0.08417802379686895 0 -0.059300129734072463 -0.095627259438271939 0 -0.067754407292194105 -0.082711997518043326 0 -0.0572847079589981 -0.08417802379686895 0 -0.059300129734072463 -0.095627259438271939 0 -0.067754407292194105 -0.082711997518043326 0 -0.0572847079589981 -0.08417802379686895 0 -0.061559284057143018 -0.075956496393520062 0 -0.0572847079589981 -0.08417802379686895 0 -0.061559284057143018 -0.075956496393520062 0 -0.050552114342320417 -0.075056813209350592 0 -0.061559284057143018 -0.075956496393520062 0 -0.058542313933840767 -0.068628173472831899 0 -0.050552114342320417 -0.075056813209350592 0 -0.067161390320769759 -0.069491255050128375 0 -0.061559284057143018 -0.075956496393520062 0 -0.058542313933840767 -0.068628173472831899 0 -0.062544578193351075 -0.061623305443342033 0 -0.052230567743994927 -0.062482545508430493 0 -0.058542313933840767 -0.068628173472831899 0 -0.052230567743994927 -0.062482545508430493 0 -0.058542313933840767 -0.068628173472831899 0 -0.050552114342320417 -0.075056813209350592 0 -0.052230567743994927 -0.062482545508430493 0 -0.039552337585002068 -0.071512777149609283 0 -0.050552114342320417 -0.075056813209350592 0 -0.060556026853947668 -0.11329084179433301 0 -0.046887856044155157 -0.1050329873329148 0 -0.04450434652907137 -0.1205317330348905 0 -0.060556026853947668 -0.11329084179433301 0 -0.04450434652907137 -0.1205317330348905 0 -0.053335109171866867 -0.1356049587080457 0 -0.060556026853947668 -0.11329084179433301 0 -0.059300129734072463 -0.095627259438271939 0 -0.046887856044155157 -0.1050329873329148 0 -0.04742949333449329 -0.090956692421576252 0 -0.059300129734072463 -0.095627259438271939 0 -0.046887856044155157 -0.1050329873329148 0 -0.04742949333449329 -0.090956692421576252 0 -0.046887856044155157 -0.1050329873329148 0 -0.03347161927379478 -0.098630701596457093 0 -0.046887856044155157 -0.1050329873329148 0 -0.03347161927379478 -0.098630701596457093 0 -0.0360655205395514 -0.1111606957119602 0 -0.046887856044155157 -0.1050329873329148 0 -0.0360655205395514 -0.1111606957119602 0 -0.04450434652907137 -0.1205317330348905 0 -0.0360655205395514 -0.1111606957119602 0 -0.04450434652907137 -0.1205317330348905 0 -0.030522543565896901 -0.12220534048587289 0 -0.016432713744862871 -0.1242157928516074 0 -0.023775085565926689 -0.1073192229087664 0 -0.011105277262337111 -0.1093258630436596 0 -0.030522543565896901 -0.12220534048587289 0 -0.016432713744862871 -0.1242157928516074 0 -0.023775085565926689 -0.1073192229087664 0 -0.0360655205395514 -0.1111606957119602 0 -0.030522543565896901 -0.12220534048587289 0 -0.023775085565926689 -0.1073192229087664 0 -0.018882239755431799 -0.092075332154639894 0 -0.023775085565926689 -0.1073192229087664 0 -0.011105277262337111 -0.1093258630436596 0 -0.018882239755431799 -0.092075332154639894 0 -0.03347161927379478 -0.098630701596457093 0 -0.023775085565926689 -0.1073192229087664 0 -0.03347161927379478 -0.098630701596457093 0 -0.0360655205395514 -0.1111606957119602 0 -0.023775085565926689 -0.1073192229087664 0 -0.011105277262337111 -0.1093258630436596 0 -0.0044022810807993768 -0.098106953359871227 0 0.0063943027615388642 -0.1089532330096224 0 -0.018882239755431799 -0.092075332154639894 0 -0.011105277262337111 -0.1093258630436596 0 -0.0044022810807993768 -0.098106953359871227 0 -0.016432713744862871 -0.1242157928516074 0 -0.011105277262337111 -0.1093258630436596 0 0.0014901394318084279 -0.1258828848393905 0 -0.011105277262337111 -0.1093258630436596 0 0.0014901394318084279 -0.1258828848393905 0 0.0063943027615388642 -0.1089532330096224 0 -0.016432713744862871 -0.1242157928516074 0 -0.01026904571873823 -0.13841892253398319 0 0.0014901394318084279 -0.1258828848393905 0 -0.01026904571873823 -0.13841892253398319 0 0.0044573213681997279 -0.14481560900336229 0 0.0014901394318084279 -0.1258828848393905 0 -0.016432713744862871 -0.1242157928516074 0 -0.01026904571873823 -0.13841892253398319 0 -0.025565653994326389 -0.13560429292599999 0 -0.030522543565896901 -0.12220534048587289 0 -0.016432713744862871 -0.1242157928516074 0 -0.025565653994326389 -0.13560429292599999 0 -0.02050746796705424 -0.14801430194893739 0 -0.022562728284153798 -0.15847985639987011 0 -0.035886837526801121 -0.14872893432788331 0 -0.025565653994326389 -0.13560429292599999 0 -0.02050746796705424 -0.14801430194893739 0 -0.035886837526801121 -0.14872893432788331 0 -0.01026904571873823 -0.13841892253398319 0 -0.025565653994326389 -0.13560429292599999 0 -0.02050746796705424 -0.14801430194893739 0 -0.02050746796705424 -0.14801430194893739 0 -0.0092825142140568334 -0.1529401561595928 0 -0.022562728284153798 -0.15847985639987011 0 -0.01026904571873823 -0.13841892253398319 0 -0.02050746796705424 -0.14801430194893739 0 -0.0092825142140568334 -0.1529401561595928 0 -0.01026904571873823 -0.13841892253398319 0 -0.0092825142140568334 -0.1529401561595928 0 0.0044573213681997279 -0.14481560900336229 0 -0.0092825142140568334 -0.1529401561595928 0 0.003253507526787863 -0.15916651108139721 0 0.0044573213681997279 -0.14481560900336229 0 -0.0092825142140568334 -0.1529401561595928 0 -0.011826766000563999 -0.16929410090641939 0 -0.022562728284153798 -0.15847985639987011 0 -0.0092825142140568334 -0.1529401561595928 0 -0.011826766000563999 -0.16929410090641939 0 0.003253507526787863 -0.15916651108139721 0 -0.011826766000563999 -0.16929410090641939 0 -0.0073496516976400902 -0.1879476253505408 0 0.01226243801806232 -0.17333317078224189 0 -0.029169221509973919 -0.17071440676541461 0 -0.0073496516976400902 -0.1879476253505408 0 -0.01995417318429368 -0.18144454764239479 0 -0.029260329550483469 -0.17311458734750931 0 -0.01403748997907725 -0.19400157110611449 0 -0.029260329550483469 -0.17311458734750931 0 -0.01403748997907725 -0.19400157110611449 0 -0.011826766000563999 -0.16929410090641939 0 -0.029169221509973919 -0.17071440676541461 0 -0.0073496516976400902 -0.1879476253505408 0 -0.029260329550483469 -0.17311458734750931 0 -0.024301540919395851 -0.1855429631241314 0 -0.01403748997907725 -0.19400157110611449 0 -0.01995417318429368 -0.18144454764239479 0 -0.029169221509973919 -0.17071440676541461 0 -0.0073496516976400902 -0.1879476253505408 0 -0.029260329550483469 -0.17311458734750931 0 -0.024301540919395851 -0.1855429631241314 0 -0.029494941010683201 -0.18017748910464271 0 -0.01995417318429368 -0.18144454764239479 0 -0.029260329550483469 -0.17311458734750931 0 -0.029169221509973919 -0.17071440676541461 0 -0.029260329550483469 -0.17311458734750931 0 -0.029169221509973919 -0.17071440676541461 0 -0.032782825385146368 -0.17196568394581629 0 -0.029260329550483469 -0.17311458734750931 0 -0.029494941010683201 -0.18017748910464271 0 -0.031915434302530951 -0.17671156605411131 0 -0.024301540919395851 -0.1855429631241314 0 -0.029494941010683201 -0.18017748910464271 0 -0.035288239533331989 -0.18725090604863301 0 -0.011826766000563999 -0.16929410090641939 0 -0.035979569119905408 -0.16533555603590569 0 -0.011826766000563999 -0.16929410090641939 0 -0.029169221509973919 -0.17071440676541461 0 -0.035979569119905408 -0.16533555603590569 0 -0.011826766000563999 -0.16929410090641939 0 -0.022562728284153798 -0.15847985639987011 0 -0.035979569119905408 -0.16533555603590569 0 -0.022562728284153798 -0.15847985639987011 0 -0.035979569119905408 -0.16533555603590569 0 -0.035886837526801121 -0.14872893432788331 0 -0.038698022468752362 -0.16959553526466309 0 -0.047694273830699498 -0.17127285746748599 0 -0.050988791322307728 -0.15348118818028841 0 -0.038698022468752362 -0.16959553526466309 0 -0.035979569119905408 -0.16533555603590569 0 -0.050988791322307728 -0.15348118818028841 0 -0.029169221509973919 -0.17071440676541461 0 -0.038698022468752362 -0.16959553526466309 0 -0.035979569119905408 -0.16533555603590569 0 -0.029169221509973919 -0.17071440676541461 0 -0.038698022468752362 -0.16959553526466309 0 -0.032782825385146368 -0.17196568394581629 0 -0.029169221509973919 -0.17071440676541461 0 -0.035979569119905408 -0.16533555603590569 0 -0.035979569119905408 -0.16533555603590569 0 -0.050988791322307728 -0.15348118818028841 0 -0.035288239533331989 -0.18725090604863301 0 -0.042934540553156493 -0.17957984186600809 0 -0.05116849485398528 -0.18565822113989369 0 -0.029494941010683201 -0.18017748910464271 0 -0.035288239533331989 -0.18725090604863301 0 -0.034902738637581421 -0.17911598135861501 0 -0.035288239533331989 -0.18725090604863301 0 -0.034902738637581421 -0.17911598135861501 0 -0.042934540553156493 -0.17957984186600809 0 -0.034902738637581421 -0.17911598135861501 0 -0.042934540553156493 -0.17957984186600809 0 -0.039223143516013179 -0.17515733720325549 0 -0.034902738637581421 -0.17911598135861501 0 -0.034003728011375717 -0.1744382064056782 0 -0.039223143516013179 -0.17515733720325549 0 -0.034902738637581421 -0.17911598135861501 0 -0.031915434302530951 -0.17671156605411131 0 -0.034003728011375717 -0.1744382064056782 0 -0.029494941010683201 -0.18017748910464271 0 -0.034902738637581421 -0.17911598135861501 0 -0.031915434302530951 -0.17671156605411131 0 -0.029260329550483469 -0.17311458734750931 0 -0.031915434302530951 -0.17671156605411131 0 -0.034003728011375717 -0.1744382064056782 0 -0.029260329550483469 -0.17311458734750931 0 -0.034003728011375717 -0.1744382064056782 0 -0.032782825385146368 -0.17196568394581629 0 -0.038698022468752362 -0.16959553526466309 0 -0.034003728011375717 -0.1744382064056782 0 -0.039223143516013179 -0.17515733720325549 0 -0.038698022468752362 -0.16959553526466309 0 -0.034003728011375717 -0.1744382064056782 0 -0.032782825385146368 -0.17196568394581629 0 -0.042934540553156493 -0.17957984186600809 0 -0.039223143516013179 -0.17515733720325549 0 -0.047694273830699498 -0.17127285746748599 0 -0.038698022468752362 -0.16959553526466309 0 -0.039223143516013179 -0.17515733720325549 0 -0.047694273830699498 -0.17127285746748599 0 -0.042934540553156493 -0.17957984186600809 0 -0.05116849485398528 -0.18565822113989369 0 -0.050168653984053853 -0.17793415688935491 0 -0.042934540553156493 -0.17957984186600809 0 -0.050168653984053853 -0.17793415688935491 0 -0.047694273830699498 -0.17127285746748599 0 -0.05116849485398528 -0.18565822113989369 0 -0.050168653984053853 -0.17793415688935491 0 -0.058877306698374161 -0.17522570708403179 0 -0.050168653984053853 -0.17793415688935491 0 -0.058877306698374161 -0.17522570708403179 0 -0.047694273830699498 -0.17127285746748599 0 -0.05116849485398528 -0.18565822113989369 0 -0.058877306698374161 -0.17522570708403179 0 -0.065713879551301591 -0.186099588265601 0 -0.047694273830699498 -0.17127285746748599 0 -0.056645611130832108 -0.16492534131207401 0 -0.050988791322307728 -0.15348118818028841 0 -0.056645611130832108 -0.16492534131207401 0 -0.050988791322307728 -0.15348118818028841 0 -0.06749333922734152 -0.16183095152404089 0 -0.058877306698374161 -0.17522570708403179 0 -0.047694273830699498 -0.17127285746748599 0 -0.056645611130832108 -0.16492534131207401 0 -0.058877306698374161 -0.17522570708403179 0 -0.056645611130832108 -0.16492534131207401 0 -0.06749333922734152 -0.16183095152404089 0 -0.050988791322307728 -0.15348118818028841 0 -0.053335109171866867 -0.1356049587080457 0 -0.07280836113464155 -0.13624796959516219 0 -0.050988791322307728 -0.15348118818028841 0 -0.07280836113464155 -0.13624796959516219 0 -0.060556026853947668 -0.11329084179433301 0 -0.053335109171866867 -0.1356049587080457 0 -0.07280836113464155 -0.13624796959516219 0 -0.053335109171866867 -0.1356049587080457 0 -0.038902489744323983 -0.13320928167660101 0 -0.035886837526801121 -0.14872893432788331 0 -0.04450434652907137 -0.1205317330348905 0 -0.053335109171866867 -0.1356049587080457 0 -0.038902489744323983 -0.13320928167660101 0 -0.04450434652907137 -0.1205317330348905 0 -0.030522543565896901 -0.12220534048587289 0 -0.038902489744323983 -0.13320928167660101 0 -0.030522543565896901 -0.12220534048587289 0 -0.025565653994326389 -0.13560429292599999 0 -0.038902489744323983 -0.13320928167660101 0 -0.025565653994326389 -0.13560429292599999 0 -0.038902489744323983 -0.13320928167660101 0 -0.035886837526801121 -0.14872893432788331 0 -0.050988791322307728 -0.15348118818028841 0 -0.053335109171866867 -0.1356049587080457 0 -0.035886837526801121 -0.14872893432788331 0 -0.035979569119905408 -0.16533555603590569 0 -0.050988791322307728 -0.15348118818028841 0 -0.035886837526801121 -0.14872893432788331 0 -0.039188399313944737 -0.25549327155938928 0 -0.01202868521096684 -0.24298443641158721 0 -0.030936129614935279 -0.2254302867097778 0 -0.01202868521096684 -0.24298443641158721 0 0.001840154003947637 -0.2560556707182301 0 0.0057835552839677062 -0.24329957035541641 0 -0.01202868521096684 -0.24298443641158721 0 0.0057835552839677062 -0.24329957035541641 0 0.00042157157782213121 -0.2314360536204994 0 -0.01126552312507575 -0.2243278814109089 0 0.00042157157782213121 -0.2314360536204994 0 0.0011853495923289639 -0.21488855486471969 0 -0.01202868521096684 -0.24298443641158721 0 -0.01126552312507575 -0.2243278814109089 0 0.00042157157782213121 -0.2314360536204994 0 -0.01202868521096684 -0.24298443641158721 0 -0.01126552312507575 -0.2243278814109089 0 -0.030936129614935279 -0.2254302867097778 0 -0.01126552312507575 -0.2243278814109089 0 -0.030936129614935279 -0.2254302867097778 0 -0.0188785880488525 -0.21016493844262149 0 -0.030936129614935279 -0.2254302867097778 0 -0.0188785880488525 -0.21016493844262149 0 -0.034232852473472568 -0.2031712155311447 0 -0.0188785880488525 -0.21016493844262149 0 -0.025064263209292371 -0.1965401471919577 0 -0.034232852473472568 -0.2031712155311447 0 -0.01126552312507575 -0.2243278814109089 0 -0.0188785880488525 -0.21016493844262149 0 0.0011853495923289639 -0.21488855486471969 0 -0.01403748997907725 -0.19400157110611449 0 0.0011853495923289639 -0.21488855486471969 0 -0.0188785880488525 -0.21016493844262149 0 -0.01403748997907725 -0.19400157110611449 0 0.0011853495923289639 -0.21488855486471969 0 -0.0023529401560947009 -0.2001885541209486 0 -0.01403748997907725 -0.19400157110611449 0 0.0011853495923289639 -0.21488855486471969 0 -0.0023529401560947009 -0.2001885541209486 0 -0.0048303541203052053 -0.19369821456139219 0 0.0044186653515912253 -0.19265510766796501 0 -0.0023529401560947009 -0.2001885541209486 0 -0.0048303541203052053 -0.19369821456139219 0 -0.01403748997907725 -0.19400157110611449 0 -0.0073496516976400902 -0.1879476253505408 0 -0.0048303541203052053 -0.19369821456139219 0 0.0044186653515912253 -0.19265510766796501 0 -0.01995417318429368 -0.18144454764239479 0 -0.0073496516976400902 -0.1879476253505408 0 -0.01403748997907725 -0.19400157110611449 0 -0.0073496516976400902 -0.1879476253505408 0 -0.0048303541203052053 -0.19369821456139219 0 -0.01403748997907725 -0.19400157110611449 0 -0.024301540919395851 -0.1855429631241314 0 -0.01403748997907725 -0.19400157110611449 0 -0.025064263209292371 -0.1965401471919577 0 -0.0188785880488525 -0.21016493844262149 0 -0.01403748997907725 -0.19400157110611449 0 -0.025064263209292371 -0.1965401471919577 0 -0.024301540919395851 -0.1855429631241314 0 -0.035288239533331989 -0.18725090604863301 0 -0.025064263209292371 -0.1965401471919577 0 -0.059031551325171683 -0.19836384015969419 0 -0.034232852473472568 -0.2031712155311447 0 -0.035288239533331989 -0.18725090604863301 0 -0.05116849485398528 -0.18565822113989369 0 -0.034232852473472568 -0.2031712155311447 0 -0.035288239533331989 -0.18725090604863301 0 -0.025064263209292371 -0.1965401471919577 0 -0.034232852473472568 -0.2031712155311447 0 -0.05116849485398528 -0.18565822113989369 0 -0.059031551325171683 -0.19836384015969419 0 -0.034232852473472568 -0.2031712155311447 0 -0.05116849485398528 -0.18565822113989369 0 -0.059031551325171683 -0.19836384015969419 0 -0.065713879551301591 -0.186099588265601 0 -0.053879042077841111 -0.23034427510325989 0 -0.068569684841737477 -0.2051952786471305 0 -0.059031551325171683 -0.19836384015969419 0 -0.049329852066631617 -0.21250097923020139 0 -0.034232852473472568 -0.2031712155311447 0 -0.049329852066631617 -0.21250097923020139 0 -0.053879042077841111 -0.23034427510325989 0 -0.068569684841737477 -0.2051952786471305 0 -0.059031551325171683 -0.19836384015969419 0 -0.049329852066631617 -0.21250097923020139 0 -0.068569684841737477 -0.2051952786471305 0 -0.030936129614935279 -0.2254302867097778 0 -0.049329852066631617 -0.21250097923020139 0 -0.034232852473472568 -0.2031712155311447 0 -0.030936129614935279 -0.2254302867097778 0 -0.049329852066631617 -0.21250097923020139 0 -0.053879042077841111 -0.23034427510325989 0 -0.058444421254402058 -0.25857504562544742 0 -0.053879042077841111 -0.23034427510325989 0 -0.070364306568185556 -0.24297021997726739 0 -0.039188399313944737 -0.25549327155938928 0 -0.058444421254402058 -0.25857504562544742 0 -0.053879042077841111 -0.23034427510325989 0 -0.039188399313944737 -0.25549327155938928 0 -0.030936129614935279 -0.2254302867097778 0 -0.053879042077841111 -0.23034427510325989 0 -0.039188399313944737 -0.25549327155938928 0 -0.053879042077841111 -0.23034427510325989 0 -0.078107994815919513 -0.25658747229334328 0 -0.090231661288065937 -0.24505988721783761 0 -0.070364306568185556 -0.24297021997726739 0 -0.090231661288065937 -0.24505988721783761 0 -0.070364306568185556 -0.24297021997726739 0 -0.07980924995098565 -0.22450013571559421 0 -0.053879042077841111 -0.23034427510325989 0 -0.070364306568185556 -0.24297021997726739 0 -0.07980924995098565 -0.22450013571559421 0 -0.053879042077841111 -0.23034427510325989 0 -0.07980924995098565 -0.22450013571559421 0 -0.068569684841737477 -0.2051952786471305 0 -0.07980924995098565 -0.22450013571559421 0 -0.093111747684475346 -0.21158069673753019 0 -0.1023932451920798 -0.22960492868681731 0 -0.090231661288065937 -0.24505988721783761 0 -0.07980924995098565 -0.22450013571559421 0 -0.1023932451920798 -0.22960492868681731 0 -0.093111747684475346 -0.21158069673753019 0 -0.081330233163517285 -0.2087081439721245 0 -0.08383025017687068 -0.19355646478824309 0 -0.07980924995098565 -0.22450013571559421 0 -0.093111747684475346 -0.21158069673753019 0 -0.081330233163517285 -0.2087081439721245 0 -0.07980924995098565 -0.22450013571559421 0 -0.081330233163517285 -0.2087081439721245 0 -0.068569684841737477 -0.2051952786471305 0 -0.059031551325171683 -0.19836384015969419 0 -0.08383025017687068 -0.19355646478824309 0 -0.081330233163517285 -0.2087081439721245 0 -0.068569684841737477 -0.2051952786471305 0 -0.08383025017687068 -0.19355646478824309 0 -0.059031551325171683 -0.19836384015969419 0 -0.08383025017687068 -0.19355646478824309 0 -0.065713879551301591 -0.186099588265601 0 -0.059031551325171683 -0.19836384015969419 0 -0.068569684841737477 -0.2051952786471305 0 -0.08383025017687068 -0.19355646478824309 0 -0.093111747684475346 -0.21158069673753019 0 -0.08383025017687068 -0.19355646478824309 0 -0.08383025017687068 -0.19355646478824309 0 -0.1112339188939646 -0.18824410050390081 0 -0.093111747684475346 -0.21158069673753019 0 -0.08383025017687068 -0.19355646478824309 0 -0.1112339188939646 -0.18824410050390081 0 -0.1112339188939646 -0.18824410050390081 0 -0.1232167214984539 -0.2124306050191451 0 -0.13400013257444171 -0.1976116979143063 0 -0.1112339188939646 -0.18824410050390081 0 -0.12759527843705551 -0.18016346853036 0 -0.13400013257444171 -0.1976116979143063 0 -0.093111747684475346 -0.21158069673753019 0 -0.1112339188939646 -0.18824410050390081 0 -0.1232167214984539 -0.2124306050191451 0 -0.093111747684475346 -0.21158069673753019 0 -0.1232167214984539 -0.2124306050191451 0 -0.1023932451920798 -0.22960492868681731 0 -0.093111747684475346 -0.21158069673753019 0 -0.1023932451920798 -0.22960492868681731 0 -0.1232167214984539 -0.2124306050191451 0 -0.1023932451920798 -0.22960492868681731 0 -0.1208940938444938 -0.23147984830124629 0 -0.1208940938444938 -0.23147984830124629 0 -0.1116747426996843 -0.24762916063610449 0 -0.13438880925055521 -0.24427396337535401 0 -0.1023932451920798 -0.22960492868681731 0 -0.1208940938444938 -0.23147984830124629 0 -0.1116747426996843 -0.24762916063610449 0 -0.1023932451920798 -0.22960492868681731 0 -0.1116747426996843 -0.24762916063610449 0 -0.090231661288065937 -0.24505988721783761 0 -0.1023932451920798 -0.22960492868681731 0 -0.1116747426996843 -0.24762916063610449 0 -0.084421900034501479 -0.15219167957938909 0 -0.07280836113464155 -0.13624796959516219 0 -0.1001710493350364 -0.13907580588982069 0 -0.084421900034501479 -0.15219167957938909 0 -0.097374821212362794 -0.16404664566453031 0 -0.097822452746938862 -0.15241291964221851 0 -0.094627930946975386 -0.1190147510100359 0 -0.07280836113464155 -0.13624796959516219 0 -0.1001710493350364 -0.13907580588982069 0 -0.094627930946975386 -0.1190147510100359 0 -0.07280836113464155 -0.13624796959516219 0 -0.050988791322307728 -0.15348118818028841 0 -0.07280836113464155 -0.13624796959516219 0 -0.06749333922734152 -0.16183095152404089 0 -0.084421900034501479 -0.15219167957938909 0 -0.07280836113464155 -0.13624796959516219 0 -0.06749333922734152 -0.16183095152404089 0 -0.06749333922734152 -0.16183095152404089 0 -0.075661794702106183 -0.17769370815614191 0 -0.083752749414762948 -0.16645820044412771 0 -0.06749333922734152 -0.16183095152404089 0 -0.075661794702106183 -0.17769370815614191 0 -0.058877306698374161 -0.17522570708403179 0 -0.06749333922734152 -0.16183095152404089 0 -0.075661794702106183 -0.17769370815614191 0 -0.058877306698374161 -0.17522570708403179 0 -0.075661794702106183 -0.17769370815614191 0 -0.065713879551301591 -0.186099588265601 0 -0.08383025017687068 -0.19355646478824309 0 -0.075661794702106183 -0.17769370815614191 0 -0.065713879551301591 -0.186099588265601 0 -0.075661794702106183 -0.17769370815614191 0 -0.083752749414762948 -0.16645820044412771 0 -0.093811891897502692 -0.17652801729653611 0 -0.08383025017687068 -0.19355646478824309 0 -0.075661794702106183 -0.17769370815614191 0 -0.08383025017687068 -0.19355646478824309 0 -0.075661794702106183 -0.17769370815614191 0 -0.093811891897502692 -0.17652801729653611 0 -0.084421900034501479 -0.15219167957938909 0 -0.06749333922734152 -0.16183095152404089 0 -0.083752749414762948 -0.16645820044412771 0 -0.083752749414762948 -0.16645820044412771 0 -0.097374821212362794 -0.16404664566453031 0 -0.093811891897502692 -0.17652801729653611 0 -0.084421900034501479 -0.15219167957938909 0 -0.083752749414762948 -0.16645820044412771 0 -0.097374821212362794 -0.16404664566453031 0 -0.097374821212362794 -0.16404664566453031 0 -0.093811891897502692 -0.17652801729653611 0 -0.1109723283094316 -0.17114241419711521 0 -0.097374821212362794 -0.16404664566453031 0 -0.1109723283094316 -0.17114241419711521 0 -0.1098611188915378 -0.15544792829118509 0 -0.097374821212362794 -0.16404664566453031 0 -0.1098611188915378 -0.15544792829118509 0 -0.097822452746938862 -0.15241291964221851 0 -0.1112339188939646 -0.18824410050390081 0 -0.093811891897502692 -0.17652801729653611 0 -0.1109723283094316 -0.17114241419711521 0 -0.08383025017687068 -0.19355646478824309 0 -0.1112339188939646 -0.18824410050390081 0 -0.093811891897502692 -0.17652801729653611 0 -0.1112339188939646 -0.18824410050390081 0 -0.1109723283094316 -0.17114241419711521 0 -0.12759527843705551 -0.18016346853036 0 -0.1109723283094316 -0.17114241419711521 0 -0.1098611188915378 -0.15544792829118509 0 -0.12595694052416631 -0.16242432489617911 0 -0.1225023237098037 -0.15118985067763721 0 -0.1098611188915378 -0.15544792829118509 0 -0.12595694052416631 -0.16242432489617911 0 -0.1109723283094316 -0.17114241419711521 0 -0.12595694052416631 -0.16242432489617911 0 -0.12759527843705551 -0.18016346853036 0 -0.1225023237098037 -0.15118985067763721 0 -0.1164438299431191 -0.1430762420147447 0 -0.12783570762800051 -0.1435272844610804 0 -0.1225023237098037 -0.15118985067763721 0 -0.1164438299431191 -0.1430762420147447 0 -0.1098611188915378 -0.15544792829118509 0 -0.1164438299431191 -0.1430762420147447 0 -0.1098611188915378 -0.15544792829118509 0 -0.1001710493350364 -0.13907580588982069 0 -0.1098611188915378 -0.15544792829118509 0 -0.097822452746938862 -0.15241291964221851 0 -0.1001710493350364 -0.13907580588982069 0 -0.084421900034501479 -0.15219167957938909 0 -0.097822452746938862 -0.15241291964221851 0 -0.1001710493350364 -0.13907580588982069 0 -0.094627930946975386 -0.1190147510100359 0 -0.1071226961801184 -0.11997468442828529 0 -0.1001710493350364 -0.13907580588982069 0 -0.1071226961801184 -0.11997468442828529 0 -0.1001710493350364 -0.13907580588982069 0 -0.1131818821580417 -0.12521986653405789 0 -0.1001710493350364 -0.13907580588982069 0 -0.1131818821580417 -0.12521986653405789 0 -0.1001710493350364 -0.13907580588982069 0 -0.1131818821580417 -0.12521986653405789 0 -0.1151749939155965 -0.13382779145313661 0 -0.1131818821580417 -0.12521986653405789 0 -0.1151749939155965 -0.13382779145313661 0 -0.1195801728785257 -0.1295272929182644 0 -0.1164438299431191 -0.1430762420147447 0 -0.1001710493350364 -0.13907580588982069 0 -0.1151749939155965 -0.13382779145313661 0 -0.1164438299431191 -0.1430762420147447 0 -0.1151749939155965 -0.13382779145313661 0 -0.1245735922213969 -0.13400733193170419 0 -0.1164438299431191 -0.1430762420147447 0 -0.1245735922213969 -0.13400733193170419 0 -0.12783570762800051 -0.1435272844610804 0 -0.1131818821580417 -0.12521986653405789 0 -0.1195801728785257 -0.1295272929182644 0 -0.12539022321906759 -0.12505418175415881 0 -0.1245735922213969 -0.13400733193170419 0 -0.1195801728785257 -0.1295272929182644 0 -0.12539022321906759 -0.12505418175415881 0 -0.1151749939155965 -0.13382779145313661 0 -0.1245735922213969 -0.13400733193170419 0 -0.1195801728785257 -0.1295272929182644 0 -0.1245735922213969 -0.13400733193170419 0 -0.13207369583628159 -0.12779709541915049 0 -0.134001675645229 -0.13594458710200749 0 -0.1245735922213969 -0.13400733193170419 0 -0.13207369583628159 -0.12779709541915049 0 -0.12539022321906759 -0.12505418175415881 0 -0.1245735922213969 -0.13400733193170419 0 -0.134001675645229 -0.13594458710200749 0 -0.12783570762800051 -0.1435272844610804 0 -0.1405891021882246 -0.13659226626891691 0 -0.134001675645229 -0.13594458710200749 0 -0.14058140896724489 -0.12698122271875789 0 -0.13207369583628159 -0.12779709541915049 0 -0.134001675645229 -0.13594458710200749 0 -0.14058140896724489 -0.12698122271875789 0 -0.1405891021882246 -0.13659226626891691 0 -0.14058140896724489 -0.12698122271875789 0 -0.14058140896724489 -0.12698122271875789 0 -0.15296890767372931 -0.14042644773306029 0 -0.1405891021882246 -0.13659226626891691 0 -0.14058140896724489 -0.12698122271875789 0 -0.15296890767372931 -0.14042644773306029 0 -0.14058140896724489 -0.12698122271875789 0 -0.15296890767372931 -0.14042644773306029 0 -0.1546388525823828 -0.12820482379743009 0 -0.15296890767372931 -0.14042644773306029 0 -0.14908795346869999 -0.1500928468061403 0 -0.16535640638021529 -0.15387167274736119 0 -0.1405891021882246 -0.13659226626891691 0 -0.15296890767372931 -0.14042644773306029 0 -0.14908795346869999 -0.1500928468061403 0 -0.134001675645229 -0.13594458710200749 0 -0.14908795346869999 -0.1500928468061403 0 -0.14908795346869999 -0.1500928468061403 0 -0.1396514565281847 -0.15083037943872471 0 -0.13569257029564771 -0.14361787669726639 0 -0.1405891021882246 -0.13659226626891691 0 -0.134001675645229 -0.13594458710200749 0 -0.14908795346869999 -0.1500928468061403 0 -0.14908795346869999 -0.1500928468061403 0 -0.1396514565281847 -0.15083037943872471 0 -0.14141128078619641 -0.15813732052649579 0 -0.1396514565281847 -0.15083037943872471 0 -0.13569257029564771 -0.14361787669726639 0 -0.1324140215621947 -0.15147347372499639 0 -0.1396514565281847 -0.15083037943872471 0 -0.1324140215621947 -0.15147347372499639 0 -0.14141128078619641 -0.15813732052649579 0 -0.134001675645229 -0.13594458710200749 0 -0.14908795346869999 -0.1500928468061403 0 -0.13569257029564771 -0.14361787669726639 0 -0.13569257029564771 -0.14361787669726639 0 -0.12783570762800051 -0.1435272844610804 0 -0.1324140215621947 -0.15147347372499639 0 -0.134001675645229 -0.13594458710200749 0 -0.13569257029564771 -0.14361787669726639 0 -0.12783570762800051 -0.1435272844610804 0 -0.1225023237098037 -0.15118985067763721 0 -0.12783570762800051 -0.1435272844610804 0 -0.1324140215621947 -0.15147347372499639 0 -0.1225023237098037 -0.15118985067763721 0 -0.1324140215621947 -0.15147347372499639 0 -0.12595694052416631 -0.16242432489617911 0 -0.12595694052416631 -0.16242432489617911 0 -0.14141128078619641 -0.15813732052649579 0 -0.14249747694838849 -0.17132000032451461 0 -0.12595694052416631 -0.16242432489617911 0 -0.12759527843705551 -0.18016346853036 0 -0.14249747694838849 -0.17132000032451461 0 -0.1324140215621947 -0.15147347372499639 0 -0.12595694052416631 -0.16242432489617911 0 -0.14141128078619641 -0.15813732052649579 0 -0.12759527843705551 -0.18016346853036 0 -0.14249747694838849 -0.17132000032451461 0 -0.15145630206985361 -0.18968761251265129 0 -0.14249747694838849 -0.17132000032451461 0 -0.15677117476722521 -0.1744367640493967 0 -0.15145630206985361 -0.18968761251265129 0 -0.14908795346869999 -0.1500928468061403 0 -0.14141128078619641 -0.15813732052649579 0 -0.1507338267025167 -0.16385294903120559 0 -0.14141128078619641 -0.15813732052649579 0 -0.14249747694838849 -0.17132000032451461 0 -0.1507338267025167 -0.16385294903120559 0 -0.14249747694838849 -0.17132000032451461 0 -0.1507338267025167 -0.16385294903120559 0 -0.15677117476722521 -0.1744367640493967 0 -0.14908795346869999 -0.1500928468061403 0 -0.1507338267025167 -0.16385294903120559 0 -0.16417423129217101 -0.16424110651027299 0 -0.14908795346869999 -0.1500928468061403 0 -0.16417423129217101 -0.16424110651027299 0 -0.1507338267025167 -0.16385294903120559 0 -0.16417423129217101 -0.16424110651027299 0 -0.15677117476722521 -0.1744367640493967 0 -0.16417423129217101 -0.16424110651027299 0 -0.17926050911564159 -0.1783893662144059 0 -0.16417423129217101 -0.16424110651027299 0 -0.1749349713942889 -0.16069434495893301 0 -0.16535640638021529 -0.15387167274736119 0 -0.16417423129217101 -0.16424110651027299 0 -0.15677117476722521 -0.1744367640493967 0 -0.17926050911564159 -0.1783893662144059 0 -0.15677117476722521 -0.1744367640493967 0 -0.17926050911564159 -0.1783893662144059 0 -0.15145630206985361 -0.18968761251265129 0 -0.17926050911564159 -0.1783893662144059 0 -0.15145630206985361 -0.18968761251265129 0 -0.17926050911564159 -0.1783893662144059 0 -0.17921064444587739 -0.16886960578046639 0 -0.19694749777875131 -0.1711465721963614 0 -0.17921064444587739 -0.16886960578046639 0 -0.18392616490306279 -0.16263134722828071 0 -0.19694749777875131 -0.1711465721963614 0 -0.1749349713942889 -0.16069434495893301 0 -0.18117287853161521 -0.15782255497639069 0 -0.17710379055570671 -0.15303121079574869 0 -0.16417423129217101 -0.16424110651027299 0 -0.17926050911564159 -0.1783893662144059 0 -0.17921064444587739 -0.16886960578046639 0 -0.16417423129217101 -0.16424110651027299 0 -0.1749349713942889 -0.16069434495893301 0 -0.17921064444587739 -0.16886960578046639 0 -0.1749349713942889 -0.16069434495893301 0 -0.17921064444587739 -0.16886960578046639 0 -0.18392616490306279 -0.16263134722828071 0 -0.1749349713942889 -0.16069434495893301 0 -0.18392616490306279 -0.16263134722828071 0 -0.18117287853161521 -0.15782255497639069 0 -0.18392616490306279 -0.16263134722828071 0 -0.18117287853161521 -0.15782255497639069 0 -0.1887265872734025 -0.15493331692260029 0 -0.17710379055570671 -0.15303121079574869 0 -0.17118457223324221 -0.1447513905955482 0 -0.1887265872734025 -0.15493331692260029 0 -0.17099778754583789 -0.1330259662701255 0 -0.1935197618262802 -0.15042831494242881 0 -0.1887265872734025 -0.15493331692260029 0 -0.18117287853161521 -0.15782255497639069 0 -0.17710379055570671 -0.15303121079574869 0 -0.1887265872734025 -0.15493331692260029 0 -0.17099778754583789 -0.1330259662701255 0 -0.17118457223324221 -0.1447513905955482 0 -0.1887265872734025 -0.15493331692260029 0 -0.17099778754583789 -0.1330259662701255 0 -0.1887265872734025 -0.15493331692260029 0 -0.1749349713942889 -0.16069434495893301 0 -0.17710379055570671 -0.15303121079574869 0 -0.16535640638021529 -0.15387167274736119 0 -0.17099778754583789 -0.1330259662701255 0 -0.19012261627718169 -0.12975330914191721 0 -0.1935197618262802 -0.15042831494242881 0 -0.17099778754583789 -0.1330259662701255 0 -0.19012261627718169 -0.12975330914191721 0 -0.17169580204772761 -0.12043596237978391 0 -0.19012261627718169 -0.12975330914191721 0 -0.17169580204772761 -0.12043596237978391 0 -0.17099778754583789 -0.1330259662701255 0 -0.16302930528308149 -0.14005606022870509 0 -0.17118457223324221 -0.1447513905955482 0 -0.1546388525823828 -0.12820482379743009 0 -0.17099778754583789 -0.1330259662701255 0 -0.16302930528308149 -0.14005606022870509 0 -0.15296890767372931 -0.14042644773306029 0 -0.1546388525823828 -0.12820482379743009 0 -0.16302930528308149 -0.14005606022870509 0 -0.14908795346869999 -0.1500928468061403 0 -0.16417423129217101 -0.16424110651027299 0 -0.16535640638021529 -0.15387167274736119 0 -0.15296890767372931 -0.14042644773306029 0 -0.16302930528308149 -0.14005606022870509 0 -0.16535640638021529 -0.15387167274736119 0 -0.15296890767372931 -0.14042644773306029 0 -0.16535640638021529 -0.15387167274736119 0 -0.17710379055570671 -0.15303121079574869 0 -0.16535640638021529 -0.15387167274736119 0 -0.17118457223324221 -0.1447513905955482 0 -0.16302930528308149 -0.14005606022870509 0 -0.16535640638021529 -0.15387167274736119 0 -0.17118457223324221 -0.1447513905955482 0 -0.15290993660381361 -0.24859222687263499 0 -0.13438880925055521 -0.24427396337535401 0 -0.1494733387586549 -0.21868876840590701 0 -0.1232167214984539 -0.2124306050191451 0 -0.1208940938444938 -0.23147984830124629 0 -0.1494733387586549 -0.21868876840590701 0 -0.1208940938444938 -0.23147984830124629 0 -0.13438880925055521 -0.24427396337535401 0 -0.1494733387586549 -0.21868876840590701 0 -0.13438880925055521 -0.24427396337535401 0 -0.1494733387586549 -0.21868876840590701 0 -0.1494733387586549 -0.21868876840590701 0 -0.15145630206985361 -0.18968761251265129 0 -0.16379000153515469 -0.2076166150641077 0 -0.1232167214984539 -0.2124306050191451 0 -0.1494733387586549 -0.21868876840590701 0 -0.13400013257444171 -0.1976116979143063 0 -0.12759527843705551 -0.18016346853036 0 -0.13400013257444171 -0.1976116979143063 0 -0.15145630206985361 -0.18968761251265129 0 -0.1494733387586549 -0.21868876840590701 0 -0.13400013257444171 -0.1976116979143063 0 -0.15145630206985361 -0.18968761251265129 0 -0.15145630206985361 -0.18968761251265129 0 -0.17460349029444081 -0.19847420263768811 0 -0.16379000153515469 -0.2076166150641077 0 -0.17926050911564159 -0.1783893662144059 0 -0.15145630206985361 -0.18968761251265129 0 -0.17460349029444081 -0.19847420263768811 0 -0.17926050911564159 -0.1783893662144059 0 -0.17460349029444081 -0.19847420263768811 0 -0.1860401330007114 -0.19957007559768969 0 -0.17460349029444081 -0.19847420263768811 0 -0.1810972407933395 -0.21505637472871611 0 -0.16379000153515469 -0.2076166150641077 0 -0.17460349029444081 -0.19847420263768811 0 -0.1860401330007114 -0.19957007559768969 0 -0.1810972407933395 -0.21505637472871611 0 -0.1494733387586549 -0.21868876840590701 0 -0.16379000153515469 -0.2076166150641077 0 -0.1668806251702582 -0.22094712094226371 0 -0.1810972407933395 -0.21505637472871611 0 -0.16379000153515469 -0.2076166150641077 0 -0.1668806251702582 -0.22094712094226371 0 -0.1494733387586549 -0.21868876840590701 0 -0.1668806251702582 -0.22094712094226371 0 -0.16688431198636719 -0.2371060819795201 0 -0.1668806251702582 -0.22094712094226371 0 -0.17713573814775679 -0.2295065130685989 0 -0.16688431198636719 -0.2371060819795201 0 -0.1810972407933395 -0.21505637472871611 0 -0.1668806251702582 -0.22094712094226371 0 -0.17713573814775679 -0.2295065130685989 0 -0.1810972407933395 -0.21505637472871611 0 -0.17713573814775679 -0.2295065130685989 0 -0.19126674756036419 -0.22993829439628019 0 -0.17713573814775679 -0.2295065130685989 0 -0.1803427228494808 -0.24262331171368259 0 -0.19126674756036419 -0.22993829439628019 0 -0.17043920635738191 -0.25558086003822728 0 -0.1803427228494808 -0.24262331171368259 0 -0.16688431198636719 -0.2371060819795201 0 -0.17713573814775679 -0.2295065130685989 0 -0.1803427228494808 -0.24262331171368259 0 -0.16688431198636719 -0.2371060819795201 0 -0.19081044409573611 -0.25821205522141499 0 -0.1803427228494808 -0.24262331171368259 0 -0.19126674756036419 -0.22993829439628019 0 -0.17043920635738191 -0.25558086003822728 0 -0.15290993660381361 -0.24859222687263499 0 -0.16688431198636719 -0.2371060819795201 0 -0.15290993660381361 -0.24859222687263499 0 -0.1494733387586549 -0.21868876840590701 0 -0.16688431198636719 -0.2371060819795201 0 -0.2078113890679173 -0.24573214469939811 0 -0.20195629443254021 -0.2273157159659166 0 -0.2144336418035428 -0.23027260005567929 0 -0.2078113890679173 -0.24573214469939811 0 -0.20195629443254021 -0.2273157159659166 0 -0.22088369275761879 -0.25278963368124702 0 -0.2078113890679173 -0.24573214469939811 0 -0.2204278063411749 -0.24167206341714839 0 -0.2078113890679173 -0.24573214469939811 0 -0.2144336418035428 -0.23027260005567929 0 -0.2078113890679173 -0.24573214469939811 0 -0.2144336418035428 -0.23027260005567929 0 -0.2204278063411749 -0.24167206341714839 0 -0.2078113890679173 -0.24573214469939811 0 -0.19771406546484879 -0.24761342631633729 0 -0.19959898175071339 -0.23807565689161869 0 -0.19081044409573611 -0.25821205522141499 0 -0.19126674756036419 -0.22993829439628019 0 -0.19771406546484879 -0.24761342631633729 0 -0.19959898175071339 -0.23807565689161869 0 -0.19126674756036419 -0.22993829439628019 0 -0.19081044409573611 -0.25821205522141499 0 -0.19771406546484879 -0.24761342631633729 0 -0.19126674756036419 -0.22993829439628019 0 -0.2078113890679173 -0.24573214469939811 0 -0.19959898175071339 -0.23807565689161869 0 -0.20195629443254021 -0.2273157159659166 0 -0.19959898175071339 -0.23807565689161869 0 -0.20195629443254021 -0.2273157159659166 0 -0.19126674756036419 -0.22993829439628019 0 -0.20195629443254021 -0.2273157159659166 0 -0.19311592361618579 -0.22009645722925461 0 -0.19610119979716439 -0.2088992872324347 0 -0.1810972407933395 -0.21505637472871611 0 -0.19126674756036419 -0.22993829439628019 0 -0.19311592361618579 -0.22009645722925461 0 -0.20195629443254021 -0.2273157159659166 0 -0.19126674756036419 -0.22993829439628019 0 -0.19311592361618579 -0.22009645722925461 0 -0.20195629443254021 -0.2273157159659166 0 -0.21118601228415421 -0.22207490349799849 0 -0.2072982183613675 -0.21589824255843801 0 -0.20195629443254021 -0.2273157159659166 0 -0.2144336418035428 -0.23027260005567929 0 -0.21118601228415421 -0.22207490349799849 0 -0.2144336418035428 -0.23027260005567929 0 -0.21118601228415421 -0.22207490349799849 0 -0.22105589453916649 -0.21481305541196 0 -0.2144336418035428 -0.23027260005567929 0 -0.22105589453916649 -0.21481305541196 0 -0.20790594084129399 -0.20505676341412921 0 -0.2072982183613675 -0.21589824255843801 0 -0.22105589453916649 -0.21481305541196 0 -0.21118601228415421 -0.22207490349799849 0 -0.2072982183613675 -0.21589824255843801 0 -0.22105589453916649 -0.21481305541196 0 -0.20790594084129399 -0.20505676341412921 0 -0.2234987768193325 -0.20239996617086589 0 -0.22105589453916649 -0.21481305541196 0 -0.20790594084129399 -0.20505676341412921 0 -0.2072982183613675 -0.21589824255843801 0 -0.19610119979716439 -0.2088992872324347 0 -0.20195629443254021 -0.2273157159659166 0 -0.19610119979716439 -0.2088992872324347 0 -0.20195629443254021 -0.2273157159659166 0 -0.2072982183613675 -0.21589824255843801 0 -0.19610119979716439 -0.2088992872324347 0 -0.1810972407933395 -0.21505637472871611 0 -0.19311592361618579 -0.22009645722925461 0 -0.19610119979716439 -0.2088992872324347 0 -0.1860401330007114 -0.19957007559768969 0 -0.1810972407933395 -0.21505637472871611 0 -0.19610119979716439 -0.2088992872324347 0 -0.20790594084129399 -0.20505676341412921 0 -0.19610119979716439 -0.2088992872324347 0 -0.19913822500297071 -0.1970311471752037 0 -0.17926050911564159 -0.1783893662144059 0 -0.1860401330007114 -0.19957007559768969 0 -0.19913822500297071 -0.1970311471752037 0 -0.17926050911564159 -0.1783893662144059 0 -0.19913822500297071 -0.1970311471752037 0 -0.1860401330007114 -0.19957007559768969 0 -0.19610119979716439 -0.2088992872324347 0 -0.19913822500297071 -0.1970311471752037 0 -0.19913822500297071 -0.1970311471752037 0 -0.1996184857272208 -0.18754510908777819 0 -0.1937488270069895 -0.18353886153179291 0 -0.20790594084129399 -0.20505676341412921 0 -0.2209887188653355 -0.1868018652893671 0 -0.19913822500297071 -0.1970311471752037 0 -0.1996184857272208 -0.18754510908777819 0 -0.2209887188653355 -0.1868018652893671 0 -0.20790594084129399 -0.20505676341412921 0 -0.19913822500297071 -0.1970311471752037 0 -0.2209887188653355 -0.1868018652893671 0 -0.20790594084129399 -0.20505676341412921 0 -0.2234987768193325 -0.20239996617086589 0 -0.2209887188653355 -0.1868018652893671 0 -0.23617710081068921 -0.1967070396738024 0 -0.2209887188653355 -0.1868018652893671 0 -0.23773220274713461 -0.18331925441936259 0 -0.2234987768193325 -0.20239996617086589 0 -0.23617710081068921 -0.1967070396738024 0 -0.2209887188653355 -0.1868018652893671 0 -0.23617710081068921 -0.1967070396738024 0 -0.2209887188653355 -0.1868018652893671 0 -0.23617710081068921 -0.1967070396738024 0 -0.25136548275604298 -0.2066122140582376 0 -0.25166784041088502 -0.18878008579357711 0 -0.23617710081068921 -0.1967070396738024 0 -0.23773220274713461 -0.18331925441936259 0 -0.25166784041088502 -0.18878008579357711 0 -0.23617710081068921 -0.1967070396738024 0 -0.25136548275604298 -0.2066122140582376 0 -0.23617710081068921 -0.1967070396738024 0 -0.23382590206110609 -0.21149325953829809 0 -0.25136548275604298 -0.2066122140582376 0 -0.23382590206110609 -0.21149325953829809 0 -0.24137553078204599 -0.22579828265538349 0 -0.25136548275604298 -0.2066122140582376 0 -0.23382590206110609 -0.21149325953829809 0 -0.22105589453916649 -0.21481305541196 0 -0.22948262665935931 -0.22262899925953919 0 -0.2234987768193325 -0.20239996617086589 0 -0.23617710081068921 -0.1967070396738024 0 -0.23382590206110609 -0.21149325953829809 0 -0.2234987768193325 -0.20239996617086589 0 -0.23382590206110609 -0.21149325953829809 0 -0.22105589453916649 -0.21481305541196 0 -0.2144336418035428 -0.23027260005567929 0 -0.22105589453916649 -0.21481305541196 0 -0.22948262665935931 -0.22262899925953919 0 -0.2144336418035428 -0.23027260005567929 0 -0.22832961040325289 -0.23406444179435801 0 -0.22948262665935931 -0.22262899925953919 0 -0.22832961040325289 -0.23406444179435801 0 -0.22948262665935931 -0.22262899925953919 0 -0.24137553078204599 -0.22579828265538349 0 -0.23382590206110609 -0.21149325953829809 0 -0.22948262665935931 -0.22262899925953919 0 -0.24137553078204599 -0.22579828265538349 0 -0.24137553078204599 -0.22579828265538349 0 -0.25627667697739043 -0.22665278411635731 0 -0.25136548275604298 -0.2066122140582376 0 -0.24137553078204599 -0.22579828265538349 0 -0.24949476319461411 -0.24101062627542019 0 -0.25627667697739043 -0.22665278411635731 0 -0.22832961040325289 -0.23406444179435801 0 -0.24137553078204599 -0.22579828265538349 0 -0.23815040741469801 -0.23710481214753221 0 -0.23815040741469801 -0.23710481214753221 0 -0.24949476319461411 -0.24101062627542019 0 -0.23340172527887901 -0.24754589786496711 0 -0.2415193013900496 -0.25667657336603761 0 -0.24949476319461411 -0.24101062627542019 0 -0.23340172527887901 -0.24754589786496711 0 -0.24137553078204599 -0.22579828265538349 0 -0.23815040741469801 -0.23710481214753221 0 -0.24949476319461411 -0.24101062627542019 0 -0.22832961040325289 -0.23406444179435801 0 -0.23815040741469801 -0.23710481214753221 0 -0.23340172527887901 -0.24754589786496711 0 -0.22832961040325289 -0.23406444179435801 0 -0.23340172527887901 -0.24754589786496711 0 -0.2204278063411749 -0.24167206341714839 0 -0.2144336418035428 -0.23027260005567929 0 -0.22832961040325289 -0.23406444179435801 0 -0.2204278063411749 -0.24167206341714839 0 -0.22088369275761879 -0.25278963368124702 0 -0.23340172527887901 -0.24754589786496711 0 -0.2204278063411749 -0.24167206341714839 0 -0.20527514910742881 -0.155974533816269 0 -0.21428030617807731 -0.14677346014708981 0 -0.22180902523411561 -0.16109976633696099 0 -0.20398016682856629 -0.1447287829319352 0 -0.21428030617807731 -0.14677346014708981 0 -0.21041894993224611 -0.13750739841149101 0 -0.20398016682856629 -0.1447287829319352 0 -0.20527514910742881 -0.155974533816269 0 -0.21428030617807731 -0.14677346014708981 0 -0.21428030617807731 -0.14677346014708981 0 -0.21041894993224611 -0.13750739841149101 0 -0.22255539545777531 -0.13470004685791759 0 -0.21279021485886421 -0.12735117778920421 0 -0.21041894993224611 -0.13750739841149101 0 -0.22255539545777531 -0.13470004685791759 0 -0.20398016682856629 -0.1447287829319352 0 -0.21041894993224611 -0.13750739841149101 0 -0.19848866633794701 -0.1339835243313082 0 -0.21279021485886421 -0.12735117778920421 0 -0.21041894993224611 -0.13750739841149101 0 -0.19848866633794701 -0.1339835243313082 0 -0.19012261627718169 -0.12975330914191721 0 -0.1935197618262802 -0.15042831494242881 0 -0.19848866633794701 -0.1339835243313082 0 -0.19012261627718169 -0.12975330914191721 0 -0.1935197618262802 -0.15042831494242881 0 -0.19848866633794701 -0.1339835243313082 0 -0.19779553134685521 -0.12674263313183901 0 -0.19012261627718169 -0.12975330914191721 0 -0.19779553134685521 -0.12674263313183901 0 -0.19012261627718169 -0.12975330914191721 0 -0.19855662210551989 -0.1187145784191989 0 -0.21279021485886421 -0.12735117778920421 0 -0.19848866633794701 -0.1339835243313082 0 -0.19779553134685521 -0.12674263313183901 0 -0.19848866633794701 -0.1339835243313082 0 -0.19012261627718169 -0.12975330914191721 0 -0.20398016682856629 -0.1447287829319352 0 -0.19848866633794701 -0.1339835243313082 0 -0.1935197618262802 -0.15042831494242881 0 -0.20398016682856629 -0.1447287829319352 0 -0.20527514910742881 -0.155974533816269 0 -0.1935197618262802 -0.15042831494242881 0 -0.20527514910742881 -0.155974533816269 0 -0.1935197618262802 -0.15042831494242881 0 -0.19694749777875131 -0.1711465721963614 0 -0.1935197618262802 -0.15042831494242881 0 -0.19694749777875131 -0.1711465721963614 0 -0.18392616490306279 -0.16263134722828071 0 -0.1887265872734025 -0.15493331692260029 0 -0.19694749777875131 -0.1711465721963614 0 -0.1935197618262802 -0.15042831494242881 0 -0.1887265872734025 -0.15493331692260029 0 -0.19694749777875131 -0.1711465721963614 0 -0.18392616490306279 -0.16263134722828071 0 -0.19694749777875131 -0.1711465721963614 0 -0.17926050911564159 -0.1783893662144059 0 -0.19694749777875131 -0.1711465721963614 0 -0.17926050911564159 -0.1783893662144059 0 -0.19913822500297071 -0.1970311471752037 0 -0.1937488270069895 -0.18353886153179291 0 -0.17926050911564159 -0.1783893662144059 0 -0.19694749777875131 -0.1711465721963614 0 -0.1937488270069895 -0.18353886153179291 0 -0.1996184857272208 -0.18754510908777819 0 -0.19694749777875131 -0.1711465721963614 0 -0.1937488270069895 -0.18353886153179291 0 -0.1996184857272208 -0.18754510908777819 0 -0.19694749777875131 -0.1711465721963614 0 -0.19694749777875131 -0.1711465721963614 0 -0.22180902523411561 -0.16109976633696099 0 -0.2209887188653355 -0.1868018652893671 0 -0.1996184857272208 -0.18754510908777819 0 -0.19694749777875131 -0.1711465721963614 0 -0.2209887188653355 -0.1868018652893671 0 -0.19694749777875131 -0.1711465721963614 0 -0.2209887188653355 -0.1868018652893671 0 -0.20527514910742881 -0.155974533816269 0 -0.19694749777875131 -0.1711465721963614 0 -0.22180902523411561 -0.16109976633696099 0 -0.19694749777875131 -0.1711465721963614 0 -0.22180902523411561 -0.16109976633696099 0 -0.22180902523411561 -0.16109976633696099 0 -0.2338143405757199 -0.16890578715675181 0 -0.2466399622861063 -0.15100970902413799 0 -0.2338143405757199 -0.16890578715675181 0 -0.2209887188653355 -0.1868018652893671 0 -0.23773220274713461 -0.18331925441936259 0 -0.22180902523411561 -0.16109976633696099 0 -0.2338143405757199 -0.16890578715675181 0 -0.2209887188653355 -0.1868018652893671 0 -0.2338143405757199 -0.16890578715675181 0 -0.2209887188653355 -0.1868018652893671 0 -0.2338143405757199 -0.16890578715675181 0 -0.23773220274713461 -0.18331925441936259 0 -0.24601301307304349 -0.17540149418331469 0 -0.23773220274713461 -0.18331925441936259 0 -0.24601301307304349 -0.17540149418331469 0 -0.25166784041088502 -0.18878008579357711 0 -0.2338143405757199 -0.16890578715675181 0 -0.2466399622861063 -0.15100970902413799 0 -0.25052646862776462 -0.16160464483847209 0 -0.2338143405757199 -0.16890578715675181 0 -0.24601301307304349 -0.17540149418331469 0 -0.25052646862776462 -0.16160464483847209 0 -0.2338143405757199 -0.16890578715675181 0 -0.2466399622861063 -0.15100970902413799 0 -0.24852803527381681 -0.15024249010618509 0 -0.2466399622861063 -0.15100970902413799 0 -0.25052646862776462 -0.16160464483847209 0 -0.24852803527381681 -0.15024249010618509 0 -0.2466399622861063 -0.15100970902413799 0 -0.2466399622861063 -0.15100970902413799 0 -0.23129370966147331 -0.143472780537062 0 -0.24503193769335729 -0.1366444971083477 0 -0.21428030617807731 -0.14677346014708981 0 -0.23129370966147331 -0.143472780537062 0 -0.22255539545777531 -0.13470004685791759 0 -0.22180902523411561 -0.16109976633696099 0 -0.2466399622861063 -0.15100970902413799 0 -0.21428030617807731 -0.14677346014708981 0 -0.22180902523411561 -0.16109976633696099 0 -0.23129370966147331 -0.143472780537062 0 -0.22180902523411561 -0.16109976633696099 0 -0.2466399622861063 -0.15100970902413799 0 -0.23129370966147331 -0.143472780537062 0 -0.21279021485886421 -0.12735117778920421 0 -0.22255539545777531 -0.13470004685791759 0 -0.22646965145 -0.11909155637857689 0 -0.23129370966147331 -0.143472780537062 0 -0.22255539545777531 -0.13470004685791759 0 -0.23645489397954819 -0.12968104804937269 0 -0.22255539545777531 -0.13470004685791759 0 -0.23645489397954819 -0.12968104804937269 0 -0.22646965145 -0.11909155637857689 0 -0.23129370966147331 -0.143472780537062 0 -0.23645489397954819 -0.12968104804937269 0 -0.24503193769335729 -0.1366444971083477 0 -0.23645489397954819 -0.12968104804937269 0 -0.24503193769335729 -0.1366444971083477 0 -0.24895330470623209 -0.1268831407910731 0 -0.23645489397954819 -0.12968104804937269 0 -0.24895330470623209 -0.1268831407910731 0 -0.2437296878617993 -0.11245151445585511 0 -0.23645489397954819 -0.12968104804937269 0 -0.2437296878617993 -0.11245151445585511 0 -0.22646965145 -0.11909155637857689 0 -0.2437296878617993 -0.11245151445585511 0 -0.2390272694289633 -0.095675273440871178 0 -0.25048879520445988 -0.1024312706321424 0 -0.2437296878617993 -0.11245151445585511 0 -0.2390272694289633 -0.095675273440871178 0 -0.22608178428779879 -0.1040230259111206 0 -0.2390272694289633 -0.095675273440871178 0 -0.25582738408898942 -0.090845294429122342 0 -0.25048879520445988 -0.1024312706321424 0 -0.2390272694289633 -0.095675273440871178 0 -0.22608178428779879 -0.1040230259111206 0 -0.22340845928298281 -0.090427620638948991 0 -0.22608178428779879 -0.1040230259111206 0 -0.22340845928298281 -0.090427620638948991 0 -0.2115238009597982 -0.098733123134100695 0 -0.2437296878617993 -0.11245151445585511 0 -0.22608178428779879 -0.1040230259111206 0 -0.22646965145 -0.11909155637857689 0 -0.22608178428779879 -0.1040230259111206 0 -0.22646965145 -0.11909155637857689 0 -0.21464790783675289 -0.1110400648755005 0 -0.23541524911941539 -0.076540175701504023 0 -0.2310774229591876 -0.061014156722873733 0 -0.24207450416397119 -0.062360343346153153 0 -0.24945306658654839 -0.074023025127658904 0 -0.24207450416397119 -0.062360343346153153 0 -0.25166825617000321 -0.058731656723072352 0 -0.24945306658654839 -0.074023025127658904 0 -0.23541524911941539 -0.076540175701504023 0 -0.24207450416397119 -0.062360343346153153 0 -0.23541524911941539 -0.076540175701504023 0 -0.25582738408898942 -0.090845294429122342 0 -0.2390272694289633 -0.095675273440871178 0 -0.23541524911941539 -0.076540175701504023 0 -0.25582738408898942 -0.090845294429122342 0 -0.24945306658654839 -0.074023025127658904 0 -0.23541524911941539 -0.076540175701504023 0 -0.25582738408898942 -0.090845294429122342 0 -0.2390272694289633 -0.095675273440871178 0 -0.23541524911941539 -0.076540175701504023 0 -0.22340845928298281 -0.090427620638948991 0 -0.23541524911941539 -0.076540175701504023 0 -0.22340845928298281 -0.090427620638948991 0 -0.21979074775052471 -0.07740085329047619 0 -0.23541524911941539 -0.076540175701504023 0 -0.21979074775052471 -0.07740085329047619 0 -0.2150031141498415 -0.062235056973885573 0 -0.23541524911941539 -0.076540175701504023 0 -0.2150031141498415 -0.062235056973885573 0 -0.2310774229591876 -0.061014156722873733 0 -0.23541524911941539 -0.076540175701504023 0 -0.2150031141498415 -0.062235056973885573 0 -0.20893933559521111 -0.077757184161381415 0 -0.20249668162645751 -0.069455849561174898 0 -0.2150031141498415 -0.062235056973885573 0 -0.21979074775052471 -0.07740085329047619 0 -0.20893933559521111 -0.077757184161381415 0 -0.2150031141498415 -0.062235056973885573 0 -0.20893933559521111 -0.077757184161381415 0 -0.21096144770408501 -0.088602049354982504 0 -0.20123057847932529 -0.089100141435383987 0 -0.22340845928298281 -0.090427620638948991 0 -0.21979074775052471 -0.07740085329047619 0 -0.21096144770408501 -0.088602049354982504 0 -0.21979074775052471 -0.07740085329047619 0 -0.20893933559521111 -0.077757184161381415 0 -0.21096144770408501 -0.088602049354982504 0 -0.22340845928298281 -0.090427620638948991 0 -0.21096144770408501 -0.088602049354982504 0 -0.2115238009597982 -0.098733123134100695 0 -0.21096144770408501 -0.088602049354982504 0 -0.20123057847932529 -0.089100141435383987 0 -0.2115238009597982 -0.098733123134100695 0 -0.20123057847932529 -0.089100141435383987 0 -0.19603973025444599 -0.078313890848810269 0 -0.18411285052973039 -0.083422624985064683 0 -0.20123057847932529 -0.089100141435383987 0 -0.1984515326942973 -0.1053869013871345 0 -0.18411285052973039 -0.083422624985064683 0 -0.20893933559521111 -0.077757184161381415 0 -0.20123057847932529 -0.089100141435383987 0 -0.19603973025444599 -0.078313890848810269 0 -0.20249668162645751 -0.069455849561174898 0 -0.18664686234699479 -0.068343056027876908 0 -0.1820300557629819 -0.052147164967068088 0 -0.19603973025444599 -0.078313890848810269 0 -0.20249668162645751 -0.069455849561174898 0 -0.18664686234699479 -0.068343056027876908 0 -0.20893933559521111 -0.077757184161381415 0 -0.19603973025444599 -0.078313890848810269 0 -0.20249668162645751 -0.069455849561174898 0 -0.19603973025444599 -0.078313890848810269 0 -0.18411285052973039 -0.083422624985064683 0 -0.18664686234699479 -0.068343056027876908 0 -0.21279021485886421 -0.12735117778920421 0 -0.1984515326942973 -0.1053869013871345 0 -0.19855662210551989 -0.1187145784191989 0 -0.21279021485886421 -0.12735117778920421 0 -0.1984515326942973 -0.1053869013871345 0 -0.21279021485886421 -0.12735117778920421 0 -0.21464790783675289 -0.1110400648755005 0 -0.1984515326942973 -0.1053869013871345 0 -0.21279021485886421 -0.12735117778920421 0 -0.22646965145 -0.11909155637857689 0 -0.21464790783675289 -0.1110400648755005 0 -0.22608178428779879 -0.1040230259111206 0 -0.21464790783675289 -0.1110400648755005 0 -0.2115238009597982 -0.098733123134100695 0 -0.21464790783675289 -0.1110400648755005 0 -0.2115238009597982 -0.098733123134100695 0 -0.1984515326942973 -0.1053869013871345 0 -0.20123057847932529 -0.089100141435383987 0 -0.2115238009597982 -0.098733123134100695 0 -0.1984515326942973 -0.1053869013871345 0 -0.1984515326942973 -0.1053869013871345 0 -0.18522417611947251 -0.099941434080812908 0 -0.18411285052973039 -0.083422624985064683 0 -0.1984515326942973 -0.1053869013871345 0 -0.19855662210551989 -0.1187145784191989 0 -0.18522417611947251 -0.099941434080812908 0 -0.1984515326942973 -0.1053869013871345 0 -0.18411285052973039 -0.083422624985064683 0 -0.19012261627718169 -0.12975330914191721 0 -0.18522417611947251 -0.099941434080812908 0 -0.19012261627718169 -0.12975330914191721 0 -0.19855662210551989 -0.1187145784191989 0 -0.18522417611947251 -0.099941434080812908 0 -0.21279021485886421 -0.12735117778920421 0 -0.19779553134685521 -0.12674263313183901 0 -0.19855662210551989 -0.1187145784191989 0 -0.19012261627718169 -0.12975330914191721 0 -0.17169580204772761 -0.12043596237978391 0 -0.17419486660748659 -0.10737330421503009 0 -0.19012261627718169 -0.12975330914191721 0 -0.17419486660748659 -0.10737330421503009 0 -0.18522417611947251 -0.099941434080812908 0 -0.17099778754583789 -0.1330259662701255 0 -0.17169580204772761 -0.12043596237978391 0 -0.1532689878182735 -0.1111186156176506 0 -0.17169580204772761 -0.12043596237978391 0 -0.16373849627416559 -0.1062273734639612 0 -0.1532689878182735 -0.1111186156176506 0 -0.1546388525823828 -0.12820482379743009 0 -0.17099778754583789 -0.1330259662701255 0 -0.1532689878182735 -0.1111186156176506 0 -0.17169580204772761 -0.12043596237978391 0 -0.1532689878182735 -0.1111186156176506 0 -0.17099778754583789 -0.1330259662701255 0 -0.1532689878182735 -0.1111186156176506 0 -0.17169580204772761 -0.12043596237978391 0 -0.16373849627416559 -0.1062273734639612 0 -0.17419486660748659 -0.10737330421503009 0 -0.16373849627416559 -0.1062273734639612 0 -0.16514651885698331 -0.094067767416101025 0 -0.154386306040357 -0.098141217691240387 0 -0.16373849627416559 -0.1062273734639612 0 -0.1532689878182735 -0.1111186156176506 0 -0.154386306040357 -0.098141217691240387 0 -0.16373849627416559 -0.1062273734639612 0 -0.16514651885698331 -0.094067767416101025 0 -0.17419486660748659 -0.10737330421503009 0 -0.17419486660748659 -0.10737330421503009 0 -0.18522417611947251 -0.099941434080812908 0 -0.1763194109957609 -0.092422505379021747 0 -0.16514651885698331 -0.094067767416101025 0 -0.17419486660748659 -0.10737330421503009 0 -0.1763194109957609 -0.092422505379021747 0 -0.18522417611947251 -0.099941434080812908 0 -0.18411285052973039 -0.083422624985064683 0 -0.1763194109957609 -0.092422505379021747 0 -0.18411285052973039 -0.083422624985064683 0 -0.1763194109957609 -0.092422505379021747 0 -0.16713754201773071 -0.080236412770402624 0 -0.18411285052973039 -0.083422624985064683 0 -0.16713754201773071 -0.080236412770402624 0 -0.1697741683651634 -0.06145834858299494 0 -0.18411285052973039 -0.083422624985064683 0 -0.18664686234699479 -0.068343056027876908 0 -0.1697741683651634 -0.06145834858299494 0 -0.18411285052973039 -0.083422624985064683 0 -0.1697741683651634 -0.06145834858299494 0 -0.16713754201773071 -0.080236412770402624 0 -0.15353765552009391 -0.06805328908957628 0 -0.1697741683651634 -0.06145834858299494 0 -0.16713754201773071 -0.080236412770402624 0 -0.15388959328378821 -0.081868023931566544 0 -0.15353765552009391 -0.06805328908957628 0 -0.16514651885698331 -0.094067767416101025 0 -0.15388959328378821 -0.081868023931566544 0 -0.154386306040357 -0.098141217691240387 0 -0.16514651885698331 -0.094067767416101025 0 -0.1763194109957609 -0.092422505379021747 0 -0.16713754201773071 -0.080236412770402624 0 -0.16514651885698331 -0.094067767416101025 0 -0.16713754201773071 -0.080236412770402624 0 -0.15388959328378821 -0.081868023931566544 0 -0.14053830960419481 -0.0731377342174553 0 -0.14084218932878689 -0.095762909863157927 0 -0.15388959328378821 -0.081868023931566544 0 -0.154386306040357 -0.098141217691240387 0 -0.14084218932878689 -0.095762909863157927 0 -0.15388959328378821 -0.081868023931566544 0 -0.14053830960419481 -0.0731377342174553 0 -0.14084218932878689 -0.095762909863157927 0 -0.15388959328378821 -0.081868023931566544 0 -0.14084218932878689 -0.095762909863157927 0 -0.15353765552009391 -0.06805328908957628 0 -0.14053830960419481 -0.0731377342174553 0 -0.1405204820777857 -0.050866031221164523 0 -0.15388959328378821 -0.081868023931566544 0 -0.15353765552009391 -0.06805328908957628 0 -0.14053830960419481 -0.0731377342174553 0 -0.14053830960419481 -0.0731377342174553 0 -0.12967672372996011 -0.081965824113955282 0 -0.13052085344653089 -0.061752034530431377 0 -0.11879731032931989 -0.068522211014163115 0 -0.12967672372996011 -0.081965824113955282 0 -0.13052085344653089 -0.061752034530431377 0 -0.14053830960419481 -0.0731377342174553 0 -0.12967672372996011 -0.081965824113955282 0 -0.14084218932878689 -0.095762909863157927 0 -0.12967672372996011 -0.081965824113955282 0 -0.14084218932878689 -0.095762909863157927 0 -0.12967672372996011 -0.081965824113955282 0 -0.129568967095745 -0.089657366486833756 0 -0.14084218932878689 -0.095762909863157927 0 -0.129568967095745 -0.089657366486833756 0 -0.1342964197301543 -0.095339902927613462 0 -0.14084218932878689 -0.095762909863157927 0 -0.129568967095745 -0.089657366486833756 0 -0.12569653801426589 -0.094476590939466421 0 -0.1342964197301543 -0.095339902927613462 0 -0.11708062179416739 -0.092820305839139736 0 -0.12967672372996011 -0.081965824113955282 0 -0.129568967095745 -0.089657366486833756 0 -0.12569653801426589 -0.094476590939466421 0 -0.1342964197301543 -0.095339902927613462 0 -0.13506589914598199 -0.1019143935969775 0 -0.1236121037757702 -0.096122888788933963 0 -0.12569653801426589 -0.094476590939466421 0 -0.13506589914598199 -0.1019143935969775 0 -0.1236121037757702 -0.096122888788933963 0 -0.13506589914598199 -0.1019143935969775 0 -0.14056356920944149 -0.1046942391919463 0 -0.13506589914598199 -0.1019143935969775 0 -0.14084218932878689 -0.095762909863157927 0 -0.1342964197301543 -0.095339902927613462 0 -0.13506589914598199 -0.1019143935969775 0 -0.14084218932878689 -0.095762909863157927 0 -0.13506589914598199 -0.1019143935969775 0 -0.14084218932878689 -0.095762909863157927 0 -0.14056356920944149 -0.1046942391919463 0 -0.13506589914598199 -0.1019143935969775 0 -0.13435807887235329 -0.11014050557934441 0 -0.14056356920944149 -0.1046942391919463 0 -0.13506589914598199 -0.1019143935969775 0 -0.13506589914598199 -0.1019143935969775 0 -0.12619271498104709 -0.1113639271782951 0 -0.1236121037757702 -0.096122888788933963 0 -0.13506589914598199 -0.1019143935969775 0 -0.12619271498104709 -0.1113639271782951 0 -0.13506589914598199 -0.1019143935969775 0 -0.12619271498104709 -0.1113639271782951 0 -0.13435807887235329 -0.11014050557934441 0 -0.13207369583628159 -0.12779709541915049 0 -0.14058140896724489 -0.12698122271875789 0 -0.12619271498104709 -0.1113639271782951 0 -0.14058140896724489 -0.12698122271875789 0 -0.12619271498104709 -0.1113639271782951 0 -0.13435807887235329 -0.11014050557934441 0 -0.13207369583628159 -0.12779709541915049 0 -0.12539022321906759 -0.12505418175415881 0 -0.12619271498104709 -0.1113639271782951 0 -0.14058140896724489 -0.12698122271875789 0 -0.14056356920944149 -0.1046942391919463 0 -0.14058140896724489 -0.12698122271875789 0 -0.14056356920944149 -0.1046942391919463 0 -0.13435807887235329 -0.11014050557934441 0 -0.14058140896724489 -0.12698122271875789 0 -0.12619271498104709 -0.1113639271782951 0 -0.1546388525823828 -0.12820482379743009 0 -0.1472632046443354 -0.1177497253314464 0 -0.1532689878182735 -0.1111186156176506 0 -0.14056356920944149 -0.1046942391919463 0 -0.1472632046443354 -0.1177497253314464 0 -0.1532689878182735 -0.1111186156176506 0 -0.14058140896724489 -0.12698122271875789 0 -0.14056356920944149 -0.1046942391919463 0 -0.1472632046443354 -0.1177497253314464 0 -0.14058140896724489 -0.12698122271875789 0 -0.1546388525823828 -0.12820482379743009 0 -0.1472632046443354 -0.1177497253314464 0 -0.1532689878182735 -0.1111186156176506 0 -0.154386306040357 -0.098141217691240387 0 -0.14084218932878689 -0.095762909863157927 0 -0.14056356920944149 -0.1046942391919463 0 -0.14084218932878689 -0.095762909863157927 0 -0.1532689878182735 -0.1111186156176506 0 -0.14084218932878689 -0.095762909863157927 0 -0.14056356920944149 -0.1046942391919463 0 -0.1532689878182735 -0.1111186156176506 0 -0.14056356920944149 -0.1046942391919463 0 -0.1532689878182735 -0.1111186156176506 0 -0.14084218932878689 -0.095762909863157927 0 -0.1410968040360302 -0.017529795778855019 0 -0.1554354862005965 -0.03949407218092519 0 -0.1410968040360302 -0.017529795778855019 0 -0.1554354862005965 -0.03949407218092519 0 -0.16156342989950631 -0.034838480372961292 0 -0.1410968040360302 -0.017529795778855019 0 -0.16156342989950631 -0.034838480372961292 0 -0.1410968040360302 -0.017529795778855019 0 -0.15259043980618289 -0.022466626525875239 0 -0.16156342989950631 -0.034838480372961292 0 -0.1410968040360302 -0.017529795778855019 0 -0.13873902767237481 -0.032221782220242842 0 -0.1554354862005965 -0.03949407218092519 0 -0.14702393027199329 -0.016609487340373302 0 -0.1410968040360302 -0.017529795778855019 0 -0.15259043980618289 -0.022466626525875239 0 -0.14702393027199329 -0.016609487340373302 0 -0.1410968040360302 -0.017529795778855019 0 -0.14438947068849561 -0.012748022127678209 0 -0.14702393027199329 -0.016609487340373302 0 -0.15259043980618289 -0.022466626525875239 0 -0.15001900655726411 -0.01369350492908528 0 -0.15259043980618289 -0.022466626525875239 0 -0.15001900655726411 -0.01369350492908528 0 -0.158851469383574 -0.0166056592809656 0 -0.15001900655726411 -0.01369350492908528 0 -0.15405570985204309 -0.0059846701613793241 0 -0.14448796727436561 -0.0064544345403617018 0 -0.15001900655726411 -0.01369350492908528 0 -0.15405570985204309 -0.0059846701613793241 0 -0.158851469383574 -0.0166056592809656 0 -0.14868720794335341 -0.00025503552019224331 0 -0.15405570985204309 -0.0059846701613793241 0 -0.14448796727436561 -0.0064544345403617018 0 -0.14868720794335341 -0.00025503552019224331 0 -0.15405570985204309 -0.0059846701613793241 0 -0.15910787022492889 0.00080444521341030157 0 -0.14868720794335341 -0.00025503552019224331 0 -0.14448796727436561 -0.0064544345403617018 0 -0.13918929955606879 -0.0011181826762928101 0 -0.14448796727436561 -0.0064544345403617018 0 -0.14438947068849561 -0.012748022127678209 0 -0.13790659152375481 -0.014831823844863401 0 -0.14448796727436561 -0.0064544345403617018 0 -0.13790659152375481 -0.014831823844863401 0 -0.14702393027199329 -0.016609487340373302 0 -0.15001900655726411 -0.01369350492908528 0 -0.14438947068849561 -0.012748022127678209 0 -0.15001900655726411 -0.01369350492908528 0 -0.14448796727436561 -0.0064544345403617018 0 -0.14438947068849561 -0.012748022127678209 0 -0.1410968040360302 -0.017529795778855019 0 -0.14438947068849561 -0.012748022127678209 0 -0.13790659152375481 -0.014831823844863401 0 -0.13790659152375481 -0.014831823844863401 0 -0.13033534712786329 -0.0010451836431580391 0 -0.12345413124058099 -0.0026093364490894278 0 -0.12226561497443091 -0.019431654734941139 0 -0.13790659152375481 -0.014831823844863401 0 -0.14448796727436561 -0.0064544345403617018 0 -0.13790659152375481 -0.014831823844863401 0 -0.13918929955606879 -0.0011181826762928101 0 -0.13790659152375481 -0.014831823844863401 0 -0.13918929955606879 -0.0011181826762928101 0 -0.13033534712786329 -0.0010451836431580391 0 -0.12345413124058099 -0.0026093364490894278 0 -0.13790659152375481 -0.014831823844863401 0 -0.13033534712786329 -0.0010451836431580391 0 -0.12345413124058099 -0.0026093364490894278 0 -0.123578269483202 -0.00085227759491413035 0 -0.13033534712786329 -0.0010451836431580391 0 -0.12345413124058099 -0.0026093364490894278 0 -0.13790659152375481 -0.014831823844863401 0 -0.1410968040360302 -0.017529795778855019 0 -0.13790659152375481 -0.014831823844863401 0 -0.13873902767237481 -0.032221782220242842 0 -0.12107709870827919 -0.036253973020792793 0 -0.13790659152375481 -0.014831823844863401 0 -0.12107709870827919 -0.036253973020792793 0 -0.12226561497443091 -0.019431654734941139 0 -0.13790659152375481 -0.014831823844863401 0 -0.12107709870827919 -0.036253973020792793 0 -0.13790659152375481 -0.014831823844863401 0 -0.13873902767237481 -0.032221782220242842 0 -0.1410968040360302 -0.017529795778855019 0 -0.13790659152375481 -0.014831823844863401 0 -0.12107709870827919 -0.036253973020792793 0 -0.13120806109013 -0.043015410321764452 0 -0.13873902767237481 -0.032221782220242842 0 -0.13120806109013 -0.043015410321764452 0 -0.13873902767237481 -0.032221782220242842 0 -0.14533983247804799 -0.042708571654961107 0 -0.13120806109013 -0.043015410321764452 0 -0.1405204820777857 -0.050866031221164523 0 -0.14533983247804799 -0.042708571654961107 0 -0.13120806109013 -0.043015410321764452 0 -0.13052085344653089 -0.061752034530431377 0 -0.1405204820777857 -0.050866031221164523 0 -0.1199372045187997 -0.05238809201747794 0 -0.13120806109013 -0.043015410321764452 0 -0.13052085344653089 -0.061752034530431377 0 -0.14053830960419481 -0.0731377342174553 0 -0.1405204820777857 -0.050866031221164523 0 -0.14053830960419481 -0.0731377342174553 0 -0.13052085344653089 -0.061752034530431377 0 -0.1405204820777857 -0.050866031221164523 0 -0.15353765552009391 -0.06805328908957628 0 -0.1405204820777857 -0.050866031221164523 0 -0.15553499665016879 -0.05509152538456185 0 -0.1405204820777857 -0.050866031221164523 0 -0.15553499665016879 -0.05509152538456185 0 -0.14533983247804799 -0.042708571654961107 0 -0.13873902767237481 -0.032221782220242842 0 -0.14533983247804799 -0.042708571654961107 0 -0.1554354862005965 -0.03949407218092519 0 -0.15553499665016879 -0.05509152538456185 0 -0.14533983247804799 -0.042708571654961107 0 -0.1554354862005965 -0.03949407218092519 0 -0.16156342989950631 -0.034838480372961292 0 -0.1820300557629819 -0.052147164967068088 0 -0.16156342989950631 -0.034838480372961292 0 -0.16703485457060629 -0.047233229957895473 0 -0.1820300557629819 -0.052147164967068088 0 -0.1554354862005965 -0.03949407218092519 0 -0.16156342989950631 -0.034838480372961292 0 -0.16703485457060629 -0.047233229957895473 0 -0.16156342989950631 -0.034838480372961292 0 -0.1742966197136557 -0.035595772080460657 0 -0.1673572794191665 -0.03027679578325717 0 -0.15353765552009391 -0.06805328908957628 0 -0.15553499665016879 -0.05509152538456185 0 -0.1697741683651634 -0.06145834858299494 0 -0.1554354862005965 -0.03949407218092519 0 -0.16703485457060629 -0.047233229957895473 0 -0.1697741683651634 -0.06145834858299494 0 -0.1554354862005965 -0.03949407218092519 0 -0.1697741683651634 -0.06145834858299494 0 -0.15553499665016879 -0.05509152538456185 0 -0.1554354862005965 -0.03949407218092519 0 -0.1697741683651634 -0.06145834858299494 0 -0.18664686234699479 -0.068343056027876908 0 -0.1697741683651634 -0.06145834858299494 0 -0.1820300557629819 -0.052147164967068088 0 -0.16703485457060629 -0.047233229957895473 0 -0.1697741683651634 -0.06145834858299494 0 -0.1820300557629819 -0.052147164967068088 0 -0.16156342989950631 -0.034838480372961292 0 -0.1820300557629819 -0.052147164967068088 0 -0.1742966197136557 -0.035595772080460657 0 -0.1820300557629819 -0.052147164967068088 0 -0.1742966197136557 -0.035595772080460657 0 -0.18541678010982249 -0.040107841147207661 0 -0.1820300557629819 -0.052147164967068088 0 -0.18541678010982249 -0.040107841147207661 0 -0.1945909791802676 -0.047929938246267123 0 -0.1742966197136557 -0.035595772080460657 0 -0.18541678010982249 -0.040107841147207661 0 -0.182258365857598 -0.029694791966165038 0 -0.18541678010982249 -0.040107841147207661 0 -0.182258365857598 -0.029694791966165038 0 -0.19390788003460899 -0.035171538476077381 0 -0.182258365857598 -0.029694791966165038 0 -0.18041193836245911 -0.017249783726297149 0 -0.1929053615817089 -0.023402986019551621 0 -0.18041193836245911 -0.017249783726297149 0 -0.1713747512512645 -0.02558279179606697 0 -0.168216793990451 -0.01647064222217531 0 -0.1742966197136557 -0.035595772080460657 0 -0.182258365857598 -0.029694791966165038 0 -0.1713747512512645 -0.02558279179606697 0 -0.182258365857598 -0.029694791966165038 0 -0.18041193836245911 -0.017249783726297149 0 -0.1713747512512645 -0.02558279179606697 0 -0.1742966197136557 -0.035595772080460657 0 -0.1713747512512645 -0.02558279179606697 0 -0.1673572794191665 -0.03027679578325717 0 -0.1713747512512645 -0.02558279179606697 0 -0.1673572794191665 -0.03027679578325717 0 -0.16219431681223959 -0.025090138883539739 0 -0.1713747512512645 -0.02558279179606697 0 -0.168216793990451 -0.01647064222217531 0 -0.16219431681223959 -0.025090138883539739 0 -0.15259043980618289 -0.022466626525875239 0 -0.158851469383574 -0.0166056592809656 0 -0.16219431681223959 -0.025090138883539739 0 -0.168216793990451 -0.01647064222217531 0 -0.158851469383574 -0.0166056592809656 0 -0.16219431681223959 -0.025090138883539739 0 -0.16156342989950631 -0.034838480372961292 0 -0.1673572794191665 -0.03027679578325717 0 -0.16219431681223959 -0.025090138883539739 0 -0.15259043980618289 -0.022466626525875239 0 -0.16156342989950631 -0.034838480372961292 0 -0.16219431681223959 -0.025090138883539739 0 -0.15405570985204309 -0.0059846701613793241 0 -0.16430579321722971 -0.0076278103866763876 0 -0.15910787022492889 0.00080444521341030157 0 -0.168216793990451 -0.01647064222217531 0 -0.158851469383574 -0.0166056592809656 0 -0.16430579321722971 -0.0076278103866763876 0 -0.15405570985204309 -0.0059846701613793241 0 -0.158851469383574 -0.0166056592809656 0 -0.16430579321722971 -0.0076278103866763876 0 -0.168216793990451 -0.01647064222217531 0 -0.16430579321722971 -0.0076278103866763876 0 -0.17386694468158981 -0.0094132660134445649 0 -0.16430579321722971 -0.0076278103866763876 0 -0.15910787022492889 0.00080444521341030157 0 -0.1719071593278558 0.0030378493174482062 0 -0.16430579321722971 -0.0076278103866763876 0 -0.17386694468158981 -0.0094132660134445649 0 -0.1719071593278558 0.0030378493174482062 0 -0.17386694468158981 -0.0094132660134445649 0 -0.18238888539348161 -0.0054129894362464426 0 -0.1719071593278558 0.0030378493174482062 0 -0.18041193836245911 -0.017249783726297149 0 -0.17386694468158981 -0.0094132660134445649 0 -0.18238888539348161 -0.0054129894362464426 0 -0.18041193836245911 -0.017249783726297149 0 -0.168216793990451 -0.01647064222217531 0 -0.17386694468158981 -0.0094132660134445649 0 -0.18041193836245911 -0.017249783726297149 0 -0.18238888539348161 -0.0054129894362464426 0 -0.19220555374647591 -0.01104922473964055 0 -0.18238888539348161 -0.0054129894362464426 0 -0.18279306854227989 0.0036756509716502142 0 -0.19353766309544729 0.00059752294901574551 0 -0.18238888539348161 -0.0054129894362464426 0 -0.19220555374647591 -0.01104922473964055 0 -0.19353766309544729 0.00059752294901574551 0 -0.19220555374647591 -0.01104922473964055 0 -0.20553063162980051 -0.0047846586032372872 0 -0.19353766309544729 0.00059752294901574551 0 -0.19220555374647591 -0.01104922473964055 0 -0.20302683860996479 -0.01682010922370946 0 -0.20553063162980051 -0.0047846586032372872 0 -0.18041193836245911 -0.017249783726297149 0 -0.19220555374647591 -0.01104922473964055 0 -0.1929053615817089 -0.023402986019551621 0 -0.182258365857598 -0.029694791966165038 0 -0.1929053615817089 -0.023402986019551621 0 -0.19390788003460899 -0.035171538476077381 0 -0.1929053615817089 -0.023402986019551621 0 -0.20522122827554509 -0.028457704347710101 0 -0.19390788003460899 -0.035171538476077381 0 -0.19220555374647591 -0.01104922473964055 0 -0.1929053615817089 -0.023402986019551621 0 -0.20302683860996479 -0.01682010922370946 0 -0.1929053615817089 -0.023402986019551621 0 -0.20302683860996479 -0.01682010922370946 0 -0.20522122827554509 -0.028457704347710101 0 -0.20302683860996479 -0.01682010922370946 0 -0.20522122827554509 -0.028457704347710101 0 -0.21161970577141059 -0.019719232608782011 0 -0.20302683860996479 -0.01682010922370946 0 -0.21161970577141059 -0.019719232608782011 0 -0.2112480467139714 -0.011858512441483461 0 -0.20522122827554509 -0.028457704347710101 0 -0.21758415625186739 -0.027055399902820989 0 -0.21199407452583471 -0.033873256163296429 0 -0.20522122827554509 -0.028457704347710101 0 -0.21758415625186739 -0.027055399902820989 0 -0.21161970577141059 -0.019719232608782011 0 -0.21758415625186739 -0.027055399902820989 0 -0.21161970577141059 -0.019719232608782011 0 -0.2210182590057041 -0.01440443712818607 0 -0.21161970577141059 -0.019719232608782011 0 -0.2112480467139714 -0.011858512441483461 0 -0.2210182590057041 -0.01440443712818607 0 -0.2112480467139714 -0.011858512441483461 0 -0.21863552893197949 -0.0054248978120513781 0 -0.2210182590057041 -0.01440443712818607 0 -0.2112480467139714 -0.011858512441483461 0 -0.21863552893197949 -0.0054248978120513781 0 -0.20553063162980051 -0.0047846586032372872 0 -0.21863552893197949 -0.0054248978120513781 0 -0.20553063162980051 -0.0047846586032372872 0 -0.21496533833919351 0.003390015232671309 0 -0.20302683860996479 -0.01682010922370946 0 -0.2112480467139714 -0.011858512441483461 0 -0.20553063162980051 -0.0047846586032372872 0 -0.20249668162645751 -0.069455849561174898 0 -0.1820300557629819 -0.052147164967068088 0 -0.20249668162645751 -0.069455849561174898 0 -0.1820300557629819 -0.052147164967068088 0 -0.1945909791802676 -0.047929938246267123 0 -0.1945909791802676 -0.047929938246267123 0 -0.19390788003460899 -0.035171538476077381 0 -0.2063872947052923 -0.040392028265616997 0 -0.18541678010982249 -0.040107841147207661 0 -0.1945909791802676 -0.047929938246267123 0 -0.19390788003460899 -0.035171538476077381 0 -0.20522122827554509 -0.028457704347710101 0 -0.19390788003460899 -0.035171538476077381 0 -0.2063872947052923 -0.040392028265616997 0 -0.1945909791802676 -0.047929938246267123 0 -0.2063872947052923 -0.040392028265616997 0 -0.2114817515928121 -0.048330208280403103 0 -0.20522122827554509 -0.028457704347710101 0 -0.21199407452583471 -0.033873256163296429 0 -0.2063872947052923 -0.040392028265616997 0 -0.21199407452583471 -0.033873256163296429 0 -0.2063872947052923 -0.040392028265616997 0 -0.21878361887063399 -0.039587892137037638 0 -0.21758415625186739 -0.027055399902820989 0 -0.21199407452583471 -0.033873256163296429 0 -0.21878361887063399 -0.039587892137037638 0 -0.2114817515928121 -0.048330208280403103 0 -0.22264375105802531 -0.051506125779208163 0 -0.21878361887063399 -0.039587892137037638 0 -0.2063872947052923 -0.040392028265616997 0 -0.2114817515928121 -0.048330208280403103 0 -0.21878361887063399 -0.039587892137037638 0 -0.1945909791802676 -0.047929938246267123 0 -0.2114817515928121 -0.048330208280403103 0 -0.2150031141498415 -0.062235056973885573 0 -0.20249668162645751 -0.069455849561174898 0 -0.1945909791802676 -0.047929938246267123 0 -0.2150031141498415 -0.062235056973885573 0 -0.1945909791802676 -0.047929938246267123 0 -0.2150031141498415 -0.062235056973885573 0 -0.2114817515928121 -0.048330208280403103 0 -0.2150031141498415 -0.062235056973885573 0 -0.22264375105802531 -0.051506125779208163 0 -0.2150031141498415 -0.062235056973885573 0 -0.2310774229591876 -0.061014156722873733 0 -0.22264375105802531 -0.051506125779208163 0 -0.22264375105802531 -0.051506125779208163 0 -0.2315141733227567 -0.040454357980612143 0 -0.23620837885574711 -0.050887812472693417 0 -0.2310774229591876 -0.061014156722873733 0 -0.22264375105802531 -0.051506125779208163 0 -0.23620837885574711 -0.050887812472693417 0 -0.22264375105802531 -0.051506125779208163 0 -0.2315141733227567 -0.040454357980612143 0 -0.21878361887063399 -0.039587892137037638 0 -0.21758415625186739 -0.027055399902820989 0 -0.21878361887063399 -0.039587892137037638 0 -0.2281987075469582 -0.031105754236713561 0 -0.2315141733227567 -0.040454357980612143 0 -0.21878361887063399 -0.039587892137037638 0 -0.2281987075469582 -0.031105754236713561 0 -0.2315141733227567 -0.040454357980612143 0 -0.2281987075469582 -0.031105754236713561 0 -0.2394215167419782 -0.030637546167415299 0 -0.2315141733227567 -0.040454357980612143 0 -0.24279023489030691 -0.040182546639496261 0 -0.2394215167419782 -0.030637546167415299 0 -0.24977008459632591 -0.031531811386087211 0 -0.24279023489030691 -0.040182546639496261 0 -0.25210661984832272 -0.039587752893897751 0 -0.24977008459632591 -0.031531811386087211 0 -0.24279023489030691 -0.040182546639496261 0 -0.2394215167419782 -0.030637546167415299 0 -0.24279023489030691 -0.040182546639496261 0 -0.2472874745021357 -0.049502687527232393 0 -0.25210661984832272 -0.039587752893897751 0 -0.24279023489030691 -0.040182546639496261 0 -0.23620837885574711 -0.050887812472693417 0 -0.2472874745021357 -0.049502687527232393 0 -0.2315141733227567 -0.040454357980612143 0 -0.24279023489030691 -0.040182546639496261 0 -0.23620837885574711 -0.050887812472693417 0 -0.23620837885574711 -0.050887812472693417 0 -0.2472874745021357 -0.049502687527232393 0 -0.24207450416397119 -0.062360343346153153 0 -0.2472874745021357 -0.049502687527232393 0 -0.24207450416397119 -0.062360343346153153 0 -0.25166825617000321 -0.058731656723072352 0 -0.2310774229591876 -0.061014156722873733 0 -0.23620837885574711 -0.050887812472693417 0 -0.24207450416397119 -0.062360343346153153 0 -0.23350709763182209 -0.01085372353364831 0 -0.2210182590057041 -0.01440443712818607 0 -0.22685531846627149 -0.020901063647819271 0 -0.23350709763182209 -0.01085372353364831 0 -0.22682757909110379 -0.0056252330779256602 0 -0.2210182590057041 -0.01440443712818607 0 -0.23350709763182209 -0.01085372353364831 0 -0.2333569328832544 -0.0010801119816803771 0 -0.22682757909110379 -0.0056252330779256602 0 -0.2333569328832544 -0.0010801119816803771 0 -0.22682757909110379 -0.0056252330779256602 0 -0.22437822839316521 0.0020831476299694339 0 -0.21863552893197949 -0.0054248978120513781 0 -0.22682757909110379 -0.0056252330779256602 0 -0.22437822839316521 0.0020831476299694339 0 -0.21863552893197949 -0.0054248978120513781 0 -0.22682757909110379 -0.0056252330779256602 0 -0.2210182590057041 -0.01440443712818607 0 -0.21758415625186739 -0.027055399902820989 0 -0.2210182590057041 -0.01440443712818607 0 -0.22685531846627149 -0.020901063647819271 0 -0.21758415625186739 -0.027055399902820989 0 -0.2281987075469582 -0.031105754236713561 0 -0.22685531846627149 -0.020901063647819271 0 -0.2281987075469582 -0.031105754236713561 0 -0.2394215167419782 -0.030637546167415299 0 -0.23443021273332909 -0.02410207511569807 0 -0.2281987075469582 -0.031105754236713561 0 -0.22685531846627149 -0.020901063647819271 0 -0.23443021273332909 -0.02410207511569807 0 -0.22685531846627149 -0.020901063647819271 0 -0.2394669286891315 -0.01760153744907731 0 -0.23443021273332909 -0.02410207511569807 0 -0.23350709763182209 -0.01085372353364831 0 -0.22685531846627149 -0.020901063647819271 0 -0.2394669286891315 -0.01760153744907731 0 -0.2394669286891315 -0.01760153744907731 0 -0.23443021273332909 -0.02410207511569807 0 -0.24499938375679939 -0.02276813659192984 0 -0.2394215167419782 -0.030637546167415299 0 -0.23443021273332909 -0.02410207511569807 0 -0.24499938375679939 -0.02276813659192984 0 -0.24977008459632591 -0.031531811386087211 0 -0.24499938375679939 -0.02276813659192984 0 -0.25457326626775828 -0.023073518948623108 0 -0.24977008459632591 -0.031531811386087211 0 -0.2394215167419782 -0.030637546167415299 0 -0.24499938375679939 -0.02276813659192984 0 -0.2394669286891315 -0.01760153744907731 0 -0.24499938375679939 -0.02276813659192984 0 -0.2450903888306209 -0.01245548532454604 0 -0.24499938375679939 -0.02276813659192984 0 -0.2450903888306209 -0.01245548532454604 0 -0.25178676329555788 -0.016262871637116601 0 -0.2450903888306209 -0.01245548532454604 0 -0.2481115740794364 -0.0052761220655776469 0 -0.25415302090780972 -0.0091887452476732794 0 -0.23350709763182209 -0.01085372353364831 0 -0.2394669286891315 -0.01760153744907731 0 -0.2450903888306209 -0.01245548532454604 0 -0.23350709763182209 -0.01085372353364831 0 -0.2450903888306209 -0.01245548532454604 0 -0.24142717779930181 -0.0047136745938321642 0 -0.2333569328832544 -0.0010801119816803771 0 -0.24142717779930181 -0.0047136745938321642 0 -0.2396982337230652 0.0036774688141518329 0 -0.23350709763182209 -0.01085372353364831 0 -0.2333569328832544 -0.0010801119816803771 0 -0.24142717779930181 -0.0047136745938321642 0 -0.24142717779930181 -0.0047136745938321642 0 -0.24594454065168961 -0.0001693973902666863 0 -0.2481115740794364 -0.0052761220655776469 0 -0.24142717779930181 -0.0047136745938321642 0 -0.24594454065168961 -0.0001693973902666863 0 -0.2396982337230652 0.0036774688141518329 0 -0.2450903888306209 -0.01245548532454604 0 -0.24142717779930181 -0.0047136745938321642 0 -0.2481115740794364 -0.0052761220655776469 0 -0.24594454065168961 -0.0001693973902666863 0 -0.2481115740794364 -0.0052761220655776469 0 -0.25350081091519028 -0.00077752049559358079 0 -0.25350081091519028 -0.00077752049559358079 0 -0.25415302090780972 -0.0091887452476732794 0 -0.25931396674592461 -0.0062599479422737418 0 -0.2481115740794364 -0.0052761220655776469 0 -0.25350081091519028 -0.00077752049559358079 0 -0.25415302090780972 -0.0091887452476732794 0 -0.2450903888306209 -0.01245548532454604 0 -0.25415302090780972 -0.0091887452476732794 0 -0.25178676329555788 -0.016262871637116601 0 -0.25415302090780972 -0.0091887452476732794 0 -0.25912186088739197 -0.014171657785434159 0 -0.25931396674592461 -0.0062599479422737418 0 -0.25415302090780972 -0.0091887452476732794 0 -0.25912186088739197 -0.014171657785434159 0 -0.25178676329555788 -0.016262871637116601 0 -0.25912186088739197 -0.014171657785434159 0 -0.26506158743331248 -0.020791389045743729 0 -0.26626706564595037 -0.009023042221285681 0 -0.25912186088739197 -0.014171657785434159 0 -0.25931396674592461 -0.0062599479422737418 0 -0.26626706564595037 -0.009023042221285681 0 -0.25931396674592461 -0.0062599479422737418 0 -0.26626706564595037 -0.009023042221285681 0 -0.26212373506883802 0.0020703629941813341 0 -0.25350081091519028 -0.00077752049559358079 0 -0.25931396674592461 -0.0062599479422737418 0 -0.26212373506883802 0.0020703629941813341 0 -0.24977008459632591 -0.031531811386087211 0 -0.25457326626775828 -0.023073518948623108 0 -0.26055489608670301 -0.034691471141005993 0 -0.24499938375679939 -0.02276813659192984 0 -0.25457326626775828 -0.023073518948623108 0 -0.25178676329555788 -0.016262871637116601 0 -0.25912186088739197 -0.014171657785434159 0 -0.25457326626775828 -0.023073518948623108 0 -0.25178676329555788 -0.016262871637116601 0 -0.25912186088739197 -0.014171657785434159 0 -0.25457326626775828 -0.023073518948623108 0 -0.26506158743331248 -0.020791389045743729 0 -0.25457326626775828 -0.023073518948623108 0 -0.26506158743331248 -0.020791389045743729 0 -0.26055489608670301 -0.034691471141005993 0 -0.27485161199011621 -0.021351153187863181 0 -0.29334479012600728 -0.026027190747700119 0 -0.27487528805789468 -0.031509632109236123 0 -0.26506158743331248 -0.020791389045743729 0 -0.27487528805789468 -0.031509632109236123 0 -0.26055489608670301 -0.034691471141005993 0 -0.26506158743331248 -0.020791389045743729 0 -0.27485161199011621 -0.021351153187863181 0 -0.27487528805789468 -0.031509632109236123 0 -0.26506158743331248 -0.020791389045743729 0 -0.27485161199011621 -0.021351153187863181 0 -0.26626706564595037 -0.009023042221285681 0 -0.27773426259741929 -0.01197841387676315 0 -0.26212373506883802 0.0020703629941813341 0 -0.26653672594828859 0.0057141009782726076 0 -0.27773426259741929 -0.01197841387676315 0 -0.28706761992807872 -0.0051514692366415663 0 -0.26653672594828859 0.0057141009782726076 0 -0.27773426259741929 -0.01197841387676315 0 -0.26212373506883802 0.0020703629941813341 0 -0.26626706564595037 -0.009023042221285681 0 -0.27773426259741929 -0.01197841387676315 0 -0.26212373506883802 0.0020703629941813341 0 -0.27485161199011621 -0.021351153187863181 0 -0.26626706564595037 -0.009023042221285681 0 -0.27773426259741929 -0.01197841387676315 0 -0.28706761992807872 -0.0051514692366415663 0 -0.29334479012600728 -0.026027190747700119 0 -0.27773426259741929 -0.01197841387676315 0 -0.28706761992807872 -0.0051514692366415663 0 -0.29334479012600728 -0.026027190747700119 0 -0.28712019995877341 -0.003608540209765948 0 -0.28706761992807872 -0.0051514692366415663 0 -0.29611960495831657 0.0056678660705607106 0 -0.27773426259741929 -0.01197841387676315 0 -0.29334479012600728 -0.026027190747700119 0 -0.27485161199011621 -0.021351153187863181 0 -0.27773426259741929 -0.01197841387676315 0 -0.29334479012600728 -0.026027190747700119 0 -0.29334479012600728 -0.026027190747700119 0 -0.31302439425039069 -0.018888579477896739 0 -0.31341452704943851 -0.044089056714742017 0 -0.28706761992807872 -0.0051514692366415663 0 -0.29334479012600728 -0.026027190747700119 0 -0.31302439425039069 -0.018888579477896739 0 -0.28706761992807872 -0.0051514692366415663 0 -0.31302439425039069 -0.018888579477896739 0 -0.30839334227554432 0.0022330019708014948 0 -0.28706761992807872 -0.0051514692366415663 0 -0.31302439425039069 -0.018888579477896739 0 -0.30158743678489502 -0.053439414845334682 0 -0.31341452704943851 -0.044089056714742017 0 -0.31621633032251278 -0.060416907931038863 0 -0.29334479012600728 -0.026027190747700119 0 -0.30158743678489502 -0.053439414845334682 0 -0.31341452704943851 -0.044089056714742017 0 -0.29334479012600728 -0.026027190747700119 0 -0.31341452704943851 -0.044089056714742017 0 -0.29334479012600728 -0.026027190747700119 0 -0.30158743678489502 -0.053439414845334682 0 -0.29334479012600728 -0.026027190747700119 0 -0.30158743678489502 -0.053439414845334682 0 -0.28407839435394122 -0.043600012231152133 0 -0.29334479012600728 -0.026027190747700119 0 -0.28407839435394122 -0.043600012231152133 0 -0.27487528805789468 -0.031509632109236123 0 -0.30158743678489502 -0.053439414845334682 0 -0.28407839435394122 -0.043600012231152133 0 -0.28122396700702829 -0.05950535930671607 0 -0.30158743678489502 -0.053439414845334682 0 -0.28122396700702829 -0.05950535930671607 0 -0.29235021695722962 -0.070820795352111318 0 -0.28122396700702829 -0.05950535930671607 0 -0.2693604897938725 -0.047518464146776102 0 -0.26247894689882117 -0.063931658120283175 0 -0.28407839435394122 -0.043600012231152133 0 -0.28122396700702829 -0.05950535930671607 0 -0.2693604897938725 -0.047518464146776102 0 -0.2693604897938725 -0.047518464146776102 0 -0.27487528805789468 -0.031509632109236123 0 -0.26055489608670301 -0.034691471141005993 0 -0.28407839435394122 -0.043600012231152133 0 -0.2693604897938725 -0.047518464146776102 0 -0.27487528805789468 -0.031509632109236123 0 -0.2693604897938725 -0.047518464146776102 0 -0.26055489608670301 -0.034691471141005993 0 -0.25724278054997629 -0.048993948425377951 0 -0.26055489608670301 -0.034691471141005993 0 -0.25210661984832272 -0.039587752893897751 0 -0.25724278054997629 -0.048993948425377951 0 -0.2472874745021357 -0.049502687527232393 0 -0.25210661984832272 -0.039587752893897751 0 -0.25724278054997629 -0.048993948425377951 0 -0.24977008459632591 -0.031531811386087211 0 -0.26055489608670301 -0.034691471141005993 0 -0.25210661984832272 -0.039587752893897751 0 -0.2693604897938725 -0.047518464146776102 0 -0.25724278054997629 -0.048993948425377951 0 -0.26247894689882117 -0.063931658120283175 0 -0.2472874745021357 -0.049502687527232393 0 -0.25724278054997629 -0.048993948425377951 0 -0.25166825617000321 -0.058731656723072352 0 -0.25724278054997629 -0.048993948425377951 0 -0.25166825617000321 -0.058731656723072352 0 -0.26247894689882117 -0.063931658120283175 0 -0.24945306658654839 -0.074023025127658904 0 -0.25166825617000321 -0.058731656723072352 0 -0.26247894689882117 -0.063931658120283175 0 -0.24945306658654839 -0.074023025127658904 0 -0.26247894689882117 -0.063931658120283175 0 -0.26210264767811592 -0.077475295485245302 0 -0.24945306658654839 -0.074023025127658904 0 -0.25582738408898942 -0.090845294429122342 0 -0.24945306658654839 -0.074023025127658904 0 -0.26210264767811592 -0.077475295485245302 0 -0.25582738408898942 -0.090845294429122342 0 -0.26210264767811592 -0.077475295485245302 0 -0.25582738408898942 -0.090845294429122342 0 -0.26986869681209807 -0.085312114891476609 0 -0.26210264767811592 -0.077475295485245302 0 -0.26986869681209807 -0.085312114891476609 0 -0.27288514400412223 -0.073264384857685341 0 -0.25582738408898942 -0.090845294429122342 0 -0.26986869681209807 -0.085312114891476609 0 -0.2719892574312831 -0.096282425563651602 0 -0.26986869681209807 -0.085312114891476609 0 -0.27813140974157591 -0.091543907419289888 0 -0.2719892574312831 -0.096282425563651602 0 -0.26986869681209807 -0.085312114891476609 0 -0.27813140974157591 -0.091543907419289888 0 -0.28156125324671971 -0.082253444467042094 0 -0.26986869681209807 -0.085312114891476609 0 -0.27288514400412223 -0.073264384857685341 0 -0.28156125324671971 -0.082253444467042094 0 -0.28122396700702829 -0.05950535930671607 0 -0.26247894689882117 -0.063931658120283175 0 -0.27288514400412223 -0.073264384857685341 0 -0.26247894689882117 -0.063931658120283175 0 -0.26210264767811592 -0.077475295485245302 0 -0.27288514400412223 -0.073264384857685341 0 -0.2437296878617993 -0.11245151445585511 0 -0.26337083943808798 -0.11075300020272109 0 -0.25879436215856549 -0.1224596101744954 0 -0.26337083943808798 -0.11075300020272109 0 -0.25879436215856549 -0.1224596101744954 0 -0.27091429478718643 -0.13066070597631979 0 -0.24895330470623209 -0.1268831407910731 0 -0.2437296878617993 -0.11245151445585511 0 -0.25879436215856549 -0.1224596101744954 0 -0.25582738408898942 -0.090845294429122342 0 -0.26337083943808798 -0.11075300020272109 0 -0.25582738408898942 -0.090845294429122342 0 -0.27275494684437918 -0.1027083746677158 0 -0.25582738408898942 -0.090845294429122342 0 -0.26337083943808798 -0.11075300020272109 0 -0.25048879520445988 -0.1024312706321424 0 -0.25582738408898942 -0.090845294429122342 0 -0.26337083943808798 -0.11075300020272109 0 -0.27275494684437918 -0.1027083746677158 0 -0.2437296878617993 -0.11245151445585511 0 -0.26337083943808798 -0.11075300020272109 0 -0.25048879520445988 -0.1024312706321424 0 -0.25582738408898942 -0.090845294429122342 0 -0.2719892574312831 -0.096282425563651602 0 -0.27275494684437918 -0.1027083746677158 0 -0.2719892574312831 -0.096282425563651602 0 -0.27275494684437918 -0.1027083746677158 0 -0.27813140974157591 -0.091543907419289888 0 -0.27689071502912221 -0.099405254485667366 0 -0.28331171767342139 -0.09651043135590967 0 -0.27689071502912221 -0.099405254485667366 0 -0.28311831305729668 -0.10634525204365711 0 -0.28331171767342139 -0.09651043135590967 0 -0.27813140974157591 -0.091543907419289888 0 -0.2719892574312831 -0.096282425563651602 0 -0.27689071502912221 -0.099405254485667366 0 -0.2719892574312831 -0.096282425563651602 0 -0.27689071502912221 -0.099405254485667366 0 -0.27275494684437918 -0.1027083746677158 0 -0.27689071502912221 -0.099405254485667366 0 -0.27275494684437918 -0.1027083746677158 0 -0.28311831305729668 -0.10634525204365711 0 -0.26337083943808798 -0.11075300020272109 0 -0.27091429478718643 -0.13066070597631979 0 -0.27560634849033178 -0.1266383932088174 0 -0.26337083943808798 -0.11075300020272109 0 -0.27275494684437918 -0.1027083746677158 0 -0.27560634849033178 -0.1266383932088174 0 -0.27275494684437918 -0.1027083746677158 0 -0.27560634849033178 -0.1266383932088174 0 -0.27275494684437918 -0.1027083746677158 0 -0.28311831305729668 -0.10634525204365711 0 -0.27560634849033178 -0.1266383932088174 0 -0.26337083943808798 -0.11075300020272109 0 -0.27091429478718643 -0.13066070597631979 0 -0.29421887177721151 -0.1151411562929537 0 -0.27560634849033178 -0.1266383932088174 0 -0.29390346015121632 -0.13065717206462929 0 -0.29421887177721151 -0.1151411562929537 0 -0.28311831305729668 -0.10634525204365711 0 -0.27560634849033178 -0.1266383932088174 0 -0.29421887177721151 -0.1151411562929537 0 -0.28311831305729668 -0.10634525204365711 0 -0.29478290779415728 -0.096865910726755725 0 -0.28331171767342139 -0.09651043135590967 0 -0.29478290779415728 -0.096865910726755725 0 -0.28656430942514799 -0.089949489663482096 0 -0.28311831305729668 -0.10634525204365711 0 -0.28331171767342139 -0.09651043135590967 0 -0.29478290779415728 -0.096865910726755725 0 -0.29421887177721151 -0.1151411562929537 0 -0.29478290779415728 -0.096865910726755725 0 -0.31807273010265391 -0.1082638630406092 0 -0.29478290779415728 -0.096865910726755725 0 -0.30983008344377438 -0.080851638942971954 0 -0.31807273010265391 -0.1082638630406092 0 -0.29421887177721151 -0.1151411562929537 0 -0.31807273010265391 -0.1082638630406092 0 -0.30798187075143912 -0.12645502079101209 0 -0.29421887177721151 -0.1151411562929537 0 -0.29390346015121632 -0.13065717206462929 0 -0.30798187075143912 -0.12645502079101209 0 -0.27288514400412223 -0.073264384857685341 0 -0.29235021695722962 -0.070820795352111318 0 -0.28156125324671971 -0.082253444467042094 0 -0.28122396700702829 -0.05950535930671607 0 -0.27288514400412223 -0.073264384857685341 0 -0.29235021695722962 -0.070820795352111318 0 -0.28156125324671971 -0.082253444467042094 0 -0.28656430942514799 -0.089949489663482096 0 -0.29429938093791969 -0.083147552264615524 0 -0.27813140974157591 -0.091543907419289888 0 -0.28331171767342139 -0.09651043135590967 0 -0.28656430942514799 -0.089949489663482096 0 -0.27813140974157591 -0.091543907419289888 0 -0.28156125324671971 -0.082253444467042094 0 -0.28656430942514799 -0.089949489663482096 0 -0.29478290779415728 -0.096865910726755725 0 -0.28656430942514799 -0.089949489663482096 0 -0.29429938093791969 -0.083147552264615524 0 -0.29235021695722962 -0.070820795352111318 0 -0.28156125324671971 -0.082253444467042094 0 -0.29429938093791969 -0.083147552264615524 0 -0.29478290779415728 -0.096865910726755725 0 -0.29429938093791969 -0.083147552264615524 0 -0.30983008344377438 -0.080851638942971954 0 -0.29235021695722962 -0.070820795352111318 0 -0.29429938093791969 -0.083147552264615524 0 -0.30983008344377438 -0.080851638942971954 0 -0.30158743678489502 -0.053439414845334682 0 -0.30983008344377438 -0.080851638942971954 0 -0.30158743678489502 -0.053439414845334682 0 -0.29235021695722962 -0.070820795352111318 0 -0.30983008344377438 -0.080851638942971954 0 -0.30158743678489502 -0.053439414845334682 0 -0.30983008344377438 -0.080851638942971954 0 -0.31621633032251278 -0.060416907931038863 0 -0.30983008344377438 -0.080851638942971954 0 -0.33303015746147652 -0.090717898901615426 0 -0.33348426397287639 -0.062150922681776397 0 -0.30983008344377438 -0.080851638942971954 0 -0.31621633032251278 -0.060416907931038863 0 -0.33348426397287639 -0.062150922681776397 0 -0.30983008344377438 -0.080851638942971954 0 -0.33303015746147652 -0.090717898901615426 0 -0.31807273010265391 -0.1082638630406092 0 -0.33303015746147652 -0.090717898901615426 0 -0.35355400089631439 -0.080212788648810832 0 -0.33348426397287639 -0.062150922681776397 0 -0.35355400089631439 -0.080212788648810832 0 -0.33348426397287639 -0.062150922681776397 0 -0.31807273010265391 -0.1082638630406092 0 -0.32631537676153333 -0.1356760871382463 0 -0.31807273010265391 -0.1082638630406092 0 -0.33997283677599999 -0.1157993097935559 0 -0.32631537676153333 -0.1356760871382463 0 -0.31807273010265391 -0.1082638630406092 0 -0.30798187075143912 -0.12645502079101209 0 -0.32631537676153333 -0.1356760871382463 0 -0.30983008344377438 -0.080851638942971954 0 -0.31807273010265391 -0.1082638630406092 0 -0.33303015746147652 -0.090717898901615426 0 -0.31807273010265391 -0.1082638630406092 0 -0.33997283677599999 -0.1157993097935559 0 -0.33303015746147652 -0.090717898901615426 0 -0.33997283677599999 -0.1157993097935559 0 -0.35298330557259511 -0.1002338323364592 0 -0.33997283677599999 -0.1157993097935559 0 -0.35298330557259511 -0.1002338323364592 0 -0.36543446279861952 -0.1153435705690741 0 -0.33997283677599999 -0.1157993097935559 0 -0.36543446279861952 -0.1153435705690741 0 -0.351311848751578 -0.13597029947421149 0 -0.35298330557259511 -0.1002338323364592 0 -0.37362373781975228 -0.098274654615845225 0 -0.36543446279861952 -0.1153435705690741 0 -0.36543446279861952 -0.1153435705690741 0 -0.383499481373755 -0.1030623546215793 0 -0.37362373781975228 -0.098274654615845225 0 -0.36543446279861952 -0.1153435705690741 0 -0.383499481373755 -0.1030623546215793 0 -0.36543446279861952 -0.1153435705690741 0 -0.37068392950765211 -0.13115669962121301 0 -0.3787322783333707 -0.1171385441897778 0 -0.35355400089631439 -0.080212788648810832 0 -0.36959612270005221 -0.066735181738896449 0 -0.35052070556176412 -0.061175732777791328 0 -0.35355400089631439 -0.080212788648810832 0 -0.35052070556176412 -0.061175732777791328 0 -0.33348426397287639 -0.062150922681776397 0 -0.33303015746147652 -0.090717898901615426 0 -0.35298330557259511 -0.1002338323364592 0 -0.35355400089631439 -0.080212788648810832 0 -0.37362373781975228 -0.098274654615845225 0 -0.35355400089631439 -0.080212788648810832 0 -0.37145509960866069 -0.082172317358849514 0 -0.35298330557259511 -0.1002338323364592 0 -0.37362373781975228 -0.098274654615845225 0 -0.35355400089631439 -0.080212788648810832 0 -0.37362373781975228 -0.098274654615845225 0 -0.35355400089631439 -0.080212788648810832 0 -0.37362373781975228 -0.098274654615845225 0 -0.37145509960866069 -0.082172317358849514 0 -0.3788714486001678 -0.090087836997952281 0 -0.37145509960866069 -0.082172317358849514 0 -0.36959612270005221 -0.066735181738896449 0 -0.37849799197954231 -0.073641588414281339 0 -0.35355400089631439 -0.080212788648810832 0 -0.37145509960866069 -0.082172317358849514 0 -0.36959612270005221 -0.066735181738896449 0 -0.36959612270005221 -0.066735181738896449 0 -0.35743676627591431 -0.043720185395147257 0 -0.38100200594284062 -0.039020595259406952 0 -0.35052070556176412 -0.061175732777791328 0 -0.35743676627591431 -0.043720185395147257 0 -0.33718832406471322 -0.044982821120824953 0 -0.36959612270005221 -0.066735181738896449 0 -0.35052070556176412 -0.061175732777791328 0 -0.35743676627591431 -0.043720185395147257 0 -0.35743676627591431 -0.043720185395147257 0 -0.34263541038716022 -0.028144434780643081 0 -0.33718832406471322 -0.044982821120824953 0 -0.35743676627591431 -0.043720185395147257 0 -0.36949750255941127 -0.01944599026419562 0 -0.38100200594284062 -0.039020595259406952 0 -0.35169680592649638 -0.0042790125616719646 0 -0.37856321670115062 -0.0062111997374066277 0 -0.37806065247028958 0.0085325943664184174 0 -0.36949750255941127 -0.01944599026419562 0 -0.35169680592649638 -0.0042790125616719646 0 -0.37856321670115062 -0.0062111997374066277 0 -0.35743676627591431 -0.043720185395147257 0 -0.36949750255941127 -0.01944599026419562 0 -0.34263541038716022 -0.028144434780643081 0 -0.36949750255941127 -0.01944599026419562 0 -0.35169680592649638 -0.0042790125616719646 0 -0.34263541038716022 -0.028144434780643081 0 -0.33064500390320428 -0.015640644545909289 0 -0.34263541038716022 -0.028144434780643081 0 -0.32563827114112648 -0.030616594374849659 0 -0.35169680592649638 -0.0042790125616719646 0 -0.33064500390320428 -0.015640644545909289 0 -0.34263541038716022 -0.028144434780643081 0 -0.35169680592649638 -0.0042790125616719646 0 -0.33064500390320428 -0.015640644545909289 0 -0.32905209759977061 0.0029004573998782459 0 -0.31302439425039069 -0.018888579477896739 0 -0.30839334227554432 0.0022330019708014948 0 -0.32905209759977061 0.0029004573998782459 0 -0.33064500390320428 -0.015640644545909289 0 -0.31302439425039069 -0.018888579477896739 0 -0.32905209759977061 0.0029004573998782459 0 -0.32563827114112648 -0.030616594374849659 0 -0.31302439425039069 -0.018888579477896739 0 -0.31341452704943851 -0.044089056714742017 0 -0.33064500390320428 -0.015640644545909289 0 -0.32563827114112648 -0.030616594374849659 0 -0.31302439425039069 -0.018888579477896739 0 -0.32563827114112648 -0.030616594374849659 0 -0.31341452704943851 -0.044089056714742017 0 -0.33718832406471322 -0.044982821120824953 0 -0.31341452704943851 -0.044089056714742017 0 -0.33348426397287639 -0.062150922681776397 0 -0.31341452704943851 -0.044089056714742017 0 -0.33348426397287639 -0.062150922681776397 0 -0.33718832406471322 -0.044982821120824953 0 -0.31341452704943851 -0.044089056714742017 0 -0.31621633032251278 -0.060416907931038863 0 -0.33348426397287639 -0.062150922681776397 0 -0.35052070556176412 -0.061175732777791328 0 -0.33348426397287639 -0.062150922681776397 0 -0.33718832406471322 -0.044982821120824953 0 -0.34263541038716022 -0.028144434780643081 0 -0.32563827114112648 -0.030616594374849659 0 -0.33718832406471322 -0.044982821120824953 0 -0.30482697000556092 -0.24816729758378589 0 -0.31179682301416051 -0.23478959321468501 0 -0.29577197950040612 -0.22843367951371191 0 -0.30482697000556092 -0.24816729758378589 0 -0.31179682301416051 -0.23478959321468501 0 -0.32031645000864067 -0.24840857397210689 0 -0.31179682301416051 -0.23478959321468501 0 -0.30488774956457421 -0.21771767989637891 0 -0.31782726241625481 -0.22230819888887779 0 -0.31179682301416051 -0.23478959321468501 0 -0.29577197950040612 -0.22843367951371191 0 -0.30488774956457421 -0.21771767989637891 0 -0.29577197950040612 -0.22843367951371191 0 -0.29257087790891517 -0.21099733613595409 0 -0.30488774956457421 -0.21771767989637891 0 -0.29577197950040612 -0.22843367951371191 0 -0.28779811064535649 -0.24352834899224121 0 -0.27158631458563198 -0.22243888066161491 0 -0.29577197950040612 -0.22843367951371191 0 -0.27158631458563198 -0.22243888066161491 0 -0.29257087790891517 -0.21099733613595409 0 -0.30482697000556092 -0.24816729758378589 0 -0.29577197950040612 -0.22843367951371191 0 -0.28779811064535649 -0.24352834899224121 0 -0.28430071098223358 -0.25431289089373671 0 -0.28779811064535649 -0.24352834899224121 0 -0.2705010125637653 -0.2465339626881913 0 -0.2705010125637653 -0.2465339626881913 0 -0.27158631458563198 -0.22243888066161491 0 -0.28779811064535649 -0.24352834899224121 0 -0.2705010125637653 -0.2465339626881913 0 -0.27158631458563198 -0.22243888066161491 0 -0.24949476319461411 -0.24101062627542019 0 -0.2705010125637653 -0.2465339626881913 0 -0.25627667697739043 -0.22665278411635731 0 -0.25474374153892049 -0.25656385063704817 0 -0.24949476319461411 -0.24101062627542019 0 -0.2705010125637653 -0.2465339626881913 0 -0.2705010125637653 -0.2465339626881913 0 -0.25627667697739043 -0.22665278411635731 0 -0.27158631458563198 -0.22243888066161491 0 -0.27158631458563198 -0.22243888066161491 0 -0.27907081836954978 -0.20665504637509979 0 -0.29257087790891517 -0.21099733613595409 0 -0.27158631458563198 -0.22243888066161491 0 -0.27907081836954978 -0.20665504637509979 0 -0.2680828936444421 -0.20394855819051039 0 -0.25627667697739043 -0.22665278411635731 0 -0.27158631458563198 -0.22243888066161491 0 -0.25136548275604298 -0.2066122140582376 0 -0.27158631458563198 -0.22243888066161491 0 -0.2680828936444421 -0.20394855819051039 0 -0.25136548275604298 -0.2066122140582376 0 -0.2680828936444421 -0.20394855819051039 0 -0.25136548275604298 -0.2066122140582376 0 -0.26173451661632607 -0.19482141018487709 0 -0.25136548275604298 -0.2066122140582376 0 -0.25166784041088502 -0.18878008579357711 0 -0.26173451661632607 -0.19482141018487709 0 -0.25166784041088502 -0.18878008579357711 0 -0.26173451661632607 -0.19482141018487709 0 -0.26843240220575348 -0.18633067358165081 0 -0.26173451661632607 -0.19482141018487709 0 -0.27222833976474442 -0.19746700992587149 0 -0.26843240220575348 -0.18633067358165081 0 -0.27907081836954978 -0.20665504637509979 0 -0.2680828936444421 -0.20394855819051039 0 -0.27222833976474442 -0.19746700992587149 0 -0.2680828936444421 -0.20394855819051039 0 -0.26173451661632607 -0.19482141018487709 0 -0.27222833976474442 -0.19746700992587149 0 -0.27907081836954978 -0.20665504637509979 0 -0.27222833976474442 -0.19746700992587149 0 -0.28382106798765061 -0.1955793612972192 0 -0.27222833976474442 -0.19746700992587149 0 -0.28382106798765061 -0.1955793612972192 0 -0.26843240220575348 -0.18633067358165081 0 -0.29424447404309761 -0.19580650146325421 0 -0.30173761908559849 -0.184732235281202 0 -0.29176242413389958 -0.1856803761085094 0 -0.29424447404309761 -0.19580650146325421 0 -0.28382106798765061 -0.1955793612972192 0 -0.29176242413389958 -0.1856803761085094 0 -0.29424447404309761 -0.19580650146325421 0 -0.28382106798765061 -0.1955793612972192 0 -0.29257087790891517 -0.21099733613595409 0 -0.27907081836954978 -0.20665504637509979 0 -0.28382106798765061 -0.1955793612972192 0 -0.29257087790891517 -0.21099733613595409 0 -0.30488774956457421 -0.21771767989637891 0 -0.30446732973110258 -0.1978539896888542 0 -0.31620468407239338 -0.21003828622273199 0 -0.29257087790891517 -0.21099733613595409 0 -0.30488774956457421 -0.21771767989637891 0 -0.30446732973110258 -0.1978539896888542 0 -0.30446732973110258 -0.1978539896888542 0 -0.31635874933734082 -0.19816009299828821 0 -0.31620468407239338 -0.21003828622273199 0 -0.31026763865747919 -0.19030510052285379 0 -0.30446732973110258 -0.1978539896888542 0 -0.31635874933734082 -0.19816009299828821 0 -0.31026763865747919 -0.19030510052285379 0 -0.30446732973110258 -0.1978539896888542 0 -0.30173761908559849 -0.184732235281202 0 -0.29424447404309761 -0.19580650146325421 0 -0.30446732973110258 -0.1978539896888542 0 -0.30173761908559849 -0.184732235281202 0 -0.29424447404309761 -0.19580650146325421 0 -0.29257087790891517 -0.21099733613595409 0 -0.30446732973110258 -0.1978539896888542 0 -0.30173761908559849 -0.184732235281202 0 -0.30436623479763381 -0.1701196065617854 0 -0.29530740662577598 -0.17491580609094709 0 -0.31026763865747919 -0.19030510052285379 0 -0.30173761908559849 -0.184732235281202 0 -0.31219791119223922 -0.17880236942664191 0 -0.31219791119223922 -0.17880236942664191 0 -0.30436623479763381 -0.1701196065617854 0 -0.31994435361854728 -0.17169122499910161 0 -0.30173761908559849 -0.184732235281202 0 -0.31219791119223922 -0.17880236942664191 0 -0.30436623479763381 -0.1701196065617854 0 -0.30848276422339532 -0.15902610472856529 0 -0.30436623479763381 -0.1701196065617854 0 -0.31994435361854728 -0.17169122499910161 0 -0.30848276422339532 -0.15902610472856529 0 -0.29796526877995239 -0.15750000169325409 0 -0.30436623479763381 -0.1701196065617854 0 -0.30436623479763381 -0.1701196065617854 0 -0.29356066797665581 -0.1659224185740247 0 -0.29530740662577598 -0.17491580609094709 0 -0.29796526877995239 -0.15750000169325409 0 -0.30436623479763381 -0.1701196065617854 0 -0.29356066797665581 -0.1659224185740247 0 -0.29356066797665581 -0.1659224185740247 0 -0.28511008713509223 -0.16812439392921399 0 -0.29530740662577598 -0.17491580609094709 0 -0.28511008713509223 -0.16812439392921399 0 -0.27845775013628432 -0.15056841174991881 0 -0.28909086561953801 -0.15780635719589789 0 -0.28511008713509223 -0.16812439392921399 0 -0.27845775013628432 -0.15056841174991881 0 -0.28511008713509223 -0.16812439392921399 0 -0.28113940906196722 -0.17307388652356909 0 -0.27845775013628432 -0.15056841174991881 0 -0.29356066797665581 -0.1659224185740247 0 -0.28909086561953801 -0.15780635719589789 0 -0.28511008713509223 -0.16812439392921399 0 -0.29796526877995239 -0.15750000169325409 0 -0.29356066797665581 -0.1659224185740247 0 -0.28909086561953801 -0.15780635719589789 0 -0.28511008713509223 -0.16812439392921399 0 -0.29176242413389958 -0.1856803761085094 0 -0.28382106798765061 -0.1955793612972192 0 -0.29176242413389958 -0.1856803761085094 0 -0.28113940906196722 -0.17307388652356909 0 -0.28382106798765061 -0.1955793612972192 0 -0.28113940906196722 -0.17307388652356909 0 -0.28511008713509223 -0.16812439392921399 0 -0.29176242413389958 -0.1856803761085094 0 -0.28113940906196722 -0.17307388652356909 0 -0.28511008713509223 -0.16812439392921399 0 -0.29530740662577598 -0.17491580609094709 0 -0.29176242413389958 -0.1856803761085094 0 -0.30173761908559849 -0.184732235281202 0 -0.29530740662577598 -0.17491580609094709 0 -0.29176242413389958 -0.1856803761085094 0 -0.28382106798765061 -0.1955793612972192 0 -0.28113940906196722 -0.17307388652356909 0 -0.27262092560039469 -0.17833902176124741 0 -0.28382106798765061 -0.1955793612972192 0 -0.27262092560039469 -0.17833902176124741 0 -0.26843240220575348 -0.18633067358165081 0 -0.28113940906196722 -0.17307388652356909 0 -0.27262092560039469 -0.17833902176124741 0 -0.26938565245868401 -0.1682984135401733 0 -0.27262092560039469 -0.17833902176124741 0 -0.26041541450885197 -0.17371846951423059 0 -0.26938565245868401 -0.1682984135401733 0 -0.27262092560039469 -0.17833902176124741 0 -0.26843240220575348 -0.18633067358165081 0 -0.26041541450885197 -0.17371846951423059 0 -0.25166784041088502 -0.18878008579357711 0 -0.26843240220575348 -0.18633067358165081 0 -0.26041541450885197 -0.17371846951423059 0 -0.24601301307304349 -0.17540149418331469 0 -0.25166784041088502 -0.18878008579357711 0 -0.26041541450885197 -0.17371846951423059 0 -0.26041541450885197 -0.17371846951423059 0 -0.25052646862776462 -0.16160464483847209 0 -0.26341997355607472 -0.1571016902813204 0 -0.26041541450885197 -0.17371846951423059 0 -0.26341997355607472 -0.1571016902813204 0 -0.26938565245868401 -0.1682984135401733 0 -0.25052646862776462 -0.16160464483847209 0 -0.26341997355607472 -0.1571016902813204 0 -0.25613920949697599 -0.152998229851078 0 -0.24601301307304349 -0.17540149418331469 0 -0.26041541450885197 -0.17371846951423059 0 -0.25052646862776462 -0.16160464483847209 0 -0.26341997355607472 -0.1571016902813204 0 -0.27310069630325229 -0.16226060052374541 0 -0.27845775013628432 -0.15056841174991881 0 -0.26341997355607472 -0.1571016902813204 0 -0.27310069630325229 -0.16226060052374541 0 -0.26938565245868401 -0.1682984135401733 0 -0.28113940906196722 -0.17307388652356909 0 -0.27845775013628432 -0.15056841174991881 0 -0.28113940906196722 -0.17307388652356909 0 -0.27310069630325229 -0.16226060052374541 0 -0.27845775013628432 -0.15056841174991881 0 -0.28113940906196722 -0.17307388652356909 0 -0.27310069630325229 -0.16226060052374541 0 -0.26938565245868401 -0.1682984135401733 0 -0.27845775013628432 -0.15056841174991881 0 -0.26299085518997961 -0.14686723467147589 0 -0.2678685800824645 -0.14042604037288289 0 -0.26341997355607472 -0.1571016902813204 0 -0.27845775013628432 -0.15056841174991881 0 -0.26299085518997961 -0.14686723467147589 0 -0.2466399622861063 -0.15100970902413799 0 -0.25911142021640821 -0.13360780909381709 0 -0.26341997355607472 -0.1571016902813204 0 -0.26299085518997961 -0.14686723467147589 0 -0.25613920949697599 -0.152998229851078 0 -0.24852803527381681 -0.15024249010618509 0 -0.25669238004429512 -0.14592894093063899 0 -0.25911142021640821 -0.13360780909381709 0 -0.24852803527381681 -0.15024249010618509 0 -0.2466399622861063 -0.15100970902413799 0 -0.25911142021640821 -0.13360780909381709 0 -0.26299085518997961 -0.14686723467147589 0 -0.25669238004429512 -0.14592894093063899 0 -0.25613920949697599 -0.152998229851078 0 -0.26299085518997961 -0.14686723467147589 0 -0.25669238004429512 -0.14592894093063899 0 -0.25911142021640821 -0.13360780909381709 0 -0.24852803527381681 -0.15024249010618509 0 -0.25052646862776462 -0.16160464483847209 0 -0.25613920949697599 -0.152998229851078 0 -0.24852803527381681 -0.15024249010618509 0 -0.25669238004429512 -0.14592894093063899 0 -0.25613920949697599 -0.152998229851078 0 -0.2466399622861063 -0.15100970902413799 0 -0.24503193769335729 -0.1366444971083477 0 -0.25911142021640821 -0.13360780909381709 0 -0.24503193769335729 -0.1366444971083477 0 -0.24895330470623209 -0.1268831407910731 0 -0.25911142021640821 -0.13360780909381709 0 -0.24895330470623209 -0.1268831407910731 0 -0.25879436215856549 -0.1224596101744954 0 -0.25911142021640821 -0.13360780909381709 0 -0.26299085518997961 -0.14686723467147589 0 -0.25911142021640821 -0.13360780909381709 0 -0.2678685800824645 -0.14042604037288289 0 -0.25879436215856549 -0.1224596101744954 0 -0.25911142021640821 -0.13360780909381709 0 -0.27091429478718643 -0.13066070597631979 0 -0.27845775013628432 -0.15056841174991881 0 -0.27091429478718643 -0.13066070597631979 0 -0.27845775013628432 -0.15056841174991881 0 -0.27091429478718643 -0.13066070597631979 0 -0.2678685800824645 -0.14042604037288289 0 -0.27845775013628432 -0.15056841174991881 0 -0.27560634849033178 -0.1266383932088174 0 -0.27845775013628432 -0.15056841174991881 0 -0.27091429478718643 -0.13066070597631979 0 -0.27560634849033178 -0.1266383932088174 0 -0.25911142021640821 -0.13360780909381709 0 -0.27091429478718643 -0.13066070597631979 0 -0.2678685800824645 -0.14042604037288289 0 -0.27845775013628432 -0.15056841174991881 0 -0.27560634849033178 -0.1266383932088174 0 -0.28980142284998572 -0.1445361644182834 0 -0.27560634849033178 -0.1266383932088174 0 -0.29390346015121632 -0.13065717206462929 0 -0.28980142284998572 -0.1445361644182834 0 -0.29390346015121632 -0.13065717206462929 0 -0.28980142284998572 -0.1445361644182834 0 -0.3037848439225922 -0.14404665059718319 0 -0.28909086561953801 -0.15780635719589789 0 -0.27845775013628432 -0.15056841174991881 0 -0.28980142284998572 -0.1445361644182834 0 -0.29796526877995239 -0.15750000169325409 0 -0.28909086561953801 -0.15780635719589789 0 -0.28980142284998572 -0.1445361644182834 0 -0.29796526877995239 -0.15750000169325409 0 -0.28980142284998572 -0.1445361644182834 0 -0.3037848439225922 -0.14404665059718319 0 -0.30848276422339532 -0.15902610472856529 0 -0.29796526877995239 -0.15750000169325409 0 -0.3037848439225922 -0.14404665059718319 0 -0.3037848439225922 -0.14404665059718319 0 -0.31917143367150069 -0.15356748091653441 0 -0.30848276422339532 -0.15902610472856529 0 -0.3037848439225922 -0.14404665059718319 0 -0.31917143367150069 -0.15356748091653441 0 -0.29390346015121632 -0.13065717206462929 0 -0.3037848439225922 -0.14404665059718319 0 -0.30798187075143912 -0.12645502079101209 0 -0.3037848439225922 -0.14404665059718319 0 -0.30798187075143912 -0.12645502079101209 0 -0.32631537676153333 -0.1356760871382463 0 -0.32631537676153333 -0.1356760871382463 0 -0.31917143367150069 -0.15356748091653441 0 -0.33455802342041041 -0.1630883112358841 0 -0.3037848439225922 -0.14404665059718319 0 -0.32631537676153333 -0.1356760871382463 0 -0.31917143367150069 -0.15356748091653441 0 -0.32631537676153333 -0.1356760871382463 0 -0.351311848751578 -0.13597029947421149 0 -0.33455802342041041 -0.1630883112358841 0 -0.32631537676153333 -0.1356760871382463 0 -0.33455802342041041 -0.1630883112358841 0 -0.33997283677599999 -0.1157993097935559 0 -0.32631537676153333 -0.1356760871382463 0 -0.351311848751578 -0.13597029947421149 0 -0.36543446279861952 -0.1153435705690741 0 -0.351311848751578 -0.13597029947421149 0 -0.37068392950765211 -0.13115669962121301 0 -0.351311848751578 -0.13597029947421149 0 -0.37068392950765211 -0.13115669962121301 0 -0.37186795932909072 -0.14916080927687531 0 -0.351311848751578 -0.13597029947421149 0 -0.37186795932909072 -0.14916080927687531 0 -0.35608092651471962 -0.15759754507638901 0 -0.351311848751578 -0.13597029947421149 0 -0.35608092651471962 -0.15759754507638901 0 -0.33455802342041041 -0.1630883112358841 0 -0.35608092651471962 -0.15759754507638901 0 -0.35710798877931099 -0.17704165615460479 0 -0.33455802342041041 -0.1630883112358841 0 -0.35710798877931099 -0.17704165615460479 0 -0.33455802342041041 -0.1630883112358841 0 -0.35608092651471962 -0.15759754507638901 0 -0.37327951573861679 -0.16814400678037569 0 -0.35710798877931099 -0.17704165615460479 0 -0.37186795932909072 -0.14916080927687531 0 -0.35608092651471962 -0.15759754507638901 0 -0.37327951573861679 -0.16814400678037569 0 -0.37327951573861679 -0.16814400678037569 0 -0.35710798877931099 -0.17704165615460479 0 -0.37965795413821252 -0.19099500107332379 0 -0.35710798877931099 -0.17704165615460479 0 -0.37965795413821252 -0.19099500107332379 0 -0.35710798877931099 -0.17704165615460479 0 -0.36020639542331451 -0.18830806598191599 0 -0.37965795413821252 -0.19099500107332379 0 -0.35710798877931099 -0.17704165615460479 0 -0.34855509180742872 -0.18240894185462089 0 -0.33455802342041041 -0.1630883112358841 0 -0.35710798877931099 -0.17704165615460479 0 -0.34855509180742872 -0.18240894185462089 0 -0.36020639542331451 -0.18830806598191599 0 -0.33455802342041041 -0.1630883112358841 0 -0.34321544996356879 -0.19187995138876751 0 -0.33118754857473071 -0.1804008334585753 0 -0.33455802342041041 -0.1630883112358841 0 -0.34321544996356879 -0.19187995138876751 0 -0.34855509180742872 -0.18240894185462089 0 -0.33455802342041041 -0.1630883112358841 0 -0.34321544996356879 -0.19187995138876751 0 -0.33118754857473071 -0.1804008334585753 0 -0.32521184095999311 -0.18460879298308741 0 -0.33185810957376349 -0.19110033176409211 0 -0.33118754857473071 -0.1804008334585753 0 -0.33455802342041041 -0.1630883112358841 0 -0.31994435361854728 -0.17169122499910161 0 -0.31917143367150069 -0.15356748091653441 0 -0.33455802342041041 -0.1630883112358841 0 -0.31994435361854728 -0.17169122499910161 0 -0.30848276422339532 -0.15902610472856529 0 -0.31917143367150069 -0.15356748091653441 0 -0.31994435361854728 -0.17169122499910161 0 -0.31917143367150069 -0.15356748091653441 0 -0.33455802342041041 -0.1630883112358841 0 -0.31219791119223922 -0.17880236942664191 0 -0.31994435361854728 -0.17169122499910161 0 -0.31778172908060842 -0.18635015277244779 0 -0.31026763865747919 -0.19030510052285379 0 -0.31219791119223922 -0.17880236942664191 0 -0.31778172908060842 -0.18635015277244779 0 -0.31994435361854728 -0.17169122499910161 0 -0.31778172908060842 -0.18635015277244779 0 -0.32521184095999311 -0.18460879298308741 0 -0.33118754857473071 -0.1804008334585753 0 -0.31994435361854728 -0.17169122499910161 0 -0.32521184095999311 -0.18460879298308741 0 -0.32371959352943708 -0.1929228999545434 0 -0.32813730069306929 -0.20193128667246149 0 -0.33185810957376349 -0.19110033176409211 0 -0.32371959352943708 -0.1929228999545434 0 -0.31635874933734082 -0.19816009299828821 0 -0.32813730069306929 -0.20193128667246149 0 -0.31778172908060842 -0.18635015277244779 0 -0.32521184095999311 -0.18460879298308741 0 -0.32371959352943708 -0.1929228999545434 0 -0.32521184095999311 -0.18460879298308741 0 -0.32371959352943708 -0.1929228999545434 0 -0.33185810957376349 -0.19110033176409211 0 -0.31026763865747919 -0.19030510052285379 0 -0.31778172908060842 -0.18635015277244779 0 -0.31635874933734082 -0.19816009299828821 0 -0.31778172908060842 -0.18635015277244779 0 -0.32371959352943708 -0.1929228999545434 0 -0.31635874933734082 -0.19816009299828821 0 -0.31635874933734082 -0.19816009299828821 0 -0.31620468407239338 -0.21003828622273199 0 -0.32813730069306929 -0.20193128667246149 0 -0.30488774956457421 -0.21771767989637891 0 -0.31620468407239338 -0.21003828622273199 0 -0.31782726241625481 -0.22230819888887779 0 -0.31620468407239338 -0.21003828622273199 0 -0.32878558014589709 -0.21605625843792839 0 -0.31782726241625481 -0.22230819888887779 0 -0.31620468407239338 -0.21003828622273199 0 -0.32878558014589709 -0.21605625843792839 0 -0.32813730069306929 -0.20193128667246149 0 -0.32878558014589709 -0.21605625843792839 0 -0.33943849512806301 -0.20793964278479121 0 -0.32813730069306929 -0.20193128667246149 0 -0.32878558014589709 -0.21605625843792839 0 -0.33943849512806301 -0.20793964278479121 0 -0.3385788239969294 -0.2223102483303819 0 -0.33943849512806301 -0.20793964278479121 0 -0.35187287650672489 -0.2206715915416515 0 -0.3385788239969294 -0.2223102483303819 0 -0.33943849512806301 -0.20793964278479121 0 -0.33566233883961621 -0.19821280315252809 0 -0.34321544996356879 -0.19187995138876751 0 -0.33566233883961621 -0.19821280315252809 0 -0.32813730069306929 -0.20193128667246149 0 -0.33185810957376349 -0.19110033176409211 0 -0.33943849512806301 -0.20793964278479121 0 -0.33566233883961621 -0.19821280315252809 0 -0.32813730069306929 -0.20193128667246149 0 -0.33118754857473071 -0.1804008334585753 0 -0.33185810957376349 -0.19110033176409211 0 -0.34321544996356879 -0.19187995138876751 0 -0.33566233883961621 -0.19821280315252809 0 -0.33185810957376349 -0.19110033176409211 0 -0.34321544996356879 -0.19187995138876751 0 -0.34855509180742872 -0.18240894185462089 0 -0.34321544996356879 -0.19187995138876751 0 -0.35029498299832917 -0.1932504845001482 0 -0.34321544996356879 -0.19187995138876751 0 -0.35029498299832917 -0.1932504845001482 0 -0.35456136411513361 -0.20623709643424909 0 -0.34855509180742872 -0.18240894185462089 0 -0.35029498299832917 -0.1932504845001482 0 -0.36020639542331451 -0.18830806598191599 0 -0.35029498299832917 -0.1932504845001482 0 -0.36020639542331451 -0.18830806598191599 0 -0.36541595939329091 -0.1978442463268823 0 -0.35029498299832917 -0.1932504845001482 0 -0.36541595939329091 -0.1978442463268823 0 -0.36761194092051391 -0.21349430191751331 0 -0.36541595939329091 -0.1978442463268823 0 -0.36761194092051391 -0.21349430191751331 0 -0.37965795413821252 -0.19099500107332379 0 -0.36020639542331451 -0.18830806598191599 0 -0.36541595939329091 -0.1978442463268823 0 -0.37965795413821252 -0.19099500107332379 0 -0.36761194092051391 -0.21349430191751331 0 -0.35456136411513361 -0.20623709643424909 0 -0.35187287650672489 -0.2206715915416515 0 -0.35029498299832917 -0.1932504845001482 0 -0.36761194092051391 -0.21349430191751331 0 -0.35029498299832917 -0.1932504845001482 0 -0.36761194092051391 -0.21349430191751331 0 -0.35456136411513361 -0.20623709643424909 0 -0.34321544996356879 -0.19187995138876751 0 -0.35187287650672489 -0.2206715915416515 0 -0.34321544996356879 -0.19187995138876751 0 -0.35456136411513361 -0.20623709643424909 0 -0.35187287650672489 -0.2206715915416515 0 -0.33943849512806301 -0.20793964278479121 0 -0.34321544996356879 -0.19187995138876751 0 -0.35187287650672489 -0.2206715915416515 0 -0.35187287650672489 -0.2206715915416515 0 -0.34371894652113971 -0.23427182841512659 0 -0.3385788239969294 -0.2223102483303819 0 -0.35187287650672489 -0.2206715915416515 0 -0.36794439585966598 -0.231998990478094 0 -0.3605303030498811 -0.24946323169453549 0 -0.36761194092051391 -0.21349430191751331 0 -0.36794439585966598 -0.231998990478094 0 -0.38492889884269832 -0.23373811933487831 0 -0.36761194092051391 -0.21349430191751331 0 -0.35187287650672489 -0.2206715915416515 0 -0.36794439585966598 -0.231998990478094 0 -0.38074508585518668 -0.25421534150978842 0 -0.3605303030498811 -0.24946323169453549 0 -0.37414490432715769 -0.24248802058170391 0 -0.36794439585966598 -0.231998990478094 0 -0.3605303030498811 -0.24946323169453549 0 -0.37414490432715769 -0.24248802058170391 0 -0.3605303030498811 -0.24946323169453549 0 -0.33671520655461767 -0.24935135154202859 0 -0.34371894652113971 -0.23427182841512659 0 -0.35187287650672489 -0.2206715915416515 0 -0.3605303030498811 -0.24946323169453549 0 -0.34371894652113971 -0.23427182841512659 0 -0.35187287650672489 -0.2206715915416515 0 -0.3605303030498811 -0.24946323169453549 0 -0.33671520655461767 -0.24935135154202859 0 -0.32907822168282241 -0.23261192047241161 0 -0.32031645000864067 -0.24840857397210689 0 -0.33671520655461767 -0.24935135154202859 0 -0.34371894652113971 -0.23427182841512659 0 -0.32907822168282241 -0.23261192047241161 0 -0.32878558014589709 -0.21605625843792839 0 -0.3385788239969294 -0.2223102483303819 0 -0.32907822168282241 -0.23261192047241161 0 -0.34371894652113971 -0.23427182841512659 0 -0.3385788239969294 -0.2223102483303819 0 -0.32907822168282241 -0.23261192047241161 0 -0.32878558014589709 -0.21605625843792839 0 -0.32907822168282241 -0.23261192047241161 0 -0.31782726241625481 -0.22230819888887779 0 -0.31179682301416051 -0.23478959321468501 0 -0.32907822168282241 -0.23261192047241161 0 -0.31782726241625481 -0.22230819888887779 0 -0.31179682301416051 -0.23478959321468501 0 -0.32907822168282241 -0.23261192047241161 0 -0.32031645000864067 -0.24840857397210689 0 -0.42477440862606253 -0.24290826371343011 0 -0.4473161120999406 -0.2448583222308145 0 -0.42477440862606253 -0.24290826371343011 0 -0.43282022565898631 -0.23292493603384809 0 -0.4473161120999406 -0.2448583222308145 0 -0.42475788485601551 -0.218901690910762 0 -0.44730785021491692 -0.232855035829481 0 -0.42477440862606253 -0.24290826371343011 0 -0.41994487249799572 -0.22510136748475301 0 -0.42477440862606253 -0.24290826371343011 0 -0.43282022565898631 -0.23292493603384809 0 -0.41994487249799572 -0.22510136748475301 0 -0.43282022565898631 -0.23292493603384809 0 -0.42475788485601551 -0.218901690910762 0 -0.44730785021491692 -0.232855035829481 0 -0.43282022565898631 -0.23292493603384809 0 -0.42475788485601551 -0.218901690910762 0 -0.41994487249799572 -0.22510136748475301 0 -0.42477440862606253 -0.24290826371343011 0 -0.41994487249799572 -0.22510136748475301 0 -0.41141420484362501 -0.2314780969423661 0 -0.41994487249799572 -0.22510136748475301 0 -0.41111258118621741 -0.22163074968255139 0 -0.41141420484362501 -0.2314780969423661 0 -0.42475788485601551 -0.218901690910762 0 -0.41994487249799572 -0.22510136748475301 0 -0.41111258118621741 -0.22163074968255139 0 -0.41111258118621741 -0.22163074968255139 0 -0.41141420484362501 -0.2314780969423661 0 -0.40127355404656678 -0.22300038990672941 0 -0.41141420484362501 -0.2314780969423661 0 -0.40889358840404327 -0.24153443104045269 0 -0.40171887358367142 -0.2331427098508197 0 -0.42477440862606253 -0.24290826371343011 0 -0.40889358840404327 -0.24153443104045269 0 -0.41568380624184192 -0.2559762603997448 0 -0.42477440862606253 -0.24290826371343011 0 -0.40889358840404327 -0.24153443104045269 0 -0.42477440862606253 -0.24290826371343011 0 -0.41141420484362501 -0.2314780969423661 0 -0.40889358840404327 -0.24153443104045269 0 -0.40889358840404327 -0.24153443104045269 0 -0.39301276818202407 -0.24016059836747489 0 -0.40171887358367142 -0.2331427098508197 0 -0.40224585676488289 -0.25398193675224329 0 -0.38492889884269832 -0.23373811933487831 0 -0.40224585676488289 -0.25398193675224329 0 -0.39301276818202407 -0.24016059836747489 0 -0.38492889884269832 -0.23373811933487831 0 -0.40889358840404327 -0.24153443104045269 0 -0.39301276818202407 -0.24016059836747489 0 -0.40224585676488289 -0.25398193675224329 0 -0.40889358840404327 -0.24153443104045269 0 -0.39301276818202407 -0.24016059836747489 0 -0.39301276818202407 -0.24016059836747489 0 -0.38492889884269832 -0.23373811933487831 0 -0.39400025244209758 -0.22954003299707521 0 -0.38074508585518668 -0.25421534150978842 0 -0.37414490432715769 -0.24248802058170391 0 -0.38492889884269832 -0.23373811933487831 0 -0.36794439585966598 -0.231998990478094 0 -0.37414490432715769 -0.24248802058170391 0 -0.38492889884269832 -0.23373811933487831 0 -0.38074508585518668 -0.25421534150978842 0 -0.40224585676488289 -0.25398193675224329 0 -0.38492889884269832 -0.23373811933487831 0 -0.38492889884269832 -0.23373811933487831 0 -0.39400025244209758 -0.22954003299707521 0 -0.38829981683833481 -0.21610767755001339 0 -0.36761194092051391 -0.21349430191751331 0 -0.38492889884269832 -0.23373811933487831 0 -0.36761194092051391 -0.21349430191751331 0 -0.38492889884269832 -0.23373811933487831 0 -0.38829981683833481 -0.21610767755001339 0 -0.39400025244209758 -0.22954003299707521 0 -0.40127355404656678 -0.22300038990672941 0 -0.38829981683833481 -0.21610767755001339 0 -0.39301276818202407 -0.24016059836747489 0 -0.39400025244209758 -0.22954003299707521 0 -0.40171887358367142 -0.2331427098508197 0 -0.39400025244209758 -0.22954003299707521 0 -0.40171887358367142 -0.2331427098508197 0 -0.40127355404656678 -0.22300038990672941 0 -0.41141420484362501 -0.2314780969423661 0 -0.40171887358367142 -0.2331427098508197 0 -0.40127355404656678 -0.22300038990672941 0 -0.40127355404656678 -0.22300038990672941 0 -0.40220791949711399 -0.20494834599204301 0 -0.38829981683833481 -0.21610767755001339 0 -0.41111258118621741 -0.22163074968255139 0 -0.40127355404656678 -0.22300038990672941 0 -0.40220791949711399 -0.20494834599204301 0 -0.36761194092051391 -0.21349430191751331 0 -0.38829981683833481 -0.21610767755001339 0 -0.37965795413821252 -0.19099500107332379 0 -0.40220791949711399 -0.20494834599204301 0 -0.38829981683833481 -0.21610767755001339 0 -0.37965795413821252 -0.19099500107332379 0 -0.40220791949711399 -0.20494834599204301 0 -0.3945668322880419 -0.1877758274968688 0 -0.40469038646185268 -0.19217162663794071 0 -0.40220791949711399 -0.20494834599204301 0 -0.37965795413821252 -0.19099500107332379 0 -0.40220791949711399 -0.20494834599204301 0 -0.37965795413821252 -0.19099500107332379 0 -0.3945668322880419 -0.1877758274968688 0 -0.40220791949711399 -0.20494834599204301 0 -0.40469038646185268 -0.19217162663794071 0 -0.40698976184969943 -0.2012578454710828 0 -0.40469038646185268 -0.19217162663794071 0 -0.41447824500124147 -0.1939451859733759 0 -0.41444780483072591 -0.18365321364148729 0 -0.41447824500124147 -0.1939451859733759 0 -0.42716052737611498 -0.1907332257995685 0 -0.41444780483072591 -0.18365321364148729 0 -0.41447824500124147 -0.1939451859733759 0 -0.41910274448781482 -0.20191001831679989 0 -0.4145876515404584 -0.20166692203703729 0 -0.41447824500124147 -0.1939451859733759 0 -0.41910274448781482 -0.20191001831679989 0 -0.42716052737611498 -0.1907332257995685 0 -0.41910274448781482 -0.20191001831679989 0 -0.4145876515404584 -0.20166692203703729 0 -0.40220791949711399 -0.20494834599204301 0 -0.4145876515404584 -0.20166692203703729 0 -0.40698976184969943 -0.2012578454710828 0 -0.4145876515404584 -0.20166692203703729 0 -0.40698976184969943 -0.2012578454710828 0 -0.40469038646185268 -0.19217162663794071 0 -0.41447824500124147 -0.1939451859733759 0 -0.40698976184969943 -0.2012578454710828 0 -0.41447824500124147 -0.1939451859733759 0 -0.4145876515404584 -0.20166692203703729 0 -0.40698976184969943 -0.2012578454710828 0 -0.42475788485601551 -0.218901690910762 0 -0.41111258118621741 -0.22163074968255139 0 -0.40220791949711399 -0.20494834599204301 0 -0.42475788485601551 -0.218901690910762 0 -0.40220791949711399 -0.20494834599204301 0 -0.42475788485601551 -0.218901690910762 0 -0.40220791949711399 -0.20494834599204301 0 -0.4145876515404584 -0.20166692203703729 0 -0.42475788485601551 -0.218901690910762 0 -0.41910274448781482 -0.20191001831679989 0 -0.4145876515404584 -0.20166692203703729 0 -0.42475788485601551 -0.218901690910762 0 -0.41910274448781482 -0.20191001831679989 0 -0.44606849632521151 -0.2025924174908636 0 -0.41910274448781482 -0.20191001831679989 0 -0.42716052737611498 -0.1907332257995685 0 -0.44606849632521151 -0.2025924174908636 0 -0.41910274448781482 -0.20191001831679989 0 -0.44606849632521151 -0.2025924174908636 0 -0.4271957594845005 -0.178798075172971 0 -0.4357719069745265 -0.16670789698594851 0 -0.44055283616954011 -0.18354776547582899 0 -0.42716052737611498 -0.1907332257995685 0 -0.4271957594845005 -0.178798075172971 0 -0.41444780483072591 -0.18365321364148729 0 -0.42716052737611498 -0.1907332257995685 0 -0.4271957594845005 -0.178798075172971 0 -0.44055283616954011 -0.18354776547582899 0 -0.4357719069745265 -0.16670789698594851 0 -0.4360539605565863 -0.1486224267403099 0 -0.42446645853228299 -0.15599162269622449 0 -0.4271957594845005 -0.178798075172971 0 -0.4357719069745265 -0.16670789698594851 0 -0.41804572207159513 -0.16934827396202151 0 -0.4357719069745265 -0.16670789698594851 0 -0.41804572207159513 -0.16934827396202151 0 -0.42446645853228299 -0.15599162269622449 0 -0.41804572207159513 -0.16934827396202151 0 -0.40993720285356849 -0.15702570789285461 0 -0.40260838486580158 -0.17502461355520041 0 -0.41804572207159513 -0.16934827396202151 0 -0.40993720285356849 -0.15702570789285461 0 -0.42446645853228299 -0.15599162269622449 0 -0.41804572207159513 -0.16934827396202151 0 -0.41444780483072591 -0.18365321364148729 0 -0.40260838486580158 -0.17502461355520041 0 -0.40469038646185268 -0.19217162663794071 0 -0.41444780483072591 -0.18365321364148729 0 -0.40260838486580158 -0.17502461355520041 0 -0.4271957594845005 -0.178798075172971 0 -0.41804572207159513 -0.16934827396202151 0 -0.41444780483072591 -0.18365321364148729 0 -0.3945668322880419 -0.1877758274968688 0 -0.40469038646185268 -0.19217162663794071 0 -0.40260838486580158 -0.17502461355520041 0 -0.3945668322880419 -0.1877758274968688 0 -0.40260838486580158 -0.17502461355520041 0 -0.3882067169509037 -0.1760593345036848 0 -0.37965795413821252 -0.19099500107332379 0 -0.3945668322880419 -0.1877758274968688 0 -0.3882067169509037 -0.1760593345036848 0 -0.37327951573861679 -0.16814400678037569 0 -0.37965795413821252 -0.19099500107332379 0 -0.3882067169509037 -0.1760593345036848 0 -0.37186795932909072 -0.14916080927687531 0 -0.37327951573861679 -0.16814400678037569 0 -0.3909208977238457 -0.1583572236126552 0 -0.37327951573861679 -0.16814400678037569 0 -0.3882067169509037 -0.1760593345036848 0 -0.3909208977238457 -0.1583572236126552 0 -0.40993720285356849 -0.15702570789285461 0 -0.40260838486580158 -0.17502461355520041 0 -0.3909208977238457 -0.1583572236126552 0 -0.40260838486580158 -0.17502461355520041 0 -0.3882067169509037 -0.1760593345036848 0 -0.3909208977238457 -0.1583572236126552 0 -0.40993720285356849 -0.15702570789285461 0 -0.3909208977238457 -0.1583572236126552 0 -0.40528648329707118 -0.14247611807615401 0 -0.3909208977238457 -0.1583572236126552 0 -0.40528648329707118 -0.14247611807615401 0 -0.38801075118234102 -0.14017645760108891 0 -0.37186795932909072 -0.14916080927687531 0 -0.3909208977238457 -0.1583572236126552 0 -0.38801075118234102 -0.14017645760108891 0 -0.37068392950765211 -0.13115669962121301 0 -0.37186795932909072 -0.14916080927687531 0 -0.38801075118234102 -0.14017645760108891 0 -0.37068392950765211 -0.13115669962121301 0 -0.38801075118234102 -0.14017645760108891 0 -0.38495989162900313 -0.1255544452763927 0 -0.38801075118234102 -0.14017645760108891 0 -0.38495989162900313 -0.1255544452763927 0 -0.39781378012693308 -0.12755133552424011 0 -0.40528648329707118 -0.14247611807615401 0 -0.38801075118234102 -0.14017645760108891 0 -0.39781378012693308 -0.12755133552424011 0 -0.40528648329707118 -0.14247611807615401 0 -0.39781378012693308 -0.12755133552424011 0 -0.4108680772046947 -0.12827168591954821 0 -0.4108680772046947 -0.12827168591954821 0 -0.42035934474955078 -0.13972842459323501 0 -0.42212315400424788 -0.1207325823693817 0 -0.40528648329707118 -0.14247611807615401 0 -0.4108680772046947 -0.12827168591954821 0 -0.42035934474955078 -0.13972842459323501 0 -0.40993720285356849 -0.15702570789285461 0 -0.42035934474955078 -0.13972842459323501 0 -0.42446645853228299 -0.15599162269622449 0 -0.40993720285356849 -0.15702570789285461 0 -0.40528648329707118 -0.14247611807615401 0 -0.42035934474955078 -0.13972842459323501 0 -0.42035934474955078 -0.13972842459323501 0 -0.4360539605565863 -0.1486224267403099 0 -0.42446645853228299 -0.15599162269622449 0 -0.42035934474955078 -0.13972842459323501 0 -0.4360539605565863 -0.1486224267403099 0 -0.43470721791308731 -0.1316589993056079 0 -0.42035934474955078 -0.13972842459323501 0 -0.43470721791308731 -0.1316589993056079 0 -0.42212315400424788 -0.1207325823693817 0 -0.4360539605565863 -0.1486224267403099 0 -0.43470721791308731 -0.1316589993056079 0 -0.44697568470558191 -0.13948545087105921 0 -0.44697568470558191 -0.13948545087105921 0 -0.44472315315864458 -0.12569009273568449 0 -0.46017302210790162 -0.1297291849720778 0 -0.43470721791308731 -0.1316589993056079 0 -0.44697568470558191 -0.13948545087105921 0 -0.44472315315864458 -0.12569009273568449 0 -0.43470721791308731 -0.1316589993056079 0 -0.44472315315864458 -0.12569009273568449 0 -0.43524603665862333 -0.1197184052630894 0 -0.44697568470558191 -0.13948545087105921 0 -0.45007703207607791 -0.15528227622105009 0 -0.45979764951889862 -0.14435187707586461 0 -0.4360539605565863 -0.1486224267403099 0 -0.44697568470558191 -0.13948545087105921 0 -0.45007703207607791 -0.15528227622105009 0 -0.45979764951889862 -0.14435187707586461 0 -0.46017302210790162 -0.1297291849720778 0 -0.47363020862249899 -0.14910838184177611 0 -0.45007703207607791 -0.15528227622105009 0 -0.45979764951889862 -0.14435187707586461 0 -0.46858221360658608 -0.1618849274662636 0 -0.45979764951889862 -0.14435187707586461 0 -0.47363020862249899 -0.14910838184177611 0 -0.46858221360658608 -0.1618849274662636 0 -0.46017302210790162 -0.1297291849720778 0 -0.47363020862249899 -0.14910838184177611 0 -0.44697568470558191 -0.13948545087105921 0 -0.45979764951889862 -0.14435187707586461 0 -0.46017302210790162 -0.1297291849720778 0 -0.46017302210790162 -0.1297291849720778 0 -0.47366274447775369 -0.13323092373822029 0 -0.46580368547994699 -0.1186227723957077 0 -0.46017302210790162 -0.1297291849720778 0 -0.47366274447775369 -0.13323092373822029 0 -0.47363020862249899 -0.14910838184177611 0 -0.47366274447775369 -0.13323092373822029 0 -0.48489153536659207 -0.1268955566890331 0 -0.46580368547994699 -0.1186227723957077 0 -0.47366274447775369 -0.13323092373822029 0 -0.48489153536659207 -0.1268955566890331 0 -0.48381527081182862 -0.14179872279250669 0 -0.48489153536659207 -0.1268955566890331 0 -0.5 -0.14564153787415349 0 -0.48381527081182862 -0.14179872279250669 0 -0.48489153536659207 -0.1268955566890331 0 -0.5 -0.14564153787415349 0 -0.5 -0.1181882778946414 0 -0.5 -0.14564153787415349 0 -0.48765113946335159 -0.1537340786273915 0 -0.48381527081182862 -0.14179872279250669 0 -0.47366274447775369 -0.13323092373822029 0 -0.48381527081182862 -0.14179872279250669 0 -0.47363020862249899 -0.14910838184177611 0 -0.48765113946335159 -0.1537340786273915 0 -0.48381527081182862 -0.14179872279250669 0 -0.47363020862249899 -0.14910838184177611 0 -0.47363020862249899 -0.14910838184177611 0 -0.4870873951370952 -0.16848757871147521 0 -0.4870873951370952 -0.16848757871147521 0 -0.47393121206270322 -0.17366882861233729 0 -0.46858221360658608 -0.1618849274662636 0 -0.48765113946335159 -0.1537340786273915 0 -0.47363020862249899 -0.14910838184177611 0 -0.4870873951370952 -0.16848757871147521 0 -0.47363020862249899 -0.14910838184177611 0 -0.4870873951370952 -0.16848757871147521 0 -0.46858221360658608 -0.1618849274662636 0 -0.4870873951370952 -0.16848757871147521 0 -0.46858221360658608 -0.1618849274662636 0 -0.48765113946335159 -0.1537340786273915 0 -0.4870873951370952 -0.16848757871147521 0 -0.50000000000000155 -0.17309479785366569 0 -0.5 -0.14564153787415349 0 -0.48765113946335159 -0.1537340786273915 0 -0.50000000000000155 -0.17309479785366569 0 -0.4870873951370952 -0.16848757871147521 0 -0.50000000000000155 -0.17309479785366569 0 -0.4870873951370952 -0.16848757871147521 0 -0.50000000000000278 -0.18708254367443289 0 -0.48471279788181681 -0.18540808678897469 0 -0.4870873951370952 -0.16848757871147521 0 -0.50000000000000278 -0.18708254367443289 0 -0.4870873951370952 -0.16848757871147521 0 -0.50000000000000278 -0.18708254367443289 0 -0.50000000000000155 -0.17309479785366569 0 -0.4870873951370952 -0.16848757871147521 0 -0.48471279788181681 -0.18540808678897469 0 -0.47393121206270322 -0.17366882861233729 0 -0.48471279788181681 -0.18540808678897469 0 -0.47393121206270322 -0.17366882861233729 0 -0.46912019400530303 -0.18422478866657699 0 -0.46912019400530303 -0.18422478866657699 0 -0.45675410661996951 -0.17295012911441501 0 -0.45690401987567991 -0.18978801845103849 0 -0.47393121206270322 -0.17366882861233729 0 -0.46912019400530303 -0.18422478866657699 0 -0.45675410661996951 -0.17295012911441501 0 -0.45007703207607791 -0.15528227622105009 0 -0.46858221360658608 -0.1618849274662636 0 -0.45007703207607791 -0.15528227622105009 0 -0.45675410661996951 -0.17295012911441501 0 -0.46858221360658608 -0.1618849274662636 0 -0.47393121206270322 -0.17366882861233729 0 -0.45675410661996951 -0.17295012911441501 0 -0.46858221360658608 -0.1618849274662636 0 -0.4357719069745265 -0.16670789698594851 0 -0.45007703207607791 -0.15528227622105009 0 -0.45675410661996951 -0.17295012911441501 0 -0.4357719069745265 -0.16670789698594851 0 -0.4360539605565863 -0.1486224267403099 0 -0.45007703207607791 -0.15528227622105009 0 -0.4357719069745265 -0.16670789698594851 0 -0.45675410661996951 -0.17295012911441501 0 -0.44055283616954011 -0.18354776547582899 0 -0.45675410661996951 -0.17295012911441501 0 -0.44055283616954011 -0.18354776547582899 0 -0.45690401987567991 -0.18978801845103849 0 -0.42716052737611498 -0.1907332257995685 0 -0.44055283616954011 -0.18354776547582899 0 -0.44606849632521151 -0.2025924174908636 0 -0.44055283616954011 -0.18354776547582899 0 -0.44606849632521151 -0.2025924174908636 0 -0.45690401987567991 -0.18978801845103849 0 -0.44606849632521151 -0.2025924174908636 0 -0.45939351410459722 -0.21876683272898281 0 -0.44730785021491692 -0.232855035829481 0 -0.42475788485601551 -0.218901690910762 0 -0.44606849632521151 -0.2025924174908636 0 -0.44730785021491692 -0.232855035829481 0 -0.44606849632521151 -0.2025924174908636 0 -0.47303424816260697 -0.20481373437717881 0 -0.47303424816260697 -0.20481373437717881 0 -0.47329762093085992 -0.2247823940103412 0 -0.45939351410459722 -0.21876683272898281 0 -0.44606849632521151 -0.2025924174908636 0 -0.47303424816260697 -0.20481373437717881 0 -0.45939351410459722 -0.21876683272898281 0 -0.44606849632521151 -0.2025924174908636 0 -0.47303424816260697 -0.20481373437717881 0 -0.47303424816260797 -0.20327481666492719 0 -0.44606849632521151 -0.2025924174908636 0 -0.45690401987567991 -0.18978801845103849 0 -0.47303424816260797 -0.20327481666492719 0 -0.46912019400530303 -0.18422478866657699 0 -0.45690401987567991 -0.18978801845103849 0 -0.47303424816260797 -0.20327481666492719 0 -0.44606849632521151 -0.2025924174908636 0 -0.47303424816260797 -0.20327481666492719 0 -0.48471279788181681 -0.18540808678897469 0 -0.46912019400530303 -0.18422478866657699 0 -0.47303424816260797 -0.20327481666492719 0 -0.50000000000000278 -0.18708254367443289 0 -0.48471279788181681 -0.18540808678897469 0 -0.50000000000000444 -0.20395721583899079 0 -0.48471279788181681 -0.18540808678897469 0 -0.50000000000000444 -0.20395721583899079 0 -0.47303424816260797 -0.20327481666492719 0 -0.50000000000000311 -0.20626559240736839 0 -0.47303424816260697 -0.20481373437717881 0 -0.48708643437609439 -0.2208559132214758 0 -0.50000000000000444 -0.20395721583899079 0 -0.47303424816260797 -0.20327481666492719 0 -0.50000000000000311 -0.20626559240736839 0 -0.50000000000000444 -0.20395721583899079 0 -0.47303424816260697 -0.20481373437717881 0 -0.50000000000000311 -0.20626559240736839 0 -0.47303424816260697 -0.20481373437717881 0 -0.47303424816260697 -0.20481373437717881 0 -0.47329762093085992 -0.2247823940103412 0 -0.48708643437609439 -0.2208559132214758 0 -0.50000000000000444 -0.20395721583899079 0 -0.47303424816260697 -0.20481373437717881 0 -0.47303424816260797 -0.20327481666492719 0 -0.47329762093085992 -0.2247823940103412 0 -0.47344919521853512 -0.23740404514615521 0 -0.46367819338038763 -0.23158501712453061 0 -0.47329762093085992 -0.2247823940103412 0 -0.4837206810159822 -0.2341430898883772 0 -0.48708643437609439 -0.2208559132214758 0 -0.47329762093085992 -0.2247823940103412 0 -0.4837206810159822 -0.2341430898883772 0 -0.47344919521853512 -0.23740404514615521 0 -0.50000000000000311 -0.20626559240736839 0 -0.48708643437609439 -0.2208559132214758 0 -0.5 -0.23586259504786741 0 -0.4837206810159822 -0.2341430898883772 0 -0.48708643437609439 -0.2208559132214758 0 -0.5 -0.23586259504786741 0 -0.4837206810159822 -0.2341430898883772 0 -0.5 -0.23586259504786741 0 -0.48773282140710728 -0.24627909207288859 0 -0.49999999999999828 -0.26545959768836652 0 -0.5 -0.23586259504786741 0 -0.48773282140710728 -0.24627909207288859 0 -0.48492890778690811 -0.25613398921828362 0 -0.48773282140710728 -0.24627909207288859 0 -0.47382042158124382 -0.24715118153096849 0 -0.48773282140710728 -0.24627909207288859 0 -0.47968077980571711 -0.24124435215959741 0 -0.47382042158124382 -0.24715118153096849 0 -0.4837206810159822 -0.2341430898883772 0 -0.48773282140710728 -0.24627909207288859 0 -0.47968077980571711 -0.24124435215959741 0 -0.4837206810159822 -0.2341430898883772 0 -0.47968077980571711 -0.24124435215959741 0 -0.47344919521853512 -0.23740404514615521 0 -0.47968077980571711 -0.24124435215959741 0 -0.47344919521853512 -0.23740404514615521 0 -0.47382042158124382 -0.24715118153096849 0 -0.47344919521853512 -0.23740404514615521 0 -0.46985781557381873 -0.24680838074819941 0 -0.46367819338038763 -0.23158501712453061 0 -0.47344919521853512 -0.23740404514615521 0 -0.47382042158124382 -0.24715118153096849 0 -0.46985781557381873 -0.24680838074819941 0 -0.47382042158124382 -0.24715118153096849 0 -0.46985781557381873 -0.24680838074819941 0 -0.46985781557381873 -0.24680838074819941 0 -0.4473161120999406 -0.2448583222308145 0 -0.46985781557381873 -0.24680838074819941 0 -0.46367819338038763 -0.23158501712453061 0 -0.44730785021491692 -0.232855035829481 0 -0.46985781557381873 -0.24680838074819941 0 -0.44730785021491692 -0.232855035829481 0 -0.4473161120999406 -0.2448583222308145 0 -0.46985781557381873 -0.24680838074819941 0 -0.44730785021491692 -0.232855035829481 0 -0.46367819338038763 -0.23158501712453061 0 -0.45939351410459722 -0.21876683272898281 0 -0.44730785021491692 -0.232855035829481 0 -0.47329762093085992 -0.2247823940103412 0 -0.46367819338038763 -0.23158501712453061 0 -0.45939351410459722 -0.21876683272898281 0 -0.43282022565898631 -0.23292493603384809 0 -0.44730785021491692 -0.232855035829481 0 -0.4473161120999406 -0.2448583222308145 0 -0.44196826618057822 -0.25847988818253897 0 -0.42477440862606253 -0.24290826371343011 0 -0.4473161120999406 -0.2448583222308145 0 -0.41965135769867168 -0.036197442382570527 0 -0.41314621595638712 -0.050915576984553283 0 -0.42263693598197127 -0.050644317529492597 0 -0.41965135769867168 -0.036197442382570527 0 -0.41314621595638712 -0.050915576984553283 0 -0.40498776737212161 -0.039768368864726761 0 -0.41314621595638712 -0.050915576984553283 0 -0.40498776737212161 -0.039768368864726761 0 -0.40433818113317599 -0.059460578027754472 0 -0.41314621595638712 -0.050915576984553283 0 -0.40433818113317599 -0.059460578027754472 0 -0.41616912005046958 -0.065643260585191474 0 -0.41314621595638712 -0.050915576984553283 0 -0.42263693598197127 -0.050644317529492597 0 -0.41616912005046958 -0.065643260585191474 0 -0.42263693598197127 -0.050644317529492597 0 -0.42718840135232761 -0.056494817620385267 0 -0.43360866226251371 -0.050155948018364163 0 -0.42718840135232761 -0.056494817620385267 0 -0.43633888711435559 -0.059535744348492847 0 -0.41616912005046958 -0.065643260585191474 0 -0.42263693598197127 -0.050644317529492597 0 -0.42718840135232761 -0.056494817620385267 0 -0.41616912005046958 -0.065643260585191474 0 -0.42718840135232761 -0.056494817620385267 0 -0.43633888711435559 -0.059535744348492847 0 -0.43360866226251371 -0.050155948018364163 0 -0.43633888711435559 -0.059535744348492847 0 -0.43360866226251371 -0.050155948018364163 0 -0.44037746000320982 -0.051450682806776088 0 -0.43360866226251371 -0.050155948018364163 0 -0.43050795897462502 -0.036720712534186607 0 -0.44296040302245288 -0.045044387782212827 0 -0.41965135769867168 -0.036197442382570527 0 -0.42263693598197127 -0.050644317529492597 0 -0.43050795897462502 -0.036720712534186607 0 -0.42263693598197127 -0.050644317529492597 0 -0.43360866226251371 -0.050155948018364163 0 -0.43050795897462502 -0.036720712534186607 0 -0.41965135769867168 -0.036197442382570527 0 -0.43050795897462502 -0.036720712534186607 0 -0.42858334114882701 -0.02452704358435006 0 -0.43050795897462502 -0.036720712534186607 0 -0.44203381585329021 -0.034529877006323123 0 -0.43926081619733692 -0.02421171983610796 0 -0.42858334114882701 -0.02452704358435006 0 -0.41804592675809849 -0.014608634798113839 0 -0.43750292856987771 -0.0080327908377407359 0 -0.42858334114882701 -0.02452704358435006 0 -0.43750292856987771 -0.0080327908377407359 0 -0.43926081619733692 -0.02421171983610796 0 -0.41965135769867168 -0.036197442382570527 0 -0.42858334114882701 -0.02452704358435006 0 -0.41804592675809849 -0.014608634798113839 0 -0.43050795897462502 -0.036720712534186607 0 -0.42858334114882701 -0.02452704358435006 0 -0.43926081619733692 -0.02421171983610796 0 -0.43750292856987771 -0.0080327908377407359 0 -0.42179984078102162 0.0069615437006136736 0 -0.41804592675809849 -0.014608634798113839 0 -0.43750292856987771 -0.0080327908377407359 0 -0.42179984078102162 0.0069615437006136736 0 -0.41095594190898349 -0.001080987735907946 0 -0.41804592675809849 -0.014608634798113839 0 -0.40016422766839671 -0.01308543754570362 0 -0.41095594190898349 -0.001080987735907946 0 -0.41804592675809849 -0.014608634798113839 0 -0.42179984078102162 0.0069615437006136736 0 -0.41804592675809849 -0.014608634798113839 0 -0.40498776737212161 -0.039768368864726761 0 -0.41965135769867168 -0.036197442382570527 0 -0.41804592675809849 -0.014608634798113839 0 -0.40498776737212161 -0.039768368864726761 0 -0.41804592675809849 -0.014608634798113839 0 -0.40016422766839671 -0.01308543754570362 0 -0.40498776737212161 -0.039768368864726761 0 -0.39274117270043229 -0.027647498534071911 0 -0.40016422766839671 -0.01308543754570362 0 -0.40498776737212161 -0.039768368864726761 0 -0.39274117270043229 -0.027647498534071911 0 -0.40016422766839671 -0.01308543754570362 0 -0.39240788918562908 -0.011306008779917449 0 -0.40016422766839671 -0.01308543754570362 0 -0.39240788918562908 -0.011306008779917449 0 -0.40381377242841832 0.016408577699571689 0 -0.36949750255941127 -0.01944599026419562 0 -0.39240788918562908 -0.011306008779917449 0 -0.37856321670115062 -0.0062111997374066277 0 -0.39240788918562908 -0.011306008779917449 0 -0.37856321670115062 -0.0062111997374066277 0 -0.38821138269637168 0.0018559908871665831 0 -0.36949750255941127 -0.01944599026419562 0 -0.39240788918562908 -0.011306008779917449 0 -0.38100200594284062 -0.039020595259406952 0 -0.39274117270043229 -0.027647498534071911 0 -0.39240788918562908 -0.011306008779917449 0 -0.38100200594284062 -0.039020595259406952 0 -0.39240788918562908 -0.011306008779917449 0 -0.38100200594284062 -0.039020595259406952 0 -0.39274117270043229 -0.027647498534071911 0 -0.38100200594284062 -0.039020595259406952 0 -0.40498776737212161 -0.039768368864726761 0 -0.38100200594284062 -0.039020595259406952 0 -0.40498776737212161 -0.039768368864726761 0 -0.38671445897709539 -0.052575128820748433 0 -0.40498776737212161 -0.039768368864726761 0 -0.38671445897709539 -0.052575128820748433 0 -0.39192960798614468 -0.064928102931339451 0 -0.40498776737212161 -0.039768368864726761 0 -0.39192960798614468 -0.064928102931339451 0 -0.40498776737212161 -0.039768368864726761 0 -0.40433818113317599 -0.059460578027754472 0 -0.39192960798614468 -0.064928102931339451 0 -0.36959612270005221 -0.066735181738896449 0 -0.38100200594284062 -0.039020595259406952 0 -0.38671445897709539 -0.052575128820748433 0 -0.36959612270005221 -0.066735181738896449 0 -0.38100200594284062 -0.039020595259406952 0 -0.38671445897709539 -0.052575128820748433 0 -0.38176014793999358 -0.064261697025511599 0 -0.39192960798614468 -0.064928102931339451 0 -0.36959612270005221 -0.066735181738896449 0 -0.38671445897709539 -0.052575128820748433 0 -0.38176014793999358 -0.064261697025511599 0 -0.3788714486001678 -0.090087836997952281 0 -0.39192960798614468 -0.064928102931339451 0 -0.3788714486001678 -0.090087836997952281 0 -0.39120666803104881 -0.078645261069396427 0 -0.39192960798614468 -0.064928102931339451 0 -0.36959612270005221 -0.066735181738896449 0 -0.38176014793999358 -0.064261697025511599 0 -0.37849799197954231 -0.073641588414281339 0 -0.37849799197954231 -0.073641588414281339 0 -0.3788714486001678 -0.090087836997952281 0 -0.39192960798614468 -0.064928102931339451 0 -0.38176014793999358 -0.064261697025511599 0 -0.37849799197954231 -0.073641588414281339 0 -0.39192960798614468 -0.064928102931339451 0 -0.37145509960866069 -0.082172317358849514 0 -0.37849799197954231 -0.073641588414281339 0 -0.3788714486001678 -0.090087836997952281 0 -0.3788714486001678 -0.090087836997952281 0 -0.38882337082575608 -0.092572234031328984 0 -0.39135805338021151 -0.086357605831700601 0 -0.3788714486001678 -0.090087836997952281 0 -0.39120666803104881 -0.078645261069396427 0 -0.39135805338021151 -0.086357605831700601 0 -0.39787487720213621 -0.080101982764099716 0 -0.39135805338021151 -0.086357605831700601 0 -0.40156449994889021 -0.090781138674083828 0 -0.39120666803104881 -0.078645261069396427 0 -0.39787487720213621 -0.080101982764099716 0 -0.39135805338021151 -0.086357605831700601 0 -0.38882337082575608 -0.092572234031328984 0 -0.39135805338021151 -0.086357605831700601 0 -0.40156449994889021 -0.090781138674083828 0 -0.39135805338021151 -0.086357605831700601 0 -0.40156449994889021 -0.090781138674083828 0 -0.39787487720213621 -0.080101982764099716 0 -0.40156449994889021 -0.090781138674083828 0 -0.40687620838068161 -0.078898905100762529 0 -0.40572730840711613 -0.074112308950076283 0 -0.39599935298658362 -0.071750776821890072 0 -0.41616912005046958 -0.065643260585191474 0 -0.39599935298658362 -0.071750776821890072 0 -0.41616912005046958 -0.065643260585191474 0 -0.39787487720213621 -0.080101982764099716 0 -0.40572730840711613 -0.074112308950076283 0 -0.39599935298658362 -0.071750776821890072 0 -0.40433818113317599 -0.059460578027754472 0 -0.39599935298658362 -0.071750776821890072 0 -0.41616912005046958 -0.065643260585191474 0 -0.39787487720213621 -0.080101982764099716 0 -0.40572730840711613 -0.074112308950076283 0 -0.40687620838068161 -0.078898905100762529 0 -0.40433818113317599 -0.059460578027754472 0 -0.39192960798614468 -0.064928102931339451 0 -0.39599935298658362 -0.071750776821890072 0 -0.39120666803104881 -0.078645261069396427 0 -0.39787487720213621 -0.080101982764099716 0 -0.39599935298658362 -0.071750776821890072 0 -0.39120666803104881 -0.078645261069396427 0 -0.39192960798614468 -0.064928102931339451 0 -0.39599935298658362 -0.071750776821890072 0 -0.36543446279861952 -0.1153435705690741 0 -0.3787322783333707 -0.1171385441897778 0 -0.383499481373755 -0.1030623546215793 0 -0.38495989162900313 -0.1255544452763927 0 -0.3787322783333707 -0.1171385441897778 0 -0.39109380949379352 -0.11444358280905199 0 -0.37068392950765211 -0.13115669962121301 0 -0.38495989162900313 -0.1255544452763927 0 -0.3787322783333707 -0.1171385441897778 0 -0.3787322783333707 -0.1171385441897778 0 -0.383499481373755 -0.1030623546215793 0 -0.39109380949379352 -0.11444358280905199 0 -0.37362373781975228 -0.098274654615845225 0 -0.3788714486001678 -0.090087836997952281 0 -0.383499481373755 -0.1030623546215793 0 -0.3788714486001678 -0.090087836997952281 0 -0.38882337082575608 -0.092572234031328984 0 -0.383499481373755 -0.1030623546215793 0 -0.40156449994889021 -0.090781138674083828 0 -0.383499481373755 -0.1030623546215793 0 -0.39842414047681929 -0.1045935193957253 0 -0.38882337082575608 -0.092572234031328984 0 -0.40156449994889021 -0.090781138674083828 0 -0.383499481373755 -0.1030623546215793 0 -0.40156449994889021 -0.090781138674083828 0 -0.383499481373755 -0.1030623546215793 0 -0.40156449994889021 -0.090781138674083828 0 -0.39842414047681929 -0.1045935193957253 0 -0.40969249269820529 -0.1039233298451193 0 -0.39842414047681929 -0.1045935193957253 0 -0.40666366795469527 -0.114385723463205 0 -0.40969249269820529 -0.1039233298451193 0 -0.383499481373755 -0.1030623546215793 0 -0.39842414047681929 -0.1045935193957253 0 -0.39109380949379352 -0.11444358280905199 0 -0.39842414047681929 -0.1045935193957253 0 -0.39109380949379352 -0.11444358280905199 0 -0.40666366795469527 -0.114385723463205 0 -0.39781378012693308 -0.12755133552424011 0 -0.39109380949379352 -0.11444358280905199 0 -0.40666366795469527 -0.114385723463205 0 -0.39781378012693308 -0.12755133552424011 0 -0.4108680772046947 -0.12827168591954821 0 -0.40666366795469527 -0.114385723463205 0 -0.38495989162900313 -0.1255544452763927 0 -0.39781378012693308 -0.12755133552424011 0 -0.39109380949379352 -0.11444358280905199 0 -0.4108680772046947 -0.12827168591954821 0 -0.40666366795469527 -0.114385723463205 0 -0.42212315400424788 -0.1207325823693817 0 -0.40666366795469527 -0.114385723463205 0 -0.41811606101041582 -0.1099535125736661 0 -0.40969249269820529 -0.1039233298451193 0 -0.40666366795469527 -0.114385723463205 0 -0.41811606101041582 -0.1099535125736661 0 -0.42212315400424788 -0.1207325823693817 0 -0.40156449994889021 -0.090781138674083828 0 -0.40969249269820529 -0.1039233298451193 0 -0.42414016777109631 -0.1005655633882325 0 -0.40156449994889021 -0.090781138674083828 0 -0.42414016777109631 -0.1005655633882325 0 -0.41811606101041582 -0.1099535125736661 0 -0.40969249269820529 -0.1039233298451193 0 -0.42414016777109631 -0.1005655633882325 0 -0.42414016777109631 -0.1005655633882325 0 -0.43742678915896888 -0.096973175691591751 0 -0.44671583559330269 -0.1103499881023805 0 -0.42414016777109631 -0.1005655633882325 0 -0.42926825100753718 -0.11226401033935 0 -0.44671583559330269 -0.1103499881023805 0 -0.42414016777109631 -0.1005655633882325 0 -0.44671583559330269 -0.1103499881023805 0 -0.42414016777109631 -0.1005655633882325 0 -0.42006863084820339 -0.089093576059506976 0 -0.42662152577105572 -0.092194646467759933 0 -0.42414016777109631 -0.1005655633882325 0 -0.43742678915896888 -0.096973175691591751 0 -0.42662152577105572 -0.092194646467759933 0 -0.41811606101041582 -0.1099535125736661 0 -0.42414016777109631 -0.1005655633882325 0 -0.42926825100753718 -0.11226401033935 0 -0.42926825100753718 -0.11226401033935 0 -0.43524603665862333 -0.1197184052630894 0 -0.44671583559330269 -0.1103499881023805 0 -0.41811606101041582 -0.1099535125736661 0 -0.42926825100753718 -0.11226401033935 0 -0.42212315400424788 -0.1207325823693817 0 -0.43470721791308731 -0.1316589993056079 0 -0.43524603665862333 -0.1197184052630894 0 -0.42212315400424788 -0.1207325823693817 0 -0.42926825100753718 -0.11226401033935 0 -0.43524603665862333 -0.1197184052630894 0 -0.42212315400424788 -0.1207325823693817 0 -0.41616912005046958 -0.065643260585191474 0 -0.41171698341570978 -0.074166619478437626 0 -0.41987921802534101 -0.078330168486654667 0 -0.41171698341570978 -0.074166619478437626 0 -0.40687620838068161 -0.078898905100762529 0 -0.41987921802534101 -0.078330168486654667 0 -0.40572730840711613 -0.074112308950076283 0 -0.41616912005046958 -0.065643260585191474 0 -0.41171698341570978 -0.074166619478437626 0 -0.40572730840711613 -0.074112308950076283 0 -0.41171698341570978 -0.074166619478437626 0 -0.40687620838068161 -0.078898905100762529 0 -0.40156449994889021 -0.090781138674083828 0 -0.41987921802534101 -0.078330168486654667 0 -0.40156449994889021 -0.090781138674083828 0 -0.40687620838068161 -0.078898905100762529 0 -0.41987921802534101 -0.078330168486654667 0 -0.40156449994889021 -0.090781138674083828 0 -0.42006863084820339 -0.089093576059506976 0 -0.41987921802534101 -0.078330168486654667 0 -0.40156449994889021 -0.090781138674083828 0 -0.42414016777109631 -0.1005655633882325 0 -0.42006863084820339 -0.089093576059506976 0 -0.41987921802534101 -0.078330168486654667 0 -0.42813774272463351 -0.083596363280803956 0 -0.43162163682205418 -0.077942191158368077 0 -0.42006863084820339 -0.089093576059506976 0 -0.41987921802534101 -0.078330168486654667 0 -0.42813774272463351 -0.083596363280803956 0 -0.42006863084820339 -0.089093576059506976 0 -0.42813774272463351 -0.083596363280803956 0 -0.42662152577105572 -0.092194646467759933 0 -0.43742678915896888 -0.096973175691591751 0 -0.42813774272463351 -0.083596363280803956 0 -0.43742678915896888 -0.096973175691591751 0 -0.42813774272463351 -0.083596363280803956 0 -0.42662152577105572 -0.092194646467759933 0 -0.43742678915896888 -0.096973175691591751 0 -0.42813774272463351 -0.083596363280803956 0 -0.43608940761123061 -0.084264223222665011 0 -0.42813774272463351 -0.083596363280803956 0 -0.43608940761123061 -0.084264223222665011 0 -0.43162163682205418 -0.077942191158368077 0 -0.43608940761123061 -0.084264223222665011 0 -0.43162163682205418 -0.077942191158368077 0 -0.44152239916687741 -0.07661468377915856 0 -0.43633888711435559 -0.059535744348492847 0 -0.41616912005046958 -0.065643260585191474 0 -0.41987921802534101 -0.078330168486654667 0 -0.43819393610179158 -0.065879198299224923 0 -0.41616912005046958 -0.065643260585191474 0 -0.41987921802534101 -0.078330168486654667 0 -0.43819393610179158 -0.065879198299224923 0 -0.41987921802534101 -0.078330168486654667 0 -0.43162163682205418 -0.077942191158368077 0 -0.43819393610179158 -0.065879198299224923 0 -0.43633888711435559 -0.059535744348492847 0 -0.41616912005046958 -0.065643260585191474 0 -0.43819393610179158 -0.065879198299224923 0 -0.43162163682205418 -0.077942191158368077 0 -0.43819393610179158 -0.065879198299224923 0 -0.44965998089075088 -0.063991062752694075 0 -0.43162163682205418 -0.077942191158368077 0 -0.44965998089075088 -0.063991062752694075 0 -0.44152239916687741 -0.07661468377915856 0 -0.43162163682205418 -0.077942191158368077 0 -0.44965998089075088 -0.063991062752694075 0 -0.44965998089075088 -0.063991062752694075 0 -0.44945807823162359 -0.073870353879131989 0 -0.45731311522563489 -0.072336198439049579 0 -0.44945807823162359 -0.073870353879131989 0 -0.44152239916687741 -0.07661468377915856 0 -0.44933681764323152 -0.08253947054562577 0 -0.44945807823162359 -0.073870353879131989 0 -0.44933681764323152 -0.08253947054562577 0 -0.45731311522563489 -0.072336198439049579 0 -0.44965998089075088 -0.063991062752694075 0 -0.44945807823162359 -0.073870353879131989 0 -0.44152239916687741 -0.07661468377915856 0 -0.44152239916687741 -0.07661468377915856 0 -0.44173847018361911 -0.086194702203402682 0 -0.44933681764323152 -0.08253947054562577 0 -0.43608940761123061 -0.084264223222665011 0 -0.44152239916687741 -0.07661468377915856 0 -0.44173847018361911 -0.086194702203402682 0 -0.43742678915896888 -0.096973175691591751 0 -0.43608940761123061 -0.084264223222665011 0 -0.44173847018361911 -0.086194702203402682 0 -0.43742678915896888 -0.096973175691591751 0 -0.44173847018361911 -0.086194702203402682 0 -0.4463849512944088 -0.093503915763231915 0 -0.44173847018361911 -0.086194702203402682 0 -0.4463849512944088 -0.093503915763231915 0 -0.44933681764323152 -0.08253947054562577 0 -0.4463849512944088 -0.093503915763231915 0 -0.44933681764323152 -0.08253947054562577 0 -0.45631352361667088 -0.09517784961813984 0 -0.44933681764323152 -0.08253947054562577 0 -0.45938187441006467 -0.08305611879643926 0 -0.45731311522563489 -0.072336198439049579 0 -0.44933681764323152 -0.08253947054562577 0 -0.45938187441006467 -0.08305611879643926 0 -0.45631352361667088 -0.09517784961813984 0 -0.45938187441006467 -0.08305611879643926 0 -0.467160261368254 -0.088375414536091282 0 -0.45631352361667088 -0.09517784961813984 0 -0.45938187441006467 -0.08305611879643926 0 -0.467160261368254 -0.088375414536091282 0 -0.46678565419653212 -0.076851660843289774 0 -0.45938187441006467 -0.08305611879643926 0 -0.46678565419653212 -0.076851660843289774 0 -0.45731311522563489 -0.072336198439049579 0 -0.46678565419653212 -0.076851660843289774 0 -0.4673022423269656 -0.06775975707874432 0 -0.45731311522563489 -0.072336198439049579 0 -0.46186344691852138 -0.062500853921724039 0 -0.4673022423269656 -0.06775975707874432 0 -0.45731311522563489 -0.072336198439049579 0 -0.46186344691852138 -0.062500853921724039 0 -0.4673022423269656 -0.06775975707874432 0 -0.46985842894766378 -0.057893128646086228 0 -0.44965998089075088 -0.063991062752694075 0 -0.46186344691852138 -0.062500853921724039 0 -0.45731311522563489 -0.072336198439049579 0 -0.44472315315864458 -0.12569009273568449 0 -0.46017302210790162 -0.1297291849720778 0 -0.44671583559330269 -0.1103499881023805 0 -0.44472315315864458 -0.12569009273568449 0 -0.43524603665862333 -0.1197184052630894 0 -0.44671583559330269 -0.1103499881023805 0 -0.43742678915896888 -0.096973175691591751 0 -0.4463849512944088 -0.093503915763231915 0 -0.44671583559330269 -0.1103499881023805 0 -0.4463849512944088 -0.093503915763231915 0 -0.44671583559330269 -0.1103499881023805 0 -0.45631352361667088 -0.09517784961813984 0 -0.43742678915896888 -0.096973175691591751 0 -0.44671583559330269 -0.1103499881023805 0 -0.467160261368254 -0.088375414536091282 0 -0.45631352361667088 -0.09517784961813984 0 -0.46901743604208329 -0.103531932640617 0 -0.45631352361667088 -0.09517784961813984 0 -0.45946262018300099 -0.1069206356892113 0 -0.46901743604208329 -0.103531932640617 0 -0.44671583559330269 -0.1103499881023805 0 -0.45631352361667088 -0.09517784961813984 0 -0.45946262018300099 -0.1069206356892113 0 -0.46017302210790162 -0.1297291849720778 0 -0.44671583559330269 -0.1103499881023805 0 -0.46017302210790162 -0.1297291849720778 0 -0.44671583559330269 -0.1103499881023805 0 -0.46580368547994699 -0.1186227723957077 0 -0.44671583559330269 -0.1103499881023805 0 -0.45946262018300099 -0.1069206356892113 0 -0.46580368547994699 -0.1186227723957077 0 -0.44671583559330269 -0.1103499881023805 0 -0.46580368547994699 -0.1186227723957077 0 -0.45946262018300099 -0.1069206356892113 0 -0.46580368547994699 -0.1186227723957077 0 -0.46901743604208329 -0.103531932640617 0 -0.48489153536659207 -0.1268955566890331 0 -0.46580368547994699 -0.1186227723957077 0 -0.47947668988843539 -0.11557658566451411 0 -0.48489153536659207 -0.1268955566890331 0 -0.46580368547994699 -0.1186227723957077 0 -0.46580368547994699 -0.1186227723957077 0 -0.47947668988843539 -0.11557658566451411 0 -0.46901743604208329 -0.103531932640617 0 -0.46901743604208329 -0.103531932640617 0 -0.48530210489056103 -0.10429008394326331 0 -0.48032802317198559 -0.092716383406984196 0 -0.47947668988843539 -0.11557658566451411 0 -0.46901743604208329 -0.103531932640617 0 -0.48530210489056103 -0.10429008394326331 0 -0.467160261368254 -0.088375414536091282 0 -0.46901743604208329 -0.103531932640617 0 -0.48032802317198559 -0.092716383406984196 0 -0.48530210489056103 -0.10429008394326331 0 -0.48032802317198559 -0.092716383406984196 0 -0.50000000000000011 -0.090735017915129293 0 -0.48530210489056103 -0.10429008394326331 0 -0.5 -0.1181882778946414 0 -0.50000000000000011 -0.090735017915129293 0 -0.48489153536659207 -0.1268955566890331 0 -0.47947668988843539 -0.11557658566451411 0 -0.5 -0.1181882778946414 0 -0.47947668988843539 -0.11557658566451411 0 -0.48530210489056103 -0.10429008394326331 0 -0.5 -0.1181882778946414 0 -0.47975537636031551 -0.06931347443961712 0 -0.47934170617290112 -0.078412731671664057 0 -0.48997279401409682 -0.068870420740395927 0 -0.47975537636031551 -0.06931347443961712 0 -0.47349945547341321 -0.071683754329140661 0 -0.47934170617290112 -0.078412731671664057 0 -0.47975537636031551 -0.06931347443961712 0 -0.48997279401409682 -0.068870420740395927 0 -0.48087902390351539 -0.061708935184457012 0 -0.47975537636031551 -0.06931347443961712 0 -0.47467440808970551 -0.064504744973963274 0 -0.48087902390351539 -0.061708935184457012 0 -0.4673022423269656 -0.06775975707874432 0 -0.47467440808970551 -0.064504744973963274 0 -0.46985842894766378 -0.057893128646086228 0 -0.47975537636031551 -0.06931347443961712 0 -0.47467440808970551 -0.064504744973963274 0 -0.47349945547341321 -0.071683754329140661 0 -0.4673022423269656 -0.06775975707874432 0 -0.47467440808970551 -0.064504744973963274 0 -0.47349945547341321 -0.071683754329140661 0 -0.46678565419653212 -0.076851660843289774 0 -0.47349945547341321 -0.071683754329140661 0 -0.47934170617290112 -0.078412731671664057 0 -0.46678565419653212 -0.076851660843289774 0 -0.4673022423269656 -0.06775975707874432 0 -0.47349945547341321 -0.071683754329140661 0 -0.467160261368254 -0.088375414536091282 0 -0.46678565419653212 -0.076851660843289774 0 -0.47934170617290112 -0.078412731671664057 0 -0.467160261368254 -0.088375414536091282 0 -0.48032802317198559 -0.092716383406984196 0 -0.47934170617290112 -0.078412731671664057 0 -0.47934170617290112 -0.078412731671664057 0 -0.50000000000000011 -0.090735017915129293 0 -0.48997279401409682 -0.068870420740395927 0 -0.50000000000000011 -0.090735017915129293 0 -0.48997279401409682 -0.068870420740395927 0 -0.48032802317198559 -0.092716383406984196 0 -0.47934170617290112 -0.078412731671664057 0 -0.50000000000000011 -0.090735017915129293 0 -0.50000000000000011 -0.090735017915129293 0 -0.48997279401409682 -0.068870420740395927 0 -0.5 -0.061064848435379182 0 -0.48997279401409682 -0.068870420740395927 0 -0.5 -0.061064848435379182 0 -0.48880443439426519 -0.055701935595048643 0 -0.48997279401409682 -0.068870420740395927 0 -0.47994558802819348 -0.047005823565662672 0 -0.48997279401409682 -0.068870420740395927 0 -0.48880443439426519 -0.055701935595048643 0 -0.47994558802819348 -0.047005823565662672 0 -0.5 -0.061064848435379182 0 -0.48880443439426519 -0.055701935595048643 0 -0.49145213678160959 -0.046591802723495869 0 -0.48641712417456801 -0.048305682483110832 0 -0.48880443439426519 -0.055701935595048643 0 -0.47994558802819348 -0.047005823565662672 0 -0.48641712417456801 -0.048305682483110832 0 -0.48880443439426519 -0.055701935595048643 0 -0.49145213678160959 -0.046591802723495869 0 -0.5 -0.061064848435379182 0 -0.5 -0.031394678955629092 0 -0.49145213678160959 -0.046591802723495869 0 -0.5 -0.031394678955629092 0 -0.48978915700656561 -0.038731762147218227 0 -0.49211876551819378 -0.031152795890146651 0 -0.5 -0.031394678955629092 0 -0.49145213678160959 -0.046591802723495869 0 -0.48978915700656561 -0.038731762147218227 0 -0.4854663374942037 -0.04392316804823615 0 -0.48978915700656561 -0.038731762147218227 0 -0.47990854523882071 -0.040596365118583388 0 -0.49145213678160959 -0.046591802723495869 0 -0.4854663374942037 -0.04392316804823615 0 -0.48978915700656561 -0.038731762147218227 0 -0.48641712417456801 -0.048305682483110832 0 -0.49145213678160959 -0.046591802723495869 0 -0.4854663374942037 -0.04392316804823615 0 -0.48978915700656561 -0.038731762147218227 0 -0.47990854523882071 -0.040596365118583388 0 -0.49211876551819378 -0.031152795890146651 0 -0.47990854523882071 -0.040596365118583388 0 -0.48260825760095949 -0.030988105327197979 0 -0.49211876551819378 -0.031152795890146651 0 -0.47990854523882071 -0.040596365118583388 0 -0.49211876551819378 -0.031152795890146651 0 -0.47734381324676872 -0.034770219645802972 0 -0.47990854523882071 -0.040596365118583388 0 -0.48260825760095949 -0.030988105327197979 0 -0.47734381324676872 -0.034770219645802972 0 -0.47990854523882071 -0.040596365118583388 0 -0.47515887513513172 -0.040749171619967793 0 -0.47990854523882071 -0.040596365118583388 0 -0.47994558802819348 -0.047005823565662672 0 -0.47207928688676531 -0.048713355015750859 0 -0.4854663374942037 -0.04392316804823615 0 -0.47990854523882071 -0.040596365118583388 0 -0.47994558802819348 -0.047005823565662672 0 -0.48641712417456801 -0.048305682483110832 0 -0.4854663374942037 -0.04392316804823615 0 -0.47994558802819348 -0.047005823565662672 0 -0.47515887513513172 -0.040749171619967793 0 -0.47212002883449627 -0.036707935691770117 0 -0.46647823916178638 -0.040502641487672852 0 -0.47990854523882071 -0.040596365118583388 0 -0.47515887513513172 -0.040749171619967793 0 -0.46769832495944741 -0.050039934347019782 0 -0.47990854523882071 -0.040596365118583388 0 -0.46769832495944741 -0.050039934347019782 0 -0.47990854523882071 -0.040596365118583388 0 -0.47207928688676531 -0.048713355015750859 0 -0.46769832495944741 -0.050039934347019782 0 -0.47734381324676872 -0.034770219645802972 0 -0.47212002883449627 -0.036707935691770117 0 -0.46852693659213751 -0.032213059083493027 0 -0.47212002883449627 -0.036707935691770117 0 -0.46647823916178638 -0.040502641487672852 0 -0.46852693659213751 -0.032213059083493027 0 -0.47734381324676872 -0.034770219645802972 0 -0.47515887513513172 -0.040749171619967793 0 -0.47212002883449627 -0.036707935691770117 0 -0.48997279401409682 -0.068870420740395927 0 -0.48087902390351539 -0.061708935184457012 0 -0.47994558802819348 -0.047005823565662672 0 -0.47467440808970551 -0.064504744973963274 0 -0.4772123176446787 -0.055977009102234992 0 -0.48087902390351539 -0.061708935184457012 0 -0.4772123176446787 -0.055977009102234992 0 -0.48087902390351539 -0.061708935184457012 0 -0.47994558802819348 -0.047005823565662672 0 -0.4772123176446787 -0.055977009102234992 0 -0.47994558802819348 -0.047005823565662672 0 -0.47548599156177251 -0.051103234162119329 0 -0.4772123176446787 -0.055977009102234992 0 -0.47548599156177251 -0.051103234162119329 0 -0.47270677368745279 -0.052716748964828808 0 -0.47994558802819348 -0.047005823565662672 0 -0.47548599156177251 -0.051103234162119329 0 -0.47207928688676531 -0.048713355015750859 0 -0.47270677368745279 -0.052716748964828808 0 -0.46985842894766378 -0.057893128646086228 0 -0.46769832495944741 -0.050039934347019782 0 -0.47548599156177251 -0.051103234162119329 0 -0.47270677368745279 -0.052716748964828808 0 -0.47207928688676531 -0.048713355015750859 0 -0.47207928688676531 -0.048713355015750859 0 -0.46769832495944741 -0.050039934347019782 0 -0.47270677368745279 -0.052716748964828808 0 -0.47207928688676531 -0.048713355015750859 0 -0.46769832495944741 -0.050039934347019782 0 -0.47467440808970551 -0.064504744973963274 0 -0.4772123176446787 -0.055977009102234992 0 -0.46985842894766378 -0.057893128646086228 0 -0.4772123176446787 -0.055977009102234992 0 -0.47270677368745279 -0.052716748964828808 0 -0.46985842894766378 -0.057893128646086228 0 -0.44965998089075088 -0.063991062752694075 0 -0.46769832495944741 -0.050039934347019782 0 -0.44965998089075088 -0.063991062752694075 0 -0.46186344691852138 -0.062500853921724039 0 -0.46769832495944741 -0.050039934347019782 0 -0.47515887513513172 -0.040749171619967793 0 -0.45650865417824182 -0.053428228111794783 0 -0.46769832495944741 -0.050039934347019782 0 -0.46186344691852138 -0.062500853921724039 0 -0.46985842894766378 -0.057893128646086228 0 -0.46769832495944741 -0.050039934347019782 0 -0.47515887513513172 -0.040749171619967793 0 -0.45650865417824182 -0.053428228111794783 0 -0.44965998089075088 -0.063991062752694075 0 -0.45650865417824182 -0.053428228111794783 0 -0.46769832495944741 -0.050039934347019782 0 -0.45650865417824182 -0.053428228111794783 0 -0.46769832495944741 -0.050039934347019782 0 -0.47515887513513172 -0.040749171619967793 0 -0.45650865417824182 -0.053428228111794783 0 -0.46647823916178638 -0.040502641487672852 0 -0.46647823916178638 -0.040502641487672852 0 -0.46852693659213751 -0.032213059083493027 0 -0.45982351065169552 -0.039780268418280217 0 -0.46852693659213751 -0.032213059083493027 0 -0.45982351065169552 -0.039780268418280217 0 -0.45342021397322207 -0.028937526062514429 0 -0.45982351065169552 -0.039780268418280217 0 -0.45078972508172122 -0.038307239623793378 0 -0.45342021397322207 -0.028937526062514429 0 -0.45650865417824182 -0.053428228111794783 0 -0.46647823916178638 -0.040502641487672852 0 -0.45982351065169552 -0.039780268418280217 0 -0.45650865417824182 -0.053428228111794783 0 -0.45982351065169552 -0.039780268418280217 0 -0.4512587717503645 -0.045506590208554167 0 -0.45982351065169552 -0.039780268418280217 0 -0.4512587717503645 -0.045506590208554167 0 -0.45078972508172122 -0.038307239623793378 0 -0.4512587717503645 -0.045506590208554167 0 -0.45078972508172122 -0.038307239623793378 0 -0.44296040302245288 -0.045044387782212827 0 -0.45078972508172122 -0.038307239623793378 0 -0.44203381585329021 -0.034529877006323123 0 -0.45342021397322207 -0.028937526062514429 0 -0.43050795897462502 -0.036720712534186607 0 -0.44203381585329021 -0.034529877006323123 0 -0.44296040302245288 -0.045044387782212827 0 -0.45078972508172122 -0.038307239623793378 0 -0.44203381585329021 -0.034529877006323123 0 -0.44296040302245288 -0.045044387782212827 0 -0.43633888711435559 -0.059535744348492847 0 -0.45650865417824182 -0.053428228111794783 0 -0.43633888711435559 -0.059535744348492847 0 -0.44037746000320982 -0.051450682806776088 0 -0.44621156581771121 -0.050972827106689628 0 -0.43360866226251371 -0.050155948018364163 0 -0.44296040302245288 -0.045044387782212827 0 -0.44037746000320982 -0.051450682806776088 0 -0.43633888711435559 -0.059535744348492847 0 -0.45650865417824182 -0.053428228111794783 0 -0.44621156581771121 -0.050972827106689628 0 -0.43819393610179158 -0.065879198299224923 0 -0.44965998089075088 -0.063991062752694075 0 -0.45650865417824182 -0.053428228111794783 0 -0.43633888711435559 -0.059535744348492847 0 -0.43819393610179158 -0.065879198299224923 0 -0.45650865417824182 -0.053428228111794783 0 -0.43819393610179158 -0.065879198299224923 0 -0.45650865417824182 -0.053428228111794783 0 -0.44296040302245288 -0.045044387782212827 0 -0.44037746000320982 -0.051450682806776088 0 -0.44621156581771121 -0.050972827106689628 0 -0.45650865417824182 -0.053428228111794783 0 -0.4512587717503645 -0.045506590208554167 0 -0.44621156581771121 -0.050972827106689628 0 -0.4512587717503645 -0.045506590208554167 0 -0.44296040302245288 -0.045044387782212827 0 -0.44621156581771121 -0.050972827106689628 0 -0.43750292856987771 -0.0080327908377407359 0 -0.44954943955365301 -0.014753570915027801 0 -0.44476814533965298 0.0056062015027024594 0 -0.44954943955365301 -0.014753570915027801 0 -0.46103531283589527 -0.0061540589586049077 0 -0.44476814533965298 0.0056062015027024594 0 -0.43750292856987771 -0.0080327908377407359 0 -0.44954943955365301 -0.014753570915027801 0 -0.43926081619733692 -0.02421171983610796 0 -0.44203381585329021 -0.034529877006323123 0 -0.43926081619733692 -0.02421171983610796 0 -0.45342021397322207 -0.028937526062514429 0 -0.44954943955365301 -0.014753570915027801 0 -0.43926081619733692 -0.02421171983610796 0 -0.45342021397322207 -0.028937526062514429 0 -0.44954943955365301 -0.014753570915027801 0 -0.45342021397322207 -0.028937526062514429 0 -0.46524492860964739 -0.019857952325712181 0 -0.46852693659213751 -0.032213059083493027 0 -0.45342021397322207 -0.028937526062514429 0 -0.46524492860964739 -0.019857952325712181 0 -0.44954943955365301 -0.014753570915027801 0 -0.46524492860964739 -0.019857952325712181 0 -0.46103531283589527 -0.0061540589586049077 0 -0.46103531283589527 -0.0061540589586049077 0 -0.48212096676509608 -0.01112162056432723 0 -0.46613475894563788 0.0097973445682716081 0 -0.46524492860964739 -0.019857952325712181 0 -0.46103531283589527 -0.0061540589586049077 0 -0.48212096676509608 -0.01112162056432723 0 -0.46524492860964739 -0.019857952325712181 0 -0.48212096676509608 -0.01112162056432723 0 -0.47704754067918431 -0.02556120730634007 0 -0.47734381324676872 -0.034770219645802972 0 -0.46852693659213751 -0.032213059083493027 0 -0.47704754067918431 -0.02556120730634007 0 -0.46852693659213751 -0.032213059083493027 0 -0.46524492860964739 -0.019857952325712181 0 -0.47704754067918431 -0.02556120730634007 0 -0.48212096676509608 -0.01112162056432723 0 -0.47704754067918431 -0.02556120730634007 0 -0.48830831268283642 -0.022238901230928629 0 -0.47734381324676872 -0.034770219645802972 0 -0.47704754067918431 -0.02556120730634007 0 -0.48260825760095949 -0.030988105327197979 0 -0.47704754067918431 -0.02556120730634007 0 -0.48260825760095949 -0.030988105327197979 0 -0.48830831268283642 -0.022238901230928629 0 -0.5 -0.031394678955629092 0 -0.48830831268283642 -0.022238901230928629 0 -0.5 -0.0017245094758792101 0 -0.48260825760095949 -0.030988105327197979 0 -0.49211876551819378 -0.031152795890146651 0 -0.48830831268283642 -0.022238901230928629 0 -0.5 -0.031394678955629092 0 -0.49211876551819378 -0.031152795890146651 0 -0.48830831268283642 -0.022238901230928629 0 -0.48212096676509608 -0.01112162056432723 0 -0.48830831268283642 -0.022238901230928629 0 -0.5 -0.0017245094758792101 0 -0.48212096676509608 -0.01112162056432723 0 -0.5 -0.0017245094758792101 0 -0.48344640735478661 0.01344279176462683 0 -0.5 -0.0017245094758792101 0 -0.5 0.027945660003870609 0 -0.48344640735478661 0.01344279176462683 0 -0.5 0.027945660003870609 0 -0.48344640735478661 0.01344279176462683 0 -0.48477184794447709 0.038007204093580847 0 -0.48344640735478661 0.01344279176462683 0 -0.46651872708663988 0.032390023774571432 0 -0.46613475894563788 0.0097973445682716081 0 -0.48344640735478661 0.01344279176462683 0 -0.48477184794447709 0.038007204093580847 0 -0.48344640735478661 0.01344279176462683 0 -0.48477184794447709 0.038007204093580847 0 -0.46651872708663988 0.032390023774571432 0 -0.48212096676509608 -0.01112162056432723 0 -0.48344640735478661 0.01344279176462683 0 -0.48212096676509608 -0.01112162056432723 0 -0.48344640735478661 0.01344279176462683 0 -0.46613475894563788 0.0097973445682716081 0 -0.48477184794447709 0.038007204093580847 0 -0.48609728853416762 0.062571616422534893 0 -0.5 0.057615829483620429 0 -0.48477184794447709 0.038007204093580847 0 -0.48609728853416762 0.062571616422534893 0 -0.5 0.027945660003870609 0 -0.5 0.057615829483620429 0 -0.48477184794447709 0.038007204093580847 0 -0.48477184794447709 0.038007204093580847 0 -0.47035459115214939 0.050047288110027677 0 -0.46651872708663988 0.032390023774571432 0 -0.47035459115214939 0.050047288110027677 0 -0.46295693674938498 0.06501415290523628 0 -0.48609728853416762 0.062571616422534893 0 -0.48477184794447709 0.038007204093580847 0 -0.47035459115214939 0.050047288110027677 0 -0.48609728853416762 0.062571616422534893 0 -0.47035459115214939 0.050047288110027677 0 -0.45142815544607751 0.052253443354214973 0 -0.46295693674938498 0.06501415290523628 0 -0.47035459115214939 0.050047288110027677 0 -0.46651872708663988 0.032390023774571432 0 -0.45142815544607751 0.052253443354214973 0 -0.46651872708663988 0.032390023774571432 0 -0.44669949391564762 0.035869439627446258 0 -0.45142815544607751 0.052253443354214973 0 -0.44669949391564762 0.035869439627446258 0 -0.45142815544607751 0.052253443354214973 0 -0.43410870771428117 0.04789351765649387 0 -0.44669949391564762 0.035869439627446258 0 -0.43431313420669743 0.032190062973862732 0 -0.43410870771428117 0.04789351765649387 0 -0.45142815544607751 0.052253443354214973 0 -0.43410870771428117 0.04789351765649387 0 -0.43537446521132989 0.063630267889554365 0 -0.46103531283589527 -0.0061540589586049077 0 -0.46613475894563788 0.0097973445682716081 0 -0.44476814533965298 0.0056062015027024594 0 -0.46613475894563788 0.0097973445682716081 0 -0.45028619131785252 0.021382834997483269 0 -0.44476814533965298 0.0056062015027024594 0 -0.46651872708663988 0.032390023774571432 0 -0.46613475894563788 0.0097973445682716081 0 -0.45028619131785252 0.021382834997483269 0 -0.46651872708663988 0.032390023774571432 0 -0.44669949391564762 0.035869439627446258 0 -0.45028619131785252 0.021382834997483269 0 -0.45028619131785252 0.021382834997483269 0 -0.43363889095919322 0.01885587414506977 0 -0.43431313420669743 0.032190062973862732 0 -0.44669949391564762 0.035869439627446258 0 -0.45028619131785252 0.021382834997483269 0 -0.43431313420669743 0.032190062973862732 0 -0.45028619131785252 0.021382834997483269 0 -0.44476814533965298 0.0056062015027024594 0 -0.43363889095919322 0.01885587414506977 0 -0.44476814533965298 0.0056062015027024594 0 -0.42179984078102162 0.0069615437006136736 0 -0.43363889095919322 0.01885587414506977 0 -0.43750292856987771 -0.0080327908377407359 0 -0.44476814533965298 0.0056062015027024594 0 -0.42179984078102162 0.0069615437006136736 0 -0.42179984078102162 0.0069615437006136736 0 -0.4176353209380837 0.018304097878975249 0 -0.43363889095919322 0.01885587414506977 0 -0.42179984078102162 0.0069615437006136736 0 -0.40381377242841832 0.016408577699571689 0 -0.40609675299216619 0.021955878238968881 0 -0.42179984078102162 0.0069615437006136736 0 -0.40609675299216619 0.021955878238968881 0 -0.41095594190898349 -0.001080987735907946 0 -0.42179984078102162 0.0069615437006136736 0 -0.40381377242841832 0.016408577699571689 0 -0.42179984078102162 0.0069615437006136736 0 -0.4176353209380837 0.018304097878975249 0 -0.40609675299216619 0.021955878238968881 0 -0.40733043269229929 0.0249535349753672 0 -0.42163274806949302 0.029706612388518908 0 -0.41189670142341139 0.035108170664472971 0 -0.40733043269229929 0.0249535349753672 0 -0.41189670142341139 0.035108170664472971 0 -0.40466889369785181 0.023319291614765671 0 -0.42163274806949302 0.029706612388518908 0 -0.40609675299216619 0.021955878238968881 0 -0.40733043269229929 0.0249535349753672 0 -0.42163274806949302 0.029706612388518908 0 -0.40609675299216619 0.021955878238968881 0 -0.40733043269229929 0.0249535349753672 0 -0.40609675299216619 0.021955878238968881 0 -0.4176353209380837 0.018304097878975249 0 -0.42163274806949302 0.029706612388518908 0 -0.40609675299216619 0.021955878238968881 0 -0.4176353209380837 0.018304097878975249 0 -0.42163274806949302 0.029706612388518908 0 -0.43363889095919322 0.01885587414506977 0 -0.42163274806949302 0.029706612388518908 0 -0.43363889095919322 0.01885587414506977 0 -0.43431313420669743 0.032190062973862732 0 -0.43431313420669743 0.032190062973862732 0 -0.42197328675839751 0.042038373052677713 0 -0.43410870771428117 0.04789351765649387 0 -0.42163274806949302 0.029706612388518908 0 -0.43431313420669743 0.032190062973862732 0 -0.42197328675839751 0.042038373052677713 0 -0.43410870771428117 0.04789351765649387 0 -0.42207516221556679 0.058601141899504307 0 -0.43537446521132989 0.063630267889554365 0 -0.42197328675839751 0.042038373052677713 0 -0.43410870771428117 0.04789351765649387 0 -0.42207516221556679 0.058601141899504307 0 -0.42207516221556679 0.058601141899504307 0 -0.40781326692093528 0.048730732733213468 0 -0.41095764014401848 0.074142173851661386 0 -0.42197328675839751 0.042038373052677713 0 -0.42207516221556679 0.058601141899504307 0 -0.40781326692093528 0.048730732733213468 0 -0.40781326692093528 0.048730732733213468 0 -0.41095764014401848 0.074142173851661386 0 -0.40781326692093528 0.048730732733213468 0 -0.41189670142341139 0.035108170664472971 0 -0.40466889369785181 0.023319291614765671 0 -0.42163274806949302 0.029706612388518908 0 -0.42197328675839751 0.042038373052677713 0 -0.41189670142341139 0.035108170664472971 0 -0.42197328675839751 0.042038373052677713 0 -0.40781326692093528 0.048730732733213468 0 -0.41189670142341139 0.035108170664472971 0 -0.40781326692093528 0.048730732733213468 0 -0.38680613873706848 0.040375817519734541 0 -0.40466889369785181 0.023319291614765671 0 -0.38680613873706848 0.040375817519734541 0 -0.40466889369785181 0.023319291614765671 0 -0.40781326692093528 0.048730732733213468 0 -0.40466889369785181 0.023319291614765671 0 -0.40781326692093528 0.048730732733213468 0 -0.3918495009238373 0.061784521423250888 0 -0.41095764014401848 0.074142173851661386 0 -0.40781326692093528 0.048730732733213468 0 -0.3918495009238373 0.061784521423250888 0 -0.38680613873706848 0.040375817519734541 0 -0.38680613873706848 0.040375817519734541 0 -0.36894338377628538 0.057432343424703762 0 -0.3918495009238373 0.061784521423250888 0 -0.38680613873706848 0.040375817519734541 0 -0.36894338377628538 0.057432343424703762 0 -0.38680613873706848 0.040375817519734541 0 -0.3885421905587082 0.024312119753535439 0 -0.3696419027503216 0.02968447991603675 0 -0.38680613873706848 0.040375817519734541 0 -0.3696419027503216 0.02968447991603675 0 -0.36894338377628538 0.057432343424703762 0 -0.3885421905587082 0.024312119753535439 0 -0.37806065247028958 0.0085325943664184174 0 -0.3696419027503216 0.02968447991603675 0 -0.3885421905587082 0.024312119753535439 0 -0.37806065247028958 0.0085325943664184174 0 -0.40442449901408423 0.021344201294506499 0 -0.37806065247028958 0.0085325943664184174 0 -0.38821138269637168 0.0018559908871665831 0 -0.40381377242841832 0.016408577699571689 0 -0.37856321670115062 -0.0062111997374066277 0 -0.37806065247028958 0.0085325943664184174 0 -0.38821138269637168 0.0018559908871665831 0 -0.39240788918562908 -0.011306008779917449 0 -0.40381377242841832 0.016408577699571689 0 -0.41095594190898349 -0.001080987735907946 0 -0.40016422766839671 -0.01308543754570362 0 -0.40381377242841832 0.016408577699571689 0 -0.39240788918562908 -0.011306008779917449 0 -0.38821138269637168 0.0018559908871665831 0 -0.40381377242841832 0.016408577699571689 0 -0.37806065247028958 0.0085325943664184174 0 -0.40381377242841832 0.016408577699571689 0 -0.40442449901408423 0.021344201294506499 0 -0.40016422766839671 -0.01308543754570362 0 -0.40381377242841832 0.016408577699571689 0 -0.37806065247028958 0.0085325943664184174 0 -0.40442449901408423 0.021344201294506499 0 -0.38680613873706848 0.040375817519734541 0 -0.3885421905587082 0.024312119753535439 0 -0.40466889369785181 0.023319291614765671 0 -0.40381377242841832 0.016408577699571689 0 -0.40442449901408423 0.021344201294506499 0 -0.40381377242841832 0.016408577699571689 0 -0.40609675299216619 0.021955878238968881 0 -0.3885421905587082 0.024312119753535439 0 -0.40442449901408423 0.021344201294506499 0 -0.40466889369785181 0.023319291614765671 0 -0.40381377242841832 0.016408577699571689 0 -0.40442449901408423 0.021344201294506499 0 -0.40609675299216619 0.021955878238968881 0 -0.40442449901408423 0.021344201294506499 0 -0.40466889369785181 0.023319291614765671 0 -0.40609675299216619 0.021955878238968881 0 -0.40733043269229929 0.0249535349753672 0 -0.40466889369785181 0.023319291614765671 0 -0.40609675299216619 0.021955878238968881 0 -0.40442449901408423 0.021344201294506499 0 -0.40466889369785181 0.023319291614765671 0 -0.40442449901408423 0.021344201294506499 0 -0.40609675299216619 0.021955878238968881 0 -0.40466889369785181 0.023319291614765671 0 -0.40609675299216619 0.021955878238968881 0 -0.39451154792274551 0.098497711325463089 0 -0.41021726903307421 0.086215438003113903 0 -0.40803940952445311 0.098896399518324352 0 -0.39451154792274551 0.098497711325463089 0 -0.40052658996143398 0.1079120391217472 0 -0.39113203992261852 0.1119612421485069 0 -0.39451154792274551 0.098497711325463089 0 -0.40052658996143398 0.1079120391217472 0 -0.40803940952445311 0.098896399518324352 0 -0.40072431757585592 0.1211429583718089 0 -0.39113203992261852 0.1119612421485069 0 -0.38807465235760458 0.12815064112092051 0 -0.40052658996143398 0.1079120391217472 0 -0.40072431757585592 0.1211429583718089 0 -0.41681768731971008 0.11239348365750459 0 -0.40052658996143398 0.1079120391217472 0 -0.40072431757585592 0.1211429583718089 0 -0.39113203992261852 0.1119612421485069 0 -0.38807465235760458 0.12815064112092051 0 -0.37205890261719698 0.12534442193340839 0 -0.37341080733174492 0.106876175979226 0 -0.38807465235760458 0.12815064112092051 0 -0.37341080733174492 0.106876175979226 0 -0.39113203992261852 0.1119612421485069 0 -0.38807465235760458 0.12815064112092051 0 -0.37341080733174492 0.106876175979226 0 -0.39451154792274551 0.098497711325463089 0 -0.38448211566947949 0.085908574420322875 0 -0.37341080733174492 0.106876175979226 0 -0.39451154792274551 0.098497711325463089 0 -0.39113203992261852 0.1119612421485069 0 -0.37341080733174492 0.106876175979226 0 -0.38448211566947949 0.085908574420322875 0 -0.38079289428464791 0.071755676530432716 0 -0.36676293765693069 0.073083878403428823 0 -0.3918495009238373 0.061784521423250888 0 -0.38079289428464791 0.071755676530432716 0 -0.36894338377628538 0.057432343424703762 0 -0.38448211566947949 0.085908574420322875 0 -0.38079289428464791 0.071755676530432716 0 -0.39551054998643931 0.076145588371144379 0 -0.3918495009238373 0.061784521423250888 0 -0.38079289428464791 0.071755676530432716 0 -0.39551054998643931 0.076145588371144379 0 -0.3918495009238373 0.061784521423250888 0 -0.39551054998643931 0.076145588371144379 0 -0.41095764014401848 0.074142173851661386 0 -0.39451154792274551 0.098497711325463089 0 -0.38448211566947949 0.085908574420322875 0 -0.41021726903307421 0.086215438003113903 0 -0.38448211566947949 0.085908574420322875 0 -0.41021726903307421 0.086215438003113903 0 -0.38448211566947949 0.085908574420322875 0 -0.39551054998643931 0.076145588371144379 0 -0.41021726903307421 0.086215438003113903 0 -0.39551054998643931 0.076145588371144379 0 -0.41021726903307421 0.086215438003113903 0 -0.41095764014401848 0.074142173851661386 0 -0.41021726903307421 0.086215438003113903 0 -0.41843184667960598 0.092289825999819053 0 -0.43595242239666882 0.086522301585904945 0 -0.41021726903307421 0.086215438003113903 0 -0.41843184667960598 0.092289825999819053 0 -0.40803940952445311 0.098896399518324352 0 -0.41021726903307421 0.086215438003113903 0 -0.41095764014401848 0.074142173851661386 0 -0.42437156477577709 0.074285064119808675 0 -0.42207516221556679 0.058601141899504307 0 -0.41095764014401848 0.074142173851661386 0 -0.42437156477577709 0.074285064119808675 0 -0.42207516221556679 0.058601141899504307 0 -0.42437156477577709 0.074285064119808675 0 -0.43537446521132989 0.063630267889554365 0 -0.42437156477577709 0.074285064119808675 0 -0.4360658679373377 0.074127529612158127 0 -0.43537446521132989 0.063630267889554365 0 -0.41021726903307421 0.086215438003113903 0 -0.43595242239666882 0.086522301585904945 0 -0.41021726903307421 0.086215438003113903 0 -0.42437156477577709 0.074285064119808675 0 -0.43595242239666882 0.086522301585904945 0 -0.42437156477577709 0.074285064119808675 0 -0.4360658679373377 0.074127529612158127 0 -0.43595242239666882 0.086522301585904945 0 -0.41843184667960598 0.092289825999819053 0 -0.41681768731971008 0.11239348365750459 0 -0.43738287551358179 0.1156141181463565 0 -0.41843184667960598 0.092289825999819053 0 -0.43738287551358179 0.1156141181463565 0 -0.41843184667960598 0.092289825999819053 0 -0.43595242239666882 0.086522301585904945 0 -0.43738287551358179 0.1156141181463565 0 -0.41843184667960598 0.092289825999819053 0 -0.40803940952445311 0.098896399518324352 0 -0.41681768731971008 0.11239348365750459 0 -0.40052658996143398 0.1079120391217472 0 -0.40803940952445311 0.098896399518324352 0 -0.41681768731971008 0.11239348365750459 0 -0.40072431757585592 0.1211429583718089 0 -0.41681768731971008 0.11239348365750459 0 -0.41178512437923009 0.12861541019524181 0 -0.41681768731971008 0.11239348365750459 0 -0.41178512437923009 0.12861541019524181 0 -0.4276073250068857 0.13074422835108729 0 -0.41681768731971008 0.11239348365750459 0 -0.43738287551358179 0.1156141181463565 0 -0.4276073250068857 0.13074422835108729 0 -0.43738287551358179 0.1156141181463565 0 -0.45642928509606118 0.10821387989438561 0 -0.45633390434755738 0.138938410292894 0 -0.43595242239666882 0.086522301585904945 0 -0.43738287551358179 0.1156141181463565 0 -0.45642928509606118 0.10821387989438561 0 -0.43595242239666882 0.086522301585904945 0 -0.45642928509606118 0.10821387989438561 0 -0.46168757576026348 0.086829165168695988 0 -0.45642928509606118 0.10821387989438561 0 -0.46168757576026348 0.086829165168695988 0 -0.47479856820644623 0.1009868647260643 0 -0.45642928509606118 0.10821387989438561 0 -0.47242036435184948 0.120392419446398 0 -0.47479856820644623 0.1009868647260643 0 -0.45642928509606118 0.10821387989438561 0 -0.47242036435184948 0.120392419446398 0 -0.45633390434755738 0.138938410292894 0 -0.45142815544607751 0.052253443354214973 0 -0.43537446521132989 0.063630267889554365 0 -0.44856501936557508 0.072072484853364538 0 -0.4360658679373377 0.074127529612158127 0 -0.43537446521132989 0.063630267889554365 0 -0.44856501936557508 0.072072484853364538 0 -0.4360658679373377 0.074127529612158127 0 -0.43595242239666882 0.086522301585904945 0 -0.44856501936557508 0.072072484853364538 0 -0.43595242239666882 0.086522301585904945 0 -0.46168757576026348 0.086829165168695988 0 -0.43595242239666882 0.086522301585904945 0 -0.44856501936557508 0.072072484853364538 0 -0.46168757576026348 0.086829165168695988 0 -0.44856501936557508 0.072072484853364538 0 -0.46168757576026348 0.086829165168695988 0 -0.46295693674938498 0.06501415290523628 0 -0.45142815544607751 0.052253443354214973 0 -0.44856501936557508 0.072072484853364538 0 -0.46295693674938498 0.06501415290523628 0 -0.46168757576026348 0.086829165168695988 0 -0.46295693674938498 0.06501415290523628 0 -0.47469201042641967 0.075504984711507989 0 -0.47469201042641967 0.075504984711507989 0 -0.48742272912385809 0.087136028751488903 0 -0.48609728853416762 0.062571616422534893 0 -0.46295693674938498 0.06501415290523628 0 -0.47469201042641967 0.075504984711507989 0 -0.48609728853416762 0.062571616422534893 0 -0.46168757576026348 0.086829165168695988 0 -0.48742272912385809 0.087136028751488903 0 -0.46168757576026348 0.086829165168695988 0 -0.48742272912385809 0.087136028751488903 0 -0.47479856820644623 0.1009868647260643 0 -0.46168757576026348 0.086829165168695988 0 -0.47469201042641967 0.075504984711507989 0 -0.48742272912385809 0.087136028751488903 0 -0.48742272912385809 0.087136028751488903 0 -0.50000000000000211 0.087285998963370304 0 -0.48780025484542577 0.09413271918145652 0 -0.48742272912385809 0.087136028751488903 0 -0.48780025484542577 0.09413271918145652 0 -0.48742272912385809 0.087136028751488903 0 -0.50000000000000211 0.087285998963370304 0 -0.48742272912385809 0.087136028751488903 0 -0.50000000000000211 0.087285998963370304 0 -0.49338000441450641 0.073652368405253632 0 -0.48742272912385809 0.087136028751488903 0 -0.48609728853416762 0.062571616422534893 0 -0.5 0.057615829483620429 0 -0.48609728853416762 0.062571616422534893 0 -0.49338000441450641 0.073652368405253632 0 -0.5 0.057615829483620429 0 -0.50000000000000211 0.087285998963370304 0 -0.49338000441450641 0.073652368405253632 0 -0.48742272912385809 0.087136028751488903 0 -0.48609728853416762 0.062571616422534893 0 -0.49338000441450641 0.073652368405253632 0 -0.47242036435184948 0.120392419446398 0 -0.47479856820644623 0.1009868647260643 0 -0.48446018816683151 0.11066777076427591 0 -0.47242036435184948 0.120392419446398 0 -0.48446018816683151 0.11066777076427591 0 -0.48725832795725271 0.1256035641160699 0 -0.47479856820644623 0.1009868647260643 0 -0.48780025484542577 0.09413271918145652 0 -0.48446018816683151 0.11066777076427591 0 -0.48742272912385809 0.087136028751488903 0 -0.47479856820644623 0.1009868647260643 0 -0.48780025484542577 0.09413271918145652 0 -0.48780025484542577 0.09413271918145652 0 -0.5 0.11406290466888259 0 -0.48446018816683151 0.11066777076427591 0 -0.50000000000000211 0.087285998963370304 0 -0.48780025484542577 0.09413271918145652 0 -0.5 0.11406290466888259 0 -0.5 0.11406290466888259 0 -0.48446018816683151 0.11066777076427591 0 -0.48725832795725271 0.1256035641160699 0 -0.48725832795725271 0.1256035641160699 0 -0.47941108726758219 0.14205491532639791 0 -0.5 0.140839810374395 0 -0.5 0.11406290466888259 0 -0.48725832795725271 0.1256035641160699 0 -0.5 0.140839810374395 0 -0.47242036435184948 0.120392419446398 0 -0.48725832795725271 0.1256035641160699 0 -0.47941108726758219 0.14205491532639791 0 -0.47242036435184948 0.120392419446398 0 -0.47941108726758219 0.14205491532639791 0 -0.45633390434755738 0.138938410292894 0 -0.47941108726758219 0.14205491532639791 0 -0.47528493318153309 0.16226270243943139 0 -0.45633390434755738 0.138938410292894 0 -0.47941108726758219 0.14205491532639791 0 -0.4873167409054297 0.16110433652773309 0 -0.47528493318153309 0.16226270243943139 0 -0.47941108726758219 0.14205491532639791 0 -0.5 0.140839810374395 0 -0.4873167409054297 0.16110433652773309 0 -0.5 0.140839810374395 0 -0.5 0.1676167160799073 0 -0.4873167409054297 0.16110433652773309 0 -0.5 0.1676167160799073 0 -0.48845246803749193 0.17136439964139691 0 -0.4873167409054297 0.16110433652773309 0 -0.5 0.1676167160799073 0 -0.48845246803749193 0.17136439964139691 0 -0.48921484571333029 0.1836864249815342 0 -0.5 0.1676167160799073 0 -0.48921484571333029 0.1836864249815342 0 -0.5 0.1943936217854195 0 -0.48845246803749193 0.17136439964139691 0 -0.48921484571333029 0.1836864249815342 0 -0.47727828553120782 0.17305012097641309 0 -0.48921484571333029 0.1836864249815342 0 -0.47727828553120782 0.17305012097641309 0 -0.46723983015698711 0.18499590542509409 0 -0.48921484571333029 0.1836864249815342 0 -0.46723983015698711 0.18499590542509409 0 -0.47727828553120782 0.17305012097641309 0 -0.46429063470495657 0.1698721630866549 0 -0.46723983015698711 0.18499590542509409 0 -0.47727828553120782 0.17305012097641309 0 -0.46723983015698711 0.18499590542509409 0 -0.4873167409054297 0.16110433652773309 0 -0.47727828553120782 0.17305012097641309 0 -0.4873167409054297 0.16110433652773309 0 -0.47727828553120782 0.17305012097641309 0 -0.47528493318153309 0.16226270243943139 0 -0.48845246803749193 0.17136439964139691 0 -0.4873167409054297 0.16110433652773309 0 -0.47727828553120782 0.17305012097641309 0 -0.47727828553120782 0.17305012097641309 0 -0.47528493318153309 0.16226270243943139 0 -0.46429063470495657 0.1698721630866549 0 -0.47528493318153309 0.16226270243943139 0 -0.46429063470495657 0.1698721630866549 0 -0.45633390434755738 0.138938410292894 0 -0.46429063470495657 0.1698721630866549 0 -0.44908450960876878 0.1670294118864678 0 -0.45633390434755738 0.138938410292894 0 -0.46429063470495657 0.1698721630866549 0 -0.46723983015698711 0.18499590542509409 0 -0.44908450960876878 0.1670294118864678 0 -0.46723983015698711 0.18499590542509409 0 -0.43772504471926782 0.1867546770731742 0 -0.44908450960876878 0.1670294118864678 0 -0.46723983015698711 0.18499590542509409 0 -0.43772504471926782 0.1867546770731742 0 -0.44908450960876878 0.1670294118864678 0 -0.44210390145776718 0.1536033430573196 0 -0.43112977325414309 0.16142052265032841 0 -0.44908450960876878 0.1670294118864678 0 -0.44210390145776718 0.1536033430573196 0 -0.45633390434755738 0.138938410292894 0 -0.44210390145776718 0.1536033430573196 0 -0.45633390434755738 0.138938410292894 0 -0.42879385042031631 0.1471568447716084 0 -0.43738287551358179 0.1156141181463565 0 -0.45633390434755738 0.138938410292894 0 -0.45633390434755738 0.138938410292894 0 -0.4276073250068857 0.13074422835108729 0 -0.42879385042031631 0.1471568447716084 0 -0.43738287551358179 0.1156141181463565 0 -0.45633390434755738 0.138938410292894 0 -0.4276073250068857 0.13074422835108729 0 -0.47528493318153309 0.16226270243943139 0 -0.45633390434755738 0.138938410292894 0 -0.46913805824963989 0.24058525317361659 0 -0.48561681367344928 0.2442472559425746 0 -0.4672561292369326 0.25221108972118023 0 -0.46913805824963989 0.24058525317361659 0 -0.48561681367344928 0.2442472559425746 0 -0.47823413727138198 0.22914779519317971 0 -0.48561681367344928 0.2442472559425746 0 -0.5 0.24369554624323531 0 -0.50000000000000355 0.22117052749093169 0 -0.48561681367344928 0.2442472559425746 0 -0.50000000000000355 0.22117052749093169 0 -0.47823413727138198 0.22914779519317971 0 -0.50000000000000355 0.22117052749093169 0 -0.47823413727138198 0.22914779519317971 0 -0.48393187365212348 0.21545101916744799 0 -0.48561681367344928 0.2442472559425746 0 -0.50000000000000355 0.22117052749093169 0 -0.47823413727138198 0.22914779519317971 0 -0.46999191258620782 0.2151371143257062 0 -0.48393187365212348 0.21545101916744799 0 -0.46999191258620782 0.2151371143257062 0 -0.478020858228485 0.20485334902766639 0 -0.46828584846024068 0.2003429296683237 0 -0.478020858228485 0.20485334902766639 0 -0.48393187365212348 0.21545101916744799 0 -0.48858550249770438 0.20265520248853491 0 -0.46999191258620782 0.2151371143257062 0 -0.478020858228485 0.20485334902766639 0 -0.48393187365212348 0.21545101916744799 0 -0.50000000000000355 0.22117052749093169 0 -0.48393187365212348 0.21545101916744799 0 -0.48858550249770438 0.20265520248853491 0 -0.50000000000000355 0.22117052749093169 0 -0.5 0.1943936217854195 0 -0.48858550249770438 0.20265520248853491 0 -0.48921484571333029 0.1836864249815342 0 -0.5 0.1943936217854195 0 -0.48858550249770438 0.20265520248853491 0 -0.48921484571333029 0.1836864249815342 0 -0.48858550249770438 0.20265520248853491 0 -0.47793195855386839 0.1942307188225989 0 -0.48921484571333029 0.1836864249815342 0 -0.46723983015698711 0.18499590542509409 0 -0.47793195855386839 0.1942307188225989 0 -0.478020858228485 0.20485334902766639 0 -0.48858550249770438 0.20265520248853491 0 -0.47793195855386839 0.1942307188225989 0 -0.478020858228485 0.20485334902766639 0 -0.47793195855386839 0.1942307188225989 0 -0.46828584846024068 0.2003429296683237 0 -0.46723983015698711 0.18499590542509409 0 -0.47793195855386839 0.1942307188225989 0 -0.46828584846024068 0.2003429296683237 0 -0.46723983015698711 0.18499590542509409 0 -0.45208343573797499 0.2030320488355245 0 -0.46723983015698711 0.18499590542509409 0 -0.46828584846024068 0.2003429296683237 0 -0.45208343573797499 0.2030320488355245 0 -0.43772504471926782 0.1867546770731742 0 -0.45208343573797499 0.2030320488355245 0 -0.43728631483445102 0.20598380956186371 0 -0.46723983015698711 0.18499590542509409 0 -0.43772504471926782 0.1867546770731742 0 -0.45208343573797499 0.2030320488355245 0 -0.45208343573797499 0.2030320488355245 0 -0.43692704131896398 0.22106819224595561 0 -0.43728631483445102 0.20598380956186371 0 -0.45208343573797499 0.2030320488355245 0 -0.45758058929517309 0.22510799371956741 0 -0.43692704131896398 0.22106819224595561 0 -0.45208343573797499 0.2030320488355245 0 -0.43692704131896398 0.22106819224595561 0 -0.46999191258620782 0.2151371143257062 0 -0.45208343573797499 0.2030320488355245 0 -0.45758058929517309 0.22510799371956741 0 -0.46999191258620782 0.2151371143257062 0 -0.46828584846024068 0.2003429296683237 0 -0.45208343573797499 0.2030320488355245 0 -0.46913805824963989 0.24058525317361659 0 -0.47823413727138198 0.22914779519317971 0 -0.45758058929517309 0.22510799371956741 0 -0.47823413727138198 0.22914779519317971 0 -0.46999191258620782 0.2151371143257062 0 -0.45758058929517309 0.22510799371956741 0 -0.47823413727138198 0.22914779519317971 0 -0.45758058929517309 0.22510799371956741 0 -0.45758058929517309 0.22510799371956741 0 -0.44241188496210571 0.23653576447885041 0 -0.43692704131896398 0.22106819224595561 0 -0.45758058929517309 0.22510799371956741 0 -0.43692704131896398 0.22106819224595561 0 -0.45758058929517309 0.22510799371956741 0 -0.44241188496210571 0.23653576447885041 0 -0.45526186327168211 0.24550605657883631 0 -0.44241188496210571 0.23653576447885041 0 -0.45526186327168211 0.24550605657883631 0 -0.44049729821595962 0.25191840735536908 0 -0.46913805824963989 0.24058525317361659 0 -0.45758058929517309 0.22510799371956741 0 -0.45526186327168211 0.24550605657883631 0 -0.46913805824963989 0.24058525317361659 0 -0.45526186327168211 0.24550605657883631 0 -0.4672561292369326 0.25221108972118023 0 -0.42179263270874978 0.23907817249452379 0 -0.40233344815013938 0.24512016267852621 0 -0.4066582240985353 0.25708815274309199 0 -0.42179263270874978 0.23907817249452379 0 -0.39802669043169708 0.232631192127357 0 -0.40233344815013938 0.24512016267852621 0 -0.42179263270874978 0.23907817249452379 0 -0.4066582240985353 0.25708815274309199 0 -0.44241188496210571 0.23653576447885041 0 -0.42179263270874978 0.23907817249452379 0 -0.44049729821595962 0.25191840735536908 0 -0.42179263270874978 0.23907817249452379 0 -0.44049729821595962 0.25191840735536908 0 -0.42677411935698639 0.258100481499486 0 -0.43692704131896398 0.22106819224595561 0 -0.41675349246166499 0.21712227784443999 0 -0.42179263270874978 0.23907817249452379 0 -0.43692704131896398 0.22106819224595561 0 -0.41675349246166499 0.21712227784443999 0 -0.42179263270874978 0.23907817249452379 0 -0.43692704131896398 0.22106819224595561 0 -0.44241188496210571 0.23653576447885041 0 -0.42179263270874978 0.23907817249452379 0 -0.43692704131896398 0.22106819224595561 0 -0.42179263270874978 0.23907817249452379 0 -0.41675349246166499 0.21712227784443999 0 -0.39802669043169708 0.232631192127357 0 -0.41675349246166499 0.21712227784443999 0 -0.40756128689041171 0.20384493914231799 0 -0.3965799436043661 0.21317636344292501 0 -0.41675349246166499 0.21712227784443999 0 -0.40756128689041171 0.20384493914231799 0 -0.42367329862796382 0.1994758553379172 0 -0.41675349246166499 0.21712227784443999 0 -0.3965799436043661 0.21317636344292501 0 -0.41675349246166499 0.21712227784443999 0 -0.43728631483445102 0.20598380956186371 0 -0.42367329862796382 0.1994758553379172 0 -0.43692704131896398 0.22106819224595561 0 -0.41675349246166499 0.21712227784443999 0 -0.43728631483445102 0.20598380956186371 0 -0.43772504471926782 0.1867546770731742 0 -0.42367329862796382 0.1994758553379172 0 -0.4082102592815483 0.18851344872125331 0 -0.43772504471926782 0.1867546770731742 0 -0.43728631483445102 0.20598380956186371 0 -0.42367329862796382 0.1994758553379172 0 -0.43772504471926782 0.1867546770731742 0 -0.4082102592815483 0.18851344872125331 0 -0.40756128689041171 0.20384493914231799 0 -0.42367329862796382 0.1994758553379172 0 -0.4082102592815483 0.18851344872125331 0 -0.4082102592815483 0.18851344872125331 0 -0.37869547384382879 0.19027222036933231 0 -0.4082102592815483 0.18851344872125331 0 -0.37869547384382879 0.19027222036933231 0 -0.38997676822880439 0.20083230937828331 0 -0.40756128689041171 0.20384493914231799 0 -0.4082102592815483 0.18851344872125331 0 -0.38997676822880439 0.20083230937828331 0 -0.37869547384382879 0.19027222036933231 0 -0.38997676822880439 0.20083230937828331 0 -0.37110091488174979 0.19990421505907591 0 -0.38997676822880439 0.20083230937828331 0 -0.37640639474706711 0.20923044904140989 0 -0.3965799436043661 0.21317636344292501 0 -0.37640639474706711 0.20923044904140989 0 -0.3819215625419603 0.21813942706575509 0 -0.3965799436043661 0.21317636344292501 0 -0.37640639474706711 0.20923044904140989 0 -0.3965799436043661 0.21317636344292501 0 -0.38997676822880439 0.20083230937828331 0 -0.37640639474706711 0.20923044904140989 0 -0.37110091488174979 0.19990421505907591 0 -0.37640639474706711 0.20923044904140989 0 -0.3819215625419603 0.21813942706575509 0 -0.37376225349947251 0.21861535927752759 0 -0.40756128689041171 0.20384493914231799 0 -0.38997676822880439 0.20083230937828331 0 -0.3965799436043661 0.21317636344292501 0 -0.3965799436043661 0.21317636344292501 0 -0.39802669043169708 0.232631192127357 0 -0.38607617038021019 0.22521347330171809 0 -0.41675349246166499 0.21712227784443999 0 -0.3965799436043661 0.21317636344292501 0 -0.39802669043169708 0.232631192127357 0 -0.3819215625419603 0.21813942706575509 0 -0.3965799436043661 0.21317636344292501 0 -0.38607617038021019 0.22521347330171809 0 -0.3819215625419603 0.21813942706575509 0 -0.38607617038021019 0.22521347330171809 0 -0.377861288483194 0.22397015548625621 0 -0.3819215625419603 0.21813942706575509 0 -0.377861288483194 0.22397015548625621 0 -0.37376225349947251 0.21861535927752759 0 -0.377861288483194 0.22397015548625621 0 -0.37784543795671027 0.23105255662673399 0 -0.36970101803761668 0.2268299611595464 0 -0.38607617038021019 0.22521347330171809 0 -0.377861288483194 0.22397015548625621 0 -0.37784543795671027 0.23105255662673399 0 -0.39802669043169708 0.232631192127357 0 -0.38607617038021019 0.22521347330171809 0 -0.38636623372772161 0.23396950409570019 0 -0.38607617038021019 0.22521347330171809 0 -0.37784543795671027 0.23105255662673399 0 -0.38636623372772161 0.23396950409570019 0 -0.38636623372772161 0.23396950409570019 0 -0.39004569220240831 0.24126750641111841 0 -0.37983717766758179 0.23968279201157339 0 -0.37784543795671027 0.23105255662673399 0 -0.38636623372772161 0.23396950409570019 0 -0.37983717766758179 0.23968279201157339 0 -0.37784543795671027 0.23105255662673399 0 -0.37983717766758179 0.23968279201157339 0 -0.37008766517350911 0.23663271088939039 0 -0.37983717766758179 0.23968279201157339 0 -0.38268861145850158 0.2488935399661229 0 -0.37226323271995287 0.2464569405446172 0 -0.39004569220240831 0.24126750641111841 0 -0.38268861145850158 0.2488935399661229 0 -0.39163641889966783 0.25041101776561309 0 -0.39004569220240831 0.24126750641111841 0 -0.37983717766758179 0.23968279201157339 0 -0.38268861145850158 0.2488935399661229 0 -0.39004569220240831 0.24126750641111841 0 -0.40233344815013938 0.24512016267852621 0 -0.39163641889966783 0.25041101776561309 0 -0.39802669043169708 0.232631192127357 0 -0.39004569220240831 0.24126750641111841 0 -0.40233344815013938 0.24512016267852621 0 -0.39802669043169708 0.232631192127357 0 -0.38636623372772161 0.23396950409570019 0 -0.39004569220240831 0.24126750641111841 0 -0.41453050806091862 0.14174710304291879 0 -0.41871586972413272 0.15427033169373999 0 -0.40273849738346451 0.1494251062626149 0 -0.41453050806091862 0.14174710304291879 0 -0.41871586972413272 0.15427033169373999 0 -0.42879385042031631 0.1471568447716084 0 -0.41453050806091862 0.14174710304291879 0 -0.40273849738346451 0.1494251062626149 0 -0.40357061995141469 0.133816243798701 0 -0.41453050806091862 0.14174710304291879 0 -0.41178512437923009 0.12861541019524181 0 -0.4276073250068857 0.13074422835108729 0 -0.41453050806091862 0.14174710304291879 0 -0.41178512437923009 0.12861541019524181 0 -0.40357061995141469 0.133816243798701 0 -0.41453050806091862 0.14174710304291879 0 -0.4276073250068857 0.13074422835108729 0 -0.42879385042031631 0.1471568447716084 0 -0.41871586972413272 0.15427033169373999 0 -0.42879385042031631 0.1471568447716084 0 -0.43112977325414309 0.16142052265032841 0 -0.44210390145776718 0.1536033430573196 0 -0.42879385042031631 0.1471568447716084 0 -0.43112977325414309 0.16142052265032841 0 -0.41871586972413272 0.15427033169373999 0 -0.43112977325414309 0.16142052265032841 0 -0.41740234240932428 0.17069957140430941 0 -0.44908450960876878 0.1670294118864678 0 -0.43112977325414309 0.16142052265032841 0 -0.42546194522890279 0.1753622421393253 0 -0.43112977325414309 0.16142052265032841 0 -0.42546194522890279 0.1753622421393253 0 -0.41740234240932428 0.17069957140430941 0 -0.43772504471926782 0.1867546770731742 0 -0.4082102592815483 0.18851344872125331 0 -0.42546194522890279 0.1753622421393253 0 -0.43772504471926782 0.1867546770731742 0 -0.44908450960876878 0.1670294118864678 0 -0.42546194522890279 0.1753622421393253 0 -0.4082102592815483 0.18851344872125331 0 -0.42546194522890279 0.1753622421393253 0 -0.41050351704993998 0.17654131468473899 0 -0.42546194522890279 0.1753622421393253 0 -0.41050351704993998 0.17654131468473899 0 -0.41740234240932428 0.17069957140430941 0 -0.41871586972413272 0.15427033169373999 0 -0.41740234240932428 0.17069957140430941 0 -0.40273849738346451 0.1494251062626149 0 -0.41740234240932428 0.17069957140430941 0 -0.40886283340107599 0.16695682930625591 0 -0.40273849738346451 0.1494251062626149 0 -0.41740234240932428 0.17069957140430941 0 -0.40273849738346451 0.1494251062626149 0 -0.41050351704993998 0.17654131468473899 0 -0.41740234240932428 0.17069957140430941 0 -0.40886283340107599 0.16695682930625591 0 -0.40886283340107599 0.16695682930625591 0 -0.3912946027023475 0.15883844515563511 0 -0.39046086800913649 0.14615062561983219 0 -0.40886283340107599 0.16695682930625591 0 -0.39046086800913649 0.14615062561983219 0 -0.40886283340107599 0.16695682930625591 0 -0.39557320120381262 0.16664329182749779 0 -0.3912946027023475 0.15883844515563511 0 -0.40886283340107599 0.16695682930625591 0 -0.39557320120381262 0.16664329182749779 0 -0.39874232468680809 0.1753448510572877 0 -0.39557320120381262 0.16664329182749779 0 -0.39874232468680809 0.1753448510572877 0 -0.38386616528778272 0.16720651677267759 0 -0.4082102592815483 0.18851344872125331 0 -0.39874232468680809 0.1753448510572877 0 -0.38751259462124399 0.17901993498098381 0 -0.4082102592815483 0.18851344872125331 0 -0.37869547384382879 0.19027222036933231 0 -0.38751259462124399 0.17901993498098381 0 -0.4082102592815483 0.18851344872125331 0 -0.41050351704993998 0.17654131468473899 0 -0.39874232468680809 0.1753448510572877 0 -0.41050351704993998 0.17654131468473899 0 -0.40886283340107599 0.16695682930625591 0 -0.39874232468680809 0.1753448510572877 0 -0.38751259462124399 0.17901993498098381 0 -0.38386616528778272 0.16720651677267759 0 -0.36804875000625198 0.173762637984368 0 -0.37869547384382879 0.19027222036933231 0 -0.38751259462124399 0.17901993498098381 0 -0.36804875000625198 0.173762637984368 0 -0.39874232468680809 0.1753448510572877 0 -0.38751259462124399 0.17901993498098381 0 -0.38386616528778272 0.16720651677267759 0 -0.3912946027023475 0.15883844515563511 0 -0.38386616528778272 0.16720651677267759 0 -0.37998092767119829 0.15574764216486539 0 -0.39557320120381262 0.16664329182749779 0 -0.3912946027023475 0.15883844515563511 0 -0.38386616528778272 0.16720651677267759 0 -0.38386616528778272 0.16720651677267759 0 -0.37998092767119829 0.15574764216486539 0 -0.36975820417384397 0.16024206006769889 0 -0.37998092767119829 0.15574764216486539 0 -0.39046086800913649 0.14615062561983219 0 -0.36833465014116329 0.14648621267239451 0 -0.3912946027023475 0.15883844515563511 0 -0.37998092767119829 0.15574764216486539 0 -0.39046086800913649 0.14615062561983219 0 -0.39046086800913649 0.14615062561983219 0 -0.40273849738346451 0.1494251062626149 0 -0.38807465235760458 0.12815064112092051 0 -0.40886283340107599 0.16695682930625591 0 -0.39046086800913649 0.14615062561983219 0 -0.40273849738346451 0.1494251062626149 0 -0.40273849738346451 0.1494251062626149 0 -0.40357061995141469 0.133816243798701 0 -0.38807465235760458 0.12815064112092051 0 -0.40273849738346451 0.1494251062626149 0 -0.38807465235760458 0.12815064112092051 0 -0.40072431757585592 0.1211429583718089 0 -0.41178512437923009 0.12861541019524181 0 -0.40357061995141469 0.133816243798701 0 -0.40072431757585592 0.1211429583718089 0 -0.40357061995141469 0.133816243798701 0 -0.38807465235760458 0.12815064112092051 0 -0.39046086800913649 0.14615062561983219 0 -0.37205890261719698 0.12534442193340839 0 -0.39046086800913649 0.14615062561983219 0 -0.37205890261719698 0.12534442193340839 0 -0.36833465014116329 0.14648621267239451 0 -0.39046086800913649 0.14615062561983219 0 -0.38807465235760458 0.12815064112092051 0 -0.37205890261719698 0.12534442193340839 0 -0.37205890261719698 0.12534442193340839 0 -0.35935338246928178 0.13454897064982441 0 -0.36833465014116329 0.14648621267239451 0 -0.37205890261719698 0.12534442193340839 0 -0.35935338246928178 0.13454897064982441 0 -0.35403849820835392 0.1226014095746204 0 -0.34383314121234299 0.1329919500134315 0 -0.35403849820835392 0.1226014095746204 0 -0.33658705913702353 0.121420649017496 0 -0.35935338246928178 0.13454897064982441 0 -0.34383314121234299 0.1329919500134315 0 -0.35403849820835392 0.1226014095746204 0 -0.35935338246928178 0.13454897064982441 0 -0.34383314121234299 0.1329919500134315 0 -0.35209246121361798 0.1452313135471501 0 -0.35209246121361798 0.1452313135471501 0 -0.35382618951216421 0.1600111486219572 0 -0.33511494273313791 0.15211828577814279 0 -0.35209246121361798 0.1452313135471501 0 -0.36833465014116329 0.14648621267239451 0 -0.35382618951216421 0.1600111486219572 0 -0.35935338246928178 0.13454897064982441 0 -0.35209246121361798 0.1452313135471501 0 -0.36833465014116329 0.14648621267239451 0 -0.36833465014116329 0.14648621267239451 0 -0.36975820417384397 0.16024206006769889 0 -0.35382618951216421 0.1600111486219572 0 -0.37998092767119829 0.15574764216486539 0 -0.36833465014116329 0.14648621267239451 0 -0.36975820417384397 0.16024206006769889 0 -0.36975820417384397 0.16024206006769889 0 -0.36804875000625198 0.173762637984368 0 -0.35382618951216421 0.1600111486219572 0 -0.38386616528778272 0.16720651677267759 0 -0.36975820417384397 0.16024206006769889 0 -0.36804875000625198 0.173762637984368 0 -0.37869547384382879 0.19027222036933231 0 -0.36804875000625198 0.173762637984368 0 -0.3620752467033243 0.18687676398021599 0 -0.3620752467033243 0.18687676398021599 0 -0.3468586893085383 0.17506974020758731 0 -0.34997432496002567 0.1930140041680718 0 -0.36804875000625198 0.173762637984368 0 -0.3620752467033243 0.18687676398021599 0 -0.3468586893085383 0.17506974020758731 0 -0.36804875000625198 0.173762637984368 0 -0.3468586893085383 0.17506974020758731 0 -0.35382618951216421 0.1600111486219572 0 -0.3468586893085383 0.17506974020758731 0 -0.35382618951216421 0.1600111486219572 0 -0.33511494273313791 0.15211828577814279 0 -0.3468586893085383 0.17506974020758731 0 -0.32877019258929008 0.1710755393331477 0 -0.33511494273313791 0.15211828577814279 0 -0.3468586893085383 0.17506974020758731 0 -0.32877019258929008 0.1710755393331477 0 -0.33062117350730269 0.19008786452833029 0 -0.3468586893085383 0.17506974020758731 0 -0.34997432496002567 0.1930140041680718 0 -0.33062117350730269 0.19008786452833029 0 -0.32877019258929008 0.1710755393331477 0 -0.31746693451922359 0.17898035034654791 0 -0.33062117350730269 0.19008786452833029 0 -0.31746693451922359 0.17898035034654791 0 -0.33062117350730269 0.19008786452833029 0 -0.30603602723577411 0.19237575057797271 0 -0.32877019258929008 0.1710755393331477 0 -0.31635109294191333 0.16244878289370659 0 -0.33511494273313791 0.15211828577814279 0 -0.32877019258929008 0.1710755393331477 0 -0.31746693451922359 0.17898035034654791 0 -0.31635109294191333 0.16244878289370659 0 -0.31746693451922359 0.17898035034654791 0 -0.31635109294191333 0.16244878289370659 0 -0.30492449544434358 0.1733915047578255 0 -0.3150213564351344 0.1473860220730783 0 -0.3294268522483903 0.13495738491522541 0 -0.33511494273313791 0.15211828577814279 0 -0.31635109294191333 0.16244878289370659 0 -0.3150213564351344 0.1473860220730783 0 -0.33511494273313791 0.15211828577814279 0 -0.31346608414930671 0.12663431791734081 0 -0.3294268522483903 0.13495738491522541 0 -0.33658705913702353 0.121420649017496 0 -0.3150213564351344 0.1473860220730783 0 -0.31346608414930671 0.12663431791734081 0 -0.3294268522483903 0.13495738491522541 0 -0.34383314121234299 0.1329919500134315 0 -0.3294268522483903 0.13495738491522541 0 -0.33511494273313791 0.15211828577814279 0 -0.34383314121234299 0.1329919500134315 0 -0.3294268522483903 0.13495738491522541 0 -0.33658705913702353 0.121420649017496 0 -0.34383314121234299 0.1329919500134315 0 -0.35209246121361798 0.1452313135471501 0 -0.33511494273313791 0.15211828577814279 0 -0.349168950573648 0.24461174048215961 0 -0.35208700467396148 0.23625618788213251 0 -0.33797890353603949 0.23715963182682409 0 -0.35208700467396148 0.23625618788213251 0 -0.359870007471359 0.2432986459565987 0 -0.36044250348722467 0.23326717307658429 0 -0.349168950573648 0.24461174048215961 0 -0.35208700467396148 0.23625618788213251 0 -0.359870007471359 0.2432986459565987 0 -0.349168950573648 0.24461174048215961 0 -0.359870007471359 0.2432986459565987 0 -0.35441571991901027 0.25293985774613809 0 -0.359870007471359 0.2432986459565987 0 -0.37226323271995287 0.2464569405446172 0 -0.36564378371888578 0.25642583163127303 0 -0.37983717766758179 0.23968279201157339 0 -0.37226323271995287 0.2464569405446172 0 -0.37008766517350911 0.23663271088939039 0 -0.359870007471359 0.2432986459565987 0 -0.37226323271995287 0.2464569405446172 0 -0.37008766517350911 0.23663271088939039 0 -0.359870007471359 0.2432986459565987 0 -0.37008766517350911 0.23663271088939039 0 -0.36044250348722467 0.23326717307658429 0 -0.37008766517350911 0.23663271088939039 0 -0.36044250348722467 0.23326717307658429 0 -0.36970101803761668 0.2268299611595464 0 -0.36044250348722467 0.23326717307658429 0 -0.36970101803761668 0.2268299611595464 0 -0.36270081300380169 0.22588736881417609 0 -0.37784543795671027 0.23105255662673399 0 -0.37008766517350911 0.23663271088939039 0 -0.36970101803761668 0.2268299611595464 0 -0.377861288483194 0.22397015548625621 0 -0.36970101803761668 0.2268299611595464 0 -0.37376225349947251 0.21861535927752759 0 -0.36970101803761668 0.2268299611595464 0 -0.36648751674272312 0.2200054788183278 0 -0.37376225349947251 0.21861535927752759 0 -0.36648751674272312 0.2200054788183278 0 -0.36270081300380169 0.22588736881417609 0 -0.35378670027239328 0.22354314854268209 0 -0.36970101803761668 0.2268299611595464 0 -0.36648751674272312 0.2200054788183278 0 -0.36270081300380169 0.22588736881417609 0 -0.35208700467396148 0.23625618788213251 0 -0.35378670027239328 0.22354314854268209 0 -0.33797890353603949 0.23715963182682409 0 -0.35378670027239328 0.22354314854268209 0 -0.34600973798513618 0.22488099035885059 0 -0.33797890353603949 0.23715963182682409 0 -0.35378670027239328 0.22354314854268209 0 -0.33797890353603949 0.23715963182682409 0 -0.35208700467396148 0.23625618788213251 0 -0.36044250348722467 0.23326717307658429 0 -0.35378670027239328 0.22354314854268209 0 -0.36044250348722467 0.23326717307658429 0 -0.36270081300380169 0.22588736881417609 0 -0.35378670027239328 0.22354314854268209 0 -0.35378670027239328 0.22354314854268209 0 -0.34600973798513618 0.22488099035885059 0 -0.34565165076612031 0.2147274970924806 0 -0.34565165076612031 0.2147274970924806 0 -0.34524098123218661 0.2048229574908991 0 -0.35719795173042979 0.21176201860155949 0 -0.34524098123218661 0.2048229574908991 0 -0.35719795173042979 0.21176201860155949 0 -0.35493987229725132 0.20307544037749981 0 -0.35719795173042979 0.21176201860155949 0 -0.36259290161560243 0.2050567132113538 0 -0.35493987229725132 0.20307544037749981 0 -0.35378670027239328 0.22354314854268209 0 -0.34565165076612031 0.2147274970924806 0 -0.35719795173042979 0.21176201860155949 0 -0.35378670027239328 0.22354314854268209 0 -0.36959449700874702 0.2099266652585402 0 -0.35378670027239328 0.22354314854268209 0 -0.35719795173042979 0.21176201860155949 0 -0.36959449700874702 0.2099266652585402 0 -0.36648751674272312 0.2200054788183278 0 -0.35378670027239328 0.22354314854268209 0 -0.36959449700874702 0.2099266652585402 0 -0.37640639474706711 0.20923044904140989 0 -0.3715626654995024 0.21444448809895131 0 -0.37376225349947251 0.21861535927752759 0 -0.36648751674272312 0.2200054788183278 0 -0.3715626654995024 0.21444448809895131 0 -0.37376225349947251 0.21861535927752759 0 -0.36648751674272312 0.2200054788183278 0 -0.3715626654995024 0.21444448809895131 0 -0.36959449700874702 0.2099266652585402 0 -0.37640639474706711 0.20923044904140989 0 -0.3715626654995024 0.21444448809895131 0 -0.36959449700874702 0.2099266652585402 0 -0.37640639474706711 0.20923044904140989 0 -0.36959449700874702 0.2099266652585402 0 -0.37110091488174979 0.19990421505907591 0 -0.36959449700874702 0.2099266652585402 0 -0.36259290161560243 0.2050567132113538 0 -0.37110091488174979 0.19990421505907591 0 -0.35719795173042979 0.21176201860155949 0 -0.36959449700874702 0.2099266652585402 0 -0.36259290161560243 0.2050567132113538 0 -0.37869547384382879 0.19027222036933231 0 -0.3620752467033243 0.18687676398021599 0 -0.37110091488174979 0.19990421505907591 0 -0.36259290161560243 0.2050567132113538 0 -0.36019249756550881 0.19763620863372811 0 -0.37110091488174979 0.19990421505907591 0 -0.3620752467033243 0.18687676398021599 0 -0.36019249756550881 0.19763620863372811 0 -0.37110091488174979 0.19990421505907591 0 -0.3620752467033243 0.18687676398021599 0 -0.36019249756550881 0.19763620863372811 0 -0.34997432496002567 0.1930140041680718 0 -0.36019249756550881 0.19763620863372811 0 -0.35493987229725132 0.20307544037749981 0 -0.34997432496002567 0.1930140041680718 0 -0.36259290161560243 0.2050567132113538 0 -0.36019249756550881 0.19763620863372811 0 -0.35493987229725132 0.20307544037749981 0 -0.34524098123218661 0.2048229574908991 0 -0.35493987229725132 0.20307544037749981 0 -0.34997432496002567 0.1930140041680718 0 -0.34524098123218661 0.2048229574908991 0 -0.33062117350730269 0.19008786452833029 0 -0.3260228826104552 0.20862837046841171 0 -0.34524098123218661 0.2048229574908991 0 -0.34997432496002567 0.1930140041680718 0 -0.33062117350730269 0.19008786452833029 0 -0.33062117350730269 0.19008786452833029 0 -0.3260228826104552 0.20862837046841171 0 -0.30603602723577411 0.19237575057797271 0 -0.3260228826104552 0.20862837046841171 0 -0.30603602723577411 0.19237575057797271 0 -0.3260228826104552 0.20862837046841171 0 -0.31477480479220449 0.22403742404735341 0 -0.3033066521410514 0.20840695672539949 0 -0.34600973798513618 0.22488099035885059 0 -0.3260228826104552 0.20862837046841171 0 -0.34565165076612031 0.2147274970924806 0 -0.34524098123218661 0.2048229574908991 0 -0.3260228826104552 0.20862837046841171 0 -0.34600973798513618 0.22488099035885059 0 -0.34565165076612031 0.2147274970924806 0 -0.3260228826104552 0.20862837046841171 0 -0.34600973798513618 0.22488099035885059 0 -0.3260228826104552 0.20862837046841171 0 -0.33026375679621511 0.22603393617656031 0 -0.34600973798513618 0.22488099035885059 0 -0.33026375679621511 0.22603393617656031 0 -0.33797890353603949 0.23715963182682409 0 -0.33026375679621511 0.22603393617656031 0 -0.32265341712729462 0.23560094816133281 0 -0.33797890353603949 0.23715963182682409 0 -0.3260228826104552 0.20862837046841171 0 -0.33026375679621511 0.22603393617656031 0 -0.31477480479220449 0.22403742404735341 0 -0.31477480479220449 0.22403742404735341 0 -0.32265341712729462 0.23560094816133281 0 -0.30805819656909422 0.24168383047180639 0 -0.33026375679621511 0.22603393617656031 0 -0.31477480479220449 0.22403742404735341 0 -0.32265341712729462 0.23560094816133281 0 -0.32265341712729462 0.23560094816133281 0 -0.33797890353603949 0.23715963182682409 0 -0.32217110679968458 0.2507761151109647 0 -0.32265341712729462 0.23560094816133281 0 -0.30805819656909422 0.24168383047180639 0 -0.32217110679968458 0.2507761151109647 0 -0.32265341712729462 0.23560094816133281 0 -0.32217110679968458 0.2507761151109647 0 -0.33797890353603949 0.23715963182682409 0 -0.32217110679968458 0.2507761151109647 0 -0.33797890353603949 0.23715963182682409 0 -0.33358925004341172 0.2511561204692771 0 -0.32217110679968458 0.2507761151109647 0 -0.349168950573648 0.24461174048215961 0 -0.33797890353603949 0.23715963182682409 0 -0.34343303623725818 0.25305164460875029 0 -0.33797890353603949 0.23715963182682409 0 -0.34343303623725818 0.25305164460875029 0 -0.33358925004341172 0.2511561204692771 0 -0.29127965676498152 0.23928090416385869 0 -0.27539049354212658 0.23743758506633689 0 -0.27943339878110163 0.25757184166475711 0 -0.29127965676498152 0.23928090416385869 0 -0.30805819656909422 0.24168383047180639 0 -0.29537591907149241 0.25598272610479222 0 -0.29127965676498152 0.23928090416385869 0 -0.30805819656909422 0.24168383047180639 0 -0.29837179323433022 0.22494136512098961 0 -0.31477480479220449 0.22403742404735341 0 -0.29837179323433022 0.22494136512098961 0 -0.3033066521410514 0.20840695672539949 0 -0.31477480479220449 0.22403742404735341 0 -0.30805819656909422 0.24168383047180639 0 -0.29837179323433022 0.22494136512098961 0 -0.29127965676498152 0.23928090416385869 0 -0.28266123884583172 0.22479275820666161 0 -0.27539049354212658 0.23743758506633689 0 -0.29837179323433022 0.22494136512098961 0 -0.28266123884583172 0.22479275820666161 0 -0.28967156472913941 0.21166386283790539 0 -0.29127965676498152 0.23928090416385869 0 -0.29837179323433022 0.22494136512098961 0 -0.28266123884583172 0.22479275820666161 0 -0.28967156472913941 0.21166386283790539 0 -0.28512336986163239 0.19496313726035111 0 -0.27716020875624248 0.20985033706408579 0 -0.28967156472913941 0.21166386283790539 0 -0.3033066521410514 0.20840695672539949 0 -0.28512336986163239 0.19496313726035111 0 -0.28266123884583172 0.22479275820666161 0 -0.28967156472913941 0.21166386283790539 0 -0.27716020875624248 0.20985033706408579 0 -0.3260228826104552 0.20862837046841171 0 -0.3033066521410514 0.20840695672539949 0 -0.30603602723577411 0.19237575057797271 0 -0.29837179323433022 0.22494136512098961 0 -0.28967156472913941 0.21166386283790539 0 -0.3033066521410514 0.20840695672539949 0 -0.3033066521410514 0.20840695672539949 0 -0.30603602723577411 0.19237575057797271 0 -0.28512336986163239 0.19496313726035111 0 -0.30603602723577411 0.19237575057797271 0 -0.28512336986163239 0.19496313726035111 0 -0.28604917186109302 0.1761231306875338 0 -0.28512336986163239 0.19496313726035111 0 -0.26713390967840078 0.197007312963139 0 -0.27716020875624248 0.20985033706408579 0 -0.28512336986163239 0.19496313726035111 0 -0.26713390967840078 0.197007312963139 0 -0.2772508941063887 0.18531457385436331 0 -0.26713390967840078 0.197007312963139 0 -0.25807063368827848 0.1882408540049994 0 -0.2490006344954043 0.20494604434351571 0 -0.26713390967840078 0.197007312963139 0 -0.26357069433237312 0.22084991141984869 0 -0.26713390967840078 0.197007312963139 0 -0.26357069433237312 0.22084991141984869 0 -0.2490006344954043 0.20494604434351571 0 -0.26357069433237312 0.22084991141984869 0 -0.24085448807958709 0.22732672108016561 0 -0.2490006344954043 0.20494604434351571 0 -0.26713390967840078 0.197007312963139 0 -0.27716020875624248 0.20985033706408579 0 -0.26357069433237312 0.22084991141984869 0 -0.28266123884583172 0.22479275820666161 0 -0.27716020875624248 0.20985033706408579 0 -0.26357069433237312 0.22084991141984869 0 -0.28266123884583172 0.22479275820666161 0 -0.26357069433237312 0.22084991141984869 0 -0.27539049354212658 0.23743758506633689 0 -0.26357069433237312 0.22084991141984869 0 -0.2600074789863453 0.24469250987655841 0 -0.27539049354212658 0.23743758506633689 0 -0.26357069433237312 0.22084991141984869 0 -0.2600074789863453 0.24469250987655841 0 -0.26357069433237312 0.22084991141984869 0 -0.2600074789863453 0.24469250987655841 0 -0.24085448807958709 0.22732672108016561 0 -0.2600074789863453 0.24469250987655841 0 -0.27539049354212658 0.23743758506633689 0 -0.27943339878110163 0.25757184166475711 0 -0.28722500541620971 0.1463988789987922 0 -0.30120321691618912 0.14311588921415111 0 -0.29640238786167339 0.15703960690596369 0 -0.28722500541620971 0.1463988789987922 0 -0.28290082839826319 0.1601944313865975 0 -0.27426034037045632 0.14932211604971979 0 -0.28722500541620971 0.1463988789987922 0 -0.29640238786167339 0.15703960690596369 0 -0.28290082839826319 0.1601944313865975 0 -0.28722500541620971 0.1463988789987922 0 -0.29178726398559068 0.131053112176612 0 -0.27925627979643491 0.13790233033748719 0 -0.29178726398559068 0.131053112176612 0 -0.27812970501306777 0.1255515532136319 0 -0.27925627979643491 0.13790233033748719 0 -0.28722500541620971 0.1463988789987922 0 -0.29178726398559068 0.131053112176612 0 -0.30120321691618912 0.14311588921415111 0 -0.3150213564351344 0.1473860220730783 0 -0.31346608414930671 0.12663431791734081 0 -0.30120321691618912 0.14311588921415111 0 -0.31346608414930671 0.12663431791734081 0 -0.29178726398559068 0.131053112176612 0 -0.30120321691618912 0.14311588921415111 0 -0.3150213564351344 0.1473860220730783 0 -0.30120321691618912 0.14311588921415111 0 -0.29640238786167339 0.15703960690596369 0 -0.31635109294191333 0.16244878289370659 0 -0.3150213564351344 0.1473860220730783 0 -0.29640238786167339 0.15703960690596369 0 -0.31635109294191333 0.16244878289370659 0 -0.30492449544434358 0.1733915047578255 0 -0.29640238786167339 0.15703960690596369 0 -0.30603602723577411 0.19237575057797271 0 -0.30492449544434358 0.1733915047578255 0 -0.28604917186109302 0.1761231306875338 0 -0.31746693451922359 0.17898035034654791 0 -0.30603602723577411 0.19237575057797271 0 -0.30492449544434358 0.1733915047578255 0 -0.28512336986163239 0.19496313726035111 0 -0.28604917186109302 0.1761231306875338 0 -0.2772508941063887 0.18531457385436331 0 -0.30603602723577411 0.19237575057797271 0 -0.28604917186109302 0.1761231306875338 0 -0.28604917186109302 0.1761231306875338 0 -0.29640238786167339 0.15703960690596369 0 -0.28290082839826319 0.1601944313865975 0 -0.30492449544434358 0.1733915047578255 0 -0.28604917186109302 0.1761231306875338 0 -0.29640238786167339 0.15703960690596369 0 -0.27069712502442861 0.1731647145064294 0 -0.27426034037045632 0.14932211604971979 0 -0.27069712502442861 0.1731647145064294 0 -0.26147485894256439 0.1627134226268398 0 -0.27426034037045632 0.14932211604971979 0 -0.28290082839826319 0.1601944313865975 0 -0.27069712502442861 0.1731647145064294 0 -0.27426034037045632 0.14932211604971979 0 -0.28604917186109302 0.1761231306875338 0 -0.28290082839826319 0.1601944313865975 0 -0.27069712502442861 0.1731647145064294 0 -0.26713390967840078 0.197007312963139 0 -0.27069712502442861 0.1731647145064294 0 -0.26713390967840078 0.197007312963139 0 -0.2772508941063887 0.18531457385436331 0 -0.27069712502442861 0.1731647145064294 0 -0.28604917186109302 0.1761231306875338 0 -0.2772508941063887 0.18531457385436331 0 -0.27069712502442861 0.1731647145064294 0 -0.25807063368827848 0.1882408540049994 0 -0.26147485894256439 0.1627134226268398 0 -0.24811550058661899 0.1752810317840105 0 -0.25807063368827848 0.1882408540049994 0 -0.26147485894256439 0.1627134226268398 0 -0.25807063368827848 0.1882408540049994 0 -0.27069712502442861 0.1731647145064294 0 -0.26147485894256439 0.1627134226268398 0 -0.26713390967840078 0.197007312963139 0 -0.25807063368827848 0.1882408540049994 0 -0.27069712502442861 0.1731647145064294 0 -0.26147485894256439 0.1627134226268398 0 -0.24770845961488339 0.16137311577738081 0 -0.24811550058661899 0.1752810317840105 0 -0.26147485894256439 0.1627134226268398 0 -0.25412100738307569 0.1489218907482498 0 -0.24770845961488339 0.16137311577738081 0 -0.26147485894256439 0.1627134226268398 0 -0.25412100738307569 0.1489218907482498 0 -0.26487908419685019 0.13718599124868011 0 -0.26147485894256439 0.1627134226268398 0 -0.26487908419685019 0.13718599124868011 0 -0.25412100738307569 0.1489218907482498 0 -0.26487908419685019 0.13718599124868011 0 -0.25358972693918258 0.14021301524915539 0 -0.26147485894256439 0.1627134226268398 0 -0.27426034037045632 0.14932211604971979 0 -0.26487908419685019 0.13718599124868011 0 -0.27426034037045632 0.14932211604971979 0 -0.27925627979643491 0.13790233033748719 0 -0.26487908419685019 0.13718599124868011 0 -0.28722500541620971 0.1463988789987922 0 -0.27426034037045632 0.14932211604971979 0 -0.27925627979643491 0.13790233033748719 0 -0.27812970501306777 0.1255515532136319 0 -0.27925627979643491 0.13790233033748719 0 -0.26487908419685019 0.13718599124868011 0 -0.26487908419685019 0.13718599124868011 0 -0.25361913412505499 0.12915042739015919 0 -0.25921176363221082 0.1193353379747415 0 -0.26487908419685019 0.13718599124868011 0 -0.25358972693918258 0.14021301524915539 0 -0.25361913412505499 0.12915042739015919 0 -0.25151908843158538 0.11307079019675589 0 -0.26828330945113499 0.1116585598705203 0 -0.26487908419685019 0.13718599124868011 0 -0.25921176363221082 0.1193353379747415 0 -0.26828330945113499 0.1116585598705203 0 -0.25151908843158538 0.11307079019675589 0 -0.25921176363221082 0.1193353379747415 0 -0.26828330945113499 0.1116585598705203 0 -0.25151908843158538 0.11307079019675589 0 -0.25278923933598663 0.10884670263481561 0 -0.26828330945113499 0.1116585598705203 0 -0.25278923933598663 0.10884670263481561 0 -0.26867769264916669 0.10870117918257891 0 -0.26828330945113499 0.1116585598705203 0 -0.25361913412505499 0.12915042739015919 0 -0.25038811499309083 0.1168320211007932 0 -0.25921176363221082 0.1193353379747415 0 -0.25038811499309083 0.1168320211007932 0 -0.25151908843158538 0.11307079019675589 0 -0.25921176363221082 0.1193353379747415 0 -0.25038811499309083 0.1168320211007932 0 -0.25151908843158538 0.11307079019675589 0 -0.24879770747572971 0.1133000413328875 0 -0.25038811499309083 0.1168320211007932 0 -0.25151908843158538 0.11307079019675589 0 -0.25278923933598663 0.10884670263481561 0 -0.24879770747572971 0.1133000413328875 0 -0.25151908843158538 0.11307079019675589 0 -0.25278923933598663 0.10884670263481561 0 -0.24879770747572971 0.1133000413328875 0 -0.25151908843158538 0.11307079019675589 0 -0.25278923933598663 0.10884670263481561 0 -0.25151908843158538 0.11307079019675589 0 -0.24879770747572971 0.1133000413328875 0 -0.25278923933598663 0.10884670263481561 0 -0.25917316979680238 0.087615932997596069 0 -0.2477101874179885 0.099162097286903686 0 -0.25278923933598663 0.10884670263481561 0 -0.26867769264916669 0.10870117918257891 0 -0.26652926043576253 0.093517007215083089 0 -0.25278923933598663 0.10884670263481561 0 -0.25917316979680238 0.087615932997596069 0 -0.25278923933598663 0.10884670263481561 0 -0.26652926043576253 0.093517007215083089 0 -0.25917316979680238 0.087615932997596069 0 -0.25278923933598663 0.10884670263481561 0 -0.26652926043576253 0.093517007215083089 0 -0.26867769264916669 0.10870117918257891 0 -0.28290066731279911 0.098944669778447805 0 -0.26652926043576253 0.093517007215083089 0 -0.26867769264916669 0.10870117918257891 0 -0.26828330945113499 0.1116585598705203 0 -0.28290066731279911 0.098944669778447805 0 -0.27812970501306777 0.1255515532136319 0 -0.26487908419685019 0.13718599124868011 0 -0.26828330945113499 0.1116585598705203 0 -0.26487908419685019 0.13718599124868011 0 -0.26828330945113499 0.1116585598705203 0 -0.27812970501306777 0.1255515532136319 0 -0.26828330945113499 0.1116585598705203 0 -0.29672154147143032 0.10926290225918379 0 -0.26867769264916669 0.10870117918257891 0 -0.26828330945113499 0.1116585598705203 0 -0.29178726398559068 0.131053112176612 0 -0.27812970501306777 0.1255515532136319 0 -0.29672154147143032 0.10926290225918379 0 -0.26828330945113499 0.1116585598705203 0 -0.29672154147143032 0.10926290225918379 0 -0.26828330945113499 0.1116585598705203 0 -0.29672154147143032 0.10926290225918379 0 -0.28290066731279911 0.098944669778447805 0 -0.29672154147143032 0.10926290225918379 0 -0.28290066731279911 0.098944669778447805 0 -0.29635103415403707 0.088860342513837759 0 -0.29672154147143032 0.10926290225918379 0 -0.32515977349172581 0.1068672446478476 0 -0.29672154147143032 0.10926290225918379 0 -0.3134527994211449 0.097559514224866278 0 -0.32515977349172581 0.1068672446478476 0 -0.29672154147143032 0.10926290225918379 0 -0.29635103415403707 0.088860342513837759 0 -0.3134527994211449 0.097559514224866278 0 -0.31346608414930671 0.12663431791734081 0 -0.29672154147143032 0.10926290225918379 0 -0.32515977349172581 0.1068672446478476 0 -0.31346608414930671 0.12663431791734081 0 -0.29178726398559068 0.131053112176612 0 -0.29672154147143032 0.10926290225918379 0 -0.3071679386251035 0.073413506914167731 0 -0.29400930263531172 0.062857616375615974 0 -0.30207741273840211 0.053856053015915971 0 -0.3071679386251035 0.073413506914167731 0 -0.30207741273840211 0.053856053015915971 0 -0.3071679386251035 0.073413506914167731 0 -0.30207741273840211 0.053856053015915971 0 -0.32151722507477998 0.068199415125511198 0 -0.3071679386251035 0.073413506914167731 0 -0.29424548271440071 0.076042714770658271 0 -0.29400930263531172 0.062857616375615974 0 -0.3071679386251035 0.073413506914167731 0 -0.29400930263531172 0.062857616375615974 0 -0.3071679386251035 0.073413506914167731 0 -0.29635103415403707 0.088860342513837759 0 -0.3134527994211449 0.097559514224866278 0 -0.3071679386251035 0.073413506914167731 0 -0.3134527994211449 0.097559514224866278 0 -0.3071679386251035 0.073413506914167731 0 -0.29635103415403707 0.088860342513837759 0 -0.29424548271440071 0.076042714770658271 0 -0.29635103415403707 0.088860342513837759 0 -0.29424548271440071 0.076042714770658271 0 -0.28026928153553721 0.07818731179534949 0 -0.28290066731279911 0.098944669778447805 0 -0.29635103415403707 0.088860342513837759 0 -0.28026928153553721 0.07818731179534949 0 -0.29400930263531172 0.062857616375615974 0 -0.2779441787867265 0.063146121313625098 0 -0.28026928153553721 0.07818731179534949 0 -0.29400930263531172 0.062857616375615974 0 -0.28026928153553721 0.07818731179534949 0 -0.29424548271440071 0.076042714770658271 0 -0.29400930263531172 0.062857616375615974 0 -0.28026928153553721 0.07818731179534949 0 -0.28026928153553721 0.07818731179534949 0 -0.25917316979680238 0.087615932997596069 0 -0.26555710025761992 0.066385163360376975 0 -0.2779441787867265 0.063146121313625098 0 -0.28026928153553721 0.07818731179534949 0 -0.26555710025761992 0.066385163360376975 0 -0.28026928153553721 0.07818731179534949 0 -0.26652926043576253 0.093517007215083089 0 -0.25917316979680238 0.087615932997596069 0 -0.28290066731279911 0.098944669778447805 0 -0.28026928153553721 0.07818731179534949 0 -0.26652926043576253 0.093517007215083089 0 -0.28026928153553721 0.07818731179534949 0 -0.26652926043576253 0.093517007215083089 0 -0.26555710025761992 0.066385163360376975 0 -0.24585486719792071 0.063155027402028566 0 -0.24556305477134729 0.075500188097612164 0 -0.25917316979680238 0.087615932997596069 0 -0.26555710025761992 0.066385163360376975 0 -0.24556305477134729 0.075500188097612164 0 -0.25917316979680238 0.087615932997596069 0 -0.26555710025761992 0.066385163360376975 0 -0.26555710025761992 0.066385163360376975 0 -0.2559128224042912 0.057513937215859283 0 -0.27194103071842879 0.045154393723155432 0 -0.2559128224042912 0.057513937215859283 0 -0.25335829019660078 0.047227759811612063 0 -0.27194103071842879 0.045154393723155432 0 -0.26555710025761992 0.066385163360376975 0 -0.2559128224042912 0.057513937215859283 0 -0.24585486719792071 0.063155027402028566 0 -0.2559128224042912 0.057513937215859283 0 -0.25335829019660078 0.047227759811612063 0 -0.24467874789779109 0.053192793211485713 0 -0.27194103071842879 0.045154393723155432 0 -0.24885319078117121 0.02663327106743996 0 -0.25335829019660078 0.047227759811612063 0 -0.2510022312573032 0.038013720553851292 0 -0.27194103071842879 0.045154393723155432 0 -0.2510022312573032 0.038013720553851292 0 -0.27194103071842879 0.045154393723155432 0 -0.24885319078117121 0.02663327106743996 0 -0.27194103071842879 0.045154393723155432 0 -0.27950432532325892 0.020001462243258519 0 -0.28658879417412553 0.031323595398078122 0 -0.27194103071842879 0.045154393723155432 0 -0.27950432532325892 0.020001462243258519 0 -0.27194103071842879 0.045154393723155432 0 -0.2845483795040743 0.043834548329060377 0 -0.28658879417412553 0.031323595398078122 0 -0.2779441787867265 0.063146121313625098 0 -0.26555710025761992 0.066385163360376975 0 -0.27194103071842879 0.045154393723155432 0 -0.26555710025761992 0.066385163360376975 0 -0.27194103071842879 0.045154393723155432 0 -0.2606725884079652 0.01489666358009918 0 -0.26653672594828859 0.0057141009782726076 0 -0.24600583196849971 0.01657967119318907 0 -0.25503040212845418 0.0059658952119135116 0 -0.26653672594828859 0.0057141009782726076 0 -0.24600583196849971 0.01657967119318907 0 -0.26653672594828859 0.0057141009782726076 0 -0.24600583196849971 0.01657967119318907 0 -0.26212373506883802 0.0020703629941813341 0 -0.25503040212845418 0.0059658952119135116 0 -0.26653672594828859 0.0057141009782726076 0 -0.25350081091519028 -0.00077752049559358079 0 -0.25503040212845418 0.0059658952119135116 0 -0.24698490674145451 0.0062428613895181284 0 -0.25350081091519028 -0.00077752049559358079 0 -0.26212373506883802 0.0020703629941813341 0 -0.25503040212845418 0.0059658952119135116 0 -0.27194103071842879 0.045154393723155432 0 -0.26008380111955232 0.021751672201851729 0 -0.24885319078117121 0.02663327106743996 0 -0.2606725884079652 0.01489666358009918 0 -0.26008380111955232 0.021751672201851729 0 -0.27006399459552027 0.015541209947083341 0 -0.2606725884079652 0.01489666358009918 0 -0.26008380111955232 0.021751672201851729 0 -0.24600583196849971 0.01657967119318907 0 -0.26008380111955232 0.021751672201851729 0 -0.24885319078117121 0.02663327106743996 0 -0.24600583196849971 0.01657967119318907 0 -0.27194103071842879 0.045154393723155432 0 -0.27950432532325892 0.020001462243258519 0 -0.27006399459552027 0.015541209947083341 0 -0.27194103071842879 0.045154393723155432 0 -0.26008380111955232 0.021751672201851729 0 -0.27006399459552027 0.015541209947083341 0 -0.28706761992807872 -0.0051514692366415663 0 -0.27006399459552027 0.015541209947083341 0 -0.26653672594828859 0.0057141009782726076 0 -0.28706761992807872 -0.0051514692366415663 0 -0.27950432532325892 0.020001462243258519 0 -0.27006399459552027 0.015541209947083341 0 -0.28706761992807872 -0.0051514692366415663 0 -0.26653672594828859 0.0057141009782726076 0 -0.2606725884079652 0.01489666358009918 0 -0.27006399459552027 0.015541209947083341 0 -0.26653672594828859 0.0057141009782726076 0 -0.28712019995877341 -0.003608540209765948 0 -0.28706761992807872 -0.0051514692366415663 0 -0.27950432532325892 0.020001462243258519 0 -0.28712019995877341 -0.003608540209765948 0 -0.27950432532325892 0.020001462243258519 0 -0.29319056331928889 0.01971338255643125 0 -0.28706761992807872 -0.0051514692366415663 0 -0.27950432532325892 0.020001462243258519 0 -0.28712019995877341 -0.003608540209765948 0 -0.29611960495831657 0.0056678660705607106 0 -0.29319056331928889 0.01971338255643125 0 -0.28712019995877341 -0.003608540209765948 0 -0.29319056331928889 0.01971338255643125 0 -0.29319056331928889 0.01971338255643125 0 -0.28658879417412553 0.031323595398078122 0 -0.29666053309457352 0.040095167275039457 0 -0.27950432532325892 0.020001462243258519 0 -0.29319056331928889 0.01971338255643125 0 -0.28658879417412553 0.031323595398078122 0 -0.29319056331928889 0.01971338255643125 0 -0.30384043716822262 0.02806204430240046 0 -0.29926092667980569 0.043035305322627983 0 -0.30384043716822262 0.02806204430240046 0 -0.3078264925362667 0.036671232156204582 0 -0.31360910695898031 0.0251347615221304 0 -0.3053150963467709 0.015755539954608971 0 -0.31773073155912501 0.014108626601118029 0 -0.31360910695898031 0.0251347615221304 0 -0.30384043716822262 0.02806204430240046 0 -0.3053150963467709 0.015755539954608971 0 -0.31360910695898031 0.0251347615221304 0 -0.29319056331928889 0.01971338255643125 0 -0.30384043716822262 0.02806204430240046 0 -0.3053150963467709 0.015755539954608971 0 -0.28706761992807872 -0.0051514692366415663 0 -0.29611960495831657 0.0056678660705607106 0 -0.30839334227554432 0.0022330019708014948 0 -0.29611960495831657 0.0056678660705607106 0 -0.29319056331928889 0.01971338255643125 0 -0.3053150963467709 0.015755539954608971 0 -0.29611960495831657 0.0056678660705607106 0 -0.3053150963467709 0.015755539954608971 0 -0.30839334227554432 0.0022330019708014948 0 -0.3053150963467709 0.015755539954608971 0 -0.30839334227554432 0.0022330019708014948 0 -0.31773073155912501 0.014108626601118029 0 -0.29400930263531172 0.062857616375615974 0 -0.2779441787867265 0.063146121313625098 0 -0.27194103071842879 0.045154393723155432 0 -0.29400930263531172 0.062857616375615974 0 -0.29433370030909239 0.046981678832774043 0 -0.2845483795040743 0.043834548329060377 0 -0.29400930263531172 0.062857616375615974 0 -0.29433370030909239 0.046981678832774043 0 -0.30207741273840211 0.053856053015915971 0 -0.29400930263531172 0.062857616375615974 0 -0.27194103071842879 0.045154393723155432 0 -0.29400930263531172 0.062857616375615974 0 -0.27194103071842879 0.045154393723155432 0 -0.2845483795040743 0.043834548329060377 0 -0.29319056331928889 0.01971338255643125 0 -0.29666053309457352 0.040095167275039457 0 -0.29926092667980569 0.043035305322627983 0 -0.29319056331928889 0.01971338255643125 0 -0.29926092667980569 0.043035305322627983 0 -0.2845483795040743 0.043834548329060377 0 -0.28658879417412553 0.031323595398078122 0 -0.28944564720238719 0.038211382678385877 0 -0.28658879417412553 0.031323595398078122 0 -0.28944564720238719 0.038211382678385877 0 -0.29666053309457352 0.040095167275039457 0 -0.29433370030909239 0.046981678832774043 0 -0.2845483795040743 0.043834548329060377 0 -0.28944564720238719 0.038211382678385877 0 -0.29433370030909239 0.046981678832774043 0 -0.28944564720238719 0.038211382678385877 0 -0.29666053309457352 0.040095167275039457 0 -0.29433370030909239 0.046981678832774043 0 -0.29666053309457352 0.040095167275039457 0 -0.29926092667980569 0.043035305322627983 0 -0.29926092667980569 0.043035305322627983 0 -0.3078264925362667 0.036671232156204582 0 -0.30610552366581051 0.04399543963892863 0 -0.29666053309457352 0.040095167275039457 0 -0.29926092667980569 0.043035305322627983 0 -0.29926092667980569 0.043035305322627983 0 -0.30610552366581051 0.04399543963892863 0 -0.30547683485616001 0.050063329170010981 0 -0.29926092667980569 0.043035305322627983 0 -0.30547683485616001 0.050063329170010981 0 -0.30384043716822262 0.02806204430240046 0 -0.29926092667980569 0.043035305322627983 0 -0.3078264925362667 0.036671232156204582 0 -0.3078264925362667 0.036671232156204582 0 -0.31023371289918861 0.043222263600217047 0 -0.31593366170540949 0.040901868141156962 0 -0.30610552366581051 0.04399543963892863 0 -0.31023371289918861 0.043222263600217047 0 -0.30791608953382599 0.047341860914013052 0 -0.3078264925362667 0.036671232156204582 0 -0.30610552366581051 0.04399543963892863 0 -0.31023371289918861 0.043222263600217047 0 -0.31023371289918861 0.043222263600217047 0 -0.30791608953382599 0.047341860914013052 0 -0.31338679705463002 0.047200917150781993 0 -0.30547683485616001 0.050063329170010981 0 -0.30207741273840211 0.053856053015915971 0 -0.32151722507477998 0.068199415125511198 0 -0.30791608953382599 0.047341860914013052 0 -0.30547683485616001 0.050063329170010981 0 -0.31338679705463002 0.047200917150781993 0 -0.30610552366581051 0.04399543963892863 0 -0.30791608953382599 0.047341860914013052 0 -0.30547683485616001 0.050063329170010981 0 -0.30791608953382599 0.047341860914013052 0 -0.30547683485616001 0.050063329170010981 0 -0.29926092667980569 0.043035305322627983 0 -0.30547683485616001 0.050063329170010981 0 -0.30207741273840211 0.053856053015915971 0 -0.29926092667980569 0.043035305322627983 0 -0.30207741273840211 0.053856053015915971 0 -0.29433370030909239 0.046981678832774043 0 -0.29926092667980569 0.043035305322627983 0 -0.30207741273840211 0.053856053015915971 0 -0.30547683485616001 0.050063329170010981 0 -0.30207741273840211 0.053856053015915971 0 -0.29400930263531172 0.062857616375615974 0 -0.30207741273840211 0.053856053015915971 0 -0.32036096719009072 0.054090003990801029 0 -0.33679942959192771 0.057072537318834188 0 -0.32151722507477998 0.068199415125511198 0 -0.30547683485616001 0.050063329170010981 0 -0.32036096719009072 0.054090003990801029 0 -0.32151722507477998 0.068199415125511198 0 -0.30547683485616001 0.050063329170010981 0 -0.32151722507477998 0.068199415125511198 0 -0.32036096719009072 0.054090003990801029 0 -0.32117818537130549 0.045490117849883022 0 -0.33001186675415312 0.046814436439184898 0 -0.30547683485616001 0.050063329170010981 0 -0.32036096719009072 0.054090003990801029 0 -0.31338679705463002 0.047200917150781993 0 -0.32036096719009072 0.054090003990801029 0 -0.31338679705463002 0.047200917150781993 0 -0.32117818537130549 0.045490117849883022 0 -0.31023371289918861 0.043222263600217047 0 -0.31338679705463002 0.047200917150781993 0 -0.31593366170540949 0.040901868141156962 0 -0.31338679705463002 0.047200917150781993 0 -0.31593366170540949 0.040901868141156962 0 -0.32117818537130549 0.045490117849883022 0 -0.3078264925362667 0.036671232156204582 0 -0.31593366170540949 0.040901868141156962 0 -0.31789661412723658 0.033878333213284782 0 -0.31593366170540949 0.040901868141156962 0 -0.31789661412723658 0.033878333213284782 0 -0.32619763415224451 0.038443363527490247 0 -0.3078264925362667 0.036671232156204582 0 -0.31789661412723658 0.033878333213284782 0 -0.31360910695898031 0.0251347615221304 0 -0.31789661412723658 0.033878333213284782 0 -0.32619763415224451 0.038443363527490247 0 -0.32925548593272441 0.024129680152070551 0 -0.32619763415224451 0.038443363527490247 0 -0.32117818537130549 0.045490117849883022 0 -0.33001186675415312 0.046814436439184898 0 -0.31593366170540949 0.040901868141156962 0 -0.32619763415224451 0.038443363527490247 0 -0.32117818537130549 0.045490117849883022 0 -0.32619763415224451 0.038443363527490247 0 -0.33001186675415312 0.046814436439184898 0 -0.34071293959725318 0.038578278099636848 0 -0.32619763415224451 0.038443363527490247 0 -0.34071293959725318 0.038578278099636848 0 -0.32925548593272441 0.024129680152070551 0 -0.32036096719009072 0.054090003990801029 0 -0.33001186675415312 0.046814436439184898 0 -0.33679942959192771 0.057072537318834188 0 -0.34071293959725318 0.038578278099636848 0 -0.33679942959192771 0.057072537318834188 0 -0.35288736518839497 0.055826757421059671 0 -0.33001186675415312 0.046814436439184898 0 -0.34071293959725318 0.038578278099636848 0 -0.33679942959192771 0.057072537318834188 0 -0.30839334227554432 0.0022330019708014948 0 -0.31773073155912501 0.014108626601118029 0 -0.32905209759977061 0.0029004573998782459 0 -0.31773073155912501 0.014108626601118029 0 -0.32925548593272441 0.024129680152070551 0 -0.32905209759977061 0.0029004573998782459 0 -0.31773073155912501 0.014108626601118029 0 -0.31360910695898031 0.0251347615221304 0 -0.32925548593272441 0.024129680152070551 0 -0.31789661412723658 0.033878333213284782 0 -0.31360910695898031 0.0251347615221304 0 -0.32925548593272441 0.024129680152070551 0 -0.34071293959725318 0.038578278099636848 0 -0.32925548593272441 0.024129680152070551 0 -0.3482013199771945 0.020789745746927331 0 -0.32925548593272441 0.024129680152070551 0 -0.32905209759977061 0.0029004573998782459 0 -0.3482013199771945 0.020789745746927331 0 -0.35169680592649638 -0.0042790125616719646 0 -0.32905209759977061 0.0029004573998782459 0 -0.3482013199771945 0.020789745746927331 0 -0.35169680592649638 -0.0042790125616719646 0 -0.3482013199771945 0.020789745746927331 0 -0.36190017028107552 0.01368195186692763 0 -0.3482013199771945 0.020789745746927331 0 -0.3696419027503216 0.02968447991603675 0 -0.35510493786267838 0.041340784046376082 0 -0.3482013199771945 0.020789745746927331 0 -0.3696419027503216 0.02968447991603675 0 -0.36190017028107552 0.01368195186692763 0 -0.37806065247028958 0.0085325943664184174 0 -0.3696419027503216 0.02968447991603675 0 -0.36190017028107552 0.01368195186692763 0 -0.35169680592649638 -0.0042790125616719646 0 -0.37806065247028958 0.0085325943664184174 0 -0.35169680592649638 -0.0042790125616719646 0 -0.37806065247028958 0.0085325943664184174 0 -0.36190017028107552 0.01368195186692763 0 -0.33679942959192771 0.057072537318834188 0 -0.35288736518839497 0.055826757421059671 0 -0.34441545510180849 0.063007560385426722 0 -0.35288736518839497 0.055826757421059671 0 -0.35510493786267838 0.041340784046376082 0 -0.36894338377628538 0.057432343424703762 0 -0.35288736518839497 0.055826757421059671 0 -0.36894338377628538 0.057432343424703762 0 -0.34902234512904312 0.071493130940498889 0 -0.34071293959725318 0.038578278099636848 0 -0.35288736518839497 0.055826757421059671 0 -0.35510493786267838 0.041340784046376082 0 -0.34071293959725318 0.038578278099636848 0 -0.3482013199771945 0.020789745746927331 0 -0.35510493786267838 0.041340784046376082 0 -0.3696419027503216 0.02968447991603675 0 -0.35510493786267838 0.041340784046376082 0 -0.36894338377628538 0.057432343424703762 0 -0.36894338377628538 0.057432343424703762 0 -0.36676293765693069 0.073083878403428823 0 -0.35108062881550262 0.074488869329672872 0 -0.36894338377628538 0.057432343424703762 0 -0.35108062881550262 0.074488869329672872 0 -0.38079289428464791 0.071755676530432716 0 -0.36894338377628538 0.057432343424703762 0 -0.36676293765693069 0.073083878403428823 0 -0.36894338377628538 0.057432343424703762 0 -0.34902234512904312 0.071493130940498889 0 -0.35108062881550262 0.074488869329672872 0 -0.36676293765693069 0.073083878403428823 0 -0.35108062881550262 0.074488869329672872 0 -0.35874696230588488 0.085601710837531708 0 -0.35288736518839497 0.055826757421059671 0 -0.34902234512904312 0.071493130940498889 0 -0.34441545510180849 0.063007560385426722 0 -0.34902234512904312 0.071493130940498889 0 -0.34505046638345388 0.077064515837939496 0 -0.33895268049786831 0.067637815861314107 0 -0.34902234512904312 0.071493130940498889 0 -0.35108062881550262 0.074488869329672872 0 -0.35108062881550262 0.074488869329672872 0 -0.34505046638345388 0.077064515837939496 0 -0.3490120527898285 0.078763068306806489 0 -0.35108062881550262 0.074488869329672872 0 -0.3490120527898285 0.078763068306806489 0 -0.35235300308486878 0.07889087756867369 0 -0.34902234512904312 0.071493130940498889 0 -0.35108062881550262 0.074488869329672872 0 -0.34505046638345388 0.077064515837939496 0 -0.34902234512904312 0.071493130940498889 0 -0.34441545510180849 0.063007560385426722 0 -0.33895268049786831 0.067637815861314107 0 -0.35139644960499877 0.090266322884406697 0 -0.35374635901242391 0.1044590896283689 0 -0.33755761529340078 0.086335501081010707 0 -0.35139644960499877 0.090266322884406697 0 -0.34786465349860041 0.08328499568743758 0 -0.33755761529340078 0.086335501081010707 0 -0.35139644960499877 0.090266322884406697 0 -0.34786465349860041 0.08328499568743758 0 -0.35255036406801799 0.085532813760228851 0 -0.34505046638345388 0.077064515837939496 0 -0.3490120527898285 0.078763068306806489 0 -0.34786465349860041 0.08328499568743758 0 -0.3490120527898285 0.078763068306806489 0 -0.34786465349860041 0.08328499568743758 0 -0.35294865281678228 0.081169936133429849 0 -0.3490120527898285 0.078763068306806489 0 -0.35294865281678228 0.081169936133429849 0 -0.35235300308486878 0.07889087756867369 0 -0.34786465349860041 0.08328499568743758 0 -0.35255036406801799 0.085532813760228851 0 -0.35294865281678228 0.081169936133429849 0 -0.35509622691628029 0.083894481246018254 0 -0.35255036406801799 0.085532813760228851 0 -0.35874696230588488 0.085601710837531708 0 -0.35509622691628029 0.083894481246018254 0 -0.35255036406801799 0.085532813760228851 0 -0.35294865281678228 0.081169936133429849 0 -0.35108062881550262 0.074488869329672872 0 -0.35235300308486878 0.07889087756867369 0 -0.35874696230588488 0.085601710837531708 0 -0.35108062881550262 0.074488869329672872 0 -0.35874696230588488 0.085601710837531708 0 -0.35294865281678228 0.081169936133429849 0 -0.35235300308486878 0.07889087756867369 0 -0.35874696230588488 0.085601710837531708 0 -0.35509622691628029 0.083894481246018254 0 -0.35294865281678228 0.081169936133429849 0 -0.35874696230588488 0.085601710837531708 0 -0.35139644960499877 0.090266322884406697 0 -0.35874696230588488 0.085601710837531708 0 -0.35897496644652821 0.09468049226209134 0 -0.35139644960499877 0.090266322884406697 0 -0.35255036406801799 0.085532813760228851 0 -0.35874696230588488 0.085601710837531708 0 -0.38448211566947949 0.085908574420322875 0 -0.36676293765693069 0.073083878403428823 0 -0.35874696230588488 0.085601710837531708 0 -0.38448211566947949 0.085908574420322875 0 -0.35874696230588488 0.085601710837531708 0 -0.37341080733174492 0.106876175979226 0 -0.38448211566947949 0.085908574420322875 0 -0.35874696230588488 0.085601710837531708 0 -0.35874696230588488 0.085601710837531708 0 -0.37341080733174492 0.106876175979226 0 -0.37341080733174492 0.106876175979226 0 -0.35897496644652821 0.09468049226209134 0 -0.35374635901242391 0.1044590896283689 0 -0.35874696230588488 0.085601710837531708 0 -0.37341080733174492 0.106876175979226 0 -0.35897496644652821 0.09468049226209134 0 -0.37205890261719698 0.12534442193340839 0 -0.35403849820835392 0.1226014095746204 0 -0.35374635901242391 0.1044590896283689 0 -0.37205890261719698 0.12534442193340839 0 -0.35374635901242391 0.1044590896283689 0 -0.37205890261719698 0.12534442193340839 0 -0.37341080733174492 0.106876175979226 0 -0.35374635901242391 0.1044590896283689 0 -0.35403849820835392 0.1226014095746204 0 -0.35374635901242391 0.1044590896283689 0 -0.33658705913702353 0.121420649017496 0 -0.35374635901242391 0.1044590896283689 0 -0.34247414195629478 0.1017362310920344 0 -0.33755761529340078 0.086335501081010707 0 -0.35374635901242391 0.1044590896283689 0 -0.33755761529340078 0.086335501081010707 0 -0.35139644960499877 0.090266322884406697 0 -0.35897496644652821 0.09468049226209134 0 -0.35374635901242391 0.1044590896283689 0 -0.35374635901242391 0.1044590896283689 0 -0.32515977349172581 0.1068672446478476 0 -0.34247414195629478 0.1017362310920344 0 -0.32482104029069941 0.087574869003100672 0 -0.35374635901242391 0.1044590896283689 0 -0.34247414195629478 0.1017362310920344 0 -0.32515977349172581 0.1068672446478476 0 -0.34247414195629478 0.1017362310920344 0 -0.32515977349172581 0.1068672446478476 0 -0.32482104029069941 0.087574869003100672 0 -0.35374635901242391 0.1044590896283689 0 -0.33658705913702353 0.121420649017496 0 -0.32515977349172581 0.1068672446478476 0 -0.31346608414930671 0.12663431791734081 0 -0.33658705913702353 0.121420649017496 0 -0.32515977349172581 0.1068672446478476 0 -0.3134527994211449 0.097559514224866278 0 -0.32515977349172581 0.1068672446478476 0 -0.32482104029069941 0.087574869003100672 0 -0.32482104029069941 0.087574869003100672 0 -0.32151722507477998 0.068199415125511198 0 -0.33755761529340078 0.086335501081010707 0 -0.3071679386251035 0.073413506914167731 0 -0.32482104029069941 0.087574869003100672 0 -0.3071679386251035 0.073413506914167731 0 -0.3134527994211449 0.097559514224866278 0 -0.32482104029069941 0.087574869003100672 0 -0.3071679386251035 0.073413506914167731 0 -0.32482104029069941 0.087574869003100672 0 -0.32151722507477998 0.068199415125511198 0 -0.32151722507477998 0.068199415125511198 0 -0.33895268049786831 0.067637815861314107 0 -0.33755761529340078 0.086335501081010707 0 -0.34505046638345388 0.077064515837939496 0 -0.33895268049786831 0.067637815861314107 0 -0.33755761529340078 0.086335501081010707 0 -0.33679942959192771 0.057072537318834188 0 -0.32151722507477998 0.068199415125511198 0 -0.33895268049786831 0.067637815861314107 0 -0.32151722507477998 0.068199415125511198 0 -0.33755761529340078 0.086335501081010707 0 -0.33679942959192771 0.057072537318834188 0 -0.34441545510180849 0.063007560385426722 0 -0.33895268049786831 0.067637815861314107 0 -0.34505046638345388 0.077064515837939496 0 -0.34786465349860041 0.08328499568743758 0 -0.33755761529340078 0.086335501081010707 0 -0.34247414195629478 0.1017362310920344 0 -0.32482104029069941 0.087574869003100672 0 -0.33755761529340078 0.086335501081010707 0 -0.39644361381695348 0.47988616744720441 0 -0.3944518246841926 0.46104205155462302 0 -0.41717535926279098 0.4673058527883438 0 -0.39644361381695348 0.47988616744720441 0 -0.38347874601942472 0.47123806342293589 0 -0.3944518246841926 0.46104205155462302 0 -0.39644361381695348 0.47988616744720441 0 -0.39372871558278483 0.50000000000000033 0 -0.41073018815999912 0.49319953479893258 0 -0.39372871558278483 0.50000000000000033 0 -0.41073018815999912 0.49319953479893258 0 -0.39372871558278483 0.50000000000000033 0 -0.38128831099671878 0.48646399471981211 0 -0.36642986923029169 0.5 0 -0.39644361381695348 0.47988616744720441 0 -0.39372871558278483 0.50000000000000033 0 -0.38128831099671878 0.48646399471981211 0 -0.38128831099671878 0.48646399471981211 0 -0.38347874601942472 0.47123806342293589 0 -0.36877864751449968 0.47580037364186939 0 -0.39644361381695348 0.47988616744720441 0 -0.38128831099671878 0.48646399471981211 0 -0.38347874601942472 0.47123806342293589 0 -0.37581633009392112 0.45660404423710022 0 -0.38717784112369658 0.44300554545333359 0 -0.3944518246841926 0.46104205155462302 0 -0.38347874601942472 0.47123806342293589 0 -0.37581633009392112 0.45660404423710022 0 -0.3944518246841926 0.46104205155462302 0 -0.38347874601942472 0.47123806342293589 0 -0.37581633009392112 0.45660404423710022 0 -0.36877864751449968 0.47580037364186939 0 -0.37581633009392112 0.45660404423710022 0 -0.38717784112369658 0.44300554545333359 0 -0.36773662445902461 0.43779845492784603 0 -0.38717784112369658 0.44300554545333359 0 -0.36773662445902461 0.43779845492784603 0 -0.40661905778836871 0.44821263597882088 0 -0.40813363366052102 0.43383861492113568 0 -0.39746519326306512 0.43165601144037941 0 -0.40661905778836871 0.44821263597882088 0 -0.39746519326306512 0.43165601144037941 0 -0.38717784112369658 0.44300554545333359 0 -0.40661905778836871 0.44821263597882088 0 -0.38717784112369658 0.44300554545333359 0 -0.3944518246841926 0.46104205155462302 0 -0.40661905778836871 0.44821263597882088 0 -0.38717784112369658 0.44300554545333359 0 -0.40661905778836871 0.44821263597882088 0 -0.39746519326306512 0.43165601144037941 0 -0.3944518246841926 0.46104205155462302 0 -0.41717535926279098 0.4673058527883438 0 -0.40661905778836871 0.44821263597882088 0 -0.41717535926279098 0.4673058527883438 0 -0.40661905778836871 0.44821263597882088 0 -0.41717535926279098 0.4673058527883438 0 -0.40661905778836871 0.44821263597882088 0 -0.42018394897302752 0.45184582507316579 0 -0.41717535926279098 0.4673058527883438 0 -0.42018394897302752 0.45184582507316579 0 -0.42433034871527581 0.46082709754740919 0 -0.41510301332278471 0.44367646533413002 0 -0.42867081950548769 0.44989593519924931 0 -0.41562612731900972 0.42398357593612479 0 -0.40661905778836871 0.44821263597882088 0 -0.41510301332278471 0.44367646533413002 0 -0.40813363366052102 0.43383861492113568 0 -0.40661905778836871 0.44821263597882088 0 -0.42018394897302752 0.45184582507316579 0 -0.41510301332278471 0.44367646533413002 0 -0.40661905778836871 0.44821263597882088 0 -0.42018394897302752 0.45184582507316579 0 -0.42018394897302752 0.45184582507316579 0 -0.41510301332278471 0.44367646533413002 0 -0.42867081950548769 0.44989593519924931 0 -0.42867081950548769 0.44989593519924931 0 -0.43312843509552929 0.4398850349963927 0 -0.41562612731900972 0.42398357593612479 0 -0.42867081950548769 0.44989593519924931 0 -0.43312843509552929 0.4398850349963927 0 -0.43937071927036431 0.4542629643425713 0 -0.42867081950548769 0.44989593519924931 0 -0.42433034871527581 0.46082709754740919 0 -0.43044297717178931 0.46575311478037418 0 -0.42867081950548769 0.44989593519924931 0 -0.44171551169196582 0.47580829446237383 0 -0.42867081950548769 0.44989593519924931 0 -0.43044297717178931 0.46575311478037418 0 -0.44171551169196582 0.47580829446237383 0 -0.42867081950548769 0.44989593519924931 0 -0.44171551169196582 0.47580829446237383 0 -0.43937071927036431 0.4542629643425713 0 -0.42433034871527581 0.46082709754740919 0 -0.43044297717178931 0.46575311478037418 0 -0.42590068861138558 0.47046835202713583 0 -0.41717535926279098 0.4673058527883438 0 -0.42433034871527581 0.46082709754740919 0 -0.42590068861138558 0.47046835202713583 0 -0.42018394897302752 0.45184582507316579 0 -0.42867081950548769 0.44989593519924931 0 -0.42433034871527581 0.46082709754740919 0 -0.41717535926279098 0.4673058527883438 0 -0.42773166073721391 0.48639906959786638 0 -0.41717535926279098 0.4673058527883438 0 -0.42590068861138558 0.47046835202713583 0 -0.42773166073721391 0.48639906959786638 0 -0.43126719706606298 0.47432380968413168 0 -0.42590068861138558 0.47046835202713583 0 -0.42773166073721391 0.48639906959786638 0 -0.43044297717178931 0.46575311478037418 0 -0.43126719706606298 0.47432380968413168 0 -0.44171551169196582 0.47580829446237383 0 -0.42773166073721391 0.48639906959786638 0 -0.44712113659447489 0.478643420477742 0 -0.43126719706606298 0.47432380968413168 0 -0.42773166073721391 0.48639906959786638 0 -0.44171551169196582 0.47580829446237383 0 -0.43044297717178931 0.46575311478037418 0 -0.43126719706606298 0.47432380968413168 0 -0.42590068861138558 0.47046835202713583 0 -0.39644361381695348 0.47988616744720441 0 -0.41717535926279098 0.4673058527883438 0 -0.41073018815999912 0.49319953479893258 0 -0.41717535926279098 0.4673058527883438 0 -0.41073018815999912 0.49319953479893258 0 -0.42773166073721391 0.48639906959786638 0 -0.41073018815999912 0.49319953479893258 0 -0.42773166073721391 0.48639906959786638 0 -0.39372871558278483 0.50000000000000033 0 -0.41073018815999912 0.49319953479893258 0 -0.41456867114686358 0.5 0 -0.41073018815999912 0.49319953479893258 0 -0.42395035993669272 0.49449492524351341 0 -0.42773166073721391 0.48639906959786638 0 -0.41073018815999912 0.49319953479893258 0 -0.41456867114686358 0.5 0 -0.42395035993669272 0.49449492524351341 0 -0.41456867114686358 0.5 0 -0.42395035993669272 0.49449492524351341 0 -0.43540862671094238 0.49999999999999872 0 -0.42773166073721391 0.48639906959786638 0 -0.43131265292844451 0.49287602182076778 0 -0.44712113659447489 0.478643420477742 0 -0.42395035993669272 0.49449492524351341 0 -0.42773166073721391 0.48639906959786638 0 -0.43131265292844451 0.49287602182076778 0 -0.42773166073721391 0.48639906959786638 0 -0.43131265292844451 0.49287602182076778 0 -0.42395035993669272 0.49449492524351341 0 -0.43540862671094238 0.49999999999999872 0 -0.43131265292844451 0.49287602182076778 0 -0.43540862671094238 0.49999999999999872 0 -0.43131265292844451 0.49287602182076778 0 -0.44712113659447489 0.478643420477742 0 -0.43540862671094238 0.49999999999999872 0 -0.44712113659447489 0.478643420477742 0 -0.44990444622604731 0.47766169336667852 0 -0.43540862671094238 0.49999999999999872 0 -0.44990444622604731 0.47766169336667852 0 -0.43540862671094238 0.49999999999999872 0 -0.44990444622604731 0.47766169336667852 0 -0.46353591069534628 0.5 0 -0.44171551169196582 0.47580829446237383 0 -0.44990444622604731 0.47766169336667852 0 -0.44715522305031519 0.46086265781511881 0 -0.42773166073721391 0.48639906959786638 0 -0.44171551169196582 0.47580829446237383 0 -0.44712113659447489 0.478643420477742 0 -0.44171551169196582 0.47580829446237383 0 -0.44712113659447489 0.478643420477742 0 -0.44990444622604731 0.47766169336667852 0 -0.44990444622604731 0.47766169336667852 0 -0.46865596888231681 0.47395748800192389 0 -0.46353591069534628 0.5 0 -0.44990444622604731 0.47766169336667852 0 -0.46865596888231681 0.47395748800192389 0 -0.46440026574115267 0.45532338673335881 0 -0.48740749153858559 0.47766169336667869 0 -0.5 0.5 0 -0.5 0.45818140034221222 0 -0.46353591069534628 0.5 0 -0.48740749153858559 0.47766169336667869 0 -0.49166319467975028 0.49999999999999889 0 -0.46865596888231681 0.47395748800192389 0 -0.48740749153858559 0.47766169336667869 0 -0.4831517883974209 0.45532338673335859 0 -0.46865596888231681 0.47395748800192389 0 -0.46353591069534628 0.5 0 -0.48740749153858559 0.47766169336667869 0 -0.48740749153858559 0.47766169336667869 0 -0.5 0.5 0 -0.49166319467975028 0.49999999999999889 0 -0.48740749153858559 0.47766169336667869 0 -0.49166319467975028 0.49999999999999889 0 -0.5 0.45818140034221222 0 -0.4831517883974209 0.45532338673335859 0 -0.47889608525625699 0.43298508010003839 0 -0.48740749153858559 0.47766169336667869 0 -0.4831517883974209 0.45532338673335859 0 -0.48740749153858559 0.47766169336667869 0 -0.5 0.45818140034221222 0 -0.4831517883974209 0.45532338673335859 0 -0.46865596888231681 0.47395748800192389 0 -0.4831517883974209 0.45532338673335859 0 -0.46440026574115267 0.45532338673335881 0 -0.4831517883974209 0.45532338673335859 0 -0.46440026574115267 0.45532338673335881 0 -0.47889608525625699 0.43298508010003839 0 -0.46440026574115267 0.45532338673335881 0 -0.47889608525625699 0.43298508010003839 0 -0.4831517883974209 0.45532338673335859 0 -0.47889608525625699 0.43298508010003839 0 -0.46440026574115267 0.45532338673335881 0 -0.44618360700852289 0.44486289923972128 0 -0.45813108521013929 0.43171407867840922 0 -0.46440026574115267 0.45532338673335881 0 -0.45813108521013929 0.43171407867840922 0 -0.47889608525625699 0.43298508010003839 0 -0.44990444622604731 0.47766169336667852 0 -0.46440026574115267 0.45532338673335881 0 -0.44990444622604731 0.47766169336667852 0 -0.46440026574115267 0.45532338673335881 0 -0.44715522305031519 0.46086265781511881 0 -0.44171551169196582 0.47580829446237383 0 -0.44715522305031519 0.46086265781511881 0 -0.43937071927036431 0.4542629643425713 0 -0.44715522305031519 0.46086265781511881 0 -0.43937071927036431 0.4542629643425713 0 -0.44618360700852289 0.44486289923972128 0 -0.46440026574115267 0.45532338673335881 0 -0.44715522305031519 0.46086265781511881 0 -0.44618360700852289 0.44486289923972128 0 -0.43312843509552929 0.4398850349963927 0 -0.44618360700852289 0.44486289923972128 0 -0.43722179810477552 0.42856948109938697 0 -0.43312843509552929 0.4398850349963927 0 -0.43937071927036431 0.4542629643425713 0 -0.44618360700852289 0.44486289923972128 0 -0.44618360700852289 0.44486289923972128 0 -0.45813108521013929 0.43171407867840922 0 -0.43722179810477552 0.42856948109938697 0 -0.44654889037783929 0.41520915731050512 0 -0.45813108521013929 0.43171407867840922 0 -0.43722179810477552 0.42856948109938697 0 -0.44654889037783929 0.41520915731050512 0 -0.43025368176641482 0.41690887489478817 0 -0.43722179810477552 0.42856948109938697 0 -0.44654889037783929 0.41520915731050512 0 -0.46370365300646221 0.41754723945298849 0 -0.45457024028615439 0.3955246438084643 0 -0.44654889037783929 0.41520915731050512 0 -0.46370365300646221 0.41754723945298849 0 -0.45813108521013929 0.43171407867840922 0 -0.46370365300646221 0.41754723945298849 0 -0.45813108521013929 0.43171407867840922 0 -0.47747615158390783 0.42553180793331202 0 -0.5 0.45818140034221222 0 -0.48944804262812519 0.41672433270946502 0 -0.49999999999999539 0.40046358531889281 0 -0.5 0.45818140034221222 0 -0.47889608525625699 0.43298508010003839 0 -0.48944804262812519 0.41672433270946502 0 -0.47889608525625699 0.43298508010003839 0 -0.48944804262812519 0.41672433270946502 0 -0.47889608525625699 0.43298508010003839 0 -0.47747615158390783 0.42553180793331202 0 -0.48944804262812519 0.41672433270946502 0 -0.45813108521013929 0.43171407867840922 0 -0.47889608525625699 0.43298508010003839 0 -0.47747615158390783 0.42553180793331202 0 -0.47889608525625699 0.43298508010003839 0 -0.47747615158390783 0.42553180793331202 0 -0.46370365300646221 0.41754723945298849 0 -0.47747615158390783 0.42553180793331202 0 -0.47655899035500898 0.41189540812373998 0 -0.47655899035500898 0.41189540812373998 0 -0.48944804262812519 0.41672433270946502 0 -0.48195448121396839 0.39680370436891282 0 -0.46370365300646221 0.41754723945298849 0 -0.47655899035500898 0.41189540812373998 0 -0.47021262334258163 0.40286995615402188 0 -0.47747615158390783 0.42553180793331202 0 -0.47655899035500898 0.41189540812373998 0 -0.48944804262812519 0.41672433270946502 0 -0.48944804262812519 0.41672433270946502 0 -0.49999999999999539 0.40046358531889281 0 -0.48810067519733769 0.37743758408165901 0 -0.49999999999999539 0.40046358531889281 0 -0.5 0.37361498125422199 0 -0.48944804262812519 0.41672433270946502 0 -0.49999999999999539 0.40046358531889281 0 -0.48195448121396839 0.39680370436891282 0 -0.48810067519733769 0.37743758408165901 0 -0.49999999999999539 0.40046358531889281 0 -0.48195448121396839 0.39680370436891282 0 -0.47655899035500898 0.41189540812373998 0 -0.48195448121396839 0.39680370436891282 0 -0.47021262334258163 0.40286995615402188 0 -0.48195448121396839 0.39680370436891282 0 -0.47021262334258163 0.40286995615402188 0 -0.4689707859446845 0.38988618634953798 0 -0.48195448121396839 0.39680370436891282 0 -0.4689707859446845 0.38988618634953798 0 -0.47552499468624881 0.37839249710986739 0 -0.48810067519733769 0.37743758408165901 0 -0.48195448121396839 0.39680370436891282 0 -0.47552499468624881 0.37839249710986739 0 -0.4689707859446845 0.38988618634953798 0 -0.47552499468624881 0.37839249710986739 0 -0.46259159019446938 0.3758401303064236 0 -0.46259159019446938 0.3758401303064236 0 -0.45457024028615439 0.3955246438084643 0 -0.44454102591881828 0.37425224407288132 0 -0.4689707859446845 0.38988618634953798 0 -0.46259159019446938 0.3758401303064236 0 -0.45457024028615439 0.3955246438084643 0 -0.46259159019446938 0.3758401303064236 0 -0.45457024028615439 0.3955246438084643 0 -0.46370365300646221 0.41754723945298849 0 -0.47021262334258163 0.40286995615402188 0 -0.45457024028615439 0.3955246438084643 0 -0.47021262334258163 0.40286995615402188 0 -0.4689707859446845 0.38988618634953798 0 -0.45457024028615439 0.3955246438084643 0 -0.44654889037783929 0.41520915731050512 0 -0.45457024028615439 0.3955246438084643 0 -0.44654889037783929 0.41520915731050512 0 -0.45457024028615439 0.3955246438084643 0 -0.4378058104253299 0.38930565749121382 0 -0.45457024028615439 0.3955246438084643 0 -0.4378058104253299 0.38930565749121382 0 -0.44454102591881828 0.37425224407288132 0 -0.4378058104253299 0.38930565749121382 0 -0.42639418735921708 0.37586130819756741 0 -0.44454102591881828 0.37425224407288132 0 -0.4378058104253299 0.38930565749121382 0 -0.42639418735921708 0.37586130819756741 0 -0.41912227623813769 0.38926662603110129 0 -0.41912227623813769 0.38926662603110129 0 -0.40871416642388159 0.37891578748635962 0 -0.40258143513253158 0.39807121667300011 0 -0.42639418735921708 0.37586130819756741 0 -0.41912227623813769 0.38926662603110129 0 -0.40871416642388159 0.37891578748635962 0 -0.41912227623813769 0.38926662603110129 0 -0.42660419159253082 0.40140905035485352 0 -0.40258143513253158 0.39807121667300011 0 -0.4378058104253299 0.38930565749121382 0 -0.41912227623813769 0.38926662603110129 0 -0.42660419159253082 0.40140905035485352 0 -0.44654889037783929 0.41520915731050512 0 -0.4378058104253299 0.38930565749121382 0 -0.42660419159253082 0.40140905035485352 0 -0.44654889037783929 0.41520915731050512 0 -0.42660419159253082 0.40140905035485352 0 -0.43025368176641482 0.41690887489478817 0 -0.42660419159253082 0.40140905035485352 0 -0.43025368176641482 0.41690887489478817 0 -0.41562612731900972 0.42398357593612479 0 -0.42867081950548769 0.44989593519924931 0 -0.41562612731900972 0.42398357593612479 0 -0.43025368176641482 0.41690887489478817 0 -0.43722179810477552 0.42856948109938697 0 -0.41562612731900972 0.42398357593612479 0 -0.43312843509552929 0.4398850349963927 0 -0.43722179810477552 0.42856948109938697 0 -0.41562612731900972 0.42398357593612479 0 -0.41510301332278471 0.44367646533413002 0 -0.41562612731900972 0.42398357593612479 0 -0.40813363366052102 0.43383861492113568 0 -0.41562612731900972 0.42398357593612479 0 -0.40813363366052102 0.43383861492113568 0 -0.40243834428740821 0.41809762723309329 0 -0.41562612731900972 0.42398357593612479 0 -0.40258143513253158 0.39807121667300011 0 -0.41562612731900972 0.42398357593612479 0 -0.40243834428740821 0.41809762723309329 0 -0.40258143513253158 0.39807121667300011 0 -0.42660419159253082 0.40140905035485352 0 -0.41562612731900972 0.42398357593612479 0 -0.40258143513253158 0.39807121667300011 0 -0.40243834428740821 0.41809762723309329 0 -0.38831132873776181 0.41509938690193771 0 -0.40258143513253158 0.39807121667300011 0 -0.40243834428740821 0.41809762723309329 0 -0.39746519326306512 0.43165601144037941 0 -0.38831132873776181 0.41509938690193771 0 -0.39746519326306512 0.43165601144037941 0 -0.38831132873776181 0.41509938690193771 0 -0.40813363366052102 0.43383861492113568 0 -0.40243834428740821 0.41809762723309329 0 -0.39746519326306512 0.43165601144037941 0 -0.38386880113344413 0.43054603330823121 0 -0.37368084132528601 0.42487303288155448 0 -0.36773662445902461 0.43779845492784603 0 -0.39746519326306512 0.43165601144037941 0 -0.38386880113344413 0.43054603330823121 0 -0.38831132873776181 0.41509938690193771 0 -0.38717784112369658 0.44300554545333359 0 -0.38386880113344413 0.43054603330823121 0 -0.36773662445902461 0.43779845492784603 0 -0.38717784112369658 0.44300554545333359 0 -0.39746519326306512 0.43165601144037941 0 -0.38386880113344413 0.43054603330823121 0 -0.38386880113344413 0.43054603330823121 0 -0.38831132873776181 0.41509938690193771 0 -0.37368084132528601 0.42487303288155448 0 -0.38831132873776181 0.41509938690193771 0 -0.37100301333298008 0.40571545206884152 0 -0.37368084132528601 0.42487303288155448 0 -0.38831132873776181 0.41509938690193771 0 -0.38616098600075438 0.39855688884519169 0 -0.37100301333298008 0.40571545206884152 0 -0.38616098600075438 0.39855688884519169 0 -0.37616830246096139 0.38616455620160672 0 -0.37100301333298008 0.40571545206884152 0 -0.37616830246096139 0.38616455620160672 0 -0.39192771318335012 0.38200352510233793 0 -0.37589529337035749 0.36716626307641992 0 -0.38616098600075438 0.39855688884519169 0 -0.37616830246096139 0.38616455620160672 0 -0.39192771318335012 0.38200352510233793 0 -0.40871416642388159 0.37891578748635962 0 -0.39192771318335012 0.38200352510233793 0 -0.40258143513253158 0.39807121667300011 0 -0.40871416642388159 0.37891578748635962 0 -0.39192771318335012 0.38200352510233793 0 -0.39683305292959542 0.36585716274069963 0 -0.38616098600075438 0.39855688884519169 0 -0.39192771318335012 0.38200352510233793 0 -0.40258143513253158 0.39807121667300011 0 -0.38831132873776181 0.41509938690193771 0 -0.38616098600075438 0.39855688884519169 0 -0.40258143513253158 0.39807121667300011 0 -0.40273319593421603 0.35406324387791249 0 -0.39683305292959542 0.36585716274069963 0 -0.38912863324964098 0.34918484597843458 0 -0.40273319593421603 0.35406324387791249 0 -0.38912863324964098 0.34918484597843458 0 -0.40413452383330201 0.3422244627668774 0 -0.40273319593421603 0.35406324387791249 0 -0.39683305292959542 0.36585716274069963 0 -0.41512057621746601 0.36259387667230519 0 -0.39192771318335012 0.38200352510233793 0 -0.39683305292959542 0.36585716274069963 0 -0.37589529337035749 0.36716626307641992 0 -0.39683305292959542 0.36585716274069963 0 -0.37589529337035749 0.36716626307641992 0 -0.38912863324964098 0.34918484597843458 0 -0.37589529337035749 0.36716626307641992 0 -0.38912863324964098 0.34918484597843458 0 -0.37110924285683439 0.34563156598696432 0 -0.39192390302860969 0.33084400145923998 0 -0.37110924285683439 0.34563156598696432 0 -0.38912863324964098 0.34918484597843458 0 -0.39192390302860969 0.33084400145923998 0 -0.37110924285683439 0.34563156598696432 0 -0.3752493746868838 0.33033482831450922 0 -0.39192390302860969 0.33084400145923998 0 -0.37110924285683439 0.34563156598696432 0 -0.3752493746868838 0.33033482831450922 0 -0.37917400688963587 0.31589610068899771 0 -0.39192390302860969 0.33084400145923998 0 -0.37917400688963587 0.31589610068899771 0 -0.39593441103123872 0.31526038963996178 0 -0.39192390302860969 0.33084400145923998 0 -0.39192390302860969 0.33084400145923998 0 -0.41115174696219797 0.33010335971666488 0 -0.41273856320038499 0.31605643693151592 0 -0.39593441103123872 0.31526038963996178 0 -0.39192390302860969 0.33084400145923998 0 -0.41273856320038499 0.31605643693151592 0 -0.39192390302860969 0.33084400145923998 0 -0.41273856320038499 0.31605643693151592 0 -0.38912863324964098 0.34918484597843458 0 -0.39192390302860969 0.33084400145923998 0 -0.40413452383330201 0.3422244627668774 0 -0.39192390302860969 0.33084400145923998 0 -0.40413452383330201 0.3422244627668774 0 -0.41115174696219797 0.33010335971666488 0 -0.40413452383330201 0.3422244627668774 0 -0.41115174696219797 0.33010335971666488 0 -0.41576926037617029 0.3392802179146942 0 -0.41115174696219797 0.33010335971666488 0 -0.42083391381465712 0.33101105107627349 0 -0.41576926037617029 0.3392802179146942 0 -0.42083391381465712 0.33101105107627349 0 -0.41576926037617029 0.3392802179146942 0 -0.42239027644091381 0.33669173194472241 0 -0.41576926037617029 0.3392802179146942 0 -0.42239027644091381 0.33669173194472241 0 -0.4224839357912844 0.34553915651173878 0 -0.41115174696219797 0.33010335971666488 0 -0.41273856320038499 0.31605643693151592 0 -0.42102771676655992 0.32205732054724451 0 -0.41115174696219797 0.33010335971666488 0 -0.42083391381465712 0.33101105107627349 0 -0.42102771676655992 0.32205732054724451 0 -0.41273856320038499 0.31605643693151592 0 -0.42102771676655992 0.32205732054724451 0 -0.42784927000518541 0.3133356842002179 0 -0.42687108991206157 0.3385003014192659 0 -0.44042287664373742 0.31675749037996181 0 -0.429657340156751 0.3251422444443095 0 -0.42687108991206157 0.3385003014192659 0 -0.44042287664373742 0.31675749037996181 0 -0.42102771676655992 0.32205732054724451 0 -0.42784927000518541 0.3133356842002179 0 -0.429657340156751 0.3251422444443095 0 -0.42083391381465712 0.33101105107627349 0 -0.42102771676655992 0.32205732054724451 0 -0.429657340156751 0.3251422444443095 0 -0.42784927000518541 0.3133356842002179 0 -0.429657340156751 0.3251422444443095 0 -0.44042287664373742 0.31675749037996181 0 -0.42687108991206157 0.3385003014192659 0 -0.44312526938506891 0.3335335276514006 0 -0.44042287664373742 0.31675749037996181 0 -0.42687108991206157 0.3385003014192659 0 -0.42239027644091381 0.33669173194472241 0 -0.4224839357912844 0.34553915651173878 0 -0.42687108991206157 0.3385003014192659 0 -0.4224839357912844 0.34553915651173878 0 -0.42687108991206157 0.3385003014192659 0 -0.42708400994866652 0.34600831853281588 0 -0.4224839357912844 0.34553915651173878 0 -0.42687108991206157 0.3385003014192659 0 -0.42239027644091381 0.33669173194472241 0 -0.42500714218534991 0.33279143189000587 0 -0.42687108991206157 0.3385003014192659 0 -0.42239027644091381 0.33669173194472241 0 -0.429657340156751 0.3251422444443095 0 -0.42687108991206157 0.3385003014192659 0 -0.42500714218534991 0.33279143189000587 0 -0.42083391381465712 0.33101105107627349 0 -0.429657340156751 0.3251422444443095 0 -0.42500714218534991 0.33279143189000587 0 -0.42083391381465712 0.33101105107627349 0 -0.42239027644091381 0.33669173194472241 0 -0.42500714218534991 0.33279143189000587 0 -0.42687108991206157 0.3385003014192659 0 -0.43442191164674582 0.34809318533968092 0 -0.44874201500742339 0.34732795911182451 0 -0.42455910244457412 0.35190063086057782 0 -0.41512057621746601 0.36259387667230519 0 -0.43306882535981078 0.36022609464782518 0 -0.43442191164674582 0.34809318533968092 0 -0.42455910244457412 0.35190063086057782 0 -0.43306882535981078 0.36022609464782518 0 -0.42687108991206157 0.3385003014192659 0 -0.43442191164674582 0.34809318533968092 0 -0.42708400994866652 0.34600831853281588 0 -0.43442191164674582 0.34809318533968092 0 -0.42455910244457412 0.35190063086057782 0 -0.42708400994866652 0.34600831853281588 0 -0.42455910244457412 0.35190063086057782 0 -0.42708400994866652 0.34600831853281588 0 -0.4224839357912844 0.34553915651173878 0 -0.42455910244457412 0.35190063086057782 0 -0.4224839357912844 0.34553915651173878 0 -0.41334521699765109 0.35029114679643641 0 -0.41576926037617029 0.3392802179146942 0 -0.4224839357912844 0.34553915651173878 0 -0.41334521699765109 0.35029114679643641 0 -0.42455910244457412 0.35190063086057782 0 -0.41334521699765109 0.35029114679643641 0 -0.41512057621746601 0.36259387667230519 0 -0.40273319593421603 0.35406324387791249 0 -0.41334521699765109 0.35029114679643641 0 -0.41512057621746601 0.36259387667230519 0 -0.40273319593421603 0.35406324387791249 0 -0.40413452383330201 0.3422244627668774 0 -0.41334521699765109 0.35029114679643641 0 -0.40413452383330201 0.3422244627668774 0 -0.41576926037617029 0.3392802179146942 0 -0.41334521699765109 0.35029114679643641 0 -0.40871416642388159 0.37891578748635962 0 -0.39683305292959542 0.36585716274069963 0 -0.41512057621746601 0.36259387667230519 0 -0.42639418735921708 0.37586130819756741 0 -0.40871416642388159 0.37891578748635962 0 -0.41512057621746601 0.36259387667230519 0 -0.42639418735921708 0.37586130819756741 0 -0.43306882535981078 0.36022609464782518 0 -0.44454102591881828 0.37425224407288132 0 -0.42639418735921708 0.37586130819756741 0 -0.41512057621746601 0.36259387667230519 0 -0.43306882535981078 0.36022609464782518 0 -0.43306882535981078 0.36022609464782518 0 -0.44454102591881828 0.37425224407288132 0 -0.45470965740284408 0.36204897087330762 0 -0.43306882535981078 0.36022609464782518 0 -0.44874201500742339 0.34732795911182451 0 -0.45470965740284408 0.36204897087330762 0 -0.43442191164674582 0.34809318533968092 0 -0.43306882535981078 0.36022609464782518 0 -0.44874201500742339 0.34732795911182451 0 -0.44874201500742339 0.34732795911182451 0 -0.47061294010278509 0.35615561680438312 0 -0.44874201500742339 0.34732795911182451 0 -0.45470965740284408 0.36204897087330762 0 -0.47061294010278509 0.35615561680438312 0 -0.44874201500742339 0.34732795911182451 0 -0.47061294010278509 0.35615561680438312 0 -0.4585027433346634 0.33630845798301728 0 -0.46259159019446938 0.3758401303064236 0 -0.45470965740284408 0.36204897087330762 0 -0.47061294010278509 0.35615561680438312 0 -0.46259159019446938 0.3758401303064236 0 -0.44454102591881828 0.37425224407288132 0 -0.45470965740284408 0.36204897087330762 0 -0.46259159019446938 0.3758401303064236 0 -0.47061294010278509 0.35615561680438312 0 -0.47552499468624881 0.37839249710986739 0 -0.46259159019446938 0.3758401303064236 0 -0.47061294010278509 0.35615561680438312 0 -0.47061294010278509 0.35615561680438312 0 -0.49566131047970158 0.36626577165515972 0 -0.48810067519733769 0.37743758408165901 0 -0.47552499468624881 0.37839249710986739 0 -0.47061294010278509 0.35615561680438312 0 -0.47061294010278509 0.35615561680438312 0 -0.47832309252770577 0.33723478661421369 0 -0.47061294010278509 0.35615561680438312 0 -0.48614933577754821 0.3516056380658269 0 -0.47832309252770577 0.33723478661421369 0 -0.47061294010278509 0.35615561680438312 0 -0.48614933577754821 0.3516056380658269 0 -0.49566131047970158 0.36626577165515972 0 -0.5 0.34676637718955122 0 -0.48614933577754821 0.3516056380658269 0 -0.47832309252770577 0.33723478661421369 0 -0.5 0.34676637718955122 0 -0.48614933577754821 0.3516056380658269 0 -0.49566131047970158 0.36626577165515972 0 -0.5 0.34676637718955122 0 -0.49566131047970158 0.36626577165515972 0 -0.5 0.37361498125422199 0 -0.48810067519733769 0.37743758408165901 0 -0.47061294010278509 0.35615561680438312 0 -0.49566131047970158 0.36626577165515972 0 -0.48810067519733769 0.37743758408165901 0 -0.49566131047970158 0.36626577165515972 0 -0.5 0.37361498125422199 0 -0.5 0.31991777312488029 0 -0.48122977864778987 0.32217479495069568 0 -0.48081714455838509 0.31012138593549432 0 -0.5 0.31991777312488029 0 -0.47832309252770577 0.33723478661421369 0 -0.48122977864778987 0.32217479495069568 0 -0.5 0.34676637718955122 0 -0.5 0.31991777312488029 0 -0.47832309252770577 0.33723478661421369 0 -0.47061294010278509 0.35615561680438312 0 -0.47832309252770577 0.33723478661421369 0 -0.4585027433346634 0.33630845798301728 0 -0.47832309252770577 0.33723478661421369 0 -0.48122977864778987 0.32217479495069568 0 -0.46577887750506869 0.32142523412819451 0 -0.46577887750506869 0.32142523412819451 0 -0.46426814088114082 0.30607436429989709 0 -0.48081714455838509 0.31012138593549432 0 -0.48122977864778987 0.32217479495069568 0 -0.46577887750506869 0.32142523412819451 0 -0.48081714455838509 0.31012138593549432 0 -0.46577887750506869 0.32142523412819451 0 -0.4585027433346634 0.33630845798301728 0 -0.44764320673509422 0.32434081089935041 0 -0.46577887750506869 0.32142523412819451 0 -0.45269185203593898 0.31327352406646142 0 -0.44764320673509422 0.32434081089935041 0 -0.46577887750506869 0.32142523412819451 0 -0.45269185203593898 0.31327352406646142 0 -0.46426814088114082 0.30607436429989709 0 -0.47832309252770577 0.33723478661421369 0 -0.46577887750506869 0.32142523412819451 0 -0.4585027433346634 0.33630845798301728 0 -0.42687108991206157 0.3385003014192659 0 -0.44874201500742339 0.34732795911182451 0 -0.42687108991206157 0.3385003014192659 0 -0.44874201500742339 0.34732795911182451 0 -0.44312526938506891 0.3335335276514006 0 -0.44874201500742339 0.34732795911182451 0 -0.4585027433346634 0.33630845798301728 0 -0.44312526938506891 0.3335335276514006 0 -0.4585027433346634 0.33630845798301728 0 -0.44312526938506891 0.3335335276514006 0 -0.44764320673509422 0.32434081089935041 0 -0.44312526938506891 0.3335335276514006 0 -0.44764320673509422 0.32434081089935041 0 -0.44042287664373742 0.31675749037996181 0 -0.45269185203593898 0.31327352406646142 0 -0.44764320673509422 0.32434081089935041 0 -0.44042287664373742 0.31675749037996181 0 -0.44764320673509422 0.32434081089935041 0 -0.44042287664373742 0.31675749037996181 0 -0.45269185203593898 0.31327352406646142 0 -0.44042287664373742 0.31675749037996181 0 -0.45056148994683959 0.30049085649509633 0 -0.44042287664373742 0.31675749037996181 0 -0.44459186825381392 0.30173266938263782 0 -0.45056148994683959 0.30049085649509633 0 -0.44042287664373742 0.31675749037996181 0 -0.45056148994683959 0.30049085649509633 0 -0.44459186825381392 0.30173266938263782 0 -0.45056148994683959 0.30049085649509633 0 -0.44566441477172047 0.29129174589871532 0 -0.44566441477172047 0.29129174589871532 0 -0.46070010324994309 0.2842242226102315 0 -0.44058025469341833 0.2810361809050182 0 -0.46070010324994309 0.2842242226102315 0 -0.44058025469341833 0.2810361809050182 0 -0.45056148994683959 0.30049085649509633 0 -0.44566441477172047 0.29129174589871532 0 -0.46070010324994309 0.2842242226102315 0 -0.44566441477172047 0.29129174589871532 0 -0.44058025469341833 0.2810361809050182 0 -0.43597065154330178 0.29266891455883542 0 -0.44459186825381392 0.30173266938263782 0 -0.44566441477172047 0.29129174589871532 0 -0.43597065154330178 0.29266891455883542 0 -0.45056148994683959 0.30049085649509633 0 -0.46070010324994309 0.2842242226102315 0 -0.45056148994683959 0.30049085649509633 0 -0.46070010324994309 0.2842242226102315 0 -0.46265230559726112 0.29418085466014571 0 -0.46265230559726112 0.29418085466014571 0 -0.46384646872045521 0.28472277230416743 0 -0.47490700157941762 0.29341581354793078 0 -0.46070010324994309 0.2842242226102315 0 -0.46384646872045521 0.28472277230416743 0 -0.47194951021196119 0.28016373041115877 0 -0.46070010324994309 0.2842242226102315 0 -0.46265230559726112 0.29418085466014571 0 -0.46384646872045521 0.28472277230416743 0 -0.46070010324994309 0.2842242226102315 0 -0.46384646872045521 0.28472277230416743 0 -0.45269185203593898 0.31327352406646142 0 -0.45056148994683959 0.30049085649509633 0 -0.46426814088114082 0.30607436429989709 0 -0.45056148994683959 0.30049085649509633 0 -0.46265230559726112 0.29418085466014571 0 -0.46426814088114082 0.30607436429989709 0 -0.46265230559726112 0.29418085466014571 0 -0.46426814088114082 0.30607436429989709 0 -0.47490700157941762 0.29341581354793078 0 -0.46426814088114082 0.30607436429989709 0 -0.48081714455838509 0.31012138593549432 0 -0.47490700157941762 0.29341581354793078 0 -0.46384646872045521 0.28472277230416743 0 -0.47490700157941762 0.29341581354793078 0 -0.47194951021196119 0.28016373041115877 0 -0.47490700157941762 0.29341581354793078 0 -0.48378354492879122 0.27977873824955679 0 -0.47194951021196119 0.28016373041115877 0 -0.47490700157941762 0.29341581354793078 0 -0.5 0.29306916906020958 0 -0.48378354492879122 0.27977873824955679 0 -0.48081714455838509 0.31012138593549432 0 -0.47490700157941762 0.29341581354793078 0 -0.5 0.29306916906020958 0 -0.5 0.31991777312488029 0 -0.48081714455838509 0.31012138593549432 0 -0.5 0.29306916906020958 0 -0.48561681367344928 0.2442472559425746 0 -0.5 0.24369554624323531 0 -0.49999999999999972 0.26622056499553892 0 -0.48561681367344928 0.2442472559425746 0 -0.49999999999999972 0.26622056499553892 0 -0.47123362734689339 0.2673239843942164 0 -0.49999999999999972 0.26622056499553892 0 -0.47123362734689339 0.2673239843942164 0 -0.5 0.29306916906020958 0 -0.49999999999999972 0.26622056499553892 0 -0.48378354492879122 0.27977873824955679 0 -0.49999999999999972 0.26622056499553892 0 -0.48378354492879122 0.27977873824955679 0 -0.47123362734689339 0.2673239843942164 0 -0.48378354492879122 0.27977873824955679 0 -0.47194951021196119 0.28016373041115877 0 -0.47123362734689339 0.2673239843942164 0 -0.48561681367344928 0.2442472559425746 0 -0.47123362734689339 0.2673239843942164 0 -0.48561681367344928 0.2442472559425746 0 -0.47123362734689339 0.2673239843942164 0 -0.4672561292369326 0.25221108972118023 0 -0.47123362734689339 0.2673239843942164 0 -0.45519473014476042 0.2576561306938267 0 -0.44180695590321589 0.26845273150811622 0 -0.47123362734689339 0.2673239843942164 0 -0.4672561292369326 0.25221108972118023 0 -0.45519473014476042 0.2576561306938267 0 -0.45526186327168211 0.24550605657883631 0 -0.4672561292369326 0.25221108972118023 0 -0.45519473014476042 0.2576561306938267 0 -0.46070010324994309 0.2842242226102315 0 -0.47123362734689339 0.2673239843942164 0 -0.46070010324994309 0.2842242226102315 0 -0.47194951021196119 0.28016373041115877 0 -0.47123362734689339 0.2673239843942164 0 -0.47123362734689339 0.2673239843942164 0 -0.45358023529836727 0.27525927985439602 0 -0.44180695590321589 0.26845273150811622 0 -0.47123362734689339 0.2673239843942164 0 -0.44180695590321589 0.26845273150811622 0 -0.46070010324994309 0.2842242226102315 0 -0.47123362734689339 0.2673239843942164 0 -0.45358023529836727 0.27525927985439602 0 -0.46070010324994309 0.2842242226102315 0 -0.45358023529836727 0.27525927985439602 0 -0.44058025469341833 0.2810361809050182 0 -0.45358023529836727 0.27525927985439602 0 -0.44180695590321589 0.26845273150811622 0 -0.44058025469341833 0.2810361809050182 0 -0.45519473014476042 0.2576561306938267 0 -0.44180695590321589 0.26845273150811622 0 -0.44049729821595962 0.25191840735536908 0 -0.45526186327168211 0.24550605657883631 0 -0.45519473014476042 0.2576561306938267 0 -0.44049729821595962 0.25191840735536908 0 -0.44180695590321589 0.26845273150811622 0 -0.42677411935698639 0.258100481499486 0 -0.41238028445953828 0.26958147862201443 0 -0.44180695590321589 0.26845273150811622 0 -0.44049729821595962 0.25191840735536908 0 -0.42677411935698639 0.258100481499486 0 -0.42179263270874978 0.23907817249452379 0 -0.41662315332097838 0.26008116333165782 0 -0.4066582240985353 0.25708815274309199 0 -0.42179263270874978 0.23907817249452379 0 -0.42677411935698639 0.258100481499486 0 -0.41662315332097838 0.26008116333165782 0 -0.42677411935698639 0.258100481499486 0 -0.41662315332097838 0.26008116333165782 0 -0.41238028445953828 0.26958147862201443 0 -0.4066582240985353 0.25708815274309199 0 -0.41238028445953828 0.26958147862201443 0 -0.40182109742498379 0.26545057739273081 0 -0.41662315332097838 0.26008116333165782 0 -0.4066582240985353 0.25708815274309199 0 -0.41238028445953828 0.26958147862201443 0 -0.41238028445953828 0.26958147862201443 0 -0.42046040613689378 0.27784813919980261 0 -0.42880697529826661 0.27422963255873778 0 -0.42046040613689378 0.27784813919980261 0 -0.41260946805704279 0.28754580762017928 0 -0.40034055758036918 0.27466009749458781 0 -0.41238028445953828 0.26958147862201443 0 -0.42046040613689378 0.27784813919980261 0 -0.40034055758036918 0.27466009749458781 0 -0.42046040613689378 0.27784813919980261 0 -0.40034055758036918 0.27466009749458781 0 -0.41260946805704279 0.28754580762017928 0 -0.40034055758036918 0.27466009749458781 0 -0.44058025469341833 0.2810361809050182 0 -0.42046040613689378 0.27784813919980261 0 -0.42880697529826661 0.27422963255873778 0 -0.44180695590321589 0.26845273150811622 0 -0.41238028445953828 0.26958147862201443 0 -0.42880697529826661 0.27422963255873778 0 -0.44058025469341833 0.2810361809050182 0 -0.42046040613689378 0.27784813919980261 0 -0.44180695590321589 0.26845273150811622 0 -0.41238028445953828 0.26958147862201443 0 -0.44180695590321589 0.26845273150811622 0 -0.44058025469341833 0.2810361809050182 0 -0.42880697529826661 0.27422963255873778 0 -0.44058025469341833 0.2810361809050182 0 -0.43597065154330178 0.29266891455883542 0 -0.42689983179287472 0.28790611200592109 0 -0.44058025469341833 0.2810361809050182 0 -0.42046040613689378 0.27784813919980261 0 -0.42689983179287472 0.28790611200592109 0 -0.43597065154330178 0.29266891455883542 0 -0.42689983179287472 0.28790611200592109 0 -0.42487837853371579 0.30043151774577143 0 -0.44459186825381392 0.30173266938263782 0 -0.43597065154330178 0.29266891455883542 0 -0.42487837853371579 0.30043151774577143 0 -0.42784927000518541 0.3133356842002179 0 -0.44042287664373742 0.31675749037996181 0 -0.42487837853371579 0.30043151774577143 0 -0.44459186825381392 0.30173266938263782 0 -0.42487837853371579 0.30043151774577143 0 -0.44042287664373742 0.31675749037996181 0 -0.44459186825381392 0.30173266938263782 0 -0.42487837853371579 0.30043151774577143 0 -0.44042287664373742 0.31675749037996181 0 -0.42487837853371579 0.30043151774577143 0 -0.42487837853371579 0.30043151774577143 0 -0.39933109787072513 0.29874531776169883 0 -0.41273856320038499 0.31605643693151592 0 -0.42487837853371579 0.30043151774577143 0 -0.39933109787072513 0.29874531776169883 0 -0.41273856320038499 0.31605643693151592 0 -0.42784927000518541 0.3133356842002179 0 -0.42487837853371579 0.30043151774577143 0 -0.42487837853371579 0.30043151774577143 0 -0.41260946805704279 0.28754580762017928 0 -0.39933109787072513 0.29874531776169883 0 -0.42046040613689378 0.27784813919980261 0 -0.42689983179287472 0.28790611200592109 0 -0.41260946805704279 0.28754580762017928 0 -0.42487837853371579 0.30043151774577143 0 -0.41260946805704279 0.28754580762017928 0 -0.42689983179287472 0.28790611200592109 0 -0.42487837853371579 0.30043151774577143 0 -0.41260946805704279 0.28754580762017928 0 -0.41260946805704279 0.28754580762017928 0 -0.39878234252672662 0.28665855395833539 0 -0.40034055758036918 0.27466009749458781 0 -0.41260946805704279 0.28754580762017928 0 -0.39878234252672662 0.28665855395833539 0 -0.39933109787072513 0.29874531776169883 0 -0.39878234252672662 0.28665855395833539 0 -0.39933109787072513 0.29874531776169883 0 -0.3856274228387071 0.28613233164353258 0 -0.39878234252672662 0.28665855395833539 0 -0.3856274228387071 0.28613233164353258 0 -0.39047550313323443 0.27960918621742559 0 -0.39593441103123872 0.31526038963996178 0 -0.41273856320038499 0.31605643693151592 0 -0.39933109787072513 0.29874531776169883 0 -0.37917400688963587 0.31589610068899771 0 -0.39593441103123872 0.31526038963996178 0 -0.39933109787072513 0.29874531776169883 0 -0.39933109787072513 0.29874531776169883 0 -0.37378381720773463 0.29705911777762428 0 -0.37917400688963587 0.31589610068899771 0 -0.39933109787072513 0.29874531776169883 0 -0.37378381720773463 0.29705911777762428 0 -0.3856274228387071 0.28613233164353258 0 -0.36758068844700442 0.28283219180837971 0 -0.37378381720773463 0.29705911777762428 0 -0.39933109787072513 0.29874531776169883 0 -0.3856274228387071 0.28613233164353258 0 -0.37378381720773463 0.29705911777762428 0 -0.37715168958713491 0.27098576177324768 0 -0.40034055758036918 0.27466009749458781 0 -0.39326529473805538 0.26722913724577502 0 -0.39047550313323443 0.27960918621742559 0 -0.37715168958713491 0.27098576177324768 0 -0.40034055758036918 0.27466009749458781 0 -0.37715168958713491 0.27098576177324768 0 -0.38583408121176821 0.25953216068741369 0 -0.39326529473805538 0.26722913724577502 0 -0.3856274228387071 0.28613233164353258 0 -0.37715168958713491 0.27098576177324768 0 -0.36758068844700442 0.28283219180837971 0 -0.37715168958713491 0.27098576177324768 0 -0.40034055758036918 0.27466009749458781 0 -0.3856274228387071 0.28613233164353258 0 -0.39047550313323443 0.27960918621742559 0 -0.37715168958713491 0.27098576177324768 0 -0.37715168958713491 0.27098576177324768 0 -0.37651506604963109 0.25601082237640183 0 -0.38583408121176821 0.25953216068741369 0 -0.38268861145850158 0.2488935399661229 0 -0.37226323271995287 0.2464569405446172 0 -0.37651506604963109 0.25601082237640183 0 -0.38268861145850158 0.2488935399661229 0 -0.37651506604963109 0.25601082237640183 0 -0.38583408121176821 0.25953216068741369 0 -0.38268861145850158 0.2488935399661229 0 -0.38583408121176821 0.25953216068741369 0 -0.39163641889966783 0.25041101776561309 0 -0.38583408121176821 0.25953216068741369 0 -0.39646112624842028 0.2586940208581856 0 -0.39326529473805538 0.26722913724577502 0 -0.39646112624842028 0.2586940208581856 0 -0.40182109742498379 0.26545057739273081 0 -0.39326529473805538 0.26722913724577502 0 -0.40233344815013938 0.24512016267852621 0 -0.39646112624842028 0.2586940208581856 0 -0.39163641889966783 0.25041101776561309 0 -0.38583408121176821 0.25953216068741369 0 -0.39646112624842028 0.2586940208581856 0 -0.39163641889966783 0.25041101776561309 0 -0.40233344815013938 0.24512016267852621 0 -0.4066582240985353 0.25708815274309199 0 -0.39646112624842028 0.2586940208581856 0 -0.4066582240985353 0.25708815274309199 0 -0.39646112624842028 0.2586940208581856 0 -0.40182109742498379 0.26545057739273081 0 -0.41238028445953828 0.26958147862201443 0 -0.40182109742498379 0.26545057739273081 0 -0.40034055758036918 0.27466009749458781 0 -0.40182109742498379 0.26545057739273081 0 -0.40034055758036918 0.27466009749458781 0 -0.39326529473805538 0.26722913724577502 0 -0.39878234252672662 0.28665855395833539 0 -0.39047550313323443 0.27960918621742559 0 -0.40034055758036918 0.27466009749458781 0 -0.40034055758036918 0.27466009749458781 0 -0.39326529473805538 0.26722913724577502 0 -0.35396282159390041 0.26731142605190861 0 -0.35423514933838801 0.2832257002374412 0 -0.34233720485403513 0.28036073671319461 0 -0.35396282159390041 0.26731142605190861 0 -0.33507962698140731 0.27347426860428459 0 -0.34233720485403513 0.28036073671319461 0 -0.35396282159390041 0.26731142605190861 0 -0.36758068844700442 0.28283219180837971 0 -0.35423514933838801 0.2832257002374412 0 -0.349168950573648 0.24461174048215961 0 -0.35441571991901027 0.25293985774613809 0 -0.34343303623725818 0.25305164460875029 0 -0.35396282159390041 0.26731142605190861 0 -0.35441571991901027 0.25293985774613809 0 -0.34343303623725818 0.25305164460875029 0 -0.35396282159390041 0.26731142605190861 0 -0.35441571991901027 0.25293985774613809 0 -0.36564378371888578 0.25642583163127303 0 -0.37715168958713491 0.27098576177324768 0 -0.35396282159390041 0.26731142605190861 0 -0.36564378371888578 0.25642583163127303 0 -0.359870007471359 0.2432986459565987 0 -0.35441571991901027 0.25293985774613809 0 -0.36564378371888578 0.25642583163127303 0 -0.37226323271995287 0.2464569405446172 0 -0.37651506604963109 0.25601082237640183 0 -0.36564378371888578 0.25642583163127303 0 -0.37715168958713491 0.27098576177324768 0 -0.37651506604963109 0.25601082237640183 0 -0.36564378371888578 0.25642583163127303 0 -0.37715168958713491 0.27098576177324768 0 -0.35396282159390041 0.26731142605190861 0 -0.36758068844700442 0.28283219180837971 0 -0.37715168958713491 0.27098576177324768 0 -0.35396282159390041 0.26731142605190861 0 -0.37378381720773463 0.29705911777762428 0 -0.34823653654474401 0.29537291779354968 0 -0.36072323011616192 0.29227881336652373 0 -0.37378381720773463 0.29705911777762428 0 -0.34823653654474401 0.29537291779354968 0 -0.36758068844700442 0.28283219180837971 0 -0.36072323011616192 0.29227881336652373 0 -0.37378381720773463 0.29705911777762428 0 -0.36758068844700442 0.28283219180837971 0 -0.36072323011616192 0.29227881336652373 0 -0.35423514933838801 0.2832257002374412 0 -0.37378381720773463 0.29705911777762428 0 -0.36009358464950669 0.31010312435124632 0 -0.34823653654474401 0.29537291779354968 0 -0.37917400688963587 0.31589610068899771 0 -0.37378381720773463 0.29705911777762428 0 -0.36009358464950669 0.31010312435124632 0 -0.34919002071760191 0.30843847545482961 0 -0.34823653654474401 0.29537291779354968 0 -0.33940693028763802 0.31213817834532359 0 -0.36009358464950669 0.31010312435124632 0 -0.34919002071760191 0.30843847545482961 0 -0.34902303138851881 0.31613968132919862 0 -0.36009358464950669 0.31010312435124632 0 -0.34919002071760191 0.30843847545482961 0 -0.34823653654474401 0.29537291779354968 0 -0.34919002071760191 0.30843847545482961 0 -0.33940693028763802 0.31213817834532359 0 -0.34902303138851881 0.31613968132919862 0 -0.36072323011616192 0.29227881336652373 0 -0.34823653654474401 0.29537291779354968 0 -0.36072323011616192 0.29227881336652373 0 -0.35423514933838801 0.2832257002374412 0 -0.34823653654474401 0.29537291779354968 0 -0.35423514933838801 0.2832257002374412 0 -0.34823653654474401 0.29537291779354968 0 -0.34233720485403513 0.28036073671319461 0 -0.34823653654474401 0.29537291779354968 0 -0.33166024813203232 0.28324648947914682 0 -0.32081122445402221 0.29356276189395891 0 -0.34823653654474401 0.29537291779354968 0 -0.33166024813203232 0.28324648947914682 0 -0.34233720485403513 0.28036073671319461 0 -0.34823653654474401 0.29537291779354968 0 -0.32081122445402221 0.29356276189395891 0 -0.34823653654474401 0.29537291779354968 0 -0.32053553201056889 0.3022370087774468 0 -0.32081122445402221 0.29356276189395891 0 -0.34823653654474401 0.29537291779354968 0 -0.33940693028763802 0.31213817834532359 0 -0.32921626022234141 0.31039329000270788 0 -0.34823653654474401 0.29537291779354968 0 -0.32921626022234141 0.31039329000270788 0 -0.32053553201056889 0.3022370087774468 0 -0.34823653654474401 0.29537291779354968 0 -0.32053553201056889 0.3022370087774468 0 -0.32053553201056889 0.3022370087774468 0 -0.32081122445402221 0.29356276189395891 0 -0.33166024813203232 0.28324648947914682 0 -0.32081122445402221 0.29356276189395891 0 -0.32149116562685198 0.27216943850246178 0 -0.32053553201056889 0.3022370087774468 0 -0.32081122445402221 0.29356276189395891 0 -0.29837423044830957 0.29208185050326352 0 -0.32081122445402221 0.29356276189395891 0 -0.32149116562685198 0.27216943850246178 0 -0.32081122445402221 0.29356276189395891 0 -0.32149116562685198 0.27216943850246178 0 -0.30777934672307489 0.27962575233751069 0 -0.33166024813203232 0.28324648947914682 0 -0.32149116562685198 0.27216943850246178 0 -0.33507962698140731 0.27347426860428459 0 -0.35396282159390041 0.26731142605190861 0 -0.33507962698140731 0.27347426860428459 0 -0.33077395360066592 0.26363709033056942 0 -0.32149116562685198 0.27216943850246178 0 -0.33507962698140731 0.27347426860428459 0 -0.33077395360066592 0.26363709033056942 0 -0.33166024813203232 0.28324648947914682 0 -0.33507962698140731 0.27347426860428459 0 -0.34233720485403513 0.28036073671319461 0 -0.35396282159390041 0.26731142605190861 0 -0.34343303623725818 0.25305164460875029 0 -0.33077395360066592 0.26363709033056942 0 -0.35396282159390041 0.26731142605190861 0 -0.33077395360066592 0.26363709033056942 0 -0.34343303623725818 0.25305164460875029 0 -0.33077395360066592 0.26363709033056942 0 -0.33358925004341172 0.2511561204692771 0 -0.33077395360066592 0.26363709033056942 0 -0.33358925004341172 0.2511561204692771 0 -0.32217110679968458 0.2507761151109647 0 -0.32149116562685198 0.27216943850246178 0 -0.32217110679968458 0.2507761151109647 0 -0.30675981668065688 0.26405105644483501 0 -0.32149116562685198 0.27216943850246178 0 -0.33077395360066592 0.26363709033056942 0 -0.32217110679968458 0.2507761151109647 0 -0.32149116562685198 0.27216943850246178 0 -0.32217110679968458 0.2507761151109647 0 -0.32217110679968458 0.2507761151109647 0 -0.30675981668065688 0.26405105644483501 0 -0.30805819656909422 0.24168383047180639 0 -0.32217110679968458 0.2507761151109647 0 -0.30675981668065688 0.26405105644483501 0 -0.30805819656909422 0.24168383047180639 0 -0.30675981668065688 0.26405105644483501 0 -0.29537591907149241 0.25598272610479222 0 -0.30675981668065688 0.26405105644483501 0 -0.29134852656162802 0.27732599777870381 0 -0.29537591907149241 0.25598272610479222 0 -0.30675981668065688 0.26405105644483501 0 -0.30777934672307489 0.27962575233751069 0 -0.29134852656162802 0.27732599777870381 0 -0.32149116562685198 0.27216943850246178 0 -0.30675981668065688 0.26405105644483501 0 -0.30777934672307489 0.27962575233751069 0 -0.30675981668065688 0.26405105644483501 0 -0.29134852656162802 0.27732599777870381 0 -0.29134852656162802 0.27732599777870381 0 -0.27943339878110163 0.25757184166475711 0 -0.27775924108296057 0.27398781768808789 0 -0.29134852656162802 0.27732599777870381 0 -0.27775924108296057 0.27398781768808789 0 -0.27593723644259699 0.29060093911257029 0 -0.29127965676498152 0.23928090416385869 0 -0.29537591907149241 0.25598272610479222 0 -0.27943339878110163 0.25757184166475711 0 -0.29134852656162802 0.27732599777870381 0 -0.29537591907149241 0.25598272610479222 0 -0.27943339878110163 0.25757184166475711 0 -0.2600074789863453 0.24469250987655841 0 -0.27943339878110163 0.25757184166475711 0 -0.2643178025465156 0.27045249219632272 0 -0.27943339878110163 0.25757184166475711 0 -0.27775924108296057 0.27398781768808789 0 -0.2643178025465156 0.27045249219632272 0 -0.27775924108296057 0.27398781768808789 0 -0.2643178025465156 0.27045249219632272 0 -0.27593723644259699 0.29060093911257029 0 -0.2643178025465156 0.27045249219632272 0 -0.24824953514718179 0.28877346470935211 0 -0.24724927781079989 0.26690283094043671 0 -0.2600074789863453 0.24469250987655841 0 -0.2643178025465156 0.27045249219632272 0 -0.24724927781079989 0.26690283094043671 0 -0.26027968154127462 0.30408800743336623 0 -0.2446221266399502 0.31757507575415972 0 -0.26027968154127462 0.30408800743336623 0 -0.24824953514718179 0.28877346470935211 0 -0.24842767277384331 0.30655992388829872 0 -0.26027968154127462 0.30408800743336623 0 -0.2446221266399502 0.31757507575415972 0 -0.24842767277384331 0.30655992388829872 0 -0.27593723644259699 0.29060093911257029 0 -0.24824953514718179 0.28877346470935211 0 -0.2643178025465156 0.27045249219632272 0 -0.27593723644259699 0.29060093911257029 0 -0.24824953514718179 0.28877346470935211 0 -0.26027968154127462 0.30408800743336623 0 -0.27593723644259699 0.29060093911257029 0 -0.24824953514718179 0.28877346470935211 0 -0.26027968154127462 0.30408800743336623 0 -0.27593723644259699 0.29060093911257029 0 -0.26027968154127462 0.30408800743336623 0 -0.28082321907745977 0.30251813001032912 0 -0.27141824866358522 0.31440788515702522 0 -0.26027968154127462 0.30408800743336623 0 -0.27593723644259699 0.29060093911257029 0 -0.28082321907745977 0.30251813001032912 0 -0.28082321907745977 0.30251813001032912 0 -0.29597689033707708 0.30832244696723632 0 -0.27141824866358522 0.31440788515702522 0 -0.29597689033707708 0.30832244696723632 0 -0.27141824866358522 0.31440788515702522 0 -0.28082321907745977 0.30251813001032912 0 -0.29597689033707708 0.30832244696723632 0 -0.29837423044830957 0.29208185050326352 0 -0.27593723644259699 0.29060093911257029 0 -0.28082321907745977 0.30251813001032912 0 -0.29837423044830957 0.29208185050326352 0 -0.29134852656162802 0.27732599777870381 0 -0.27593723644259699 0.29060093911257029 0 -0.29837423044830957 0.29208185050326352 0 -0.27593723644259699 0.29060093911257029 0 -0.29837423044830957 0.29208185050326352 0 -0.29134852656162802 0.27732599777870381 0 -0.27593723644259699 0.29060093911257029 0 -0.30777934672307489 0.27962575233751069 0 -0.29134852656162802 0.27732599777870381 0 -0.29837423044830957 0.29208185050326352 0 -0.32081122445402221 0.29356276189395891 0 -0.29837423044830957 0.29208185050326352 0 -0.32081122445402221 0.29356276189395891 0 -0.30777934672307489 0.27962575233751069 0 -0.29837423044830957 0.29208185050326352 0 -0.32053553201056889 0.3022370087774468 0 -0.29597689033707708 0.30832244696723632 0 -0.32053553201056889 0.3022370087774468 0 -0.29597689033707708 0.30832244696723632 0 -0.31032789853348852 0.31526055359928429 0 -0.32053553201056889 0.3022370087774468 0 -0.29597689033707708 0.30832244696723632 0 -0.29837423044830957 0.29208185050326352 0 -0.29597689033707708 0.30832244696723632 0 -0.30380220742970432 0.32313200440272433 0 -0.29336998653473301 0.32448949108131758 0 -0.31032789853348852 0.31526055359928429 0 -0.30380220742970432 0.32313200440272433 0 -0.31970527813781707 0.32835969454278052 0 -0.30380220742970432 0.32313200440272433 0 -0.3070115394128109 0.33327859500655832 0 -0.29336998653473301 0.32448949108131758 0 -0.29597689033707708 0.30832244696723632 0 -0.31032789853348852 0.31526055359928429 0 -0.30380220742970432 0.32313200440272433 0 -0.30380220742970432 0.32313200440272433 0 -0.3070115394128109 0.33327859500655832 0 -0.31970527813781707 0.32835969454278052 0 -0.3070115394128109 0.33327859500655832 0 -0.31222035237895812 0.34479012810722909 0 -0.29939192420759292 0.35036510478762928 0 -0.3070115394128109 0.33327859500655832 0 -0.29277606866466022 0.34297909484169947 0 -0.29939192420759292 0.35036510478762928 0 -0.3070115394128109 0.33327859500655832 0 -0.28112213613298892 0.33543406994842012 0 -0.3070115394128109 0.33327859500655832 0 -0.29336998653473301 0.32448949108131758 0 -0.28112213613298892 0.33543406994842012 0 -0.3070115394128109 0.33327859500655832 0 -0.29277606866466022 0.34297909484169947 0 -0.28112213613298892 0.33543406994842012 0 -0.29597689033707708 0.30832244696723632 0 -0.29336998653473301 0.32448949108131758 0 -0.28075544974987171 0.32285096660956231 0 -0.29597689033707708 0.30832244696723632 0 -0.27141824866358522 0.31440788515702522 0 -0.28075544974987171 0.32285096660956231 0 -0.29336998653473301 0.32448949108131758 0 -0.28075544974987171 0.32285096660956231 0 -0.28112213613298892 0.33543406994842012 0 -0.28075544974987171 0.32285096660956231 0 -0.26895304583183538 0.33432870889915528 0 -0.26258780862415088 0.32660928131029998 0 -0.27141824866358522 0.31440788515702522 0 -0.28075544974987171 0.32285096660956231 0 -0.26258780862415088 0.32660928131029998 0 -0.28075544974987171 0.32285096660956231 0 -0.28112213613298892 0.33543406994842012 0 -0.26895304583183538 0.33432870889915528 0 -0.28112213613298892 0.33543406994842012 0 -0.26895304583183538 0.33432870889915528 0 -0.26666271821240878 0.34793975007619982 0 -0.26895304583183538 0.33432870889915528 0 -0.25156329604942562 0.33651263867610021 0 -0.26666271821240878 0.34793975007619982 0 -0.26895304583183538 0.33432870889915528 0 -0.25156329604942562 0.33651263867610021 0 -0.26258780862415088 0.32660928131029998 0 -0.25156329604942562 0.33651263867610021 0 -0.26258780862415088 0.32660928131029998 0 -0.24896704054743329 0.32857474645167017 0 -0.25745817620631561 0.32252130906645238 0 -0.26258780862415088 0.32660928131029998 0 -0.24896704054743329 0.32857474645167017 0 -0.27141824866358522 0.31440788515702522 0 -0.24685960699009321 0.32049332334681419 0 -0.26027968154127462 0.30408800743336623 0 -0.2446221266399502 0.31757507575415972 0 -0.24685960699009321 0.32049332334681419 0 -0.27141824866358522 0.31440788515702522 0 -0.25745817620631561 0.32252130906645238 0 -0.24685960699009321 0.32049332334681419 0 -0.25745817620631561 0.32252130906645238 0 -0.24685960699009321 0.32049332334681419 0 -0.24896704054743329 0.32857474645167017 0 -0.26027968154127462 0.30408800743336623 0 -0.27141824866358522 0.31440788515702522 0 -0.24685960699009321 0.32049332334681419 0 -0.27141824866358522 0.31440788515702522 0 -0.25745817620631561 0.32252130906645238 0 -0.26258780862415088 0.32660928131029998 0 -0.26666271821240878 0.34793975007619982 0 -0.26959904579989358 0.36823169106880038 0 -0.24502007116375729 0.36412661393409479 0 -0.26959904579989358 0.36823169106880038 0 -0.25947252354766731 0.38536404412535208 0 -0.24502007116375729 0.36412661393409479 0 -0.25156329604942562 0.33651263867610021 0 -0.26666271821240878 0.34793975007619982 0 -0.24502007116375729 0.36412661393409479 0 -0.26666271821240878 0.34793975007619982 0 -0.26959904579989358 0.36823169106880038 0 -0.28357867490524791 0.35283860962419028 0 -0.28112213613298892 0.33543406994842012 0 -0.26666271821240878 0.34793975007619982 0 -0.28357867490524791 0.35283860962419028 0 -0.26959904579989358 0.36823169106880038 0 -0.28536549521080251 0.37456491361087513 0 -0.28357867490524791 0.35283860962419028 0 -0.28536549521080251 0.37456491361087513 0 -0.29408180433457182 0.36291143660207947 0 -0.28357867490524791 0.35283860962419028 0 -0.28536549521080251 0.37456491361087513 0 -0.28357867490524791 0.35283860962419028 0 -0.28536549521080251 0.37456491361087513 0 -0.29408180433457182 0.36291143660207947 0 -0.29835270234518019 0.38126677504773931 0 -0.29277606866466022 0.34297909484169947 0 -0.28357867490524791 0.35283860962419028 0 -0.29939192420759292 0.35036510478762928 0 -0.29408180433457182 0.36291143660207947 0 -0.28357867490524791 0.35283860962419028 0 -0.29939192420759292 0.35036510478762928 0 -0.29277606866466022 0.34297909484169947 0 -0.28112213613298892 0.33543406994842012 0 -0.28357867490524791 0.35283860962419028 0 -0.31222035237895812 0.34479012810722909 0 -0.29939192420759292 0.35036510478762928 0 -0.30955308917400348 0.36624233249791871 0 -0.29408180433457182 0.36291143660207947 0 -0.30955308917400348 0.36624233249791871 0 -0.29835270234518019 0.38126677504773931 0 -0.29408180433457182 0.36291143660207947 0 -0.29939192420759292 0.35036510478762928 0 -0.30955308917400348 0.36624233249791871 0 -0.30955308917400348 0.36624233249791871 0 -0.29835270234518019 0.38126677504773931 0 -0.30955308917400348 0.36624233249791871 0 -0.32947992251328401 0.37520669504241272 0 -0.30984332572269568 0.37814573793530892 0 -0.30955308917400348 0.36624233249791871 0 -0.33087015097395589 0.36029820297743148 0 -0.32947992251328401 0.37520669504241272 0 -0.33087015097395589 0.36029820297743148 0 -0.3502945826850592 0.36041913051468838 0 -0.32947992251328401 0.37520669504241272 0 -0.3502945826850592 0.36041913051468838 0 -0.32947992251328401 0.37520669504241272 0 -0.33087015097395589 0.36029820297743148 0 -0.33848692964836707 0.34922243061461811 0 -0.3502945826850592 0.36041913051468838 0 -0.33087015097395589 0.36029820297743148 0 -0.33848692964836707 0.34922243061461811 0 -0.32365267431067252 0.34953135537314423 0 -0.30955308917400348 0.36624233249791871 0 -0.33087015097395589 0.36029820297743148 0 -0.32365267431067252 0.34953135537314423 0 -0.31222035237895812 0.34479012810722909 0 -0.30955308917400348 0.36624233249791871 0 -0.32365267431067252 0.34953135537314423 0 -0.3070115394128109 0.33327859500655832 0 -0.31970527813781707 0.32835969454278052 0 -0.33290094269263287 0.33112312006469641 0 -0.31222035237895812 0.34479012810722909 0 -0.32365267431067252 0.34953135537314423 0 -0.33290094269263287 0.33112312006469641 0 -0.3070115394128109 0.33327859500655832 0 -0.33290094269263287 0.33112312006469641 0 -0.3070115394128109 0.33327859500655832 0 -0.31222035237895812 0.34479012810722909 0 -0.33290094269263287 0.33112312006469641 0 -0.32921626022234141 0.31039329000270788 0 -0.31970527813781707 0.32835969454278052 0 -0.33162796413091872 0.32071545897008219 0 -0.32921626022234141 0.31039329000270788 0 -0.32053553201056889 0.3022370087774468 0 -0.31970527813781707 0.32835969454278052 0 -0.32053553201056889 0.3022370087774468 0 -0.31970527813781707 0.32835969454278052 0 -0.32053553201056889 0.3022370087774468 0 -0.31032789853348852 0.31526055359928429 0 -0.31970527813781707 0.32835969454278052 0 -0.31970527813781707 0.32835969454278052 0 -0.33162796413091872 0.32071545897008219 0 -0.33290094269263287 0.33112312006469641 0 -0.33940693028763802 0.31213817834532359 0 -0.32921626022234141 0.31039329000270788 0 -0.33162796413091872 0.32071545897008219 0 -0.33162796413091872 0.32071545897008219 0 -0.3423498428944326 0.32181681676642698 0 -0.33290094269263287 0.33112312006469641 0 -0.33940693028763802 0.31213817834532359 0 -0.3423498428944326 0.32181681676642698 0 -0.34902303138851881 0.31613968132919862 0 -0.33940693028763802 0.31213817834532359 0 -0.33162796413091872 0.32071545897008219 0 -0.3423498428944326 0.32181681676642698 0 -0.33848692964836707 0.34922243061461811 0 -0.32365267431067252 0.34953135537314423 0 -0.33290094269263287 0.33112312006469641 0 -0.33848692964836707 0.34922243061461811 0 -0.33290094269263287 0.33112312006469641 0 -0.35157351985919688 0.3435492257985801 0 -0.33290094269263287 0.33112312006469641 0 -0.35157351985919688 0.3435492257985801 0 -0.35879034597245468 0.32896764512283461 0 -0.33290094269263287 0.33112312006469641 0 -0.35879034597245468 0.32896764512283461 0 -0.3423498428944326 0.32181681676642698 0 -0.33290094269263287 0.33112312006469641 0 -0.35879034597245468 0.32896764512283461 0 -0.36009358464950669 0.31010312435124632 0 -0.35879034597245468 0.32896764512283461 0 -0.34902303138851881 0.31613968132919862 0 -0.3423498428944326 0.32181681676642698 0 -0.35879034597245468 0.32896764512283461 0 -0.34902303138851881 0.31613968132919862 0 -0.3752493746868838 0.33033482831450922 0 -0.37917400688963587 0.31589610068899771 0 -0.35879034597245468 0.32896764512283461 0 -0.37917400688963587 0.31589610068899771 0 -0.36009358464950669 0.31010312435124632 0 -0.35879034597245468 0.32896764512283461 0 -0.35157351985919688 0.3435492257985801 0 -0.35879034597245468 0.32896764512283461 0 -0.37110924285683439 0.34563156598696432 0 -0.3752493746868838 0.33033482831450922 0 -0.35879034597245468 0.32896764512283461 0 -0.37110924285683439 0.34563156598696432 0 -0.37110924285683439 0.34563156598696432 0 -0.3502945826850592 0.36041913051468838 0 -0.37589529337035749 0.36716626307641992 0 -0.37110924285683439 0.34563156598696432 0 -0.3502945826850592 0.36041913051468838 0 -0.37589529337035749 0.36716626307641992 0 -0.3502945826850592 0.36041913051468838 0 -0.35628944298636539 0.37863477355745262 0 -0.3502945826850592 0.36041913051468838 0 -0.35628944298636539 0.37863477355745262 0 -0.32947992251328401 0.37520669504241272 0 -0.35157351985919688 0.3435492257985801 0 -0.37110924285683439 0.34563156598696432 0 -0.3502945826850592 0.36041913051468838 0 -0.33848692964836707 0.34922243061461811 0 -0.35157351985919688 0.3435492257985801 0 -0.3502945826850592 0.36041913051468838 0 -0.35098471510297191 0.40388746576952778 0 -0.36195575347275633 0.39306041310951662 0 -0.34246735133485118 0.38964802970187412 0 -0.35628944298636539 0.37863477355745262 0 -0.36195575347275633 0.39306041310951662 0 -0.34246735133485118 0.38964802970187412 0 -0.37616830246096139 0.38616455620160672 0 -0.37589529337035749 0.36716626307641992 0 -0.35628944298636539 0.37863477355745262 0 -0.37616830246096139 0.38616455620160672 0 -0.35628944298636539 0.37863477355745262 0 -0.36195575347275633 0.39306041310951662 0 -0.35098471510297191 0.40388746576952778 0 -0.36195575347275633 0.39306041310951662 0 -0.37100301333298008 0.40571545206884152 0 -0.37616830246096139 0.38616455620160672 0 -0.36195575347275633 0.39306041310951662 0 -0.37100301333298008 0.40571545206884152 0 -0.37100301333298008 0.40571545206884152 0 -0.37368084132528601 0.42487303288155448 0 -0.35824800330533008 0.41780836131865118 0 -0.35098471510297191 0.40388746576952778 0 -0.37100301333298008 0.40571545206884152 0 -0.35824800330533008 0.41780836131865118 0 -0.35195443378254221 0.43357138946376672 0 -0.36773662445902461 0.43779845492784603 0 -0.36295631473947088 0.42816128399071512 0 -0.35195443378254221 0.43357138946376672 0 -0.36773662445902461 0.43779845492784603 0 -0.37368084132528601 0.42487303288155448 0 -0.36295631473947088 0.42816128399071512 0 -0.36773662445902461 0.43779845492784603 0 -0.37368084132528601 0.42487303288155448 0 -0.36773662445902461 0.43779845492784603 0 -0.37368084132528601 0.42487303288155448 0 -0.36295631473947088 0.42816128399071512 0 -0.35824800330533008 0.41780836131865118 0 -0.35195443378254221 0.43357138946376672 0 -0.33617224310606009 0.42934432399968658 0 -0.35195443378254221 0.43357138946376672 0 -0.3468641700143677 0.42127388225548912 0 -0.33617224310606009 0.42934432399968658 0 -0.36295631473947088 0.42816128399071512 0 -0.35195443378254221 0.43357138946376672 0 -0.35824800330533008 0.41780836131865118 0 -0.35195443378254221 0.43357138946376672 0 -0.3468641700143677 0.42127388225548912 0 -0.35824800330533008 0.41780836131865118 0 -0.35098471510297191 0.40388746576952778 0 -0.3468641700143677 0.42127388225548912 0 -0.35824800330533008 0.41780836131865118 0 -0.35098471510297191 0.40388746576952778 0 -0.3468641700143677 0.42127388225548912 0 -0.33880438319596351 0.41266399847942509 0 -0.33880438319596351 0.41266399847942509 0 -0.33617224310606009 0.42934432399968658 0 -0.32525280308265991 0.41392063134456047 0 -0.33880438319596351 0.41266399847942509 0 -0.32525280308265991 0.41392063134456047 0 -0.33003215321201379 0.39804023335180477 0 -0.3468641700143677 0.42127388225548912 0 -0.33880438319596351 0.41266399847942509 0 -0.33617224310606009 0.42934432399968658 0 -0.35195443378254221 0.43357138946376672 0 -0.33617224310606009 0.42934432399968658 0 -0.3387114593119136 0.44920969993080512 0 -0.33617224310606009 0.42934432399968658 0 -0.31933847227121598 0.42644754444390598 0 -0.32673303761114109 0.44027513227139142 0 -0.33617224310606009 0.42934432399968658 0 -0.31933847227121598 0.42644754444390598 0 -0.32525280308265991 0.41392063134456047 0 -0.31933847227121598 0.42644754444390598 0 -0.31166180754171913 0.43961960777695369 0 -0.32673303761114109 0.44027513227139142 0 -0.31933847227121598 0.42644754444390598 0 -0.32525280308265991 0.41392063134456047 0 -0.31126025013170738 0.41364534075259252 0 -0.32525280308265991 0.41392063134456047 0 -0.31590931657899829 0.40338234703994807 0 -0.31126025013170738 0.41364534075259252 0 -0.32525280308265991 0.41392063134456047 0 -0.31590931657899829 0.40338234703994807 0 -0.33003215321201379 0.39804023335180477 0 -0.31590931657899829 0.40338234703994807 0 -0.33003215321201379 0.39804023335180477 0 -0.30866526234150871 0.38999425957013689 0 -0.35098471510297191 0.40388746576952778 0 -0.33880438319596351 0.41266399847942509 0 -0.33003215321201379 0.39804023335180477 0 -0.35098471510297191 0.40388746576952778 0 -0.33003215321201379 0.39804023335180477 0 -0.34246735133485118 0.38964802970187412 0 -0.33003215321201379 0.39804023335180477 0 -0.34246735133485118 0.38964802970187412 0 -0.32947992251328401 0.37520669504241272 0 -0.35628944298636539 0.37863477355745262 0 -0.34246735133485118 0.38964802970187412 0 -0.32947992251328401 0.37520669504241272 0 -0.32947992251328401 0.37520669504241272 0 -0.30984332572269568 0.37814573793530892 0 -0.30866526234150871 0.38999425957013689 0 -0.32947992251328401 0.37520669504241272 0 -0.30866526234150871 0.38999425957013689 0 -0.33003215321201379 0.39804023335180477 0 -0.32947992251328401 0.37520669504241272 0 -0.30866526234150871 0.38999425957013689 0 -0.30866526234150871 0.38999425957013689 0 -0.29835270234518019 0.38126677504773931 0 -0.28715231551635689 0.39629121759755997 0 -0.30955308917400348 0.36624233249791871 0 -0.30984332572269568 0.37814573793530892 0 -0.29835270234518019 0.38126677504773931 0 -0.30984332572269568 0.37814573793530892 0 -0.30866526234150871 0.38999425957013689 0 -0.29835270234518019 0.38126677504773931 0 -0.30866526234150871 0.38999425957013689 0 -0.28785060216973452 0.4047818240978629 0 -0.30866526234150871 0.38999425957013689 0 -0.30331316134954228 0.404503674396966 0 -0.28785060216973452 0.4047818240978629 0 -0.31590931657899829 0.40338234703994807 0 -0.30866526234150871 0.38999425957013689 0 -0.30331316134954228 0.404503674396966 0 -0.30866526234150871 0.38999425957013689 0 -0.28715231551635689 0.39629121759755997 0 -0.28785060216973452 0.4047818240978629 0 -0.28715231551635689 0.39629121759755997 0 -0.28785060216973452 0.4047818240978629 0 -0.27290991419592509 0.41539628456360872 0 -0.28715231551635689 0.39629121759755997 0 -0.28785060216973452 0.4047818240978629 0 -0.28536549521080251 0.37456491361087513 0 -0.29835270234518019 0.38126677504773931 0 -0.28715231551635689 0.39629121759755997 0 -0.28536549521080251 0.37456491361087513 0 -0.28715231551635689 0.39629121759755997 0 -0.28536549521080251 0.37456491361087513 0 -0.28715231551635689 0.39629121759755997 0 -0.27439020628441357 0.38455766564534177 0 -0.29835270234518019 0.38126677504773931 0 -0.28715231551635689 0.39629121759755997 0 -0.26959904579989358 0.36823169106880038 0 -0.28536549521080251 0.37456491361087513 0 -0.27439020628441357 0.38455766564534177 0 -0.26959904579989358 0.36823169106880038 0 -0.27439020628441357 0.38455766564534177 0 -0.25947252354766731 0.38536404412535208 0 -0.27439020628441357 0.38455766564534177 0 -0.27036165134734758 0.39833646182412102 0 -0.25947252354766731 0.38536404412535208 0 -0.28715231551635689 0.39629121759755997 0 -0.27036165134734758 0.39833646182412102 0 -0.27290991419592509 0.41539628456360872 0 -0.28715231551635689 0.39629121759755997 0 -0.27290991419592509 0.41539628456360872 0 -0.28715231551635689 0.39629121759755997 0 -0.27439020628441357 0.38455766564534177 0 -0.27036165134734758 0.39833646182412102 0 -0.27036165134734758 0.39833646182412102 0 -0.25947252354766731 0.38536404412535208 0 -0.25483706146368729 0.40847711791967589 0 -0.25947252354766731 0.38536404412535208 0 -0.25483706146368729 0.40847711791967589 0 -0.23847684627808891 0.39174058919208932 0 -0.25905138989866389 0.43398641053976372 0 -0.25075281669238109 0.42466794299229987 0 -0.24142241939097361 0.43495055025936369 0 -0.26220594206793751 0.42300081316216909 0 -0.25905138989866389 0.43398641053976372 0 -0.27290991419592509 0.41539628456360872 0 -0.26220594206793751 0.42300081316216909 0 -0.25905138989866389 0.43398641053976372 0 -0.25075281669238109 0.42466794299229987 0 -0.26220594206793751 0.42300081316216909 0 -0.25483706146368729 0.40847711791967589 0 -0.27290991419592509 0.41539628456360872 0 -0.26220594206793751 0.42300081316216909 0 -0.25075281669238109 0.42466794299229987 0 -0.25483706146368729 0.40847711791967589 0 -0.27036165134734758 0.39833646182412102 0 -0.25483706146368729 0.40847711791967589 0 -0.27290991419592509 0.41539628456360872 0 -0.26220594206793751 0.42300081316216909 0 -0.27290991419592509 0.41539628456360872 0 -0.28785060216973452 0.4047818240978629 0 -0.27290991419592509 0.41539628456360872 0 -0.25905138989866389 0.43398641053976372 0 -0.27290991419592509 0.41539628456360872 0 -0.27523670425634561 0.43159152803461442 0 -0.25905138989866389 0.43398641053976372 0 -0.27290991419592509 0.41539628456360872 0 -0.25905138989866389 0.43398641053976372 0 -0.27523670425634561 0.43159152803461442 0 -0.26886771761950379 0.44443803746124111 0 -0.27290991419592509 0.41539628456360872 0 -0.27523670425634561 0.43159152803461442 0 -0.28919183699302509 0.42109016545578531 0 -0.29053307181631161 0.43739850681370801 0 -0.28919183699302509 0.42109016545578531 0 -0.30343175282279311 0.42519097825185631 0 -0.27523670425634561 0.43159152803461442 0 -0.29053307181631161 0.43739850681370801 0 -0.28919183699302509 0.42109016545578531 0 -0.29053307181631161 0.43739850681370801 0 -0.28919183699302509 0.42109016545578531 0 -0.28785060216973452 0.4047818240978629 0 -0.28919183699302509 0.42109016545578531 0 -0.2965765961506861 0.4127339833050645 0 -0.28785060216973452 0.4047818240978629 0 -0.28919183699302509 0.42109016545578531 0 -0.28785060216973452 0.4047818240978629 0 -0.27290991419592509 0.41539628456360872 0 -0.28919183699302509 0.42109016545578531 0 -0.28919183699302509 0.42109016545578531 0 -0.2965765961506861 0.4127339833050645 0 -0.30343175282279311 0.42519097825185631 0 -0.30331316134954228 0.404503674396966 0 -0.28785060216973452 0.4047818240978629 0 -0.2965765961506861 0.4127339833050645 0 -0.31933847227121598 0.42644754444390598 0 -0.31126025013170738 0.41364534075259252 0 -0.30343175282279311 0.42519097825185631 0 -0.30331316134954228 0.404503674396966 0 -0.2965765961506861 0.4127339833050645 0 -0.31126025013170738 0.41364534075259252 0 -0.2965765961506861 0.4127339833050645 0 -0.31126025013170738 0.41364534075259252 0 -0.30343175282279311 0.42519097825185631 0 -0.31590931657899829 0.40338234703994807 0 -0.30331316134954228 0.404503674396966 0 -0.31126025013170738 0.41364534075259252 0 -0.31933847227121598 0.42644754444390598 0 -0.30343175282279311 0.42519097825185631 0 -0.31166180754171913 0.43961960777695369 0 -0.29053307181631161 0.43739850681370801 0 -0.30343175282279311 0.42519097825185631 0 -0.31166180754171913 0.43961960777695369 0 -0.29053307181631161 0.43739850681370801 0 -0.31166180754171913 0.43961960777695369 0 -0.30192986024921481 0.45612018675775162 0 -0.31166180754171913 0.43961960777695369 0 -0.30192986024921481 0.45612018675775162 0 -0.32073422887045278 0.45843590989918059 0 -0.30192986024921481 0.45612018675775162 0 -0.31098517504859652 0.47520588115756213 0 -0.32073422887045278 0.45843590989918059 0 -0.30192986024921481 0.45612018675775162 0 -0.29141185786081492 0.47400200120539387 0 -0.31098517504859652 0.47520588115756213 0 -0.2871843700644971 0.45389186935127168 0 -0.27200261835149292 0.45996151561264009 0 -0.29141185786081492 0.47400200120539387 0 -0.30192986024921481 0.45612018675775162 0 -0.2871843700644971 0.45389186935127168 0 -0.29141185786081492 0.47400200120539387 0 -0.29053307181631161 0.43739850681370801 0 -0.2871843700644971 0.45389186935127168 0 -0.27876489642163021 0.44545629145469512 0 -0.29053307181631161 0.43739850681370801 0 -0.30192986024921481 0.45612018675775162 0 -0.2871843700644971 0.45389186935127168 0 -0.27523670425634561 0.43159152803461442 0 -0.29053307181631161 0.43739850681370801 0 -0.27876489642163021 0.44545629145469512 0 -0.27523670425634561 0.43159152803461442 0 -0.26886771761950379 0.44443803746124111 0 -0.27876489642163021 0.44545629145469512 0 -0.26886771761950379 0.44443803746124111 0 -0.27876489642163021 0.44545629145469512 0 -0.27200261835149292 0.45996151561264009 0 -0.2871843700644971 0.45389186935127168 0 -0.27876489642163021 0.44545629145469512 0 -0.27200261835149292 0.45996151561264009 0 -0.27200261835149292 0.45996151561264009 0 -0.25150952987821112 0.47470186512355511 0 -0.24519286560140291 0.45257653651591873 0 -0.25905138989866389 0.43398641053976372 0 -0.26886771761950379 0.44443803746124111 0 -0.24519286560140291 0.45257653651591873 0 -0.26886771761950379 0.44443803746124111 0 -0.27200261835149292 0.45996151561264009 0 -0.24519286560140291 0.45257653651591873 0 -0.25905138989866389 0.43398641053976372 0 -0.24519286560140291 0.45257653651591873 0 -0.25539830446665862 0.5 0 -0.25150952987821112 0.47470186512355511 0 -0.27072630423217647 0.48173307638831792 0 -0.27200261835149292 0.45996151561264009 0 -0.25150952987821112 0.47470186512355511 0 -0.27072630423217647 0.48173307638831792 0 -0.27200261835149292 0.45996151561264009 0 -0.27072630423217647 0.48173307638831792 0 -0.29141185786081492 0.47400200120539387 0 -0.25539830446665862 0.5 0 -0.27072630423217647 0.48173307638831792 0 -0.28330921060370517 0.5 0 -0.28330921060370517 0.5 0 -0.29141185786081492 0.47400200120539387 0 -0.31122011674075178 0.5 0 -0.27072630423217647 0.48173307638831792 0 -0.28330921060370517 0.5 0 -0.29141185786081492 0.47400200120539387 0 -0.29141185786081492 0.47400200120539387 0 -0.31098517504859652 0.47520588115756213 0 -0.31122011674075178 0.5 0 -0.31098517504859652 0.47520588115756213 0 -0.31122011674075178 0.5 0 -0.32618595436910991 0.48148727260611829 0 -0.31122011674075178 0.5 0 -0.3391310228777985 0.499999999999998 0 -0.32618595436910991 0.48148727260611829 0 -0.3391310228777985 0.499999999999998 0 -0.32618595436910991 0.48148727260611829 0 -0.3486662234048733 0.47926615164261382 0 -0.32618595436910991 0.48148727260611829 0 -0.33849985797765969 0.46538626747278949 0 -0.3486662234048733 0.47926615164261382 0 -0.31098517504859652 0.47520588115756213 0 -0.32618595436910991 0.48148727260611829 0 -0.32073422887045278 0.45843590989918059 0 -0.31166180754171913 0.43961960777695369 0 -0.32073422887045278 0.45843590989918059 0 -0.32673303761114109 0.44027513227139142 0 -0.33617224310606009 0.42934432399968658 0 -0.32673303761114109 0.44027513227139142 0 -0.3387114593119136 0.44920969993080512 0 -0.32073422887045278 0.45843590989918059 0 -0.32673303761114109 0.44027513227139142 0 -0.3387114593119136 0.44920969993080512 0 -0.32618595436910991 0.48148727260611829 0 -0.32073422887045278 0.45843590989918059 0 -0.33849985797765969 0.46538626747278949 0 -0.32073422887045278 0.45843590989918059 0 -0.3387114593119136 0.44920969993080512 0 -0.33849985797765969 0.46538626747278949 0 -0.3387114593119136 0.44920969993080512 0 -0.33849985797765969 0.46538626747278949 0 -0.35820142393194893 0.45853230328522981 0 -0.33849985797765969 0.46538626747278949 0 -0.35820142393194893 0.45853230328522981 0 -0.3486662234048733 0.47926615164261382 0 -0.35195443378254221 0.43357138946376672 0 -0.3387114593119136 0.44920969993080512 0 -0.35820142393194893 0.45853230328522981 0 -0.35195443378254221 0.43357138946376672 0 -0.35820142393194893 0.45853230328522981 0 -0.36773662445902461 0.43779845492784603 0 -0.37581633009392112 0.45660404423710022 0 -0.35820142393194893 0.45853230328522981 0 -0.36773662445902461 0.43779845492784603 0 -0.35820142393194893 0.45853230328522981 0 -0.36773662445902461 0.43779845492784603 0 -0.37581633009392112 0.45660404423710022 0 -0.35820142393194893 0.45853230328522981 0 -0.36877864751449968 0.47580037364186939 0 -0.36877864751449968 0.47580037364186939 0 -0.36642986923029169 0.5 0 -0.3486662234048733 0.47926615164261382 0 -0.38128831099671878 0.48646399471981211 0 -0.36877864751449968 0.47580037364186939 0 -0.36642986923029169 0.5 0 -0.3391310228777985 0.499999999999998 0 -0.36642986923029169 0.5 0 -0.3486662234048733 0.47926615164261382 0 -0.3391310228777985 0.499999999999998 0 -0.3486662234048733 0.47926615164261382 0 -0.35820142393194893 0.45853230328522981 0 -0.3486662234048733 0.47926615164261382 0 -0.35820142393194893 0.45853230328522981 0 -0.36877864751449968 0.47580037364186939 0 -0.3486662234048733 0.47926615164261382 0 -0.14460986503812809 0.46958507962907009 0 -0.15931341782775149 0.45801616605560719 0 -0.15663821178171311 0.48399278468992479 0 -0.14460986503812809 0.46958507962907009 0 -0.13460340659303571 0.4819639614800949 0 -0.15663821178171311 0.48399278468992479 0 -0.14375467991847241 0.5 0 -0.13460340659303571 0.4819639614800949 0 -0.15663821178171311 0.48399278468992479 0 -0.14375467991847241 0.5 0 -0.13460340659303571 0.4819639614800949 0 -0.11584377378142589 0.5 0 -0.13460340659303571 0.4819639614800949 0 -0.13155855870872779 0.46481004357031208 0 -0.1160935483599731 0.47027963037733622 0 -0.14460986503812809 0.46958507962907009 0 -0.13460340659303571 0.4819639614800949 0 -0.13155855870872779 0.46481004357031208 0 -0.13155855870872779 0.46481004357031208 0 -0.14081789306480841 0.4526232935076494 0 -0.1216680804876939 0.44959825285740967 0 -0.14460986503812809 0.46958507962907009 0 -0.13155855870872779 0.46481004357031208 0 -0.14081789306480841 0.4526232935076494 0 -0.13641966513628889 0.43641348377183509 0 -0.12008644197218619 0.42737002331699042 0 -0.1216680804876939 0.44959825285740967 0 -0.14081789306480841 0.4526232935076494 0 -0.13641966513628889 0.43641348377183509 0 -0.1216680804876939 0.44959825285740967 0 -0.13641966513628889 0.43641348377183509 0 -0.1216680804876939 0.44959825285740967 0 -0.14081789306480841 0.4526232935076494 0 -0.1531034199089383 0.44036764907100362 0 -0.13641966513628889 0.43641348377183509 0 -0.14081789306480841 0.4526232935076494 0 -0.1531034199089383 0.44036764907100362 0 -0.15931341782775149 0.45801616605560719 0 -0.14460986503812809 0.46958507962907009 0 -0.14081789306480841 0.4526232935076494 0 -0.15931341782775149 0.45801616605560719 0 -0.15931341782775149 0.45801616605560719 0 -0.17758148853823061 0.44429406315299041 0 -0.17253290817659839 0.47185016573504063 0 -0.1531034199089383 0.44036764907100362 0 -0.15931341782775149 0.45801616605560719 0 -0.17758148853823061 0.44429406315299041 0 -0.17758148853823061 0.44429406315299041 0 -0.19637340431787659 0.44196064379886979 0 -0.176008200812276 0.42684080999101442 0 -0.17758148853823061 0.44429406315299041 0 -0.17253290817659839 0.47185016573504063 0 -0.19827669466792591 0.4608009843052116 0 -0.17253290817659839 0.47185016573504063 0 -0.17166558605551899 0.5 0 -0.1915506994313913 0.48064506892556258 0 -0.17253290817659839 0.47185016573504063 0 -0.1915506994313913 0.48064506892556258 0 -0.19827669466792591 0.4608009843052116 0 -0.15931341782775149 0.45801616605560719 0 -0.17253290817659839 0.47185016573504063 0 -0.15663821178171311 0.48399278468992479 0 -0.17253290817659839 0.47185016573504063 0 -0.15663821178171311 0.48399278468992479 0 -0.17166558605551899 0.5 0 -0.14375467991847241 0.5 0 -0.15663821178171311 0.48399278468992479 0 -0.17166558605551899 0.5 0 -0.19957649219256551 0.5 0 -0.1915506994313913 0.48064506892556258 0 -0.22370869880979041 0.4725730858508434 0 -0.17166558605551899 0.5 0 -0.19957649219256551 0.5 0 -0.1915506994313913 0.48064506892556258 0 -0.1915506994313913 0.48064506892556258 0 -0.22370869880979041 0.4725730858508434 0 -0.19827669466792591 0.4608009843052116 0 -0.19957649219256551 0.5 0 -0.22748739832961209 0.5 0 -0.22370869880979041 0.4725730858508434 0 -0.22748739832961209 0.5 0 -0.22370869880979041 0.4725730858508434 0 -0.23952598287106799 0.48681873774359963 0 -0.25150952987821112 0.47470186512355511 0 -0.22370869880979041 0.4725730858508434 0 -0.23952598287106799 0.48681873774359963 0 -0.25539830446665862 0.5 0 -0.25150952987821112 0.47470186512355511 0 -0.23952598287106799 0.48681873774359963 0 -0.25539830446665862 0.5 0 -0.22748739832961209 0.5 0 -0.23952598287106799 0.48681873774359963 0 -0.24519286560140291 0.45257653651591873 0 -0.2201814033699997 0.44416729679875228 0 -0.24142241939097361 0.43495055025936369 0 -0.25905138989866389 0.43398641053976372 0 -0.24519286560140291 0.45257653651591873 0 -0.24142241939097361 0.43495055025936369 0 -0.25150952987821112 0.47470186512355511 0 -0.22370869880979041 0.4725730858508434 0 -0.24519286560140291 0.45257653651591873 0 -0.22370869880979041 0.4725730858508434 0 -0.24519286560140291 0.45257653651591873 0 -0.2201814033699997 0.44416729679875228 0 -0.2201814033699997 0.44416729679875228 0 -0.19827669466792591 0.4608009843052116 0 -0.19637340431787659 0.44196064379886979 0 -0.22370869880979041 0.4725730858508434 0 -0.2201814033699997 0.44416729679875228 0 -0.19827669466792591 0.4608009843052116 0 -0.17758148853823061 0.44429406315299041 0 -0.19827669466792591 0.4608009843052116 0 -0.19637340431787659 0.44196064379886979 0 -0.17758148853823061 0.44429406315299041 0 -0.19827669466792591 0.4608009843052116 0 -0.20004847016138519 0.42338445378053202 0 -0.2319336213924206 0.41935456445008368 0 -0.2099757384693359 0.3962982842993395 0 -0.2201814033699997 0.44416729679875228 0 -0.20004847016138519 0.42338445378053202 0 -0.2319336213924206 0.41935456445008368 0 -0.19637340431787659 0.44196064379886979 0 -0.20004847016138519 0.42338445378053202 0 -0.176008200812276 0.42684080999101442 0 -0.20004847016138519 0.42338445378053202 0 -0.19030520856715349 0.4041842861548009 0 -0.1736200172308808 0.41335942875860288 0 -0.20004847016138519 0.42338445378053202 0 -0.2099757384693359 0.3962982842993395 0 -0.19030520856715349 0.4041842861548009 0 -0.20004847016138519 0.42338445378053202 0 -0.2099757384693359 0.3962982842993395 0 -0.2201814033699997 0.44416729679875228 0 -0.19637340431787659 0.44196064379886979 0 -0.20004847016138519 0.42338445378053202 0 -0.2201814033699997 0.44416729679875228 0 -0.2319336213924206 0.41935456445008368 0 -0.24142241939097361 0.43495055025936369 0 -0.25075281669238109 0.42466794299229987 0 -0.25483706146368729 0.40847711791967589 0 -0.2319336213924206 0.41935456445008368 0 -0.25483706146368729 0.40847711791967589 0 -0.2319336213924206 0.41935456445008368 0 -0.23847684627808891 0.39174058919208932 0 -0.25075281669238109 0.42466794299229987 0 -0.2319336213924206 0.41935456445008368 0 -0.24142241939097361 0.43495055025936369 0 -0.23847684627808891 0.39174058919208932 0 -0.22823496148535291 0.38126368305695879 0 -0.24502007116375729 0.36412661393409479 0 -0.25947252354766731 0.38536404412535208 0 -0.23847684627808891 0.39174058919208932 0 -0.24502007116375729 0.36412661393409479 0 -0.23847684627808891 0.39174058919208932 0 -0.24502007116375729 0.36412661393409479 0 -0.2319336213924206 0.41935456445008368 0 -0.23847684627808891 0.39174058919208932 0 -0.2319336213924206 0.41935456445008368 0 -0.23847684627808891 0.39174058919208932 0 -0.2099757384693359 0.3962982842993395 0 -0.22823496148535291 0.38126368305695879 0 -0.2099757384693359 0.3962982842993395 0 -0.2199030067772865 0.36921211481814697 0 -0.23847684627808891 0.39174058919208932 0 -0.22823496148535291 0.38126368305695879 0 -0.2099757384693359 0.3962982842993395 0 -0.2099757384693359 0.3962982842993395 0 -0.21704884700364629 0.3731744453552262 0 -0.2199030067772865 0.36921211481814697 0 -0.20526875228439201 0.3815518392584959 0 -0.2099757384693359 0.3962982842993395 0 -0.21704884700364629 0.3731744453552262 0 -0.2099757384693359 0.3962982842993395 0 -0.2199030067772865 0.36921211481814697 0 -0.2099757384693359 0.3962982842993395 0 -0.19030520856715349 0.4041842861548009 0 -0.1916341503236785 0.38706351529614652 0 -0.20526875228439201 0.3815518392584959 0 -0.2099757384693359 0.3962982842993395 0 -0.1916341503236785 0.38706351529614652 0 -0.20526875228439201 0.3815518392584959 0 -0.1916341503236785 0.38706351529614652 0 -0.1968164146854636 0.36816146969884428 0 -0.16869816502496199 0.38850485965912668 0 -0.17653514707262591 0.36244173733563162 0 -0.1916341503236785 0.38706351529614652 0 -0.16869816502496199 0.38850485965912668 0 -0.17653514707262591 0.36244173733563162 0 -0.16869816502496199 0.38850485965912668 0 -0.14746313171761469 0.38258936522367498 0 -0.15744160866416129 0.37337863966201312 0 -0.16869816502496199 0.38850485965912668 0 -0.16086118297729679 0.41456798198262118 0 -0.16869816502496199 0.38850485965912668 0 -0.1762476666504873 0.40081574863938341 0 -0.16086118297729679 0.41456798198262118 0 -0.16869816502496199 0.38850485965912668 0 -0.16086118297729679 0.41456798198262118 0 -0.148631950608372 0.39668092358731161 0 -0.19030520856715349 0.4041842861548009 0 -0.1762476666504873 0.40081574863938341 0 -0.1736200172308808 0.41335942875860288 0 -0.19030520856715349 0.4041842861548009 0 -0.1916341503236785 0.38706351529614652 0 -0.1762476666504873 0.40081574863938341 0 -0.1916341503236785 0.38706351529614652 0 -0.16869816502496199 0.38850485965912668 0 -0.1762476666504873 0.40081574863938341 0 -0.1916341503236785 0.38706351529614652 0 -0.1762476666504873 0.40081574863938341 0 -0.20004847016138519 0.42338445378053202 0 -0.1736200172308808 0.41335942875860288 0 -0.176008200812276 0.42684080999101442 0 -0.1736200172308808 0.41335942875860288 0 -0.176008200812276 0.42684080999101442 0 -0.16684392085724761 0.42063884068325202 0 -0.17758148853823061 0.44429406315299041 0 -0.15688628240853519 0.4277871420007695 0 -0.1531034199089383 0.44036764907100362 0 -0.17758148853823061 0.44429406315299041 0 -0.15688628240853519 0.4277871420007695 0 -0.176008200812276 0.42684080999101442 0 -0.15688628240853519 0.4277871420007695 0 -0.16684392085724761 0.42063884068325202 0 -0.17758148853823061 0.44429406315299041 0 -0.176008200812276 0.42684080999101442 0 -0.15688628240853519 0.4277871420007695 0 -0.1762476666504873 0.40081574863938341 0 -0.1736200172308808 0.41335942875860288 0 -0.16086118297729679 0.41456798198262118 0 -0.1762476666504873 0.40081574863938341 0 -0.16086118297729679 0.41456798198262118 0 -0.1736200172308808 0.41335942875860288 0 -0.16684392085724761 0.42063884068325202 0 -0.16086118297729679 0.41456798198262118 0 -0.15688628240853519 0.4277871420007695 0 -0.16684392085724761 0.42063884068325202 0 -0.16086118297729679 0.41456798198262118 0 -0.15688628240853519 0.4277871420007695 0 -0.16086118297729679 0.41456798198262118 0 -0.15688628240853519 0.4277871420007695 0 -0.16086118297729679 0.41456798198262118 0 -0.15117124978488439 0.42322871468626111 0 -0.1481705946212056 0.41012039001294032 0 -0.15117124978488439 0.42322871468626111 0 -0.12878315541818511 0.40537151113179559 0 -0.16086118297729679 0.41456798198262118 0 -0.1481705946212056 0.41012039001294032 0 -0.148631950608372 0.39668092358731161 0 -0.16086118297729679 0.41456798198262118 0 -0.15117124978488439 0.42322871468626111 0 -0.16086118297729679 0.41456798198262118 0 -0.1481705946212056 0.41012039001294032 0 -0.15117124978488439 0.42322871468626111 0 -0.1531034199089383 0.44036764907100362 0 -0.15117124978488439 0.42322871468626111 0 -0.13641966513628889 0.43641348377183509 0 -0.15117124978488439 0.42322871468626111 0 -0.13641966513628889 0.43641348377183509 0 -0.14053346255726831 0.41757116759330209 0 -0.1531034199089383 0.44036764907100362 0 -0.15688628240853519 0.4277871420007695 0 -0.15117124978488439 0.42322871468626111 0 -0.1531034199089383 0.44036764907100362 0 -0.15688628240853519 0.4277871420007695 0 -0.15688628240853519 0.4277871420007695 0 -0.15117124978488439 0.42322871468626111 0 -0.15117124978488439 0.42322871468626111 0 -0.13641966513628889 0.43641348377183509 0 -0.14053346255726831 0.41757116759330209 0 -0.12008644197218619 0.42737002331699042 0 -0.13641966513628889 0.43641348377183509 0 -0.14053346255726831 0.41757116759330209 0 -0.12008644197218619 0.42737002331699042 0 -0.14053346255726831 0.41757116759330209 0 -0.12878315541818511 0.40537151113179559 0 -0.1185468549893821 0.41404307529848111 0 -0.15117124978488439 0.42322871468626111 0 -0.14053346255726831 0.41757116759330209 0 -0.12878315541818511 0.40537151113179559 0 -0.15117124978488439 0.42322871468626111 0 -0.12878315541818511 0.40537151113179559 0 -0.14053346255726831 0.41757116759330209 0 -0.1185468549893821 0.41404307529848111 0 -0.12008644197218619 0.42737002331699042 0 -0.12878315541818511 0.40537151113179559 0 -0.13189012878861439 0.38479986758827561 0 -0.148631950608372 0.39668092358731161 0 -0.13189012878861439 0.38479986758827561 0 -0.14746313171761469 0.38258936522367498 0 -0.13950816354418499 0.37002412626686448 0 -0.16869816502496199 0.38850485965912668 0 -0.14746313171761469 0.38258936522367498 0 -0.148631950608372 0.39668092358731161 0 -0.14746313171761469 0.38258936522367498 0 -0.13950816354418499 0.37002412626686448 0 -0.15744160866416129 0.37337863966201312 0 -0.13189012878861439 0.38479986758827561 0 -0.14746313171761469 0.38258936522367498 0 -0.148631950608372 0.39668092358731161 0 -0.1481705946212056 0.41012039001294032 0 -0.12878315541818511 0.40537151113179559 0 -0.148631950608372 0.39668092358731161 0 -0.14502754730688619 0.35820473037447259 0 -0.13404313856328931 0.34954798720658431 0 -0.14720471224303541 0.34374215117477619 0 -0.14720471224303541 0.34374215117477619 0 -0.15690357529526811 0.33761711560468721 0 -0.15837303038907621 0.35190041558016549 0 -0.14502754730688619 0.35820473037447259 0 -0.14720471224303541 0.34374215117477619 0 -0.15837303038907621 0.35190041558016549 0 -0.14502754730688619 0.35820473037447259 0 -0.13950816354418499 0.37002412626686448 0 -0.15744160866416129 0.37337863966201312 0 -0.14502754730688619 0.35820473037447259 0 -0.15837303038907621 0.35190041558016549 0 -0.15744160866416129 0.37337863966201312 0 -0.13950816354418499 0.37002412626686448 0 -0.15744160866416129 0.37337863966201312 0 -0.13503839195964221 0.36111161417990928 0 -0.13950816354418499 0.37002412626686448 0 -0.12157471842420869 0.36666961287171518 0 -0.13189012878861439 0.38479986758827561 0 -0.13950816354418499 0.37002412626686448 0 -0.12157471842420869 0.36666961287171518 0 -0.13950816354418499 0.37002412626686448 0 -0.12157471842420869 0.36666961287171518 0 -0.14502754730688619 0.35820473037447259 0 -0.13503839195964221 0.36111161417990928 0 -0.13950816354418499 0.37002412626686448 0 -0.13404313856328931 0.34954798720658431 0 -0.1231558014748048 0.354024263464635 0 -0.12157471842420869 0.36666961287171518 0 -0.13503839195964221 0.36111161417990928 0 -0.13404313856328931 0.34954798720658431 0 -0.12157471842420869 0.36666961287171518 0 -0.13404313856328931 0.34954798720658431 0 -0.12157471842420869 0.36666961287171518 0 -0.14502754730688619 0.35820473037447259 0 -0.13503839195964221 0.36111161417990928 0 -0.13404313856328931 0.34954798720658431 0 -0.13404313856328931 0.34954798720658431 0 -0.12931999918052889 0.34632805697413271 0 -0.1231558014748048 0.354024263464635 0 -0.13404313856328931 0.34954798720658431 0 -0.12931999918052889 0.34632805697413271 0 -0.14263419581613229 0.33243085518768462 0 -0.13056933787625921 0.34110901963101797 0 -0.12715702385147301 0.32792388706142062 0 -0.14263419581613229 0.33243085518768462 0 -0.12931999918052889 0.34632805697413271 0 -0.13056933787625921 0.34110901963101797 0 -0.14263419581613229 0.33243085518768462 0 -0.12931999918052889 0.34632805697413271 0 -0.14263419581613229 0.33243085518768462 0 -0.12715702385147301 0.32792388706142062 0 -0.1394921797686727 0.31706350672126582 0 -0.1206918578557839 0.31454483137514888 0 -0.12715702385147301 0.32792388706142062 0 -0.1394921797686727 0.31706350672126582 0 -0.14263419581613229 0.33243085518768462 0 -0.1394921797686727 0.31706350672126582 0 -0.1559483924517352 0.31853365340123568 0 -0.14263419581613229 0.33243085518768462 0 -0.1394921797686727 0.31706350672126582 0 -0.1559483924517352 0.31853365340123568 0 -0.14994322805290031 0.30403419708859492 0 -0.1559483924517352 0.31853365340123568 0 -0.15234841093282769 0.33166981995284622 0 -0.15905117885796721 0.32602532439584719 0 -0.1559483924517352 0.31853365340123568 0 -0.14263419581613229 0.33243085518768462 0 -0.15234841093282769 0.33166981995284622 0 -0.1559483924517352 0.31853365340123568 0 -0.14263419581613229 0.33243085518768462 0 -0.13404313856328931 0.34954798720658431 0 -0.14720471224303541 0.34374215117477619 0 -0.14263419581613229 0.33243085518768462 0 -0.14720471224303541 0.34374215117477619 0 -0.14263419581613229 0.33243085518768462 0 -0.15234841093282769 0.33166981995284622 0 -0.15234841093282769 0.33166981995284622 0 -0.15690357529526811 0.33761711560468721 0 -0.15905117885796721 0.32602532439584719 0 -0.14720471224303541 0.34374215117477619 0 -0.15234841093282769 0.33166981995284622 0 -0.15690357529526811 0.33761711560468721 0 -0.15690357529526811 0.33761711560468721 0 -0.16795625815261181 0.33885440272129069 0 -0.15837303038907621 0.35190041558016549 0 -0.15690357529526811 0.33761711560468721 0 -0.16795625815261181 0.33885440272129069 0 -0.15905117885796721 0.32602532439584719 0 -0.1559483924517352 0.31853365340123568 0 -0.1725024881804437 0.31876320839927652 0 -0.17100322176913241 0.30281959970272632 0 -0.16795625815261181 0.33885440272129069 0 -0.15905117885796721 0.32602532439584719 0 -0.1725024881804437 0.31876320839927652 0 -0.1559483924517352 0.31853365340123568 0 -0.15905117885796721 0.32602532439584719 0 -0.1725024881804437 0.31876320839927652 0 -0.1559483924517352 0.31853365340123568 0 -0.15905117885796721 0.32602532439584719 0 -0.1725024881804437 0.31876320839927652 0 -0.1843721291202898 0.33637861501213651 0 -0.1922091111679565 0.31031549268864239 0 -0.16795625815261181 0.33885440272129069 0 -0.1725024881804437 0.31876320839927652 0 -0.1843721291202898 0.33637861501213651 0 -0.1843721291202898 0.33637861501213651 0 -0.17653514707262591 0.36244173733563162 0 -0.16795625815261181 0.33885440272129069 0 -0.1843721291202898 0.33637861501213651 0 -0.17653514707262591 0.36244173733563162 0 -0.1843721291202898 0.33637861501213651 0 -0.17653514707262591 0.36244173733563162 0 -0.19128215547958261 0.35244374513707161 0 -0.16795625815261181 0.33885440272129069 0 -0.15837303038907621 0.35190041558016549 0 -0.17653514707262591 0.36244173733563162 0 -0.15837303038907621 0.35190041558016549 0 -0.15744160866416129 0.37337863966201312 0 -0.17653514707262591 0.36244173733563162 0 -0.16869816502496199 0.38850485965912668 0 -0.15744160866416129 0.37337863966201312 0 -0.17653514707262591 0.36244173733563162 0 -0.1916341503236785 0.38706351529614652 0 -0.17653514707262591 0.36244173733563162 0 -0.1968164146854636 0.36816146969884428 0 -0.17653514707262591 0.36244173733563162 0 -0.1968164146854636 0.36816146969884428 0 -0.19128215547958261 0.35244374513707161 0 -0.20526875228439201 0.3815518392584959 0 -0.1968164146854636 0.36816146969884428 0 -0.2069757372579798 0.36877730386139929 0 -0.1968164146854636 0.36816146969884428 0 -0.19128215547958261 0.35244374513707161 0 -0.20876893505841751 0.3522214611330311 0 -0.19128215547958261 0.35244374513707161 0 -0.20876893505841751 0.3522214611330311 0 -0.20048902311318881 0.33126847691083611 0 -0.20876893505841751 0.3522214611330311 0 -0.2199030067772865 0.36921211481814697 0 -0.21909267221159481 0.35007419974766463 0 -0.20876893505841751 0.3522214611330311 0 -0.21909267221159481 0.35007419974766463 0 -0.2178684719254379 0.33673727770252609 0 -0.20876893505841751 0.3522214611330311 0 -0.2069757372579798 0.36877730386139929 0 -0.21704884700364629 0.3731744453552262 0 -0.20876893505841751 0.3522214611330311 0 -0.21704884700364629 0.3731744453552262 0 -0.20876893505841751 0.3522214611330311 0 -0.21704884700364629 0.3731744453552262 0 -0.2199030067772865 0.36921211481814697 0 -0.1968164146854636 0.36816146969884428 0 -0.20876893505841751 0.3522214611330311 0 -0.2069757372579798 0.36877730386139929 0 -0.20526875228439201 0.3815518392584959 0 -0.2069757372579798 0.36877730386139929 0 -0.21704884700364629 0.3731744453552262 0 -0.22823496148535291 0.38126368305695879 0 -0.2199030067772865 0.36921211481814697 0 -0.23168145975042839 0.36807141806628102 0 -0.2199030067772865 0.36921211481814697 0 -0.23168145975042839 0.36807141806628102 0 -0.23356779957531709 0.35768326045592341 0 -0.2199030067772865 0.36921211481814697 0 -0.23356779957531709 0.35768326045592341 0 -0.22983027508523721 0.34212594533695451 0 -0.2199030067772865 0.36921211481814697 0 -0.22983027508523721 0.34212594533695451 0 -0.2199030067772865 0.36921211481814697 0 -0.21909267221159481 0.35007419974766463 0 -0.22983027508523721 0.34212594533695451 0 -0.25156329604942562 0.33651263867610021 0 -0.24050196783878411 0.34567902942112377 0 -0.24502007116375729 0.36412661393409479 0 -0.23356779957531709 0.35768326045592341 0 -0.24050196783878411 0.34567902942112377 0 -0.24502007116375729 0.36412661393409479 0 -0.25156329604942562 0.33651263867610021 0 -0.24502007116375729 0.36412661393409479 0 -0.23356779957531709 0.35768326045592341 0 -0.24050196783878411 0.34567902942112377 0 -0.22983027508523721 0.34212594533695451 0 -0.22823496148535291 0.38126368305695879 0 -0.23168145975042839 0.36807141806628102 0 -0.24502007116375729 0.36412661393409479 0 -0.23168145975042839 0.36807141806628102 0 -0.23356779957531709 0.35768326045592341 0 -0.24502007116375729 0.36412661393409479 0 -0.2446221266399502 0.31757507575415972 0 -0.22896457173862569 0.33106214407495321 0 -0.2446221266399502 0.31757507575415972 0 -0.2409536547069672 0.33092768567105751 0 -0.22896457173862569 0.33106214407495321 0 -0.23588009289461331 0.31560544584815242 0 -0.2446221266399502 0.31757507575415972 0 -0.22896457173862569 0.33106214407495321 0 -0.23588009289461331 0.31560544584815242 0 -0.2446221266399502 0.31757507575415972 0 -0.24181012177790959 0.3114041424950667 0 -0.24685960699009321 0.32049332334681419 0 -0.24896704054743329 0.32857474645167017 0 -0.2409536547069672 0.33092768567105751 0 -0.2446221266399502 0.31757507575415972 0 -0.24685960699009321 0.32049332334681419 0 -0.2409536547069672 0.33092768567105751 0 -0.25156329604942562 0.33651263867610021 0 -0.24896704054743329 0.32857474645167017 0 -0.2409536547069672 0.33092768567105751 0 -0.25156329604942562 0.33651263867610021 0 -0.24050196783878411 0.34567902942112377 0 -0.2409536547069672 0.33092768567105751 0 -0.24050196783878411 0.34567902942112377 0 -0.2409536547069672 0.33092768567105751 0 -0.22983027508523721 0.34212594533695451 0 -0.2409536547069672 0.33092768567105751 0 -0.22896457173862569 0.33106214407495321 0 -0.22983027508523721 0.34212594533695451 0 -0.22896457173862569 0.33106214407495321 0 -0.22983027508523721 0.34212594533695451 0 -0.2178684719254379 0.33673727770252609 0 -0.21909267221159481 0.35007419974766463 0 -0.22983027508523721 0.34212594533695451 0 -0.2178684719254379 0.33673727770252609 0 -0.22896457173862569 0.33106214407495321 0 -0.22123106401554171 0.32388654619606772 0 -0.2178684719254379 0.33673727770252609 0 -0.22896457173862569 0.33106214407495321 0 -0.22123106401554171 0.32388654619606772 0 -0.22776355673983381 0.31685303791128883 0 -0.23588009289461331 0.31560544584815242 0 -0.22896457173862569 0.33106214407495321 0 -0.22776355673983381 0.31685303791128883 0 -0.23588009289461331 0.31560544584815242 0 -0.22776355673983381 0.31685303791128883 0 -0.2320149447228913 0.31123542432987938 0 -0.22123106401554171 0.32388654619606772 0 -0.22776355673983381 0.31685303791128883 0 -0.2176029516622586 0.31401922911889751 0 -0.2176029516622586 0.31401922911889751 0 -0.21088002213217499 0.32054336266088312 0 -0.20460585253451841 0.31322240289563402 0 -0.21088002213217499 0.32054336266088312 0 -0.20460585253451841 0.31322240289563402 0 -0.20048902311318881 0.33126847691083611 0 -0.22123106401554171 0.32388654619606772 0 -0.2176029516622586 0.31401922911889751 0 -0.21088002213217499 0.32054336266088312 0 -0.22123106401554171 0.32388654619606772 0 -0.2136317823294373 0.32797271980058379 0 -0.21088002213217499 0.32054336266088312 0 -0.2136317823294373 0.32797271980058379 0 -0.21088002213217499 0.32054336266088312 0 -0.20048902311318881 0.33126847691083611 0 -0.20876893505841751 0.3522214611330311 0 -0.20048902311318881 0.33126847691083611 0 -0.2136317823294373 0.32797271980058379 0 -0.2178684719254379 0.33673727770252609 0 -0.20048902311318881 0.33126847691083611 0 -0.20876893505841751 0.3522214611330311 0 -0.2178684719254379 0.33673727770252609 0 -0.20048902311318881 0.33126847691083611 0 -0.22123106401554171 0.32388654619606772 0 -0.2136317823294373 0.32797271980058379 0 -0.2178684719254379 0.33673727770252609 0 -0.1843721291202898 0.33637861501213651 0 -0.19128215547958261 0.35244374513707161 0 -0.20048902311318881 0.33126847691083611 0 -0.1843721291202898 0.33637861501213651 0 -0.1922091111679565 0.31031549268864239 0 -0.20460585253451841 0.31322240289563402 0 -0.20048902311318881 0.33126847691083611 0 -0.1922091111679565 0.31031549268864239 0 -0.1843721291202898 0.33637861501213651 0 -0.20048902311318881 0.33126847691083611 0 -0.1922091111679565 0.31031549268864239 0 -0.20048902311318881 0.33126847691083611 0 -0.1922091111679565 0.31031549268864239 0 -0.1922091111679565 0.31031549268864239 0 -0.19726433427019879 0.29350354935575251 0 -0.1922091111679565 0.31031549268864239 0 -0.20092651303275399 0.30103257991530441 0 -0.19726433427019879 0.29350354935575251 0 -0.1922091111679565 0.31031549268864239 0 -0.19726433427019879 0.29350354935575251 0 -0.18702371804135759 0.29719343763705458 0 -0.1922091111679565 0.31031549268864239 0 -0.18702371804135759 0.29719343763705458 0 -0.20092651303275399 0.30103257991530441 0 -0.19726433427019879 0.29350354935575251 0 -0.20460585253451841 0.31322240289563402 0 -0.1922091111679565 0.31031549268864239 0 -0.20092651303275399 0.30103257991530441 0 -0.1948734087426485 0.28858807347928372 0 -0.1984975173450417 0.28940240415322849 0 -0.2028401253178061 0.26734130210899187 0 -0.1948734087426485 0.28858807347928372 0 -0.18737341882493699 0.27316893177480911 0 -0.18616462981483989 0.28663122654350731 0 -0.1948734087426485 0.28858807347928372 0 -0.18616462981483989 0.28663122654350731 0 -0.1948734087426485 0.28858807347928372 0 -0.19726433427019879 0.29350354935575251 0 -0.18702371804135759 0.29719343763705458 0 -0.1948734087426485 0.28858807347928372 0 -0.18616462981483989 0.28663122654350731 0 -0.18702371804135759 0.29719343763705458 0 -0.20092651303275399 0.30103257991530441 0 -0.19726433427019879 0.29350354935575251 0 -0.1984975173450417 0.28940240415322849 0 -0.1948734087426485 0.28858807347928372 0 -0.19726433427019879 0.29350354935575251 0 -0.1984975173450417 0.28940240415322849 0 -0.1948734087426485 0.28858807347928372 0 -0.19726433427019879 0.29350354935575251 0 -0.19726433427019879 0.29350354935575251 0 -0.1984975173450417 0.28940240415322849 0 -0.1948734087426485 0.28858807347928372 0 -0.1984975173450417 0.28940240415322849 0 -0.1984975173450417 0.28940240415322849 0 -0.21514279018854801 0.29314256697387092 0 -0.20092651303275399 0.30103257991530441 0 -0.1984975173450417 0.28940240415322849 0 -0.21514279018854801 0.29314256697387092 0 -0.20460585253451841 0.31322240289563402 0 -0.20092651303275399 0.30103257991530441 0 -0.21253609752896721 0.30533235694853678 0 -0.20092651303275399 0.30103257991530441 0 -0.21514279018854801 0.29314256697387092 0 -0.21253609752896721 0.30533235694853678 0 -0.21514279018854801 0.29314256697387092 0 -0.21253609752896721 0.30533235694853678 0 -0.2261055344538864 0.30660708907042061 0 -0.2176029516622586 0.31401922911889751 0 -0.20460585253451841 0.31322240289563402 0 -0.21253609752896721 0.30533235694853678 0 -0.2176029516622586 0.31401922911889751 0 -0.21253609752896721 0.30533235694853678 0 -0.2261055344538864 0.30660708907042061 0 -0.21514279018854801 0.29314256697387092 0 -0.2261055344538864 0.30660708907042061 0 -0.2317880630320544 0.2968827297945133 0 -0.22776355673983381 0.31685303791128883 0 -0.2176029516622586 0.31401922911889751 0 -0.2261055344538864 0.30660708907042061 0 -0.2261055344538864 0.30660708907042061 0 -0.2320149447228913 0.31123542432987938 0 -0.23831059480323161 0.30587612448965612 0 -0.22776355673983381 0.31685303791128883 0 -0.2261055344538864 0.30660708907042061 0 -0.2320149447228913 0.31123542432987938 0 -0.2261055344538864 0.30660708907042061 0 -0.2317880630320544 0.2968827297945133 0 -0.23831059480323161 0.30587612448965612 0 -0.21514279018854801 0.29314256697387092 0 -0.2317880630320544 0.2968827297945133 0 -0.23056814784514981 0.27755962693119107 0 -0.21514279018854801 0.29314256697387092 0 -0.2317880630320544 0.2968827297945133 0 -0.2317880630320544 0.2968827297945133 0 -0.24824953514718179 0.28877346470935211 0 -0.23056814784514981 0.27755962693119107 0 -0.2317880630320544 0.2968827297945133 0 -0.24824953514718179 0.28877346470935211 0 -0.23831059480323161 0.30587612448965612 0 -0.24824953514718179 0.28877346470935211 0 -0.24842767277384331 0.30655992388829872 0 -0.23831059480323161 0.30587612448965612 0 -0.24842767277384331 0.30655992388829872 0 -0.24181012177790959 0.3114041424950667 0 -0.23831059480323161 0.30587612448965612 0 -0.2446221266399502 0.31757507575415972 0 -0.24842767277384331 0.30655992388829872 0 -0.24181012177790959 0.3114041424950667 0 -0.23588009289461331 0.31560544584815242 0 -0.2320149447228913 0.31123542432987938 0 -0.23831059480323161 0.30587612448965612 0 -0.23588009289461331 0.31560544584815242 0 -0.24181012177790959 0.3114041424950667 0 -0.23831059480323161 0.30587612448965612 0 -0.2600074789863453 0.24469250987655841 0 -0.24724927781079989 0.26690283094043671 0 -0.23310342452880711 0.25303606098875903 0 -0.24724927781079989 0.26690283094043671 0 -0.23056814784514981 0.27755962693119107 0 -0.23310342452880711 0.25303606098875903 0 -0.24824953514718179 0.28877346470935211 0 -0.24724927781079989 0.26690283094043671 0 -0.23056814784514981 0.27755962693119107 0 -0.23056814784514981 0.27755962693119107 0 -0.23310342452880711 0.25303606098875903 0 -0.2071459502863825 0.26064067364448912 0 -0.1984975173450417 0.28940240415322849 0 -0.21514279018854801 0.29314256697387092 0 -0.2071459502863825 0.26064067364448912 0 -0.21514279018854801 0.29314256697387092 0 -0.23056814784514981 0.27755962693119107 0 -0.2071459502863825 0.26064067364448912 0 -0.1984975173450417 0.28940240415322849 0 -0.2071459502863825 0.26064067364448912 0 -0.1984975173450417 0.28940240415322849 0 -0.2071459502863825 0.26064067364448912 0 -0.2028401253178061 0.26734130210899187 0 -0.1948734087426485 0.28858807347928372 0 -0.2028401253178061 0.26734130210899187 0 -0.18737341882493699 0.27316893177480911 0 -0.2028401253178061 0.26734130210899187 0 -0.18737341882493699 0.27316893177480911 0 -0.1948734087426485 0.28858807347928372 0 -0.18737341882493699 0.27316893177480911 0 -0.2028401253178061 0.26734130210899187 0 -0.19229839073884999 0.25583340555714817 0 -0.18737341882493699 0.27316893177480911 0 -0.2071459502863825 0.26064067364448912 0 -0.2028401253178061 0.26734130210899187 0 -0.19229839073884999 0.25583340555714817 0 -0.17713848404387489 0.25212704885807719 0 -0.18737341882493699 0.27316893177480911 0 -0.19229839073884999 0.25583340555714817 0 -0.17713848404387489 0.25212704885807719 0 -0.18737341882493699 0.27316893177480911 0 -0.17713848404387489 0.25212704885807719 0 -0.1692490123832118 0.26603558958740281 0 -0.18737341882493699 0.27316893177480911 0 -0.17713848404387489 0.25212704885807719 0 -0.1615228474085412 0.25508042579725138 0 -0.1692490123832118 0.26603558958740281 0 -0.1615228474085412 0.25508042579725138 0 -0.1692490123832118 0.26603558958740281 0 -0.15428844052222809 0.26600991204914981 0 -0.1692490123832118 0.26603558958740281 0 -0.1645400334785031 0.28177221870452751 0 -0.15428844052222809 0.26600991204914981 0 -0.1692490123832118 0.26603558958740281 0 -0.18737341882493699 0.27316893177480911 0 -0.1645400334785031 0.28177221870452751 0 -0.18737341882493699 0.27316893177480911 0 -0.1645400334785031 0.28177221870452751 0 -0.18737341882493699 0.27316893177480911 0 -0.17970672111057581 0.28518014609190562 0 -0.1645400334785031 0.28177221870452751 0 -0.18616462981483989 0.28663122654350731 0 -0.1722512772901939 0.29016250055515641 0 -0.17100322176913241 0.30281959970272632 0 -0.18737341882493699 0.27316893177480911 0 -0.17970672111057581 0.28518014609190562 0 -0.18616462981483989 0.28663122654350731 0 -0.18616462981483989 0.28663122654350731 0 -0.18702371804135759 0.29719343763705458 0 -0.17100322176913241 0.30281959970272632 0 -0.18616462981483989 0.28663122654350731 0 -0.17100322176913241 0.30281959970272632 0 -0.17970672111057581 0.28518014609190562 0 -0.18616462981483989 0.28663122654350731 0 -0.17970672111057581 0.28518014609190562 0 -0.1645400334785031 0.28177221870452751 0 -0.17970672111057581 0.28518014609190562 0 -0.18616462981483989 0.28663122654350731 0 -0.1722512772901939 0.29016250055515641 0 -0.17970672111057581 0.28518014609190562 0 -0.1722512772901939 0.29016250055515641 0 -0.1645400334785031 0.28177221870452751 0 -0.1725024881804437 0.31876320839927652 0 -0.1806846347897218 0.30727293460692467 0 -0.17100322176913241 0.30281959970272632 0 -0.1806846347897218 0.30727293460692467 0 -0.18702371804135759 0.29719343763705458 0 -0.17100322176913241 0.30281959970272632 0 -0.1725024881804437 0.31876320839927652 0 -0.1922091111679565 0.31031549268864239 0 -0.1806846347897218 0.30727293460692467 0 -0.1922091111679565 0.31031549268864239 0 -0.1806846347897218 0.30727293460692467 0 -0.18702371804135759 0.29719343763705458 0 -0.1559483924517352 0.31853365340123568 0 -0.17100322176913241 0.30281959970272632 0 -0.17100322176913241 0.30281959970272632 0 -0.1599483590062292 0.29393499227240699 0 -0.14994322805290031 0.30403419708859492 0 -0.1559483924517352 0.31853365340123568 0 -0.17100322176913241 0.30281959970272632 0 -0.14994322805290031 0.30403419708859492 0 -0.1722512772901939 0.29016250055515641 0 -0.1645400334785031 0.28177221870452751 0 -0.1599483590062292 0.29393499227240699 0 -0.1722512772901939 0.29016250055515641 0 -0.17100322176913241 0.30281959970272632 0 -0.1599483590062292 0.29393499227240699 0 -0.1645400334785031 0.28177221870452751 0 -0.14393806365406581 0.2895347407759537 0 -0.1645400334785031 0.28177221870452751 0 -0.1599483590062292 0.29393499227240699 0 -0.14393806365406581 0.2895347407759537 0 -0.1645400334785031 0.28177221870452751 0 -0.14393806365406581 0.2895347407759537 0 -0.138279213644004 0.27587145979789879 0 -0.1599483590062292 0.29393499227240699 0 -0.14393806365406581 0.2895347407759537 0 -0.14994322805290031 0.30403419708859492 0 -0.14393806365406581 0.2895347407759537 0 -0.14994322805290031 0.30403419708859492 0 -0.14393806365406581 0.2895347407759537 0 -0.138279213644004 0.27587145979789879 0 -0.1559483924517352 0.31853365340123568 0 -0.14994322805290031 0.30403419708859492 0 -0.14393806365406581 0.2895347407759537 0 -0.14994322805290031 0.30403419708859492 0 -0.13670767981166021 0.30381690364350372 0 -0.1394921797686727 0.31706350672126582 0 -0.14994322805290031 0.30403419708859492 0 -0.13670767981166021 0.30381690364350372 0 -0.13670767981166021 0.30381690364350372 0 -0.12575222458319121 0.29638689998102191 0 -0.1206918578557839 0.31454483137514888 0 -0.1394921797686727 0.31706350672126582 0 -0.13670767981166021 0.30381690364350372 0 -0.1206918578557839 0.31454483137514888 0 -0.14393806365406581 0.2895347407759537 0 -0.12575222458319121 0.29638689998102191 0 -0.1322069237924548 0.28343314155070382 0 -0.14393806365406581 0.2895347407759537 0 -0.12575222458319121 0.29638689998102191 0 -0.14393806365406581 0.2895347407759537 0 -0.13670767981166021 0.30381690364350372 0 -0.12575222458319121 0.29638689998102191 0 -0.12575222458319121 0.29638689998102191 0 -0.1322069237924548 0.28343314155070382 0 -0.1211850736488501 0.28060480858540721 0 -0.14393806365406581 0.2895347407759537 0 -0.1322069237924548 0.28343314155070382 0 -0.138279213644004 0.27587145979789879 0 -0.138279213644004 0.27587145979789879 0 -0.13005404735625839 0.25601181377779803 0 -0.13251874243834269 0.27457709229576399 0 -0.138279213644004 0.27587145979789879 0 -0.13005404735625839 0.25601181377779803 0 -0.13251874243834269 0.27457709229576399 0 -0.13005404735625839 0.25601181377779803 0 -0.12018648515775179 0.26740236613888252 0 -0.1322069237924548 0.28343314155070382 0 -0.13251874243834269 0.27457709229576399 0 -0.1211850736488501 0.28060480858540721 0 -0.1322069237924548 0.28343314155070382 0 -0.13251874243834269 0.27457709229576399 0 -0.138279213644004 0.27587145979789879 0 -0.13251874243834269 0.27457709229576399 0 -0.138279213644004 0.27587145979789879 0 -0.13005404735625839 0.25601181377779803 0 -0.13424522129200939 0.24639836141411189 0 -0.14694431139688099 0.248560838512457 0 -0.1615228474085412 0.25508042579725138 0 -0.15428844052222809 0.26600991204914981 0 -0.14694431139688099 0.248560838512457 0 -0.13005404735625839 0.25601181377779803 0 -0.15428844052222809 0.26600991204914981 0 -0.14694431139688099 0.248560838512457 0 -0.1645400334785031 0.28177221870452751 0 -0.138279213644004 0.27587145979789879 0 -0.1645400334785031 0.28177221870452751 0 -0.138279213644004 0.27587145979789879 0 -0.15428844052222809 0.26600991204914981 0 -0.138279213644004 0.27587145979789879 0 -0.13005404735625839 0.25601181377779803 0 -0.15428844052222809 0.26600991204914981 0 -0.1059257076785068 0.2729405284143781 0 -0.10998563930619901 0.25431390555360661 0 -0.087837126177903457 0.25839259788957131 0 -0.10998563930619901 0.25431390555360661 0 -0.087837126177903457 0.25839259788957131 0 -0.097689178405964666 0.24626065310527889 0 -0.13005404735625839 0.25601181377779803 0 -0.10998563930619901 0.25431390555360661 0 -0.12018648515775179 0.26740236613888252 0 -0.13005404735625839 0.25601181377779803 0 -0.10998563930619901 0.25431390555360661 0 -0.1149271882668953 0.24458412569279361 0 -0.1059257076785068 0.2729405284143781 0 -0.10998563930619901 0.25431390555360661 0 -0.12018648515775179 0.26740236613888252 0 -0.1059257076785068 0.2729405284143781 0 -0.12018648515775179 0.26740236613888252 0 -0.1211850736488501 0.28060480858540721 0 -0.13251874243834269 0.27457709229576399 0 -0.12018648515775179 0.26740236613888252 0 -0.1211850736488501 0.28060480858540721 0 -0.1059257076785068 0.2729405284143781 0 -0.1211850736488501 0.28060480858540721 0 -0.10680075482327139 0.29123194117750528 0 -0.12575222458319121 0.29638689998102191 0 -0.1211850736488501 0.28060480858540721 0 -0.10680075482327139 0.29123194117750528 0 -0.1075663855123167 0.30323905918609012 0 -0.1017657691567494 0.31606271658645763 0 -0.1206918578557839 0.31454483137514888 0 -0.12575222458319121 0.29638689998102191 0 -0.1075663855123167 0.30323905918609012 0 -0.12575222458319121 0.29638689998102191 0 -0.1075663855123167 0.30323905918609012 0 -0.1206918578557839 0.31454483137514888 0 -0.12575222458319121 0.29638689998102191 0 -0.1075663855123167 0.30323905918609012 0 -0.10680075482327139 0.29123194117750528 0 -0.097546114189084321 0.30313820153387772 0 -0.085119398909421606 0.31730732784969989 0 -0.1017657691567494 0.31606271658645763 0 -0.1075663855123167 0.30323905918609012 0 -0.097546114189084321 0.30313820153387772 0 -0.1017657691567494 0.31606271658645763 0 -0.1075663855123167 0.30323905918609012 0 -0.097546114189084321 0.30313820153387772 0 -0.10680075482327139 0.29123194117750528 0 -0.1059257076785068 0.2729405284143781 0 -0.10680075482327139 0.29123194117750528 0 -0.086478262543662532 0.28784996286963571 0 -0.097546114189084321 0.30313820153387772 0 -0.10680075482327139 0.29123194117750528 0 -0.086478262543662532 0.28784996286963571 0 -0.086478262543662532 0.28784996286963571 0 -0.073688072544465119 0.30715063639703732 0 -0.085119398909421606 0.31730732784969989 0 -0.097546114189084321 0.30313820153387772 0 -0.086478262543662532 0.28784996286963571 0 -0.085119398909421606 0.31730732784969989 0 -0.086478262543662532 0.28784996286963571 0 -0.085119398909421606 0.31730732784969989 0 -0.073688072544465119 0.30715063639703732 0 -0.061406356750701871 0.29863140559139267 0 -0.062587809335821767 0.3147767372087325 0 -0.086478262543662532 0.28784996286963571 0 -0.073688072544465119 0.30715063639703732 0 -0.061406356750701871 0.29863140559139267 0 -0.086478262543662532 0.28784996286963571 0 -0.060477806947293843 0.28020622378297011 0 -0.061406356750701871 0.29863140559139267 0 -0.086478262543662532 0.28784996286963571 0 -0.087837126177903457 0.25839259788957131 0 -0.060477806947293843 0.28020622378297011 0 -0.086478262543662532 0.28784996286963571 0 -0.087837126177903457 0.25839259788957131 0 -0.1059257076785068 0.2729405284143781 0 -0.086478262543662532 0.28784996286963571 0 -0.087837126177903457 0.25839259788957131 0 -0.087837126177903457 0.25839259788957131 0 -0.057622723250347598 0.2577803759642151 0 -0.060477806947293843 0.28020622378297011 0 -0.087837126177903457 0.25839259788957131 0 -0.057622723250347598 0.2577803759642151 0 -0.070454129905793209 0.2423721440505458 0 -0.060477806947293843 0.28020622378297011 0 -0.042164423561112878 0.27552347669912092 0 -0.040989735049820529 0.28577878263705642 0 -0.057622723250347598 0.2577803759642151 0 -0.060477806947293843 0.28020622378297011 0 -0.042164423561112878 0.27552347669912092 0 -0.042164423561112878 0.27552347669912092 0 -0.02261642504543113 0.26914121675636282 0 -0.040989735049820529 0.28577878263705642 0 -0.042164423561112878 0.27552347669912092 0 -0.038652344816691109 0.24876186514016629 0 -0.042164423561112878 0.27552347669912092 0 -0.02261642504543113 0.26914121675636282 0 -0.038652344816691109 0.24876186514016629 0 -0.057622723250347598 0.2577803759642151 0 -0.042164423561112878 0.27552347669912092 0 -0.038652344816691109 0.24876186514016629 0 -0.02416040565911998 0.25010901248269252 0 -0.02261642504543113 0.26914121675636282 0 -0.01089765353363099 0.24311401117758299 0 -0.02416040565911998 0.25010901248269252 0 -0.02261642504543113 0.26914121675636282 0 -0.038652344816691109 0.24876186514016629 0 -0.02261642504543113 0.26914121675636282 0 -0.01089765353363099 0.24311401117758299 0 -0.02261642504543113 0.26914121675636282 0 -0.029600097982558731 0.28465184353550549 0 -0.040989735049820529 0.28577878263705642 0 -0.02261642504543113 0.26914121675636282 0 -0.015064487638165289 0.28510027401518651 0 -0.029600097982558731 0.28465184353550549 0 -0.02261642504543113 0.26914121675636282 0 -0.029600097982558731 0.28465184353550549 0 -0.02261642504543113 0.26914121675636282 0 -0.0010988800717985641 0.27612506461500019 0 -0.002858477276545702 0.25878204093389939 0 -0.02261642504543113 0.26914121675636282 0 -0.0010988800717985641 0.27612506461500019 0 -0.015064487638165289 0.28510027401518651 0 -0.02261642504543113 0.26914121675636282 0 -0.002858477276545702 0.25878204093389939 0 -0.01089765353363099 0.24311401117758299 0 -0.014741304354740791 0.29868343227182742 0 -0.007636957573278591 0.31214386631899882 0 1.6578511442726379e-05 0.29608557597657048 0 -0.007636957573278591 0.31214386631899882 0 1.6578511442726379e-05 0.29608557597657048 0 0.0034725227375250172 0.30963903749478672 0 -0.0010988800717985641 0.27612506461500019 0 -0.015064487638165289 0.28510027401518651 0 1.6578511442726379e-05 0.29608557597657048 0 -0.014741304354740791 0.29868343227182742 0 -0.015064487638165289 0.28510027401518651 0 1.6578511442726379e-05 0.29608557597657048 0 -0.014741304354740791 0.29868343227182742 0 -0.015064487638165289 0.28510027401518651 0 -0.02365761857365525 0.29529169871131838 0 -0.029600097982558731 0.28465184353550549 0 -0.02365761857365525 0.29529169871131838 0 -0.034559835419018178 0.30227981698376871 0 -0.015064487638165289 0.28510027401518651 0 -0.029600097982558731 0.28465184353550549 0 -0.02365761857365525 0.29529169871131838 0 -0.02365761857365525 0.29529169871131838 0 -0.02468947446079673 0.30557783651628101 0 -0.034559835419018178 0.30227981698376871 0 -0.014741304354740791 0.29868343227182742 0 -0.007636957573278591 0.31214386631899882 0 -0.02468947446079673 0.30557783651628101 0 -0.007636957573278591 0.31214386631899882 0 -0.02468947446079673 0.30557783651628101 0 -0.023761818707880088 0.31594318325850362 0 -0.014741304354740791 0.29868343227182742 0 -0.02365761857365525 0.29529169871131838 0 -0.02468947446079673 0.30557783651628101 0 -0.030724452107544108 0.31088583423914062 0 -0.02468947446079673 0.30557783651628101 0 -0.023761818707880088 0.31594318325850362 0 -0.030724452107544108 0.31088583423914062 0 -0.02468947446079673 0.30557783651628101 0 -0.034559835419018178 0.30227981698376871 0 -0.034559835419018178 0.30227981698376871 0 -0.03988667984248144 0.31974250019800898 0 -0.04469535003451186 0.30241364544085542 0 -0.03433519655723126 0.29516842233514262 0 -0.046053968069031642 0.32119562791392198 0 -0.034559835419018178 0.30227981698376871 0 -0.03433519655723126 0.29516842233514262 0 -0.046053968069031642 0.32119562791392198 0 -0.030724452107544108 0.31088583423914062 0 -0.034559835419018178 0.30227981698376871 0 -0.03988667984248144 0.31974250019800898 0 -0.03433519655723126 0.29516842233514262 0 -0.046053968069031642 0.32119562791392198 0 -0.04469535003451186 0.30241364544085542 0 -0.03433519655723126 0.29516842233514262 0 -0.042117114145117637 0.29463842247292449 0 -0.04469535003451186 0.30241364544085542 0 -0.042117114145117637 0.29463842247292449 0 -0.049693936193698773 0.294588269592789 0 -0.029600097982558731 0.28465184353550549 0 -0.034559835419018178 0.30227981698376871 0 -0.03433519655723126 0.29516842233514262 0 -0.029600097982558731 0.28465184353550549 0 -0.034559835419018178 0.30227981698376871 0 -0.029600097982558731 0.28465184353550549 0 -0.03433519655723126 0.29516842233514262 0 -0.040989735049820529 0.28577878263705642 0 -0.029600097982558731 0.28465184353550549 0 -0.03433519655723126 0.29516842233514262 0 -0.03433519655723126 0.29516842233514262 0 -0.042117114145117637 0.29463842247292449 0 -0.040989735049820529 0.28577878263705642 0 -0.042117114145117637 0.29463842247292449 0 -0.040989735049820529 0.28577878263705642 0 -0.049693936193698773 0.294588269592789 0 -0.060477806947293843 0.28020622378297011 0 -0.049693936193698773 0.294588269592789 0 -0.061406356750701871 0.29863140559139267 0 -0.060477806947293843 0.28020622378297011 0 -0.040989735049820529 0.28577878263705642 0 -0.049693936193698773 0.294588269592789 0 -0.04469535003451186 0.30241364544085542 0 -0.052055135991724878 0.30609962871083962 0 -0.046053968069031642 0.32119562791392198 0 -0.052055135991724878 0.30609962871083962 0 -0.061406356750701871 0.29863140559139267 0 -0.062587809335821767 0.3147767372087325 0 -0.049693936193698773 0.294588269592789 0 -0.052055135991724878 0.30609962871083962 0 -0.061406356750701871 0.29863140559139267 0 -0.04469535003451186 0.30241364544085542 0 -0.049693936193698773 0.294588269592789 0 -0.052055135991724878 0.30609962871083962 0 -0.052055135991724878 0.30609962871083962 0 -0.046053968069031642 0.32119562791392198 0 -0.062587809335821767 0.3147767372087325 0 -0.046053968069031642 0.32119562791392198 0 -0.074225758004774295 0.32783342515295372 0 -0.046053968069031642 0.32119562791392198 0 -0.062587809335821767 0.3147767372087325 0 -0.074225758004774295 0.32783342515295372 0 -0.046053968069031642 0.32119562791392198 0 -0.063895165163641687 0.33114455143984628 0 -0.074225758004774295 0.32783342515295372 0 -0.051523701848994553 0.33334381984760308 0 -0.046053968069031642 0.32119562791392198 0 -0.057100249260967711 0.3324405098086104 0 -0.046053968069031642 0.32119562791392198 0 -0.063895165163641687 0.33114455143984628 0 -0.055196742916248778 0.33815189468639723 0 -0.051974040453069179 0.34307224301329919 0 -0.058581220895660341 0.34387695015513431 0 -0.061850688264855271 0.33765221802597561 0 -0.055196742916248778 0.33815189468639723 0 -0.058581220895660341 0.34387695015513431 0 -0.061850688264855271 0.33765221802597561 0 -0.058581220895660341 0.34387695015513431 0 -0.06394092165836128 0.34224286731997328 0 -0.061850688264855271 0.33765221802597561 0 -0.055196742916248778 0.33815189468639723 0 -0.057100249260967711 0.3324405098086104 0 -0.061850688264855271 0.33765221802597561 0 -0.057100249260967711 0.3324405098086104 0 -0.063895165163641687 0.33114455143984628 0 -0.051523701848994553 0.33334381984760308 0 -0.045005598330750747 0.33652355195285988 0 -0.046053968069031642 0.32119562791392198 0 -0.057100249260967711 0.3324405098086104 0 -0.051523701848994553 0.33334381984760308 0 -0.046053968069031642 0.32119562791392198 0 -0.051523701848994553 0.33334381984760308 0 -0.050925020887265797 0.3377728773750398 0 -0.045005598330750747 0.33652355195285988 0 -0.055196742916248778 0.33815189468639723 0 -0.057100249260967711 0.3324405098086104 0 -0.051523701848994553 0.33334381984760308 0 -0.055196742916248778 0.33815189468639723 0 -0.050925020887265797 0.3377728773750398 0 -0.051974040453069179 0.34307224301329919 0 -0.055196742916248778 0.33815189468639723 0 -0.051523701848994553 0.33334381984760308 0 -0.050925020887265797 0.3377728773750398 0 -0.050925020887265797 0.3377728773750398 0 -0.051974040453069179 0.34307224301329919 0 -0.045005598330750747 0.33652355195285988 0 -0.045005598330750747 0.33652355195285988 0 -0.03988667984248144 0.31974250019800898 0 -0.045005598330750747 0.33652355195285988 0 -0.034989616500913402 0.33129968711639463 0 -0.03988667984248144 0.31974250019800898 0 -0.045005598330750747 0.33652355195285988 0 -0.037302555407365788 0.34129629284504748 0 -0.050124516819020373 0.35330460370771077 0 -0.045005598330750747 0.33652355195285988 0 -0.034989616500913402 0.33129968711639463 0 -0.037302555407365788 0.34129629284504748 0 -0.034989616500913402 0.33129968711639463 0 -0.037302555407365788 0.34129629284504748 0 -0.026195253459994659 0.33577638106240981 0 -0.03988667984248144 0.31974250019800898 0 -0.023761818707880088 0.31594318325850362 0 -0.045005598330750747 0.33652355195285988 0 -0.03988667984248144 0.31974250019800898 0 -0.046053968069031642 0.32119562791392198 0 -0.034559835419018178 0.30227981698376871 0 -0.03988667984248144 0.31974250019800898 0 -0.046053968069031642 0.32119562791392198 0 -0.030724452107544108 0.31088583423914062 0 -0.03988667984248144 0.31974250019800898 0 -0.023761818707880088 0.31594318325850362 0 -0.03988667984248144 0.31974250019800898 0 -0.046053968069031642 0.32119562791392198 0 -0.034989616500913402 0.33129968711639463 0 -0.03988667984248144 0.31974250019800898 0 -0.028239443528484481 0.32562426653090998 0 -0.03988667984248144 0.31974250019800898 0 -0.023761818707880088 0.31594318325850362 0 -0.028239443528484481 0.32562426653090998 0 -0.007636957573278591 0.31214386631899882 0 -0.023761818707880088 0.31594318325850362 0 -0.023761818707880088 0.31594318325850362 0 -0.028239443528484481 0.32562426653090998 0 -0.01331007295394479 0.32718322135333588 0 -0.026195253459994659 0.33577638106240981 0 -0.01331007295394479 0.32718322135333588 0 -0.010271067033279129 0.34584987706401471 0 -0.034989616500913402 0.33129968711639463 0 -0.028239443528484481 0.32562426653090998 0 -0.026195253459994659 0.33577638106240981 0 -0.026195253459994659 0.33577638106240981 0 -0.010271067033279129 0.34584987706401471 0 -0.030197791926149759 0.34957724038586269 0 -0.037302555407365788 0.34129629284504748 0 -0.026195253459994659 0.33577638106240981 0 -0.030197791926149759 0.34957724038586269 0 -0.028239443528484481 0.32562426653090998 0 -0.026195253459994659 0.33577638106240981 0 -0.01331007295394479 0.32718322135333588 0 -0.001898476827708107 0.33458251633580649 0 -0.01331007295394479 0.32718322135333588 0 0.0063315748167999709 0.32317445318370869 0 -0.001898476827708107 0.33458251633580649 0 -0.01331007295394479 0.32718322135333588 0 -0.010271067033279129 0.34584987706401471 0 -0.001898476827708107 0.33458251633580649 0 -0.010271067033279129 0.34584987706401471 0 0.009655657859591521 0.34212251374216662 0 -0.007636957573278591 0.31214386631899882 0 -0.01331007295394479 0.32718322135333588 0 0.0063315748167999709 0.32317445318370869 0 -0.007636957573278591 0.31214386631899882 0 -0.023761818707880088 0.31594318325850362 0 -0.01331007295394479 0.32718322135333588 0 -0.0023628468434420511 0.37374995271218259 0 -0.01762209182754311 0.36721516348989008 0 0.0012362350802134321 0.35883037509994198 0 -0.010271067033279129 0.34584987706401471 0 -0.01762209182754311 0.36721516348989008 0 0.0012362350802134321 0.35883037509994198 0 -0.010271067033279129 0.34584987706401471 0 0.009655657859591521 0.34212251374216662 0 -0.010271067033279129 0.34584987706401471 0 -0.030197791926149759 0.34957724038586269 0 -0.01762209182754311 0.36721516348989008 0 -0.010271067033279129 0.34584987706401471 0 -0.030197791926149759 0.34957724038586269 0 -0.030197791926149759 0.34957724038586269 0 -0.01762209182754311 0.36721516348989008 0 -0.037271162747444547 0.36689100380278727 0 -0.01762209182754311 0.36721516348989008 0 -0.037271162747444547 0.36689100380278727 0 -0.030472535269060429 0.38827935975465172 0 -0.037271162747444547 0.36689100380278727 0 -0.055519341681434617 0.3709901432278232 0 -0.044293508469103529 0.37802366558093531 0 -0.037302555407365788 0.34129629284504748 0 -0.030197791926149759 0.34957724038586269 0 -0.050124516819020373 0.35330460370771077 0 -0.030197791926149759 0.34957724038586269 0 -0.037271162747444547 0.36689100380278727 0 -0.050124516819020373 0.35330460370771077 0 -0.030197791926149759 0.34957724038586269 0 -0.050124516819020373 0.35330460370771077 0 -0.045005598330750747 0.33652355195285988 0 -0.050124516819020373 0.35330460370771077 0 -0.051974040453069179 0.34307224301329919 0 -0.045005598330750747 0.33652355195285988 0 -0.050124516819020373 0.35330460370771077 0 -0.051974040453069179 0.34307224301329919 0 -0.050124516819020373 0.35330460370771077 0 -0.054931978745591713 0.34889484709661461 0 -0.050124516819020373 0.35330460370771077 0 -0.058148141484411733 0.35480545065806712 0 -0.050124516819020373 0.35330460370771077 0 -0.058148141484411733 0.35480545065806712 0 -0.054931978745591713 0.34889484709661461 0 -0.061702233834536109 0.35222189844473628 0 -0.058148141484411733 0.35480545065806712 0 -0.064949736007851103 0.3544566657091584 0 -0.061702233834536109 0.35222189844473628 0 -0.058148141484411733 0.35480545065806712 0 -0.058930060691919021 0.34999142032620428 0 -0.058148141484411733 0.35480545065806712 0 -0.058930060691919021 0.34999142032620428 0 -0.058148141484411733 0.35480545065806712 0 -0.054931978745591713 0.34889484709661461 0 -0.058930060691919021 0.34999142032620428 0 -0.061702233834536109 0.35222189844473628 0 -0.058930060691919021 0.34999142032620428 0 -0.065170541792730657 0.34859283433844562 0 -0.058930060691919021 0.34999142032620428 0 -0.058581220895660341 0.34387695015513431 0 -0.065170541792730657 0.34859283433844562 0 -0.054931978745591713 0.34889484709661461 0 -0.058930060691919021 0.34999142032620428 0 -0.058581220895660341 0.34387695015513431 0 -0.051974040453069179 0.34307224301329919 0 -0.054931978745591713 0.34889484709661461 0 -0.058581220895660341 0.34387695015513431 0 -0.058148141484411733 0.35480545065806712 0 -0.055519341681434617 0.3709901432278232 0 -0.050124516819020373 0.35330460370771077 0 -0.055519341681434617 0.3709901432278232 0 -0.037271162747444547 0.36689100380278727 0 -0.050124516819020373 0.35330460370771077 0 -0.055519341681434617 0.3709901432278232 0 -0.058148141484411733 0.35480545065806712 0 -0.055519341681434617 0.3709901432278232 0 -0.067604721944787394 0.35657433698271912 0 -0.050124516819020373 0.35330460370771077 0 -0.058148141484411733 0.35480545065806712 0 -0.055519341681434617 0.3709901432278232 0 -0.086999891498136722 0.37204432228002438 0 -0.067604721944787394 0.35657433698271912 0 -0.068687234713820641 0.3747916428567451 0 -0.086999891498136722 0.37204432228002438 0 -0.067604721944787394 0.35657433698271912 0 -0.055519341681434617 0.3709901432278232 0 -0.068687234713820641 0.3747916428567451 0 -0.067604721944787394 0.35657433698271912 0 -0.086999891498136722 0.37204432228002438 0 -0.067604721944787394 0.35657433698271912 0 -0.094589720184497947 0.36162197492721782 0 -0.077198881082477772 0.3499383073034219 0 -0.067604721944787394 0.35657433698271912 0 -0.094589720184497947 0.36162197492721782 0 -0.067604721944787394 0.35657433698271912 0 -0.094589720184497947 0.36162197492721782 0 -0.077198881082477772 0.3499383073034219 0 -0.070355858563805385 0.33918007125631439 0 -0.088273562926567573 0.34372231901241218 0 -0.077198881082477772 0.3499383073034219 0 -0.088273562926567573 0.34372231901241218 0 -0.094589720184497947 0.36162197492721782 0 -0.077198881082477772 0.3499383073034219 0 -0.065170541792730657 0.34859283433844562 0 -0.070355858563805385 0.33918007125631439 0 -0.077198881082477772 0.3499383073034219 0 -0.067604721944787394 0.35657433698271912 0 -0.065170541792730657 0.34859283433844562 0 -0.058148141484411733 0.35480545065806712 0 -0.067604721944787394 0.35657433698271912 0 -0.064949736007851103 0.3544566657091584 0 -0.067604721944787394 0.35657433698271912 0 -0.064949736007851103 0.3544566657091584 0 -0.065170541792730657 0.34859283433844562 0 -0.058148141484411733 0.35480545065806712 0 -0.067604721944787394 0.35657433698271912 0 -0.061702233834536109 0.35222189844473628 0 -0.064949736007851103 0.3544566657091584 0 -0.065170541792730657 0.34859283433844562 0 -0.067604721944787394 0.35657433698271912 0 -0.064949736007851103 0.3544566657091584 0 -0.058581220895660341 0.34387695015513431 0 -0.065170541792730657 0.34859283433844562 0 -0.06394092165836128 0.34224286731997328 0 -0.065170541792730657 0.34859283433844562 0 -0.06394092165836128 0.34224286731997328 0 -0.070355858563805385 0.33918007125631439 0 -0.061850688264855271 0.33765221802597561 0 -0.063895165163641687 0.33114455143984628 0 -0.070355858563805385 0.33918007125631439 0 -0.070355858563805385 0.33918007125631439 0 -0.074225758004774295 0.32783342515295372 0 -0.088273562926567573 0.34372231901241218 0 -0.061850688264855271 0.33765221802597561 0 -0.06394092165836128 0.34224286731997328 0 -0.070355858563805385 0.33918007125631439 0 -0.063895165163641687 0.33114455143984628 0 -0.070355858563805385 0.33918007125631439 0 -0.074225758004774295 0.32783342515295372 0 -0.062587809335821767 0.3147767372087325 0 -0.074225758004774295 0.32783342515295372 0 -0.07390525969862069 0.31676703165210579 0 -0.073688072544465119 0.30715063639703732 0 -0.062587809335821767 0.3147767372087325 0 -0.07390525969862069 0.31676703165210579 0 -0.074225758004774295 0.32783342515295372 0 -0.07390525969862069 0.31676703165210579 0 -0.085119398909421606 0.31730732784969989 0 -0.073688072544465119 0.30715063639703732 0 -0.07390525969862069 0.31676703165210579 0 -0.085119398909421606 0.31730732784969989 0 -0.074225758004774295 0.32783342515295372 0 -0.085119398909421606 0.31730732784969989 0 -0.10239754794051691 0.33447122239198579 0 -0.074225758004774295 0.32783342515295372 0 -0.10239754794051691 0.33447122239198579 0 -0.074225758004774295 0.32783342515295372 0 -0.088273562926567573 0.34372231901241218 0 -0.10239754794051691 0.33447122239198579 0 -0.088273562926567573 0.34372231901241218 0 -0.10239754794051691 0.33447122239198579 0 -0.1124051680669324 0.34919670846297879 0 -0.085119398909421606 0.31730732784969989 0 -0.10239754794051691 0.33447122239198579 0 -0.1017657691567494 0.31606271658645763 0 -0.10239754794051691 0.33447122239198579 0 -0.1017657691567494 0.31606271658645763 0 -0.1206918578557839 0.31454483137514888 0 -0.12715702385147301 0.32792388706142062 0 -0.10239754794051691 0.33447122239198579 0 -0.1206918578557839 0.31454483137514888 0 -0.13056933787625921 0.34110901963101797 0 -0.10239754794051691 0.33447122239198579 0 -0.1124051680669324 0.34919670846297879 0 -0.13056933787625921 0.34110901963101797 0 -0.12715702385147301 0.32792388706142062 0 -0.10239754794051691 0.33447122239198579 0 -0.13056933787625921 0.34110901963101797 0 -0.10239754794051691 0.33447122239198579 0 -0.1124051680669324 0.34919670846297879 0 -0.1231558014748048 0.354024263464635 0 -0.12157471842420869 0.36666961287171518 0 -0.1124051680669324 0.34919670846297879 0 -0.12157471842420869 0.36666961287171518 0 -0.094589720184497947 0.36162197492721782 0 -0.12931999918052889 0.34632805697413271 0 -0.1124051680669324 0.34919670846297879 0 -0.1231558014748048 0.354024263464635 0 -0.12931999918052889 0.34632805697413271 0 -0.13056933787625921 0.34110901963101797 0 -0.1124051680669324 0.34919670846297879 0 -0.12157471842420869 0.36666961287171518 0 -0.094589720184497947 0.36162197492721782 0 -0.12157471842420869 0.36666961287171518 0 -0.094589720184497947 0.36162197492721782 0 -0.10639506105148611 0.38751430757732969 0 -0.086999891498136722 0.37204432228002438 0 -0.094589720184497947 0.36162197492721782 0 -0.10639506105148611 0.38751430757732969 0 -0.088273562926567573 0.34372231901241218 0 -0.1124051680669324 0.34919670846297879 0 -0.094589720184497947 0.36162197492721782 0 -0.096820078086223768 0.40066266737373207 0 -0.10639506105148611 0.38751430757732969 0 -0.088766714970141727 0.38894787571799011 0 -0.096820078086223768 0.40066266737373207 0 -0.10639506105148611 0.38751430757732969 0 -0.1111408638503832 0.40415398175656048 0 -0.096820078086223768 0.40066266737373207 0 -0.10639506105148611 0.38751430757732969 0 -0.096820078086223768 0.40066266737373207 0 -0.1111408638503832 0.40415398175656048 0 -0.10515916970663911 0.41317834740146359 0 -0.086999891498136722 0.37204432228002438 0 -0.10639506105148611 0.38751430757732969 0 -0.088766714970141727 0.38894787571799011 0 -0.086999891498136722 0.37204432228002438 0 -0.10639506105148611 0.38751430757732969 0 -0.13189012878861439 0.38479986758827561 0 -0.12157471842420869 0.36666961287171518 0 -0.10639506105148611 0.38751430757732969 0 -0.12157471842420869 0.36666961287171518 0 -0.10639506105148611 0.38751430757732969 0 -0.12878315541818511 0.40537151113179559 0 -0.10639506105148611 0.38751430757732969 0 -0.12878315541818511 0.40537151113179559 0 -0.13189012878861439 0.38479986758827561 0 -0.10639506105148611 0.38751430757732969 0 -0.12878315541818511 0.40537151113179559 0 -0.10639506105148611 0.38751430757732969 0 -0.1111408638503832 0.40415398175656048 0 -0.12878315541818511 0.40537151113179559 0 -0.1111408638503832 0.40415398175656048 0 -0.1185468549893821 0.41404307529848111 0 -0.1185468549893821 0.41404307529848111 0 -0.12008644197218619 0.42737002331699042 0 -0.1046360209245689 0.42328048589374812 0 -0.1185468549893821 0.41404307529848111 0 -0.1046360209245689 0.42328048589374812 0 -0.10515916970663911 0.41317834740146359 0 -0.1111408638503832 0.40415398175656048 0 -0.1185468549893821 0.41404307529848111 0 -0.10515916970663911 0.41317834740146359 0 -0.12008644197218619 0.42737002331699042 0 -0.099639421387103994 0.43716887904067858 0 -0.12008644197218619 0.42737002331699042 0 -0.1046360209245689 0.42328048589374812 0 -0.099639421387103994 0.43716887904067858 0 -0.1046360209245689 0.42328048589374812 0 -0.095579172790471845 0.4235406215457852 0 -0.095095276913571003 0.42936262416003329 0 -0.095579172790471845 0.4235406215457852 0 -0.095095276913571003 0.42936262416003329 0 -0.091625082021052476 0.42574095407038098 0 -0.1046360209245689 0.42328048589374812 0 -0.095095276913571003 0.42936262416003329 0 -0.099639421387103994 0.43716887904067858 0 -0.095095276913571003 0.42936262416003329 0 -0.099639421387103994 0.43716887904067858 0 -0.09171862756978566 0.43297421792197449 0 -0.1046360209245689 0.42328048589374812 0 -0.10515916970663911 0.41317834740146359 0 -0.098504381298022678 0.41802580942989448 0 -0.1046360209245689 0.42328048589374812 0 -0.095579172790471845 0.4235406215457852 0 -0.098504381298022678 0.41802580942989448 0 -0.10515916970663911 0.41317834740146359 0 -0.098504381298022678 0.41802580942989448 0 -0.096120423668676097 0.41118113685017188 0 -0.095579172790471845 0.4235406215457852 0 -0.098504381298022678 0.41802580942989448 0 -0.092266463995927778 0.41911854974585361 0 -0.098504381298022678 0.41802580942989448 0 -0.093023191501638861 0.41564192457188148 0 -0.092266463995927778 0.41911854974585361 0 -0.098504381298022678 0.41802580942989448 0 -0.096120423668676097 0.41118113685017188 0 -0.093023191501638861 0.41564192457188148 0 -0.096820078086223768 0.40066266737373207 0 -0.10515916970663911 0.41317834740146359 0 -0.096120423668676097 0.41118113685017188 0 -0.096820078086223768 0.40066266737373207 0 -0.096120423668676097 0.41118113685017188 0 -0.088673802124449308 0.41184912772929538 0 -0.088673802124449308 0.41184912772929538 0 -0.071048121470898451 0.42250093002225181 0 -0.075683801624591429 0.41052130374988971 0 -0.096820078086223768 0.40066266737373207 0 -0.088673802124449308 0.41184912772929538 0 -0.096120423668676097 0.41118113685017188 0 -0.087245095120955948 0.41381102717013052 0 -0.088673802124449308 0.41184912772929538 0 -0.088673802124449308 0.41184912772929538 0 -0.071048121470898451 0.42250093002225181 0 -0.087245095120955948 0.41381102717013052 0 -0.08451308245815646 0.42024902731473529 0 -0.071048121470898451 0.42250093002225181 0 -0.087245095120955948 0.41381102717013052 0 -0.088673802124449308 0.41184912772929538 0 -0.071048121470898451 0.42250093002225181 0 -0.096120423668676097 0.41118113685017188 0 -0.087245095120955948 0.41381102717013052 0 -0.093023191501638861 0.41564192457188148 0 -0.087245095120955948 0.41381102717013052 0 -0.088673802124449308 0.41184912772929538 0 -0.087245095120955948 0.41381102717013052 0 -0.093023191501638861 0.41564192457188148 0 -0.089455585555945419 0.41700143490548103 0 -0.093023191501638861 0.41564192457188148 0 -0.092266463995927778 0.41911854974585361 0 -0.089455585555945419 0.41700143490548103 0 -0.095579172790471845 0.4235406215457852 0 -0.092266463995927778 0.41911854974585361 0 -0.090153977743895192 0.42249122693870228 0 -0.092266463995927778 0.41911854974585361 0 -0.089379603955230091 0.41963667912098113 0 -0.089455585555945419 0.41700143490548103 0 -0.092266463995927778 0.41911854974585361 0 -0.089379603955230091 0.41963667912098113 0 -0.090153977743895192 0.42249122693870228 0 -0.089379603955230091 0.41963667912098113 0 -0.087546917385018019 0.42093163560763441 0 -0.090153977743895192 0.42249122693870228 0 -0.089379603955230091 0.41963667912098113 0 -0.087475075095363994 0.4186405484072343 0 -0.089455585555945419 0.41700143490548103 0 -0.089379603955230091 0.41963667912098113 0 -0.087475075095363994 0.4186405484072343 0 -0.087546917385018019 0.42093163560763441 0 -0.087546917385018019 0.42093163560763441 0 -0.08451308245815646 0.42024902731473529 0 -0.087006219029488241 0.42350718860412367 0 -0.087475075095363994 0.4186405484072343 0 -0.087546917385018019 0.42093163560763441 0 -0.08451308245815646 0.42024902731473529 0 -0.087245095120955948 0.41381102717013052 0 -0.087475075095363994 0.4186405484072343 0 -0.089455585555945419 0.41700143490548103 0 -0.087245095120955948 0.41381102717013052 0 -0.087475075095363994 0.4186405484072343 0 -0.08451308245815646 0.42024902731473529 0 -0.088673802124449308 0.41184912772929538 0 -0.075683801624591429 0.41052130374988971 0 -0.084614671277667614 0.40514935113720357 0 -0.099639421387103994 0.43716887904067858 0 -0.08879408181921658 0.43746792584099731 0 -0.09171862756978566 0.43297421792197449 0 -0.08879408181921658 0.43746792584099731 0 -0.084067489140840029 0.43348150349666398 0 -0.08879408181921658 0.43746792584099731 0 -0.087219787792579939 0.43050310126476221 0 -0.084067489140840029 0.43348150349666398 0 -0.08879408181921658 0.43746792584099731 0 -0.09171862756978566 0.43297421792197449 0 -0.087219787792579939 0.43050310126476221 0 -0.095095276913571003 0.42936262416003329 0 -0.09171862756978566 0.43297421792197449 0 -0.090076935940390263 0.42879863697342913 0 -0.09171862756978566 0.43297421792197449 0 -0.087219787792579939 0.43050310126476221 0 -0.090076935940390263 0.42879863697342913 0 -0.087219787792579939 0.43050310126476221 0 -0.087478024187559719 0.42781697865945623 0 -0.084274048015268291 0.42620430314492391 0 -0.087478024187559719 0.42781697865945623 0 -0.088341325002000384 0.42576187325470982 0 -0.084274048015268291 0.42620430314492391 0 -0.087478024187559719 0.42781697865945623 0 -0.090076935940390263 0.42879863697342913 0 -0.088341325002000384 0.42576187325470982 0 -0.087219787792579939 0.43050310126476221 0 -0.087478024187559719 0.42781697865945623 0 -0.090076935940390263 0.42879863697342913 0 -0.095095276913571003 0.42936262416003329 0 -0.090076935940390263 0.42879863697342913 0 -0.091625082021052476 0.42574095407038098 0 -0.090076935940390263 0.42879863697342913 0 -0.091625082021052476 0.42574095407038098 0 -0.088341325002000384 0.42576187325470982 0 -0.095579172790471845 0.4235406215457852 0 -0.091625082021052476 0.42574095407038098 0 -0.090153977743895192 0.42249122693870228 0 -0.091625082021052476 0.42574095407038098 0 -0.090153977743895192 0.42249122693870228 0 -0.088341325002000384 0.42576187325470982 0 -0.088341325002000384 0.42576187325470982 0 -0.087006219029488241 0.42350718860412367 0 -0.084274048015268291 0.42620430314492391 0 -0.087546917385018019 0.42093163560763441 0 -0.090153977743895192 0.42249122693870228 0 -0.087006219029488241 0.42350718860412367 0 -0.090153977743895192 0.42249122693870228 0 -0.088341325002000384 0.42576187325470982 0 -0.087006219029488241 0.42350718860412367 0 -0.08451308245815646 0.42024902731473529 0 -0.084274048015268291 0.42620430314492391 0 -0.071048121470898451 0.42250093002225181 0 -0.084274048015268291 0.42620430314492391 0 -0.084067489140840029 0.43348150349666398 0 -0.071048121470898451 0.42250093002225181 0 -0.08451308245815646 0.42024902731473529 0 -0.087006219029488241 0.42350718860412367 0 -0.084274048015268291 0.42620430314492391 0 -0.087219787792579939 0.43050310126476221 0 -0.084274048015268291 0.42620430314492391 0 -0.084067489140840029 0.43348150349666398 0 -0.084067489140840029 0.43348150349666398 0 -0.071155885602571231 0.43558179903686822 0 -0.071048121470898451 0.42250093002225181 0 -0.084067489140840029 0.43348150349666398 0 -0.071048121470898451 0.42250093002225181 0 -0.071155885602571231 0.43558179903686822 0 -0.071048121470898451 0.42250093002225181 0 -0.057763523761380491 0.43073171781021652 0 -0.071048121470898451 0.42250093002225181 0 -0.057763523761380491 0.43073171781021652 0 -0.071155885602571231 0.43558179903686822 0 -0.057763523761380491 0.43073171781021652 0 -0.06276098476621457 0.44403572932344543 0 -0.071048121470898451 0.42250093002225181 0 -0.075683801624591429 0.41052130374988971 0 -0.065279853061764051 0.40298745809080899 0 -0.065279853061764051 0.40298745809080899 0 -0.073724300392770115 0.3872849249717224 0 -0.060399597371599251 0.38698880065931618 0 -0.065279853061764051 0.40298745809080899 0 -0.060399597371599251 0.38698880065931618 0 -0.065279853061764051 0.40298745809080899 0 -0.080705923141717581 0.39715747022502063 0 -0.073724300392770115 0.3872849249717224 0 -0.075683801624591429 0.41052130374988971 0 -0.065279853061764051 0.40298745809080899 0 -0.080705923141717581 0.39715747022502063 0 -0.096820078086223768 0.40066266737373207 0 -0.084614671277667614 0.40514935113720357 0 -0.080705923141717581 0.39715747022502063 0 -0.075683801624591429 0.41052130374988971 0 -0.084614671277667614 0.40514935113720357 0 -0.080705923141717581 0.39715747022502063 0 -0.096820078086223768 0.40066266737373207 0 -0.080705923141717581 0.39715747022502063 0 -0.088766714970141727 0.38894787571799011 0 -0.080705923141717581 0.39715747022502063 0 -0.088766714970141727 0.38894787571799011 0 -0.073724300392770115 0.3872849249717224 0 -0.096820078086223768 0.40066266737373207 0 -0.088673802124449308 0.41184912772929538 0 -0.084614671277667614 0.40514935113720357 0 -0.086999891498136722 0.37204432228002438 0 -0.088766714970141727 0.38894787571799011 0 -0.073724300392770115 0.3872849249717224 0 -0.068687234713820641 0.3747916428567451 0 -0.086999891498136722 0.37204432228002438 0 -0.073724300392770115 0.3872849249717224 0 -0.068687234713820641 0.3747916428567451 0 -0.073724300392770115 0.3872849249717224 0 -0.060399597371599251 0.38698880065931618 0 -0.055519341681434617 0.3709901432278232 0 -0.052775535657268932 0.38788289288563621 0 -0.044293508469103529 0.37802366558093531 0 -0.055519341681434617 0.3709901432278232 0 -0.068687234713820641 0.3747916428567451 0 -0.060399597371599251 0.38698880065931618 0 -0.055519341681434617 0.3709901432278232 0 -0.052775535657268932 0.38788289288563621 0 -0.055519341681434617 0.3709901432278232 0 -0.060399597371599251 0.38698880065931618 0 -0.052775535657268932 0.38788289288563621 0 -0.055519341681434617 0.3709901432278232 0 -0.060399597371599251 0.38698880065931618 0 -0.060399597371599251 0.38698880065931618 0 -0.052775535657268932 0.38788289288563621 0 -0.057658585757189212 0.3965685923255946 0 -0.052775535657268932 0.38788289288563621 0 -0.057658585757189212 0.3965685923255946 0 -0.050031729633103053 0.40477564254344911 0 -0.052775535657268932 0.38788289288563621 0 -0.050031729633103053 0.40477564254344911 0 -0.065279853061764051 0.40298745809080899 0 -0.060399597371599251 0.38698880065931618 0 -0.057658585757189212 0.3965685923255946 0 -0.065279853061764051 0.40298745809080899 0 -0.057658585757189212 0.3965685923255946 0 -0.050031729633103053 0.40477564254344911 0 -0.052775535657268932 0.38788289288563621 0 -0.050031729633103053 0.40477564254344911 0 -0.030472535269060429 0.38827935975465172 0 -0.050031729633103053 0.40477564254344911 0 -0.030472535269060429 0.38827935975465172 0 -0.031140429403655641 0.40991016197222241 0 -0.050031729633103053 0.40477564254344911 0 -0.030472535269060429 0.38827935975465172 0 -0.037271162747444547 0.36689100380278727 0 -0.044293508469103529 0.37802366558093531 0 -0.030472535269060429 0.38827935975465172 0 -0.052775535657268932 0.38788289288563621 0 -0.044293508469103529 0.37802366558093531 0 -0.030472535269060429 0.38827935975465172 0 -0.01762209182754311 0.36721516348989008 0 -0.030472535269060429 0.38827935975465172 0 -0.013678136294271609 0.38778873904793848 0 -0.0066193460430503523 0.40341679454510287 0 -0.013678136294271609 0.38778873904793848 0 -0.031140429403655641 0.40991016197222241 0 -0.030472535269060429 0.38827935975465172 0 -0.013678136294271609 0.38778873904793848 0 -0.031140429403655641 0.40991016197222241 0 -0.0066193460430503523 0.40341679454510287 0 -0.013678136294271609 0.38778873904793848 0 0.0086842152848790755 0.38523504373447992 0 -0.0023628468434420511 0.37374995271218259 0 -0.01762209182754311 0.36721516348989008 0 -0.013678136294271609 0.38778873904793848 0 -0.0023628468434420511 0.37374995271218259 0 -0.013678136294271609 0.38778873904793848 0 0.0086842152848790755 0.38523504373447992 0 -0.0021863188058899139 0.42141529129835048 0 -0.020001522889792941 0.42547524598841052 0 -0.006833924212033572 0.4445697285251774 0 -0.0066193460430503523 0.40341679454510287 0 -0.0021863188058899139 0.42141529129835048 0 -0.020001522889792941 0.42547524598841052 0 -0.031140429403655641 0.40991016197222241 0 -0.020001522889792941 0.42547524598841052 0 -0.033843023497397033 0.42684785153559018 0 -0.0066193460430503523 0.40341679454510287 0 -0.031140429403655641 0.40991016197222241 0 -0.020001522889792941 0.42547524598841052 0 -0.020001522889792941 0.42547524598841052 0 -0.026338911299190491 0.43802227004832028 0 -0.006833924212033572 0.4445697285251774 0 -0.020001522889792941 0.42547524598841052 0 -0.033843023497397033 0.42684785153559018 0 -0.026338911299190491 0.43802227004832028 0 -0.033843023497397033 0.42684785153559018 0 -0.047255327842482528 0.42186907407081542 0 -0.04447892605186312 0.4389625055981819 0 -0.033843023497397033 0.42684785153559018 0 -0.04447892605186312 0.4389625055981819 0 -0.026338911299190491 0.43802227004832028 0 -0.047255327842482528 0.42186907407081542 0 -0.04447892605186312 0.4389625055981819 0 -0.050031729633103053 0.40477564254344911 0 -0.031140429403655641 0.40991016197222241 0 -0.047255327842482528 0.42186907407081542 0 -0.031140429403655641 0.40991016197222241 0 -0.033843023497397033 0.42684785153559018 0 -0.047255327842482528 0.42186907407081542 0 -0.071048121470898451 0.42250093002225181 0 -0.050031729633103053 0.40477564254344911 0 -0.047255327842482528 0.42186907407081542 0 -0.071048121470898451 0.42250093002225181 0 -0.065279853061764051 0.40298745809080899 0 -0.050031729633103053 0.40477564254344911 0 -0.050031729633103053 0.40477564254344911 0 -0.047255327842482528 0.42186907407081542 0 -0.071048121470898451 0.42250093002225181 0 -0.050031729633103053 0.40477564254344911 0 -0.047255327842482528 0.42186907407081542 0 -0.057763523761380491 0.43073171781021652 0 -0.04447892605186312 0.4389625055981819 0 -0.071048121470898451 0.42250093002225181 0 -0.047255327842482528 0.42186907407081542 0 -0.057763523761380491 0.43073171781021652 0 -0.057763523761380491 0.43073171781021652 0 -0.04447892605186312 0.4389625055981819 0 -0.057763523761380491 0.43073171781021652 0 -0.051804137437617762 0.4478034628969419 0 -0.04447892605186312 0.4389625055981819 0 -0.057763523761380491 0.43073171781021652 0 -0.051804137437617762 0.4478034628969419 0 -0.06276098476621457 0.44403572932344543 0 -0.051804137437617762 0.4478034628969419 0 -0.053888976227483468 0.45909393210883592 0 -0.06276098476621457 0.44403572932344543 0 -0.051804137437617762 0.4478034628969419 0 -0.053888976227483468 0.45909393210883592 0 -0.041240222497310033 0.45890218350582368 0 -0.053888976227483468 0.45909393210883592 0 -0.028585551652945049 0.47122012945330499 0 -0.053888976227483468 0.45909393210883592 0 -0.041240222497310033 0.45890218350582368 0 -0.028585551652945049 0.47122012945330499 0 -0.04447892605186312 0.4389625055981819 0 -0.02326050076901991 0.45210888454895692 0 -0.041240222497310033 0.45890218350582368 0 -0.04447892605186312 0.4389625055981819 0 -0.02326050076901991 0.45210888454895692 0 -0.041240222497310033 0.45890218350582368 0 -0.04447892605186312 0.4389625055981819 0 -0.04447892605186312 0.4389625055981819 0 -0.02326050076901991 0.45210888454895692 0 -0.026338911299190491 0.43802227004832028 0 -0.051804137437617762 0.4478034628969419 0 -0.041240222497310033 0.45890218350582368 0 -0.04447892605186312 0.4389625055981819 0 -0.02326050076901991 0.45210888454895692 0 -0.026338911299190491 0.43802227004832028 0 -0.006833924212033572 0.4445697285251774 0 -0.041240222497310033 0.45890218350582368 0 -0.02326050076901991 0.45210888454895692 0 -0.028585551652945049 0.47122012945330499 0 -0.02326050076901991 0.45210888454895692 0 -0.015889408510824921 0.46560118755434932 0 -0.028585551652945049 0.47122012945330499 0 -0.02326050076901991 0.45210888454895692 0 -0.015889408510824921 0.46560118755434932 0 -0.0020420754861762221 0.4652552634997314 0 -0.02326050076901991 0.45210888454895692 0 -0.0020420754861762221 0.4652552634997314 0 -0.006833924212033572 0.4445697285251774 0 -0.02326050076901991 0.45210888454895692 0 -0.0020420754861762221 0.4652552634997314 0 -0.015889408510824921 0.46560118755434932 0 -0.0020420754861762221 0.4652552634997314 0 -0.01002534785331512 0.47197674448168458 0 -0.010537121076821251 0.5 0 -0.0032821270784066381 0.48334632679777417 0 0.0034021192685400881 0.48548060729199077 0 -0.010537121076821251 0.5 0 -0.0032821270784066381 0.48334632679777417 0 -0.02245512284889193 0.4878146900863935 0 -0.0032821270784066381 0.48334632679777417 0 -0.01002534785331512 0.47197674448168458 0 -0.028585551652945049 0.47122012945330499 0 -0.0032821270784066381 0.48334632679777417 0 -0.00056542977438533222 0.47272372691794812 0 0.0034021192685400881 0.48548060729199077 0 -0.0032821270784066381 0.48334632679777417 0 -0.00056542977438533222 0.47272372691794812 0 -0.01002534785331512 0.47197674448168458 0 -0.0020420754861762221 0.4652552634997314 0 -0.00056542977438533222 0.47272372691794812 0 -0.01002534785331512 0.47197674448168458 0 -0.0032821270784066381 0.48334632679777417 0 -0.028585551652945049 0.47122012945330499 0 -0.02245512284889193 0.4878146900863935 0 -0.028585551652945049 0.47122012945330499 0 -0.02245512284889193 0.4878146900863935 0 -0.033983416475900322 0.48479499559558342 0 -0.0032821270784066381 0.48334632679777417 0 -0.028585551652945049 0.47122012945330499 0 -0.015889408510824921 0.46560118755434932 0 -0.01002534785331512 0.47197674448168458 0 -0.028585551652945049 0.47122012945330499 0 -0.010537121076821251 0.5 0 -0.02245512284889193 0.4878146900863935 0 -0.035279541292076999 0.5 0 -0.02245512284889193 0.4878146900863935 0 -0.035279541292076999 0.5 0 -0.033983416475900322 0.48479499559558342 0 -0.035279541292076999 0.5 0 -0.033983416475900322 0.48479499559558342 0 -0.048640879440392311 0.48060596510614728 0 -0.028585551652945049 0.47122012945330499 0 -0.033983416475900322 0.48479499559558342 0 -0.048640879440392311 0.48060596510614728 0 -0.053888976227483468 0.45909393210883592 0 -0.028585551652945049 0.47122012945330499 0 -0.048640879440392311 0.48060596510614728 0 -0.053888976227483468 0.45909393210883592 0 -0.048640879440392311 0.48060596510614728 0 -0.069607181154676248 0.47348386738218212 0 -0.048640879440392311 0.48060596510614728 0 -0.060021961507332758 0.49999999999999928 0 -0.069607181154676248 0.47348386738218212 0 -0.035279541292076999 0.5 0 -0.048640879440392311 0.48060596510614728 0 -0.060021961507332758 0.49999999999999928 0 -0.060021961507332758 0.49999999999999928 0 -0.087932867644379242 0.5 0 -0.069607181154676248 0.47348386738218212 0 -0.060021961507332758 0.49999999999999928 0 -0.069607181154676248 0.47348386738218212 0 -0.087932867644379242 0.5 0 -0.069607181154676248 0.47348386738218212 0 -0.095788950075434975 0.47840691683714448 0 -0.069607181154676248 0.47348386738218212 0 -0.085220401509297244 0.46335147389799342 0 -0.095788950075434975 0.47840691683714448 0 -0.069607181154676248 0.47348386738218212 0 -0.079192400802021057 0.44696773476436519 0 -0.069607181154676248 0.47348386738218212 0 -0.079192400802021057 0.44696773476436519 0 -0.085220401509297244 0.46335147389799342 0 -0.053888976227483468 0.45909393210883592 0 -0.069607181154676248 0.47348386738218212 0 -0.079192400802021057 0.44696773476436519 0 -0.053888976227483468 0.45909393210883592 0 -0.06276098476621457 0.44403572932344543 0 -0.079192400802021057 0.44696773476436519 0 -0.071155885602571231 0.43558179903686822 0 -0.06276098476621457 0.44403572932344543 0 -0.079192400802021057 0.44696773476436519 0 -0.053888976227483468 0.45909393210883592 0 -0.079192400802021057 0.44696773476436519 0 -0.099639421387103994 0.43716887904067858 0 -0.08879408181921658 0.43746792584099731 0 -0.079192400802021057 0.44696773476436519 0 -0.099639421387103994 0.43716887904067858 0 -0.079192400802021057 0.44696773476436519 0 -0.093862105105306626 0.45191282940559291 0 -0.099639421387103994 0.43716887904067858 0 -0.079192400802021057 0.44696773476436519 0 -0.08879408181921658 0.43746792584099731 0 -0.084067489140840029 0.43348150349666398 0 -0.079192400802021057 0.44696773476436519 0 -0.084067489140840029 0.43348150349666398 0 -0.079192400802021057 0.44696773476436519 0 -0.084067489140840029 0.43348150349666398 0 -0.071155885602571231 0.43558179903686822 0 -0.079192400802021057 0.44696773476436519 0 -0.079192400802021057 0.44696773476436519 0 -0.085220401509297244 0.46335147389799342 0 -0.093862105105306626 0.45191282940559291 0 -0.085220401509297244 0.46335147389799342 0 -0.1000359280028582 0.46332652936535601 0 -0.093862105105306626 0.45191282940559291 0 -0.085220401509297244 0.46335147389799342 0 -0.1000359280028582 0.46332652936535601 0 -0.095788950075434975 0.47840691683714448 0 -0.1000359280028582 0.46332652936535601 0 -0.10745634524888351 0.44905034860094128 0 -0.1160935483599731 0.47027963037733622 0 -0.1000359280028582 0.46332652936535601 0 -0.093862105105306626 0.45191282940559291 0 -0.10745634524888351 0.44905034860094128 0 -0.12008644197218619 0.42737002331699042 0 -0.099639421387103994 0.43716887904067858 0 -0.10745634524888351 0.44905034860094128 0 -0.099639421387103994 0.43716887904067858 0 -0.093862105105306626 0.45191282940559291 0 -0.10745634524888351 0.44905034860094128 0 -0.12008644197218619 0.42737002331699042 0 -0.10745634524888351 0.44905034860094128 0 -0.1216680804876939 0.44959825285740967 0 -0.13155855870872779 0.46481004357031208 0 -0.1216680804876939 0.44959825285740967 0 -0.1160935483599731 0.47027963037733622 0 -0.10745634524888351 0.44905034860094128 0 -0.1216680804876939 0.44959825285740967 0 -0.1160935483599731 0.47027963037733622 0 -0.13460340659303571 0.4819639614800949 0 -0.1160935483599731 0.47027963037733622 0 -0.11584377378142589 0.5 0 -0.087932867644379242 0.5 0 -0.11584377378142589 0.5 0 -0.095788950075434975 0.47840691683714448 0 -0.1000359280028582 0.46332652936535601 0 -0.1160935483599731 0.47027963037733622 0 -0.095788950075434975 0.47840691683714448 0 -0.1160935483599731 0.47027963037733622 0 -0.11584377378142589 0.5 0 -0.095788950075434975 0.47840691683714448 0 -0.1662986673093716 0.081866902211423384 0 -0.1522395594928736 0.090875574475950904 0 -0.15310628862027381 0.071837481794594149 0 -0.1662986673093716 0.081866902211423384 0 -0.1584369674879306 0.1045711817815453 0 -0.1522395594928736 0.090875574475950904 0 -0.1662986673093716 0.081866902211423384 0 -0.15310628862027381 0.071837481794594149 0 -0.16055543239105499 0.054416311769253878 0 -0.1662986673093716 0.081866902211423384 0 -0.1831927944292509 0.066663946295366094 0 -0.16055543239105499 0.054416311769253878 0 -0.1662986673093716 0.081866902211423384 0 -0.1831927944292509 0.066663946295366094 0 -0.1902270136176864 0.082694369737777426 0 -0.1831927944292509 0.066663946295366094 0 -0.1796733141600011 0.056651158453964658 0 -0.19275173531372411 0.067781369637721356 0 -0.1662986673093716 0.081866902211423384 0 -0.184750139123431 0.096866867047388117 0 -0.1902270136176864 0.082694369737777426 0 -0.184750139123431 0.096866867047388117 0 -0.1761586402896155 0.10542109507714451 0 -0.1829600721511051 0.11626901800777351 0 -0.184750139123431 0.096866867047388117 0 -0.1761586402896155 0.10542109507714451 0 -0.1584369674879306 0.1045711817815453 0 -0.1761586402896155 0.10542109507714451 0 -0.1829600721511051 0.11626901800777351 0 -0.1683720768718924 0.111415366158388 0 -0.1829600721511051 0.11626901800777351 0 -0.170125527998574 0.1213372421121925 0 -0.1683720768718924 0.111415366158388 0 -0.170125527998574 0.1213372421121925 0 -0.1683720768718924 0.111415366158388 0 -0.1585501509483252 0.111718065358279 0 -0.170125527998574 0.1213372421121925 0 -0.1585501509483252 0.111718065358279 0 -0.1557263552826898 0.1211102442792642 0 -0.1761586402896155 0.10542109507714451 0 -0.1683720768718924 0.111415366158388 0 -0.1584369674879306 0.1045711817815453 0 -0.184750139123431 0.096866867047388117 0 -0.1584369674879306 0.1045711817815453 0 -0.1761586402896155 0.10542109507714451 0 -0.1584369674879306 0.1045711817815453 0 -0.1662986673093716 0.081866902211423384 0 -0.184750139123431 0.096866867047388117 0 -0.1584369674879306 0.1045711817815453 0 -0.1683720768718924 0.111415366158388 0 -0.1585501509483252 0.111718065358279 0 -0.1584369674879306 0.1045711817815453 0 -0.1585501509483252 0.111718065358279 0 -0.1584369674879306 0.1045711817815453 0 -0.1547907964028358 0.1056387554668186 0 -0.1584369674879306 0.1045711817815453 0 -0.1547907964028358 0.1056387554668186 0 -0.1584369674879306 0.1045711817815453 0 -0.1439113873098202 0.1038745498180851 0 -0.1522395594928736 0.090875574475950904 0 -0.1584369674879306 0.1045711817815453 0 -0.1547907964028358 0.1056387554668186 0 -0.1439113873098202 0.1038745498180851 0 -0.1584369674879306 0.1045711817815453 0 -0.1439113873098202 0.1038745498180851 0 -0.1439113873098202 0.1038745498180851 0 -0.14445352980543 0.10945632965589761 0 -0.13365238924311981 0.1137327452711079 0 -0.1547907964028358 0.1056387554668186 0 -0.1439113873098202 0.1038745498180851 0 -0.14445352980543 0.10945632965589761 0 -0.1439113873098202 0.1038745498180851 0 -0.14445352980543 0.10945632965589761 0 -0.1557263552826898 0.1211102442792642 0 -0.1440909786778195 0.1193347653357356 0 -0.14875893600874951 0.1290476911093868 0 -0.1557263552826898 0.1211102442792642 0 -0.1515880985660665 0.1134106320171944 0 -0.1440909786778195 0.1193347653357356 0 -0.1547907964028358 0.1056387554668186 0 -0.1515880985660665 0.1134106320171944 0 -0.14445352980543 0.10945632965589761 0 -0.1585501509483252 0.111718065358279 0 -0.1557263552826898 0.1211102442792642 0 -0.1515880985660665 0.1134106320171944 0 -0.1585501509483252 0.111718065358279 0 -0.1547907964028358 0.1056387554668186 0 -0.1515880985660665 0.1134106320171944 0 -0.14445352980543 0.10945632965589761 0 -0.1440909786778195 0.1193347653357356 0 -0.13365238924311981 0.1137327452711079 0 -0.1515880985660665 0.1134106320171944 0 -0.14445352980543 0.10945632965589761 0 -0.1440909786778195 0.1193347653357356 0 -0.13365238924311981 0.1137327452711079 0 -0.13296337655641441 0.12873749816737209 0 -0.1153934773557851 0.1163257612668233 0 -0.1440909786778195 0.1193347653357356 0 -0.13365238924311981 0.1137327452711079 0 -0.13296337655641441 0.12873749816737209 0 -0.1439113873098202 0.1038745498180851 0 -0.12253721158103251 0.10284946621916841 0 -0.1439113873098202 0.1038745498180851 0 -0.13365238924311981 0.1137327452711079 0 -0.12253721158103251 0.10284946621916841 0 -0.1439113873098202 0.1038745498180851 0 -0.1419136149908288 0.083305925626437807 0 -0.12253721158103251 0.10284946621916841 0 -0.1419136149908288 0.083305925626437807 0 -0.12555919993749581 0.074513052641059827 0 -0.12253721158103251 0.10284946621916841 0 -0.1419136149908288 0.083305925626437807 0 -0.1522395594928736 0.090875574475950904 0 -0.15310628862027381 0.071837481794594149 0 -0.1439113873098202 0.1038745498180851 0 -0.1419136149908288 0.083305925626437807 0 -0.1522395594928736 0.090875574475950904 0 -0.1439113873098202 0.1038745498180851 0 -0.1419136149908288 0.083305925626437807 0 -0.15310628862027381 0.071837481794594149 0 -0.1399158426718437 0.06273730143478988 0 -0.16055543239105499 0.054416311769253878 0 -0.1419136149908288 0.083305925626437807 0 -0.1399158426718437 0.06273730143478988 0 -0.1419136149908288 0.083305925626437807 0 -0.15310628862027381 0.071837481794594149 0 -0.1399158426718437 0.06273730143478988 0 -0.1419136149908288 0.083305925626437807 0 -0.12555919993749581 0.074513052641059827 0 -0.1399158426718437 0.06273730143478988 0 -0.12555919993749581 0.074513052641059827 0 -0.1399158426718437 0.06273730143478988 0 -0.1137870834646149 0.05562677516987545 0 -0.1399158426718437 0.06273730143478988 0 -0.137918070352859 0.042168677243141911 0 -0.1399158426718437 0.06273730143478988 0 -0.137918070352859 0.042168677243141911 0 -0.1137870834646149 0.05562677516987545 0 -0.137918070352859 0.042168677243141911 0 -0.12009910727080179 0.032527971444687762 0 -0.137918070352859 0.042168677243141911 0 -0.16055543239105499 0.054416311769253878 0 -0.1602047374410322 0.040162595316280393 0 -0.137918070352859 0.042168677243141911 0 -0.14451788177680761 0.023853013942483531 0 -0.1521636947815822 0.0311525254259842 0 -0.137918070352859 0.042168677243141911 0 -0.1521636947815822 0.0311525254259842 0 -0.1602047374410322 0.040162595316280393 0 -0.137918070352859 0.042168677243141911 0 -0.16055543239105499 0.054416311769253878 0 -0.1399158426718437 0.06273730143478988 0 -0.137918070352859 0.042168677243141911 0 -0.16055543239105499 0.054416311769253878 0 -0.13918929955606879 -0.0011181826762928101 0 -0.13033534712786329 -0.0010451836431580391 0 -0.13506023421114149 0.0055000271649148259 0 -0.13918929955606879 -0.0011181826762928101 0 -0.13506023421114149 0.0055000271649148259 0 -0.14469018344295459 0.0060766282067101964 0 -0.13033534712786329 -0.0010451836431580391 0 -0.13506023421114149 0.0055000271649148259 0 -0.12652878579515359 0.0089986111617814807 0 -0.13033534712786329 -0.0010451836431580391 0 -0.12275838666696889 0.003568930646270774 0 -0.1219836811650646 0.011748063150332579 0 -0.13033534712786329 -0.0010451836431580391 0 -0.1219836811650646 0.011748063150332579 0 -0.13033534712786329 -0.0010451836431580391 0 -0.12652878579515359 0.0089986111617814807 0 -0.1219836811650646 0.011748063150332579 0 -0.123578269483202 -0.00085227759491413035 0 -0.13033534712786329 -0.0010451836431580391 0 -0.12275838666696889 0.003568930646270774 0 -0.12652878579515359 0.0089986111617814807 0 -0.13520856390220021 0.01427219504703774 0 -0.1249195052217579 0.014887761336909061 0 -0.13506023421114149 0.0055000271649148259 0 -0.12652878579515359 0.0089986111617814807 0 -0.13520856390220021 0.01427219504703774 0 -0.12652878579515359 0.0089986111617814807 0 -0.1249195052217579 0.014887761336909061 0 -0.13506023421114149 0.0055000271649148259 0 -0.13520856390220021 0.01427219504703774 0 -0.14469018344295459 0.0060766282067101964 0 -0.13520856390220021 0.01427219504703774 0 -0.1249195052217579 0.014887761336909061 0 -0.12009910727080179 0.032527971444687762 0 -0.137918070352859 0.042168677243141911 0 -0.13520856390220021 0.01427219504703774 0 -0.137918070352859 0.042168677243141911 0 -0.13520856390220021 0.01427219504703774 0 -0.12009910727080179 0.032527971444687762 0 -0.137918070352859 0.042168677243141911 0 -0.13520856390220021 0.01427219504703774 0 -0.14451788177680761 0.023853013942483531 0 -0.14451788177680761 0.023853013942483531 0 -0.1521636947815822 0.0311525254259842 0 -0.1534702787417522 0.01700907112354199 0 -0.13520856390220021 0.01427219504703774 0 -0.14451788177680761 0.023853013942483531 0 -0.14428803386299019 0.01511983387787727 0 -0.14451788177680761 0.023853013942483531 0 -0.1534702787417522 0.01700907112354199 0 -0.14428803386299019 0.01511983387787727 0 -0.1534702787417522 0.01700907112354199 0 -0.14428803386299019 0.01511983387787727 0 -0.14469018344295459 0.0060766282067101964 0 -0.13520856390220021 0.01427219504703774 0 -0.14428803386299019 0.01511983387787727 0 -0.14469018344295459 0.0060766282067101964 0 -0.1534702787417522 0.01700907112354199 0 -0.15387073456409631 0.0069004530431308478 0 -0.14469018344295459 0.0060766282067101964 0 -0.14868720794335341 -0.00025503552019224331 0 -0.15387073456409631 0.0069004530431308478 0 -0.14469018344295459 0.0060766282067101964 0 -0.14868720794335341 -0.00025503552019224331 0 -0.15387073456409631 0.0069004530431308478 0 -0.15910787022492889 0.00080444521341030157 0 -0.14868720794335341 -0.00025503552019224331 0 -0.13918929955606879 -0.0011181826762928101 0 -0.14469018344295459 0.0060766282067101964 0 -0.1534702787417522 0.01700907112354199 0 -0.1619044677069178 0.009427735824537712 0 -0.16954445337222199 0.01720399434319805 0 -0.15910787022492889 0.00080444521341030157 0 -0.1619044677069178 0.009427735824537712 0 -0.1719071593278558 0.0030378493174482062 0 -0.15387073456409631 0.0069004530431308478 0 -0.15910787022492889 0.00080444521341030157 0 -0.1619044677069178 0.009427735824537712 0 -0.1534702787417522 0.01700907112354199 0 -0.15387073456409631 0.0069004530431308478 0 -0.1619044677069178 0.009427735824537712 0 -0.1619044677069178 0.009427735824537712 0 -0.16954445337222199 0.01720399434319805 0 -0.1719071593278558 0.0030378493174482062 0 -0.1534702787417522 0.01700907112354199 0 -0.16954445337222199 0.01720399434319805 0 -0.1654102591167434 0.02854612325302924 0 -0.1521636947815822 0.0311525254259842 0 -0.1534702787417522 0.01700907112354199 0 -0.1654102591167434 0.02854612325302924 0 -0.1654102591167434 0.02854612325302924 0 -0.18211735682073349 0.025946160992741371 0 -0.17311942511330849 0.037765928758603157 0 -0.16954445337222199 0.01720399434319805 0 -0.1654102591167434 0.02854612325302924 0 -0.18211735682073349 0.025946160992741371 0 -0.18211735682073349 0.025946160992741371 0 -0.18044689804045119 0.01425789154149614 0 -0.19409433742631491 0.014404642755859599 0 -0.16954445337222199 0.01720399434319805 0 -0.18211735682073349 0.025946160992741371 0 -0.18044689804045119 0.01425789154149614 0 -0.16954445337222199 0.01720399434319805 0 -0.18044689804045119 0.01425789154149614 0 -0.1719071593278558 0.0030378493174482062 0 -0.18044689804045119 0.01425789154149614 0 -0.18279306854227989 0.0036756509716502142 0 -0.19409433742631491 0.014404642755859599 0 -0.18238888539348161 -0.0054129894362464426 0 -0.18279306854227989 0.0036756509716502142 0 -0.1719071593278558 0.0030378493174482062 0 -0.18044689804045119 0.01425789154149614 0 -0.18279306854227989 0.0036756509716502142 0 -0.1719071593278558 0.0030378493174482062 0 -0.16055543239105499 0.054416311769253878 0 -0.1720615428906451 0.04692600544767022 0 -0.1796733141600011 0.056651158453964658 0 -0.1831927944292509 0.066663946295366094 0 -0.16055543239105499 0.054416311769253878 0 -0.16055543239105499 0.054416311769253878 0 -0.1602047374410322 0.040162595316280393 0 -0.1720615428906451 0.04692600544767022 0 -0.1521636947815822 0.0311525254259842 0 -0.1654102591167434 0.02854612325302924 0 -0.1602047374410322 0.040162595316280393 0 -0.1654102591167434 0.02854612325302924 0 -0.1602047374410322 0.040162595316280393 0 -0.17311942511330849 0.037765928758603157 0 -0.1602047374410322 0.040162595316280393 0 -0.17311942511330849 0.037765928758603157 0 -0.1720615428906451 0.04692600544767022 0 -0.18211735682073349 0.025946160992741371 0 -0.17311942511330849 0.037765928758603157 0 -0.1849131969179989 0.043597569382422728 0 -0.18211735682073349 0.025946160992741371 0 -0.1849131969179989 0.043597569382422728 0 -0.1949983558178901 0.028636261411975381 0 -0.17311942511330849 0.037765928758603157 0 -0.1849131969179989 0.043597569382422728 0 -0.1720615428906451 0.04692600544767022 0 -0.1849131969179989 0.043597569382422728 0 -0.1796733141600011 0.056651158453964658 0 -0.18976948861279111 0.056816061961964877 0 -0.1831927944292509 0.066663946295366094 0 -0.16055543239105499 0.054416311769253878 0 -0.1796733141600011 0.056651158453964658 0 -0.1849131969179989 0.043597569382422728 0 -0.1720615428906451 0.04692600544767022 0 -0.1796733141600011 0.056651158453964658 0 -0.1796733141600011 0.056651158453964658 0 -0.19275173531372411 0.067781369637721356 0 -0.1796733141600011 0.056651158453964658 0 -0.18976948861279111 0.056816061961964877 0 -0.19275173531372411 0.067781369637721356 0 -0.18976948861279111 0.056816061961964877 0 -0.19903866596303529 0.060116473802023368 0 -0.19275173531372411 0.067781369637721356 0 -0.18976948861279111 0.056816061961964877 0 -0.19903866596303529 0.060116473802023368 0 -0.19607289730574001 0.051214745784156947 0 -0.19903866596303529 0.060116473802023368 0 -0.19607289730574001 0.051214745784156947 0 -0.20445817506341121 0.05332345168115836 0 -0.19607289730574001 0.051214745784156947 0 -0.20494404400892169 0.038310811623022127 0 -0.20445817506341121 0.05332345168115836 0 -0.1849131969179989 0.043597569382422728 0 -0.18976948861279111 0.056816061961964877 0 -0.19607289730574001 0.051214745784156947 0 -0.1849131969179989 0.043597569382422728 0 -0.20494404400892169 0.038310811623022127 0 -0.1949983558178901 0.028636261411975381 0 -0.1849131969179989 0.043597569382422728 0 -0.19607289730574001 0.051214745784156947 0 -0.20494404400892169 0.038310811623022127 0 -0.20494404400892169 0.038310811623022127 0 -0.2133696559842361 0.052494184941877103 0 -0.2210028987158241 0.045610184205022053 0 -0.20494404400892169 0.038310811623022127 0 -0.22547493798871071 0.027445241408105569 0 -0.2210028987158241 0.045610184205022053 0 -0.20494404400892169 0.038310811623022127 0 -0.22547493798871071 0.027445241408105569 0 -0.2133696559842361 0.052494184941877103 0 -0.219230421291331 0.055450442626756323 0 -0.2210028987158241 0.045610184205022053 0 -0.2133696559842361 0.052494184941877103 0 -0.219230421291331 0.055450442626756323 0 -0.2171295332571147 0.062736570783071613 0 -0.2133696559842361 0.052494184941877103 0 -0.2083248181131685 0.062312713446704991 0 -0.2171295332571147 0.062736570783071613 0 -0.2133696559842361 0.052494184941877103 0 -0.2083248181131685 0.062312713446704991 0 -0.20445817506341121 0.05332345168115836 0 -0.19903866596303529 0.060116473802023368 0 -0.2083248181131685 0.062312713446704991 0 -0.20445817506341121 0.05332345168115836 0 -0.20494404400892169 0.038310811623022127 0 -0.2133696559842361 0.052494184941877103 0 -0.20445817506341121 0.05332345168115836 0 -0.20553063162980051 -0.0047846586032372872 0 -0.19353766309544729 0.00059752294901574551 0 -0.20682217610339609 0.0084785486264817959 0 -0.18279306854227989 0.0036756509716502142 0 -0.19353766309544729 0.00059752294901574551 0 -0.19409433742631491 0.014404642755859599 0 -0.19353766309544729 0.00059752294901574551 0 -0.19409433742631491 0.014404642755859599 0 -0.20682217610339609 0.0084785486264817959 0 -0.20494404400892169 0.038310811623022127 0 -0.1949983558178901 0.028636261411975381 0 -0.20892284391548149 0.02092212230583107 0 -0.19409433742631491 0.014404642755859599 0 -0.1949983558178901 0.028636261411975381 0 -0.20892284391548149 0.02092212230583107 0 -0.18211735682073349 0.025946160992741371 0 -0.19409433742631491 0.014404642755859599 0 -0.1949983558178901 0.028636261411975381 0 -0.20892284391548149 0.02092212230583107 0 -0.22058230328410741 0.01276560495664485 0 -0.22547493798871071 0.027445241408105569 0 -0.20494404400892169 0.038310811623022127 0 -0.20892284391548149 0.02092212230583107 0 -0.22547493798871071 0.027445241408105569 0 -0.19409433742631491 0.014404642755859599 0 -0.20892284391548149 0.02092212230583107 0 -0.20682217610339609 0.0084785486264817959 0 -0.20892284391548149 0.02092212230583107 0 -0.20682217610339609 0.0084785486264817959 0 -0.22058230328410741 0.01276560495664485 0 -0.20682217610339609 0.0084785486264817959 0 -0.21496533833919351 0.003390015232671309 0 -0.22058230328410741 0.01276560495664485 0 -0.20553063162980051 -0.0047846586032372872 0 -0.20682217610339609 0.0084785486264817959 0 -0.21496533833919351 0.003390015232671309 0 -0.2333569328832544 -0.0010801119816803771 0 -0.22437822839316521 0.0020831476299694339 0 -0.23190168782935269 0.0084735084621578582 0 -0.21863552893197949 -0.0054248978120513781 0 -0.21496533833919351 0.003390015232671309 0 -0.22437822839316521 0.0020831476299694339 0 -0.22437822839316521 0.0020831476299694339 0 -0.22058230328410741 0.01276560495664485 0 -0.23190168782935269 0.0084735084621578582 0 -0.21496533833919351 0.003390015232671309 0 -0.22437822839316521 0.0020831476299694339 0 -0.22058230328410741 0.01276560495664485 0 -0.22058230328410741 0.01276560495664485 0 -0.23190168782935269 0.0084735084621578582 0 -0.23260237258147151 0.01519663196939447 0 -0.22058230328410741 0.01276560495664485 0 -0.23260237258147151 0.01519663196939447 0 -0.22547493798871071 0.027445241408105569 0 -0.23260237258147151 0.01519663196939447 0 -0.22547493798871071 0.027445241408105569 0 -0.24600583196849971 0.01657967119318907 0 -0.22547493798871071 0.027445241408105569 0 -0.2437390625173288 0.029855923521070742 0 -0.24600583196849971 0.01657967119318907 0 -0.22547493798871071 0.027445241408105569 0 -0.24600583196849971 0.01657967119318907 0 -0.2437390625173288 0.029855923521070742 0 -0.24885319078117121 0.02663327106743996 0 -0.24600583196849971 0.01657967119318907 0 -0.23260237258147151 0.01519663196939447 0 -0.24600583196849971 0.01657967119318907 0 -0.23904710183668701 0.010719133826875 0 -0.23190168782935269 0.0084735084621578582 0 -0.23260237258147151 0.01519663196939447 0 -0.23904710183668701 0.010719133826875 0 -0.25503040212845418 0.0059658952119135116 0 -0.24600583196849971 0.01657967119318907 0 -0.24698490674145451 0.0062428613895181284 0 -0.24600583196849971 0.01657967119318907 0 -0.23904710183668701 0.010719133826875 0 -0.24698490674145451 0.0062428613895181284 0 -0.24594454065168961 -0.0001693973902666863 0 -0.25350081091519028 -0.00077752049559358079 0 -0.24698490674145451 0.0062428613895181284 0 -0.24594454065168961 -0.0001693973902666863 0 -0.24698490674145451 0.0062428613895181284 0 -0.2396982337230652 0.0036774688141518329 0 -0.2333569328832544 -0.0010801119816803771 0 -0.23190168782935269 0.0084735084621578582 0 -0.2396982337230652 0.0036774688141518329 0 -0.23904710183668701 0.010719133826875 0 -0.24698490674145451 0.0062428613895181284 0 -0.2396982337230652 0.0036774688141518329 0 -0.23190168782935269 0.0084735084621578582 0 -0.23904710183668701 0.010719133826875 0 -0.2396982337230652 0.0036774688141518329 0 -0.22541959720814911 0.060960830577054509 0 -0.23681448444113359 0.038576529449009647 0 -0.23435627076970891 0.04796807643536774 0 -0.22541959720814911 0.060960830577054509 0 -0.23681448444113359 0.038576529449009647 0 -0.22541959720814911 0.060960830577054509 0 -0.2210028987158241 0.045610184205022053 0 -0.23681448444113359 0.038576529449009647 0 -0.23435627076970891 0.04796807643536774 0 -0.224973479022089 0.066080229349664787 0 -0.23435627076970891 0.04796807643536774 0 -0.22541959720814911 0.060960830577054509 0 -0.224973479022089 0.066080229349664787 0 -0.23435627076970891 0.04796807643536774 0 -0.235380005061741 0.059585622136400562 0 -0.224973479022089 0.066080229349664787 0 -0.22541959720814911 0.060960830577054509 0 -0.219230421291331 0.055450442626756323 0 -0.2171295332571147 0.062736570783071613 0 -0.22541959720814911 0.060960830577054509 0 -0.219230421291331 0.055450442626756323 0 -0.2210028987158241 0.045610184205022053 0 -0.22547493798871071 0.027445241408105569 0 -0.2210028987158241 0.045610184205022053 0 -0.23681448444113359 0.038576529449009647 0 -0.2437390625173288 0.029855923521070742 0 -0.23435627076970891 0.04796807643536774 0 -0.2437390625173288 0.029855923521070742 0 -0.23435627076970891 0.04796807643536774 0 -0.2436833215302241 0.040098608926467633 0 -0.23435627076970891 0.04796807643536774 0 -0.24563572157655539 0.044556715195580777 0 -0.2436833215302241 0.040098608926467633 0 -0.2437390625173288 0.029855923521070742 0 -0.23435627076970891 0.04796807643536774 0 -0.23681448444113359 0.038576529449009647 0 -0.22547493798871071 0.027445241408105569 0 -0.2437390625173288 0.029855923521070742 0 -0.23681448444113359 0.038576529449009647 0 -0.2510022312573032 0.038013720553851292 0 -0.2437390625173288 0.029855923521070742 0 -0.2436833215302241 0.040098608926467633 0 -0.2510022312573032 0.038013720553851292 0 -0.2437390625173288 0.029855923521070742 0 -0.24885319078117121 0.02663327106743996 0 -0.25335829019660078 0.047227759811612063 0 -0.2510022312573032 0.038013720553851292 0 -0.24563572157655539 0.044556715195580777 0 -0.2510022312573032 0.038013720553851292 0 -0.24563572157655539 0.044556715195580777 0 -0.2436833215302241 0.040098608926467633 0 -0.25335829019660078 0.047227759811612063 0 -0.24563572157655539 0.044556715195580777 0 -0.24467874789779109 0.053192793211485713 0 -0.23435627076970891 0.04796807643536774 0 -0.24563572157655539 0.044556715195580777 0 -0.24467874789779109 0.053192793211485713 0 -0.23435627076970891 0.04796807643536774 0 -0.24467874789779109 0.053192793211485713 0 -0.235380005061741 0.059585622136400562 0 -0.24467874789779109 0.053192793211485713 0 -0.235380005061741 0.059585622136400562 0 -0.24585486719792071 0.063155027402028566 0 -0.2559128224042912 0.057513937215859283 0 -0.24467874789779109 0.053192793211485713 0 -0.24585486719792071 0.063155027402028566 0 -0.24556305477134729 0.075500188097612164 0 -0.2332583656117547 0.0673233751287418 0 -0.2325312780704776 0.074991711102889713 0 -0.235380005061741 0.059585622136400562 0 -0.24585486719792071 0.063155027402028566 0 -0.2332583656117547 0.0673233751287418 0 -0.24585486719792071 0.063155027402028566 0 -0.24556305477134729 0.075500188097612164 0 -0.2332583656117547 0.0673233751287418 0 -0.25917316979680238 0.087615932997596069 0 -0.24197548951949849 0.092585063405276682 0 -0.2477101874179885 0.099162097286903686 0 -0.25917316979680238 0.087615932997596069 0 -0.24494129940659529 0.084908929048164022 0 -0.24197548951949849 0.092585063405276682 0 -0.25917316979680238 0.087615932997596069 0 -0.24556305477134729 0.075500188097612164 0 -0.24494129940659529 0.084908929048164022 0 -0.24556305477134729 0.075500188097612164 0 -0.24494129940659529 0.084908929048164022 0 -0.23762530305826041 0.084121177643488032 0 -0.24556305477134729 0.075500188097612164 0 -0.23762530305826041 0.084121177643488032 0 -0.2325312780704776 0.074991711102889713 0 -0.24494129940659529 0.084908929048164022 0 -0.23762530305826041 0.084121177643488032 0 -0.24197548951949849 0.092585063405276682 0 -0.23762530305826041 0.084121177643488032 0 -0.24197548951949849 0.092585063405276682 0 -0.23355223848123929 0.093910233413372762 0 -0.2199615880608416 0.086557198239029853 0 -0.23355223848123929 0.093910233413372762 0 -0.23130008110559011 0.1005874113154519 0 -0.2199615880608416 0.086557198239029853 0 -0.23355223848123929 0.093910233413372762 0 -0.23021111512167181 0.083556207577518013 0 -0.2199615880608416 0.086557198239029853 0 -0.23355223848123929 0.093910233413372762 0 -0.23762530305826041 0.084121177643488032 0 -0.23021111512167181 0.083556207577518013 0 -0.23355223848123929 0.093910233413372762 0 -0.23762530305826041 0.084121177643488032 0 -0.23021111512167181 0.083556207577518013 0 -0.2325312780704776 0.074991711102889713 0 -0.23021111512167181 0.083556207577518013 0 -0.2325312780704776 0.074991711102889713 0 -0.22736115952010949 0.077180417720987549 0 -0.23021111512167181 0.083556207577518013 0 -0.22502607235907551 0.081047598242481297 0 -0.22736115952010949 0.077180417720987549 0 -0.23021111512167181 0.083556207577518013 0 -0.2199615880608416 0.086557198239029853 0 -0.23021111512167181 0.083556207577518013 0 -0.22502607235907551 0.081047598242481297 0 -0.2199615880608416 0.086557198239029853 0 -0.22502607235907551 0.081047598242481297 0 -0.22736115952010949 0.077180417720987549 0 -0.2225798539959177 0.076496058164917946 0 -0.22502607235907551 0.081047598242481297 0 -0.22088873624792579 0.082080780465057665 0 -0.2225798539959177 0.076496058164917946 0 -0.22088873624792579 0.082080780465057665 0 -0.2225798539959177 0.076496058164917946 0 -0.21559068727446909 0.084192382263961876 0 -0.22088873624792579 0.082080780465057665 0 -0.2199615880608416 0.086557198239029853 0 -0.21559068727446909 0.084192382263961876 0 -0.22502607235907551 0.081047598242481297 0 -0.22088873624792579 0.082080780465057665 0 -0.2199615880608416 0.086557198239029853 0 -0.2199615880608416 0.086557198239029853 0 -0.216131695316755 0.087678564355865005 0 -0.23130008110559011 0.1005874113154519 0 -0.22541959720814911 0.060960830577054509 0 -0.21402470997516479 0.083345131705099385 0 -0.2225798539959177 0.076496058164917946 0 -0.224973479022089 0.066080229349664787 0 -0.21559068727446909 0.084192382263961876 0 -0.224973479022089 0.066080229349664787 0 -0.21559068727446909 0.084192382263961876 0 -0.22541959720814911 0.060960830577054509 0 -0.224973479022089 0.066080229349664787 0 -0.21402470997516479 0.083345131705099385 0 -0.235380005061741 0.059585622136400562 0 -0.2332583656117547 0.0673233751287418 0 -0.224973479022089 0.066080229349664787 0 -0.2332583656117547 0.0673233751287418 0 -0.2281408272440697 0.072414358293440367 0 -0.224973479022089 0.066080229349664787 0 -0.2332583656117547 0.0673233751287418 0 -0.2325312780704776 0.074991711102889713 0 -0.2281408272440697 0.072414358293440367 0 -0.2325312780704776 0.074991711102889713 0 -0.22736115952010949 0.077180417720987549 0 -0.2281408272440697 0.072414358293440367 0 -0.2281408272440697 0.072414358293440367 0 -0.2225798539959177 0.076496058164917946 0 -0.224973479022089 0.066080229349664787 0 -0.22736115952010949 0.077180417720987549 0 -0.2281408272440697 0.072414358293440367 0 -0.2225798539959177 0.076496058164917946 0 -0.22541959720814911 0.060960830577054509 0 -0.2171295332571147 0.062736570783071613 0 -0.21661530318582231 0.070729266946226499 0 -0.224973479022089 0.066080229349664787 0 -0.21559068727446909 0.084192382263961876 0 -0.21402470997516479 0.083345131705099385 0 -0.22541959720814911 0.060960830577054509 0 -0.21661530318582231 0.070729266946226499 0 -0.21402470997516479 0.083345131705099385 0 -0.2083248181131685 0.062312713446704991 0 -0.2171295332571147 0.062736570783071613 0 -0.21308495393177451 0.066821971388647566 0 -0.2171295332571147 0.062736570783071613 0 -0.21308495393177451 0.066821971388647566 0 -0.21661530318582231 0.070729266946226499 0 -0.21308495393177451 0.066821971388647566 0 -0.2094336415549497 0.070778142391378918 0 -0.21661530318582231 0.070729266946226499 0 -0.19903866596303529 0.060116473802023368 0 -0.2083248181131685 0.062312713446704991 0 -0.20258448439839949 0.068166335896430175 0 -0.2083248181131685 0.062312713446704991 0 -0.21308495393177451 0.066821971388647566 0 -0.2094336415549497 0.070778142391378918 0 -0.2083248181131685 0.062312713446704991 0 -0.2094336415549497 0.070778142391378918 0 -0.20258448439839949 0.068166335896430175 0 -0.2094336415549497 0.070778142391378918 0 -0.2114759527958463 0.075941030466044987 0 -0.2058301564674469 0.078911580821478172 0 -0.2094336415549497 0.070778142391378918 0 -0.2058301564674469 0.078911580821478172 0 -0.20258448439839949 0.068166335896430175 0 -0.2114759527958463 0.075941030466044987 0 -0.21661530318582231 0.070729266946226499 0 -0.21402470997516479 0.083345131705099385 0 -0.2094336415549497 0.070778142391378918 0 -0.2114759527958463 0.075941030466044987 0 -0.21661530318582231 0.070729266946226499 0 -0.21402470997516479 0.083345131705099385 0 -0.2131224352504433 0.085117574795182713 0 -0.2058301564674469 0.078911580821478172 0 -0.2199615880608416 0.086557198239029853 0 -0.21559068727446909 0.084192382263961876 0 -0.21559068727446909 0.084192382263961876 0 -0.2131224352504433 0.085117574795182713 0 -0.216131695316755 0.087678564355865005 0 -0.21559068727446909 0.084192382263961876 0 -0.21402470997516479 0.083345131705099385 0 -0.21559068727446909 0.084192382263961876 0 -0.2131224352504433 0.085117574795182713 0 -0.21559068727446909 0.084192382263961876 0 -0.21402470997516479 0.083345131705099385 0 -0.2131224352504433 0.085117574795182713 0 -0.21402470997516479 0.083345131705099385 0 -0.2131224352504433 0.085117574795182713 0 -0.216131695316755 0.087678564355865005 0 -0.2133650752699229 0.088488611578064535 0 -0.21733586677165931 0.096559580041942344 0 -0.2199615880608416 0.086557198239029853 0 -0.21559068727446909 0.084192382263961876 0 -0.216131695316755 0.087678564355865005 0 -0.2199615880608416 0.086557198239029853 0 -0.216131695316755 0.087678564355865005 0 -0.2131224352504433 0.085117574795182713 0 -0.2110633107589315 0.08916255231323171 0 -0.2133650752699229 0.088488611578064535 0 -0.2131224352504433 0.085117574795182713 0 -0.2110633107589315 0.08916255231323171 0 -0.2131224352504433 0.085117574795182713 0 -0.216131695316755 0.087678564355865005 0 -0.2133650752699229 0.088488611578064535 0 -0.2131224352504433 0.085117574795182713 0 -0.2133650752699229 0.088488611578064535 0 -0.2131224352504433 0.085117574795182713 0 -0.216131695316755 0.087678564355865005 0 -0.2110633107589315 0.08916255231323171 0 -0.2133650752699229 0.088488611578064535 0 -0.216131695316755 0.087678564355865005 0 -0.2133650752699229 0.088488611578064535 0 -0.2131224352504433 0.085117574795182713 0 -0.2110633107589315 0.08916255231323171 0 -0.2058301564674469 0.078911580821478172 0 -0.2114759527958463 0.075941030466044987 0 -0.21402470997516479 0.083345131705099385 0 -0.2058301564674469 0.078911580821478172 0 -0.21402470997516479 0.083345131705099385 0 -0.2058301564674469 0.078911580821478172 0 -0.2131224352504433 0.085117574795182713 0 -0.2058301564674469 0.078911580821478172 0 -0.2110633107589315 0.08916255231323171 0 -0.2058301564674469 0.078911580821478172 0 -0.1902270136176864 0.082694369737777426 0 -0.184750139123431 0.096866867047388117 0 -0.2110633107589315 0.08916255231323171 0 -0.184750139123431 0.096866867047388117 0 -0.2110633107589315 0.08916255231323171 0 -0.1902270136176864 0.082694369737777426 0 -0.1831927944292509 0.066663946295366094 0 -0.2058301564674469 0.078911580821478172 0 -0.1902270136176864 0.082694369737777426 0 -0.1831927944292509 0.066663946295366094 0 -0.2058301564674469 0.078911580821478172 0 -0.19275173531372411 0.067781369637721356 0 -0.1831927944292509 0.066663946295366094 0 -0.2058301564674469 0.078911580821478172 0 -0.19903866596303529 0.060116473802023368 0 -0.19275173531372411 0.067781369637721356 0 -0.20258448439839949 0.068166335896430175 0 -0.2058301564674469 0.078911580821478172 0 -0.19275173531372411 0.067781369637721356 0 -0.20258448439839949 0.068166335896430175 0 -0.2058301564674469 0.078911580821478172 0 -0.19275173531372411 0.067781369637721356 0 -0.20154643990473131 0.11130281621251741 0 -0.20026602060736939 0.1239050798384377 0 -0.1897278045395403 0.13411702084697061 0 -0.19832688980379831 0.114182184023846 0 -0.20154643990473131 0.11130281621251741 0 -0.1897278045395403 0.13411702084697061 0 -0.20154643990473131 0.11130281621251741 0 -0.1897278045395403 0.13411702084697061 0 -0.1829600721511051 0.11626901800777351 0 -0.19832688980379831 0.114182184023846 0 -0.1855904688486647 0.13920181573446019 0 -0.2029925874872629 0.1180319683469421 0 -0.20026602060736939 0.1239050798384377 0 -0.20422015646574751 0.12103177492092559 0 -0.20154643990473131 0.11130281621251741 0 -0.2029925874872629 0.1180319683469421 0 -0.20026602060736939 0.1239050798384377 0 -0.20026602060736939 0.1239050798384377 0 -0.20422015646574751 0.12103177492092559 0 -0.20441494974532309 0.1275636275097832 0 -0.184750139123431 0.096866867047388117 0 -0.1829600721511051 0.11626901800777351 0 -0.19832688980379831 0.114182184023846 0 -0.184750139123431 0.096866867047388117 0 -0.2110633107589315 0.08916255231323171 0 -0.19832688980379831 0.114182184023846 0 -0.2133650752699229 0.088488611578064535 0 -0.20154643990473131 0.11130281621251741 0 -0.2110633107589315 0.08916255231323171 0 -0.2133650752699229 0.088488611578064535 0 -0.20154643990473131 0.11130281621251741 0 -0.2133650752699229 0.088488611578064535 0 -0.20154643990473131 0.11130281621251741 0 -0.21251094224624539 0.1074623983750729 0 -0.2133650752699229 0.088488611578064535 0 -0.21733586677165931 0.096559580041942344 0 -0.21251094224624539 0.1074623983750729 0 -0.2110633107589315 0.08916255231323171 0 -0.19832688980379831 0.114182184023846 0 -0.2110633107589315 0.08916255231323171 0 -0.19832688980379831 0.114182184023846 0 -0.20154643990473131 0.11130281621251741 0 -0.21733586677165931 0.096559580041942344 0 -0.21251094224624539 0.1074623983750729 0 -0.22016102893994241 0.10463706350803061 0 -0.21251094224624539 0.1074623983750729 0 -0.22261225278642749 0.1122166293996166 0 -0.22016102893994241 0.10463706350803061 0 -0.21251094224624539 0.1074623983750729 0 -0.2073614441756412 0.1161376224251775 0 -0.21402271744070309 0.1174198287742035 0 -0.21251094224624539 0.1074623983750729 0 -0.21402271744070309 0.1174198287742035 0 -0.22261225278642749 0.1122166293996166 0 -0.20154643990473131 0.11130281621251741 0 -0.21251094224624539 0.1074623983750729 0 -0.2073614441756412 0.1161376224251775 0 -0.20154643990473131 0.11130281621251741 0 -0.2029925874872629 0.1180319683469421 0 -0.2073614441756412 0.1161376224251775 0 -0.20422015646574751 0.12103177492092559 0 -0.21039303901307271 0.1231296790176199 0 -0.20441494974532309 0.1275636275097832 0 -0.2029925874872629 0.1180319683469421 0 -0.2073614441756412 0.1161376224251775 0 -0.20422015646574751 0.12103177492092559 0 -0.2073614441756412 0.1161376224251775 0 -0.20422015646574751 0.12103177492092559 0 -0.21039303901307271 0.1231296790176199 0 -0.2073614441756412 0.1161376224251775 0 -0.21039303901307271 0.1231296790176199 0 -0.21402271744070309 0.1174198287742035 0 -0.21039303901307271 0.1231296790176199 0 -0.21402271744070309 0.1174198287742035 0 -0.221027641824071 0.12564950581508089 0 -0.23168985033965639 0.11583261542074109 0 -0.2374157770699119 0.1259988228808023 0 -0.221027641824071 0.12564950581508089 0 -0.21402271744070309 0.1174198287742035 0 -0.22261225278642749 0.1122166293996166 0 -0.221027641824071 0.12564950581508089 0 -0.22261225278642749 0.1122166293996166 0 -0.23168985033965639 0.11583261542074109 0 -0.221027641824071 0.12564950581508089 0 -0.22261225278642749 0.1122166293996166 0 -0.23168985033965639 0.11583261542074109 0 -0.23130008110559011 0.1005874113154519 0 -0.21733586677165931 0.096559580041942344 0 -0.22016102893994241 0.10463706350803061 0 -0.23130008110559011 0.1005874113154519 0 -0.216131695316755 0.087678564355865005 0 -0.23130008110559011 0.1005874113154519 0 -0.216131695316755 0.087678564355865005 0 -0.21733586677165931 0.096559580041942344 0 -0.23130008110559011 0.1005874113154519 0 -0.22261225278642749 0.1122166293996166 0 -0.22016102893994241 0.10463706350803061 0 -0.23130008110559011 0.1005874113154519 0 -0.23355223848123929 0.093910233413372762 0 -0.23130008110559011 0.1005874113154519 0 -0.24034022679979311 0.098812860746988321 0 -0.24197548951949849 0.092585063405276682 0 -0.23355223848123929 0.093910233413372762 0 -0.24034022679979311 0.098812860746988321 0 -0.23130008110559011 0.1005874113154519 0 -0.24583890993907229 0.10673857839118719 0 -0.2464684668944247 0.1134962582750393 0 -0.23130008110559011 0.1005874113154519 0 -0.2464684668944247 0.1134962582750393 0 -0.23130008110559011 0.1005874113154519 0 -0.24034022679979311 0.098812860746988321 0 -0.24583890993907229 0.10673857839118719 0 -0.24034022679979311 0.098812860746988321 0 -0.24583890993907229 0.10673857839118719 0 -0.2477101874179885 0.099162097286903686 0 -0.25278923933598663 0.10884670263481561 0 -0.24583890993907229 0.10673857839118719 0 -0.2477101874179885 0.099162097286903686 0 -0.24197548951949849 0.092585063405276682 0 -0.24034022679979311 0.098812860746988321 0 -0.2477101874179885 0.099162097286903686 0 -0.23168985033965639 0.11583261542074109 0 -0.2464684668944247 0.1134962582750393 0 -0.2374157770699119 0.1259988228808023 0 -0.23168985033965639 0.11583261542074109 0 -0.23130008110559011 0.1005874113154519 0 -0.2464684668944247 0.1134962582750393 0 -0.24583890993907229 0.10673857839118719 0 -0.2464684668944247 0.1134962582750393 0 -0.24879770747572971 0.1133000413328875 0 -0.25278923933598663 0.10884670263481561 0 -0.24583890993907229 0.10673857839118719 0 -0.24879770747572971 0.1133000413328875 0 -0.2464684668944247 0.1134962582750393 0 -0.24879770747572971 0.1133000413328875 0 -0.25038811499309083 0.1168320211007932 0 -0.24879770747572971 0.1133000413328875 0 -0.25038811499309083 0.1168320211007932 0 -0.24879770747572971 0.1133000413328875 0 -0.2374157770699119 0.1259988228808023 0 -0.24879770747572971 0.1133000413328875 0 -0.2374157770699119 0.1259988228808023 0 -0.2464684668944247 0.1134962582750393 0 -0.24879770747572971 0.1133000413328875 0 -0.2374157770699119 0.1259988228808023 0 -0.25038811499309083 0.1168320211007932 0 -0.2417396820517497 0.1455937516095325 0 -0.2374157770699119 0.1259988228808023 0 -0.22714151369077551 0.13746178404516821 0 -0.2417396820517497 0.1455937516095325 0 -0.25038811499309083 0.1168320211007932 0 -0.2374157770699119 0.1259988228808023 0 -0.2417396820517497 0.1455937516095325 0 -0.25361913412505499 0.12915042739015919 0 -0.25038811499309083 0.1168320211007932 0 -0.2417396820517497 0.1455937516095325 0 -0.25358972693918258 0.14021301524915539 0 -0.25361913412505499 0.12915042739015919 0 -0.2417396820517497 0.1455937516095325 0 -0.2374157770699119 0.1259988228808023 0 -0.22714151369077551 0.13746178404516821 0 -0.2374157770699119 0.1259988228808023 0 -0.22714151369077551 0.13746178404516821 0 -0.221027641824071 0.12564950581508089 0 -0.22714151369077551 0.13746178404516821 0 -0.221027641824071 0.12564950581508089 0 -0.21387056964067969 0.14178605090799229 0 -0.22714151369077551 0.13746178404516821 0 -0.2251712885545539 0.15649053935284851 0 -0.21387056964067969 0.14178605090799229 0 -0.22714151369077551 0.13746178404516821 0 -0.2417396820517497 0.1455937516095325 0 -0.2251712885545539 0.15649053935284851 0 -0.25412100738307569 0.1489218907482498 0 -0.2417396820517497 0.1455937516095325 0 -0.24770845961488339 0.16137311577738081 0 -0.25412100738307569 0.1489218907482498 0 -0.25358972693918258 0.14021301524915539 0 -0.2417396820517497 0.1455937516095325 0 -0.2417396820517497 0.1455937516095325 0 -0.23309124911040791 0.17435548211827159 0 -0.2417396820517497 0.1455937516095325 0 -0.24770845961488339 0.16137311577738081 0 -0.23309124911040791 0.17435548211827159 0 -0.24770845961488339 0.16137311577738081 0 -0.24811550058661899 0.1752810317840105 0 -0.23309124911040791 0.17435548211827159 0 -0.25807063368827848 0.1882408540049994 0 -0.24811550058661899 0.1752810317840105 0 -0.24254416680995519 0.18918812497556159 0 -0.24811550058661899 0.1752810317840105 0 -0.23309124911040791 0.17435548211827159 0 -0.24254416680995519 0.18918812497556159 0 -0.23309124911040791 0.17435548211827159 0 -0.21284089395395819 0.17927727125716961 0 -0.22444281616906611 0.20311721262701071 0 -0.23309124911040791 0.17435548211827159 0 -0.2251712885545539 0.15649053935284851 0 -0.21284089395395819 0.17927727125716961 0 -0.2417396820517497 0.1455937516095325 0 -0.23309124911040791 0.17435548211827159 0 -0.2251712885545539 0.15649053935284851 0 -0.2072177183290814 0.15867059570287309 0 -0.21284089395395819 0.17927727125716961 0 -0.19325831164848251 0.175200582915855 0 -0.2251712885545539 0.15649053935284851 0 -0.2072177183290814 0.15867059570287309 0 -0.21284089395395819 0.17927727125716961 0 -0.21284089395395819 0.17927727125716961 0 -0.19325831164848251 0.175200582915855 0 -0.20038454153881091 0.19658725389425871 0 -0.2072177183290814 0.15867059570287309 0 -0.19325831164848251 0.175200582915855 0 -0.19164974378600169 0.15641716432053049 0 -0.19164974378600169 0.15641716432053049 0 -0.19932817221024901 0.14479137980439011 0 -0.1855904688486647 0.13920181573446019 0 -0.2072177183290814 0.15867059570287309 0 -0.19164974378600169 0.15641716432053049 0 -0.19932817221024901 0.14479137980439011 0 -0.1897278045395403 0.13411702084697061 0 -0.19869418550161169 0.13138327119348711 0 -0.19544659793009209 0.1368706156219695 0 -0.19832688980379831 0.114182184023846 0 -0.1897278045395403 0.13411702084697061 0 -0.1855904688486647 0.13920181573446019 0 -0.1897278045395403 0.13411702084697061 0 -0.19544659793009209 0.1368706156219695 0 -0.1855904688486647 0.13920181573446019 0 -0.19832688980379831 0.114182184023846 0 -0.1855904688486647 0.13920181573446019 0 -0.19932817221024901 0.14479137980439011 0 -0.19544659793009209 0.1368706156219695 0 -0.1855904688486647 0.13920181573446019 0 -0.19869418550161169 0.13138327119348711 0 -0.2036561808398718 0.13539513651087179 0 -0.20441494974532309 0.1275636275097832 0 -0.20026602060736939 0.1239050798384377 0 -0.1897278045395403 0.13411702084697061 0 -0.19869418550161169 0.13138327119348711 0 -0.20026602060736939 0.1239050798384377 0 -0.19869418550161169 0.13138327119348711 0 -0.20441494974532309 0.1275636275097832 0 -0.19932817221024901 0.14479137980439011 0 -0.19544659793009209 0.1368706156219695 0 -0.2036561808398718 0.13539513651087179 0 -0.19869418550161169 0.13138327119348711 0 -0.19544659793009209 0.1368706156219695 0 -0.2036561808398718 0.13539513651087179 0 -0.221027641824071 0.12564950581508089 0 -0.21068382724870341 0.13078624358664681 0 -0.21387056964067969 0.14178605090799229 0 -0.2036561808398718 0.13539513651087179 0 -0.21068382724870341 0.13078624358664681 0 -0.21387056964067969 0.14178605090799229 0 -0.2036561808398718 0.13539513651087179 0 -0.20441494974532309 0.1275636275097832 0 -0.21068382724870341 0.13078624358664681 0 -0.21039303901307271 0.1231296790176199 0 -0.20441494974532309 0.1275636275097832 0 -0.21068382724870341 0.13078624358664681 0 -0.21039303901307271 0.1231296790176199 0 -0.221027641824071 0.12564950581508089 0 -0.21068382724870341 0.13078624358664681 0 -0.2251712885545539 0.15649053935284851 0 -0.2072177183290814 0.15867059570287309 0 -0.21387056964067969 0.14178605090799229 0 -0.2072177183290814 0.15867059570287309 0 -0.19932817221024901 0.14479137980439011 0 -0.21387056964067969 0.14178605090799229 0 -0.19932817221024901 0.14479137980439011 0 -0.2036561808398718 0.13539513651087179 0 -0.21387056964067969 0.14178605090799229 0 -0.23310342452880711 0.25303606098875903 0 -0.24085448807958709 0.22732672108016561 0 -0.21579438322772429 0.2318789431357498 0 -0.2600074789863453 0.24469250987655841 0 -0.23310342452880711 0.25303606098875903 0 -0.24085448807958709 0.22732672108016561 0 -0.24085448807958709 0.22732672108016561 0 -0.22444281616906611 0.20311721262701071 0 -0.21579438322772429 0.2318789431357498 0 -0.22444281616906611 0.20311721262701071 0 -0.21579438322772429 0.2318789431357498 0 -0.24085448807958709 0.22732672108016561 0 -0.2490006344954043 0.20494604434351571 0 -0.22444281616906611 0.20311721262701071 0 -0.2490006344954043 0.20494604434351571 0 -0.24254416680995519 0.18918812497556159 0 -0.22444281616906611 0.20311721262701071 0 -0.25807063368827848 0.1882408540049994 0 -0.2490006344954043 0.20494604434351571 0 -0.24254416680995519 0.18918812497556159 0 -0.23309124911040791 0.17435548211827159 0 -0.22444281616906611 0.20311721262701071 0 -0.23309124911040791 0.17435548211827159 0 -0.24254416680995519 0.18918812497556159 0 -0.22444281616906611 0.20311721262701071 0 -0.21284089395395819 0.17927727125716961 0 -0.22444281616906611 0.20311721262701071 0 -0.20038454153881091 0.19658725389425871 0 -0.19325831164848251 0.175200582915855 0 -0.20038454153881091 0.19658725389425871 0 -0.17872044461166881 0.19175442089826139 0 -0.20038454153881091 0.19658725389425871 0 -0.18577202586763941 0.20889727559698251 0 -0.17872044461166881 0.19175442089826139 0 -0.20038454153881091 0.19658725389425871 0 -0.20296986297409231 0.21520132825279059 0 -0.18577202586763941 0.20889727559698251 0 -0.20296986297409231 0.21520132825279059 0 -0.18832492354941591 0.2310757886606139 0 -0.18577202586763941 0.20889727559698251 0 -0.22444281616906611 0.20311721262701071 0 -0.20296986297409231 0.21520132825279059 0 -0.21579438322772429 0.2318789431357498 0 -0.22444281616906611 0.20311721262701071 0 -0.20038454153881091 0.19658725389425871 0 -0.20296986297409231 0.21520132825279059 0 -0.20296986297409231 0.21520132825279059 0 -0.21579438322772429 0.2318789431357498 0 -0.18832492354941591 0.2310757886606139 0 -0.19229839073884999 0.25583340555714817 0 -0.21579438322772429 0.2318789431357498 0 -0.18832492354941591 0.2310757886606139 0 -0.2071459502863825 0.26064067364448912 0 -0.19229839073884999 0.25583340555714817 0 -0.21579438322772429 0.2318789431357498 0 -0.2071459502863825 0.26064067364448912 0 -0.21579438322772429 0.2318789431357498 0 -0.23310342452880711 0.25303606098875903 0 -0.2071459502863825 0.26064067364448912 0 -0.21579438322772429 0.2318789431357498 0 -0.17713848404387489 0.25212704885807719 0 -0.15930306987752271 0.24165903460257029 0 -0.16690354926281459 0.2310851659413444 0 -0.17713848404387489 0.25212704885807719 0 -0.1615228474085412 0.25508042579725138 0 -0.15930306987752271 0.24165903460257029 0 -0.19229839073884999 0.25583340555714817 0 -0.17713848404387489 0.25212704885807719 0 -0.18832492354941591 0.2310757886606139 0 -0.17713848404387489 0.25212704885807719 0 -0.16690354926281459 0.2310851659413444 0 -0.17713848404387489 0.25212704885807719 0 -0.18832492354941591 0.2310757886606139 0 -0.16690354926281459 0.2310851659413444 0 -0.18832492354941591 0.2310757886606139 0 -0.16690354926281459 0.2310851659413444 0 -0.17224406533091979 0.21674950369551221 0 -0.18832492354941591 0.2310757886606139 0 -0.18577202586763941 0.20889727559698251 0 -0.17224406533091979 0.21674950369551221 0 -0.16690354926281459 0.2310851659413444 0 -0.1566686144817542 0.21004328302461159 0 -0.15487108132164271 0.2286454937188942 0 -0.16690354926281459 0.2310851659413444 0 -0.1566686144817542 0.21004328302461159 0 -0.17224406533091979 0.21674950369551221 0 -0.16690354926281459 0.2310851659413444 0 -0.1566686144817542 0.21004328302461159 0 -0.15930306987752271 0.24165903460257029 0 -0.16690354926281459 0.2310851659413444 0 -0.15487108132164271 0.2286454937188942 0 -0.1566686144817542 0.21004328302461159 0 -0.16799747194132081 0.20302755740571179 0 -0.15392125506498611 0.2014133324724475 0 -0.1566686144817542 0.21004328302461159 0 -0.17224406533091979 0.21674950369551221 0 -0.16799747194132081 0.20302755740571179 0 -0.18577202586763941 0.20889727559698251 0 -0.17224406533091979 0.21674950369551221 0 -0.16799747194132081 0.20302755740571179 0 -0.17872044461166881 0.19175442089826139 0 -0.16954501078479331 0.19482818571643901 0 -0.16799747194132081 0.20302755740571179 0 -0.18577202586763941 0.20889727559698251 0 -0.17872044461166881 0.19175442089826139 0 -0.16799747194132081 0.20302755740571179 0 -0.17872044461166881 0.19175442089826139 0 -0.16421347853590351 0.1893128194067904 0 -0.16954501078479331 0.19482818571643901 0 -0.16421347853590351 0.1893128194067904 0 -0.16954501078479331 0.19482818571643901 0 -0.1620404802119699 0.19641768957995101 0 -0.16954501078479331 0.19482818571643901 0 -0.16799747194132081 0.20302755740571179 0 -0.1620404802119699 0.19641768957995101 0 -0.16799747194132081 0.20302755740571179 0 -0.1620404802119699 0.19641768957995101 0 -0.15392125506498611 0.2014133324724475 0 -0.16011762693839929 0.1892410791556895 0 -0.15392125506498611 0.2014133324724475 0 -0.1620404802119699 0.19641768957995101 0 -0.16011762693839929 0.1892410791556895 0 -0.15392125506498611 0.2014133324724475 0 -0.16421347853590351 0.1893128194067904 0 -0.16011762693839929 0.1892410791556895 0 -0.16421347853590351 0.1893128194067904 0 -0.1620404802119699 0.19641768957995101 0 -0.16011762693839929 0.1892410791556895 0 -0.1566686144817542 0.21004328302461159 0 -0.14643367970069529 0.18900140010787811 0 -0.14168557109011329 0.2084005041924416 0 -0.1566686144817542 0.21004328302461159 0 -0.15392125506498611 0.2014133324724475 0 -0.14643367970069529 0.18900140010787811 0 -0.1566686144817542 0.21004328302461159 0 -0.14643367970069529 0.18900140010787811 0 -0.16011762693839929 0.1892410791556895 0 -0.15392125506498611 0.2014133324724475 0 -0.14643367970069529 0.18900140010787811 0 -0.16011762693839929 0.1892410791556895 0 -0.14643367970069529 0.18900140010787811 0 -0.14643367970069529 0.18900140010787811 0 -0.12624685720875781 0.204117522577453 0 -0.14168557109011329 0.2084005041924416 0 -0.14643367970069529 0.18900140010787811 0 -0.12624685720875781 0.204117522577453 0 -0.12148589598449359 0.1885644310855418 0 -0.14643367970069529 0.18900140010787811 0 -0.12148589598449359 0.1885644310855418 0 -0.12624685720875781 0.204117522577453 0 -0.14168557109011329 0.2084005041924416 0 -0.13226419659744029 0.22036128216893239 0 -0.14637236587273761 0.21686264077621989 0 -0.14168557109011329 0.2084005041924416 0 -0.13226419659744029 0.22036128216893239 0 -0.1566686144817542 0.21004328302461159 0 -0.14637236587273761 0.21686264077621989 0 -0.14168557109011329 0.2084005041924416 0 -0.1566686144817542 0.21004328302461159 0 -0.14637236587273761 0.21686264077621989 0 -0.15487108132164271 0.2286454937188942 0 -0.15487108132164271 0.2286454937188942 0 -0.13226419659744029 0.22036128216893239 0 -0.14637236587273761 0.21686264077621989 0 -0.15487108132164271 0.2286454937188942 0 -0.13226419659744029 0.22036128216893239 0 -0.15487108132164271 0.2286454937188942 0 -0.13226419659744029 0.22036128216893239 0 -0.13940555895744561 0.2320381028718089 0 -0.15487108132164271 0.2286454937188942 0 -0.13940555895744561 0.2320381028718089 0 -0.14823977173987909 0.23826663326393541 0 -0.13226419659744029 0.22036128216893239 0 -0.1285515554598757 0.23086271591858479 0 -0.11828128981897069 0.22758651644133429 0 -0.1285515554598757 0.23086271591858479 0 -0.13940555895744561 0.2320381028718089 0 -0.13097785085701041 0.23817551035314891 0 -0.13226419659744029 0.22036128216893239 0 -0.1285515554598757 0.23086271591858479 0 -0.13940555895744561 0.2320381028718089 0 -0.13005404735625839 0.25601181377779803 0 -0.1218288810685121 0.2361521677576974 0 -0.13940555895744561 0.2320381028718089 0 -0.13097785085701041 0.23817551035314891 0 -0.1406748371459034 0.24042969661394659 0 -0.13097785085701041 0.23817551035314891 0 -0.13424522129200939 0.24639836141411189 0 -0.1406748371459034 0.24042969661394659 0 -0.13005404735625839 0.25601181377779803 0 -0.13424522129200939 0.24639836141411189 0 -0.1218288810685121 0.2361521677576974 0 -0.1285515554598757 0.23086271591858479 0 -0.13097785085701041 0.23817551035314891 0 -0.1218288810685121 0.2361521677576974 0 -0.13097785085701041 0.23817551035314891 0 -0.13424522129200939 0.24639836141411189 0 -0.1218288810685121 0.2361521677576974 0 -0.13097785085701041 0.23817551035314891 0 -0.1218288810685121 0.2361521677576974 0 -0.13424522129200939 0.24639836141411189 0 -0.14694431139688099 0.248560838512457 0 -0.1406748371459034 0.24042969661394659 0 -0.14694431139688099 0.248560838512457 0 -0.1406748371459034 0.24042969661394659 0 -0.14823977173987909 0.23826663326393541 0 -0.13940555895744561 0.2320381028718089 0 -0.1406748371459034 0.24042969661394659 0 -0.14823977173987909 0.23826663326393541 0 -0.15930306987752271 0.24165903460257029 0 -0.15487108132164271 0.2286454937188942 0 -0.14823977173987909 0.23826663326393541 0 -0.1615228474085412 0.25508042579725138 0 -0.15930306987752271 0.24165903460257029 0 -0.14694431139688099 0.248560838512457 0 -0.15930306987752271 0.24165903460257029 0 -0.14694431139688099 0.248560838512457 0 -0.14823977173987909 0.23826663326393541 0 -0.15956111345969909 0.15128862166132021 0 -0.160617805299168 0.1332950711157691 0 -0.1855904688486647 0.13920181573446019 0 -0.170125527998574 0.1213372421121925 0 -0.1557263552826898 0.1211102442792642 0 -0.160617805299168 0.1332950711157691 0 -0.170125527998574 0.1213372421121925 0 -0.160617805299168 0.1332950711157691 0 -0.1855904688486647 0.13920181573446019 0 -0.1829600721511051 0.11626901800777351 0 -0.170125527998574 0.1213372421121925 0 -0.1855904688486647 0.13920181573446019 0 -0.15956111345969909 0.15128862166132021 0 -0.1855904688486647 0.13920181573446019 0 -0.17285404789353109 0.16422144744507439 0 -0.1855904688486647 0.13920181573446019 0 -0.17285404789353109 0.16422144744507439 0 -0.19164974378600169 0.15641716432053049 0 -0.1855904688486647 0.13920181573446019 0 -0.17285404789353109 0.16422144744507439 0 -0.19325831164848251 0.175200582915855 0 -0.19164974378600169 0.15641716432053049 0 -0.17285404789353109 0.16422144744507439 0 -0.17872044461166881 0.19175442089826139 0 -0.16421347853590351 0.1893128194067904 0 -0.17285404789353109 0.16422144744507439 0 -0.19325831164848251 0.175200582915855 0 -0.17872044461166881 0.19175442089826139 0 -0.17285404789353109 0.16422144744507439 0 -0.16421347853590351 0.1893128194067904 0 -0.16011762693839929 0.1892410791556895 0 -0.17285404789353109 0.16422144744507439 0 -0.16011762693839929 0.1892410791556895 0 -0.17285404789353109 0.16422144744507439 0 -0.16011762693839929 0.1892410791556895 0 -0.17285404789353109 0.16422144744507439 0 -0.15302514337988449 0.17727502166374909 0 -0.15956111345969909 0.15128862166132021 0 -0.17285404789353109 0.16422144744507439 0 -0.15151669522658351 0.1650825090894954 0 -0.17285404789353109 0.16422144744507439 0 -0.15151669522658351 0.1650825090894954 0 -0.15302514337988449 0.17727502166374909 0 -0.15956111345969909 0.15128862166132021 0 -0.15151669522658351 0.1650825090894954 0 -0.14135774385144331 0.1547753336592719 0 -0.15151669522658351 0.1650825090894954 0 -0.14414910290393959 0.17401915675582111 0 -0.13691566170132199 0.16761104378745381 0 -0.15151669522658351 0.1650825090894954 0 -0.13691566170132199 0.16761104378745381 0 -0.14135774385144331 0.1547753336592719 0 -0.16011762693839929 0.1892410791556895 0 -0.14643367970069529 0.18900140010787811 0 -0.15302514337988449 0.17727502166374909 0 -0.15151669522658351 0.1650825090894954 0 -0.15302514337988449 0.17727502166374909 0 -0.14414910290393959 0.17401915675582111 0 -0.15302514337988449 0.17727502166374909 0 -0.14414910290393959 0.17401915675582111 0 -0.14326608426409251 0.18248917763354669 0 -0.14414910290393959 0.17401915675582111 0 -0.14326608426409251 0.18248917763354669 0 -0.1360219299478157 0.1776380316048605 0 -0.14643367970069529 0.18900140010787811 0 -0.15302514337988449 0.17727502166374909 0 -0.14326608426409251 0.18248917763354669 0 -0.14643367970069529 0.18900140010787811 0 -0.14326608426409251 0.18248917763354669 0 -0.14643367970069529 0.18900140010787811 0 -0.13110678053696651 0.18483891320496321 0 -0.12148589598449359 0.1885644310855418 0 -0.14643367970069529 0.18900140010787811 0 -0.14326608426409251 0.18248917763354669 0 -0.13110678053696651 0.18483891320496321 0 -0.14326608426409251 0.18248917763354669 0 -0.1360219299478157 0.1776380316048605 0 -0.13110678053696651 0.18483891320496321 0 -0.14414910290393959 0.17401915675582111 0 -0.1360219299478157 0.1776380316048605 0 -0.13691566170132199 0.16761104378745381 0 -0.1360219299478157 0.1776380316048605 0 -0.13691566170132199 0.16761104378745381 0 -0.1226861619049837 0.17483532807939381 0 -0.1360219299478157 0.1776380316048605 0 -0.13110678053696651 0.18483891320496321 0 -0.1226861619049837 0.17483532807939381 0 -0.13110678053696651 0.18483891320496321 0 -0.12148589598449359 0.1885644310855418 0 -0.13110678053696651 0.18483891320496321 0 -0.1226861619049837 0.17483532807939381 0 -0.12148589598449359 0.1885644310855418 0 -0.13691566170132199 0.16761104378745381 0 -0.12775507380482379 0.15709881667188619 0 -0.1226861619049837 0.17483532807939381 0 -0.13691566170132199 0.16761104378745381 0 -0.12775507380482379 0.15709881667188619 0 -0.14135774385144331 0.1547753336592719 0 -0.12775507380482379 0.15709881667188619 0 -0.132911576184397 0.14360471381164419 0 -0.1168452805650753 0.13727018495737731 0 -0.132911576184397 0.14360471381164419 0 -0.14135774385144331 0.1547753336592719 0 -0.1456364061442281 0.14014173560231341 0 -0.12775507380482379 0.15709881667188619 0 -0.132911576184397 0.14360471381164419 0 -0.14135774385144331 0.1547753336592719 0 -0.15956111345969909 0.15128862166132021 0 -0.160617805299168 0.1332950711157691 0 -0.1456364061442281 0.14014173560231341 0 -0.15956111345969909 0.15128862166132021 0 -0.14135774385144331 0.1547753336592719 0 -0.1456364061442281 0.14014173560231341 0 -0.1440909786778195 0.1193347653357356 0 -0.14875893600874951 0.1290476911093868 0 -0.13296337655641441 0.12873749816737209 0 -0.14875893600874951 0.1290476911093868 0 -0.1456364061442281 0.14014173560231341 0 -0.13296337655641441 0.12873749816737209 0 -0.1557263552826898 0.1211102442792642 0 -0.160617805299168 0.1332950711157691 0 -0.14875893600874951 0.1290476911093868 0 -0.160617805299168 0.1332950711157691 0 -0.14875893600874951 0.1290476911093868 0 -0.1456364061442281 0.14014173560231341 0 -0.132911576184397 0.14360471381164419 0 -0.13296337655641441 0.12873749816737209 0 -0.1168452805650753 0.13727018495737731 0 -0.132911576184397 0.14360471381164419 0 -0.1456364061442281 0.14014173560231341 0 -0.13296337655641441 0.12873749816737209 0 -0.13296337655641441 0.12873749816737209 0 -0.1168452805650753 0.13727018495737731 0 -0.1153934773557851 0.1163257612668233 0 -0.1168452805650753 0.13727018495737731 0 -0.1153934773557851 0.1163257612668233 0 -0.10123487584456491 0.1214367827406168 0 -0.1168452805650753 0.13727018495737731 0 -0.092980446536911704 0.1331744498276867 0 -0.10123487584456491 0.1214367827406168 0 -0.1168452805650753 0.13727018495737731 0 -0.10053511180548361 0.1522247780085037 0 -0.092980446536911704 0.1331744498276867 0 -0.1168452805650753 0.13727018495737731 0 -0.1143889646752521 0.16283364381432661 0 -0.12775507380482379 0.15709881667188619 0 -0.1168452805650753 0.13727018495737731 0 -0.1143889646752521 0.16283364381432661 0 -0.1168452805650753 0.13727018495737731 0 -0.10053511180548361 0.1522247780085037 0 -0.1143889646752521 0.16283364381432661 0 -0.12775507380482379 0.15709881667188619 0 -0.1143889646752521 0.16283364381432661 0 -0.1226861619049837 0.17483532807939381 0 -0.1143889646752521 0.16283364381432661 0 -0.10245429197063061 0.1825425366967762 0 -0.111932648785428 0.1883971026712758 0 -0.1143889646752521 0.16283364381432661 0 -0.111932648785428 0.1883971026712758 0 -0.1143889646752521 0.16283364381432661 0 -0.1226861619049837 0.17483532807939381 0 -0.111932648785428 0.1883971026712758 0 -0.1226861619049837 0.17483532807939381 0 -0.12148589598449359 0.1885644310855418 0 -0.111932648785428 0.1883971026712758 0 -0.10245429197063061 0.1825425366967762 0 -0.111932648785428 0.1883971026712758 0 -0.09108285363217937 0.1880319113297266 0 -0.10245429197063061 0.1825425366967762 0 -0.098094822286977398 0.16713564568196029 0 -0.091399937799847175 0.1811581796166605 0 -0.10245429197063061 0.1825425366967762 0 -0.091234667151689028 0.18474090689009851 0 -0.091399937799847175 0.1811581796166605 0 -0.10245429197063061 0.1825425366967762 0 -0.091234667151689028 0.18474090689009851 0 -0.09108285363217937 0.1880319113297266 0 -0.1143889646752521 0.16283364381432661 0 -0.10245429197063061 0.1825425366967762 0 -0.098094822286977398 0.16713564568196029 0 -0.10053511180548361 0.1522247780085037 0 -0.1143889646752521 0.16283364381432661 0 -0.098094822286977398 0.16713564568196029 0 -0.098094822286977398 0.16713564568196029 0 -0.08036604496320171 0.16070996576116739 0 -0.091399937799847175 0.1811581796166605 0 -0.10053511180548361 0.1522247780085037 0 -0.098094822286977398 0.16713564568196029 0 -0.08036604496320171 0.16070996576116739 0 -0.08036604496320171 0.16070996576116739 0 -0.091234667151689028 0.18474090689009851 0 -0.08036604496320171 0.16070996576116739 0 -0.091234667151689028 0.18474090689009851 0 -0.091399937799847175 0.1811581796166605 0 -0.08036604496320171 0.16070996576116739 0 -0.091234667151689028 0.18474090689009851 0 -0.076352626195748258 0.17699841947076911 0 -0.091234667151689028 0.18474090689009851 0 -0.076352626195748258 0.17699841947076911 0 -0.09108285363217937 0.1880319113297266 0 -0.091234667151689028 0.18474090689009851 0 -0.09108285363217937 0.1880319113297266 0 -0.091234667151689028 0.18474090689009851 0 -0.091399937799847175 0.1811581796166605 0 -0.076352626195748258 0.17699841947076911 0 -0.063307235944653623 0.18754541182164461 0 -0.053998582675717527 0.1627883572142621 0 -0.076352626195748258 0.17699841947076911 0 -0.09108285363217937 0.1880319113297266 0 -0.063307235944653623 0.18754541182164461 0 -0.08036604496320171 0.16070996576116739 0 -0.076352626195748258 0.17699841947076911 0 -0.053998582675717527 0.1627883572142621 0 -0.08036604496320171 0.16070996576116739 0 -0.069497422774714615 0.13667902463223611 0 -0.053998582675717527 0.1627883572142621 0 -0.08036604496320171 0.16070996576116739 0 -0.069497422774714615 0.13667902463223611 0 -0.069497422774714615 0.13667902463223611 0 -0.092980446536911704 0.1331744498276867 0 -0.083731371395551188 0.11686343499407981 0 -0.08036604496320171 0.16070996576116739 0 -0.069497422774714615 0.13667902463223611 0 -0.092980446536911704 0.1331744498276867 0 -0.10053511180548361 0.1522247780085037 0 -0.08036604496320171 0.16070996576116739 0 -0.092980446536911704 0.1331744498276867 0 -0.1052287350686755 0.24231613757406001 0 -0.1076454089788394 0.2330154186051899 0 -0.089195989812144355 0.2289352329095069 0 -0.097689178405964666 0.24626065310527889 0 -0.1052287350686755 0.24231613757406001 0 -0.089195989812144355 0.2289352329095069 0 -0.1052287350686755 0.24231613757406001 0 -0.1149271882668953 0.24458412569279361 0 -0.1076454089788394 0.2330154186051899 0 -0.10998563930619901 0.25431390555360661 0 -0.097689178405964666 0.24626065310527889 0 -0.1052287350686755 0.24231613757406001 0 -0.13005404735625839 0.25601181377779803 0 -0.1149271882668953 0.24458412569279361 0 -0.1218288810685121 0.2361521677576974 0 -0.10998563930619901 0.25431390555360661 0 -0.1052287350686755 0.24231613757406001 0 -0.1149271882668953 0.24458412569279361 0 -0.1218288810685121 0.2361521677576974 0 -0.1076454089788394 0.2330154186051899 0 -0.1149271882668953 0.24458412569279361 0 -0.1218288810685121 0.2361521677576974 0 -0.1076454089788394 0.2330154186051899 0 -0.13226419659744029 0.22036128216893239 0 -0.11828128981897069 0.22758651644133429 0 -0.1096573118732382 0.2120770706189701 0 -0.11828128981897069 0.22758651644133429 0 -0.1076454089788394 0.2330154186051899 0 -0.1096573118732382 0.2120770706189701 0 -0.1218288810685121 0.2361521677576974 0 -0.11828128981897069 0.22758651644133429 0 -0.1076454089788394 0.2330154186051899 0 -0.1218288810685121 0.2361521677576974 0 -0.11828128981897069 0.22758651644133429 0 -0.1285515554598757 0.23086271591858479 0 -0.1218288810685121 0.2361521677576974 0 -0.11828128981897069 0.22758651644133429 0 -0.1076454089788394 0.2330154186051899 0 -0.1096573118732382 0.2120770706189701 0 -0.089195989812144355 0.2289352329095069 0 -0.1076454089788394 0.2330154186051899 0 -0.089195989812144355 0.2289352329095069 0 -0.1076454089788394 0.2330154186051899 0 -0.1096573118732382 0.2120770706189701 0 -0.1096573118732382 0.2120770706189701 0 -0.090300857924741407 0.2049839677291784 0 -0.089195989812144355 0.2289352329095069 0 -0.1096573118732382 0.2120770706189701 0 -0.090504875591696302 0.20056128488857849 0 -0.090300857924741407 0.2049839677291784 0 -0.1096573118732382 0.2120770706189701 0 -0.090300857924741407 0.2049839677291784 0 -0.13226419659744029 0.22036128216893239 0 -0.1096573118732382 0.2120770706189701 0 -0.12624685720875781 0.204117522577453 0 -0.13226419659744029 0.22036128216893239 0 -0.1096573118732382 0.2120770706189701 0 -0.12624685720875781 0.204117522577453 0 -0.1096573118732382 0.2120770706189701 0 -0.11929998844054859 0.19767742058032009 0 -0.1096573118732382 0.2120770706189701 0 -0.11929998844054859 0.19767742058032009 0 -0.11154675521588429 0.19241318807343361 0 -0.1096573118732382 0.2120770706189701 0 -0.11154675521588429 0.19241318807343361 0 -0.12624685720875781 0.204117522577453 0 -0.11929998844054859 0.19767742058032009 0 -0.12148589598449359 0.1885644310855418 0 -0.11929998844054859 0.19767742058032009 0 -0.12148589598449359 0.1885644310855418 0 -0.11154675521588429 0.19241318807343361 0 -0.12148589598449359 0.1885644310855418 0 -0.111932648785428 0.1883971026712758 0 -0.12148589598449359 0.1885644310855418 0 -0.11154675521588429 0.19241318807343361 0 -0.12148589598449359 0.1885644310855418 0 -0.11154675521588429 0.19241318807343361 0 -0.111932648785428 0.1883971026712758 0 -0.11154675521588429 0.19241318807343361 0 -0.111932648785428 0.1883971026712758 0 -0.11154675521588429 0.19241318807343361 0 -0.090504875591696302 0.20056128488857849 0 -0.11154675521588429 0.19241318807343361 0 -0.111932648785428 0.1883971026712758 0 -0.09108285363217937 0.1880319113297266 0 -0.11154675521588429 0.19241318807343361 0 -0.09108285363217937 0.1880319113297266 0 -0.090504875591696302 0.20056128488857849 0 -0.1096573118732382 0.2120770706189701 0 -0.11154675521588429 0.19241318807343361 0 -0.090504875591696302 0.20056128488857849 0 -0.111932648785428 0.1883971026712758 0 -0.09108285363217937 0.1880319113297266 0 -0.09108285363217937 0.1880319113297266 0 -0.082933991381014163 0.19495500987658759 0 -0.063307235944653623 0.18754541182164461 0 -0.09108285363217937 0.1880319113297266 0 -0.090504875591696302 0.20056128488857849 0 -0.09108285363217937 0.1880319113297266 0 -0.090504875591696302 0.20056128488857849 0 -0.082933991381014163 0.19495500987658759 0 -0.090504875591696302 0.20056128488857849 0 -0.084537552932733934 0.2028720253557264 0 -0.082933991381014163 0.19495500987658759 0 -0.090504875591696302 0.20056128488857849 0 -0.090300857924741407 0.2049839677291784 0 -0.090504875591696302 0.20056128488857849 0 -0.084537552932733934 0.2028720253557264 0 -0.090300857924741407 0.2049839677291784 0 -0.090504875591696302 0.20056128488857849 0 -0.084537552932733934 0.2028720253557264 0 -0.084537552932733934 0.2028720253557264 0 -0.082933991381014163 0.19495500987658759 0 -0.077547093673529938 0.20031039671732359 0 -0.084537552932733934 0.2028720253557264 0 -0.077547093673529938 0.20031039671732359 0 -0.09108285363217937 0.1880319113297266 0 -0.063307235944653623 0.18754541182164461 0 -0.082933991381014163 0.19495500987658759 0 -0.063307235944653623 0.18754541182164461 0 -0.077547093673529938 0.20031039671732359 0 -0.063307235944653623 0.18754541182164461 0 -0.062918997588819053 0.19937962251241739 0 -0.077547093673529938 0.20031039671732359 0 -0.078577505261050007 0.21534849818623911 0 -0.066437898791424588 0.2239021618624015 0 -0.059838909502499663 0.21243613946846571 0 -0.084537552932733934 0.2028720253557264 0 -0.078577505261050007 0.21534849818623911 0 -0.059838909502499663 0.21243613946846571 0 -0.062918997588819053 0.19937962251241739 0 -0.077547093673529938 0.20031039671732359 0 -0.059838909502499663 0.21243613946846571 0 -0.084537552932733934 0.2028720253557264 0 -0.077547093673529938 0.20031039671732359 0 -0.059838909502499663 0.21243613946846571 0 -0.084537552932733934 0.2028720253557264 0 -0.059838909502499663 0.21243613946846571 0 -0.090300857924741407 0.2049839677291784 0 -0.089195989812144355 0.2289352329095069 0 -0.078577505261050007 0.21534849818623911 0 -0.090300857924741407 0.2049839677291784 0 -0.089195989812144355 0.2289352329095069 0 -0.084537552932733934 0.2028720253557264 0 -0.078577505261050007 0.21534849818623911 0 -0.090300857924741407 0.2049839677291784 0 -0.084537552932733934 0.2028720253557264 0 -0.090300857924741407 0.2049839677291784 0 -0.089195989812144355 0.2289352329095069 0 -0.066437898791424588 0.2239021618624015 0 -0.066437898791424588 0.2239021618624015 0 -0.070454129905793209 0.2423721440505458 0 -0.051910299402241317 0.23562247598537081 0 -0.078577505261050007 0.21534849818623911 0 -0.089195989812144355 0.2289352329095069 0 -0.066437898791424588 0.2239021618624015 0 -0.089195989812144355 0.2289352329095069 0 -0.066437898791424588 0.2239021618624015 0 -0.070454129905793209 0.2423721440505458 0 -0.087837126177903457 0.25839259788957131 0 -0.097689178405964666 0.24626065310527889 0 -0.089195989812144355 0.2289352329095069 0 -0.087837126177903457 0.25839259788957131 0 -0.089195989812144355 0.2289352329095069 0 -0.087837126177903457 0.25839259788957131 0 -0.089195989812144355 0.2289352329095069 0 -0.070454129905793209 0.2423721440505458 0 -0.038652344816691109 0.24876186514016629 0 -0.035140266072267959 0.222000253581212 0 -0.024475199240726709 0.23941895685665801 0 -0.038652344816691109 0.24876186514016629 0 -0.035140266072267959 0.222000253581212 0 -0.038652344816691109 0.24876186514016629 0 -0.051910299402241317 0.23562247598537081 0 -0.035140266072267959 0.222000253581212 0 -0.057622723250347598 0.2577803759642151 0 -0.070454129905793209 0.2423721440505458 0 -0.051910299402241317 0.23562247598537081 0 -0.057622723250347598 0.2577803759642151 0 -0.038652344816691109 0.24876186514016629 0 -0.051910299402241317 0.23562247598537081 0 -0.066437898791424588 0.2239021618624015 0 -0.051910299402241317 0.23562247598537081 0 -0.043620668308054403 0.21871636736559211 0 -0.066437898791424588 0.2239021618624015 0 -0.043620668308054403 0.21871636736559211 0 -0.035140266072267959 0.222000253581212 0 -0.043620668308054403 0.21871636736559211 0 -0.051910299402241317 0.23562247598537081 0 -0.035140266072267959 0.222000253581212 0 -0.043620668308054403 0.21871636736559211 0 -0.035140266072267959 0.222000253581212 0 -0.031378224691362942 0.19333395722768129 0 -0.035140266072267959 0.222000253581212 0 -0.049692876949697352 0.19796063200390629 0 -0.031378224691362942 0.19333395722768129 0 -0.035140266072267959 0.222000253581212 0 -0.043620668308054403 0.21871636736559211 0 -0.049692876949697352 0.19796063200390629 0 -0.043620668308054403 0.21871636736559211 0 -0.059838909502499663 0.21243613946846571 0 -0.043620668308054403 0.21871636736559211 0 -0.059838909502499663 0.21243613946846571 0 -0.049692876949697352 0.19796063200390629 0 -0.066437898791424588 0.2239021618624015 0 -0.043620668308054403 0.21871636736559211 0 -0.059838909502499663 0.21243613946846571 0 -0.062918997588819053 0.19937962251241739 0 -0.059838909502499663 0.21243613946846571 0 -0.049692876949697352 0.19796063200390629 0 -0.063307235944653623 0.18754541182164461 0 -0.049692876949697352 0.19796063200390629 0 -0.04705135801182958 0.18005636733398589 0 -0.063307235944653623 0.18754541182164461 0 -0.062918997588819053 0.19937962251241739 0 -0.049692876949697352 0.19796063200390629 0 -0.049692876949697352 0.19796063200390629 0 -0.031378224691362942 0.19333395722768129 0 -0.04705135801182958 0.18005636733398589 0 -0.031378224691362942 0.19333395722768129 0 -0.0048585527816108476 0.19925930445668999 0 -0.01672957284981583 0.212383658936625 0 -0.0048585527816108476 0.19925930445668999 0 -0.0079130973513044552 0.17958405798156679 0 0.01253988948996917 0.19105960002002359 0 -0.031378224691362942 0.19333395722768129 0 -0.0048585527816108476 0.19925930445668999 0 -0.0079130973513044552 0.17958405798156679 0 -0.0048585527816108476 0.19925930445668999 0 -0.01672957284981583 0.212383658936625 0 0.00082111797816907667 0.21708680559880331 0 -0.035140266072267959 0.222000253581212 0 -0.031378224691362942 0.19333395722768129 0 -0.01672957284981583 0.212383658936625 0 -0.035140266072267959 0.222000253581212 0 -0.01438466978534764 0.23003749222254291 0 -0.024475199240726709 0.23941895685665801 0 -0.035140266072267959 0.222000253581212 0 -0.01672957284981583 0.212383658936625 0 -0.01438466978534764 0.23003749222254291 0 -0.035140266072267959 0.222000253581212 0 -0.01438466978534764 0.23003749222254291 0 -0.01089765353363099 0.24311401117758299 0 0.00082111797816907667 0.21708680559880331 0 -0.01672957284981583 0.212383658936625 0 -0.01438466978534764 0.23003749222254291 0 0.00082111797816907667 0.21708680559880331 0 -0.01438466978534764 0.23003749222254291 0 -0.01089765353363099 0.24311401117758299 0 0.00082111797816907667 0.21708680559880331 0 -0.002858477276545702 0.25878204093389939 0 -0.01089765353363099 0.24311401117758299 0 0.01076626984877675 0.24408077366129649 0 -0.02416040565911998 0.25010901248269252 0 -0.01089765353363099 0.24311401117758299 0 -0.024475199240726709 0.23941895685665801 0 -0.01438466978534764 0.23003749222254291 0 -0.01089765353363099 0.24311401117758299 0 -0.024475199240726709 0.23941895685665801 0 -0.02416040565911998 0.25010901248269252 0 -0.038652344816691109 0.24876186514016629 0 -0.024475199240726709 0.23941895685665801 0 -0.042649462467149943 0.14520511199996389 0 -0.0276161833104565 0.16466766087415061 0 -0.023854141929554439 0.13600136452061931 0 -0.023854141929554439 0.13600136452061931 0 -0.041241471257892327 0.12432472401196649 0 -0.042649462467149943 0.14520511199996389 0 -0.023854141929554439 0.13600136452061931 0 -0.041241471257892327 0.12432472401196649 0 -0.069497422774714615 0.13667902463223611 0 -0.042649462467149943 0.14520511199996389 0 -0.041241471257892327 0.12432472401196649 0 -0.069497422774714615 0.13667902463223611 0 -0.042649462467149943 0.14520511199996389 0 -0.053998582675717527 0.1627883572142621 0 -0.063307235944653623 0.18754541182164461 0 -0.053998582675717527 0.1627883572142621 0 -0.04705135801182958 0.18005636733398589 0 -0.031378224691362942 0.19333395722768129 0 -0.04705135801182958 0.18005636733398589 0 -0.0276161833104565 0.16466766087415061 0 -0.042649462467149943 0.14520511199996389 0 -0.053998582675717527 0.1627883572142621 0 -0.0276161833104565 0.16466766087415061 0 -0.053998582675717527 0.1627883572142621 0 -0.04705135801182958 0.18005636733398589 0 -0.0276161833104565 0.16466766087415061 0 -0.0276161833104565 0.16466766087415061 0 -0.01053159634969218 0.1612244348963888 0 -0.010944110918157911 0.14467122912313249 0 -0.031378224691362942 0.19333395722768129 0 -0.0276161833104565 0.16466766087415061 0 -0.031378224691362942 0.19333395722768129 0 -0.0276161833104565 0.16466766087415061 0 -0.0079130973513044552 0.17958405798156679 0 -0.0079130973513044552 0.17958405798156679 0 -0.01053159634969218 0.1612244348963888 0 3.2029427356376078e-05 0.16713249641365691 0 -0.0276161833104565 0.16466766087415061 0 -0.0079130973513044552 0.17958405798156679 0 -0.01053159634969218 0.1612244348963888 0 -0.01053159634969218 0.1612244348963888 0 0.0019659200932441311 0.15334109372563759 0 3.2029427356376078e-05 0.16713249641365691 0 -0.01053159634969218 0.1612244348963888 0 -0.010944110918157911 0.14467122912313249 0 0.0019659200932441311 0.15334109372563759 0 -0.010944110918157911 0.14467122912313249 0 0.0019659200932441311 0.15334109372563759 0 -0.010944110918157911 0.14467122912313249 0 0.00060724160770164737 0.1391473010098859 0 0.0019659200932441311 0.15334109372563759 0 -0.0276161833104565 0.16466766087415061 0 -0.023854141929554439 0.13600136452061931 0 -0.0276161833104565 0.16466766087415061 0 -0.010944110918157911 0.14467122912313249 0 -0.023854141929554439 0.13600136452061931 0 -0.023854141929554439 0.13600136452061931 0 -0.02135248830395033 0.116939069095244 0 -0.041241471257892327 0.12432472401196649 0 -0.023854141929554439 0.13600136452061931 0 -0.02135248830395033 0.116939069095244 0 -0.023854141929554439 0.13600136452061931 0 -0.01069472378972767 0.13035297529522319 0 -0.02135248830395033 0.116939069095244 0 -0.010944110918157911 0.14467122912313249 0 -0.023854141929554439 0.13600136452061931 0 -0.01069472378972767 0.13035297529522319 0 0.0014876795655749909 0.1175593862523763 0 0.00060724160770164737 0.1391473010098859 0 -0.010944110918157911 0.14467122912313249 0 -0.023854141929554439 0.13600136452061931 0 -0.01069472378972767 0.13035297529522319 0 -0.010944110918157911 0.14467122912313249 0 -0.01069472378972767 0.13035297529522319 0 0.00060724160770164737 0.1391473010098859 0 -0.01069472378972767 0.13035297529522319 0 -0.02135248830395033 0.116939069095244 0 0.0014876795655749909 0.1175593862523763 0 -0.018850834678350342 0.097876773669868203 0 -0.02135248830395033 0.116939069095244 0 0.0014876795655749909 0.1175593862523763 0 -0.018850834678350342 0.097876773669868203 0 0.0093311045073480176 0.096525196700939092 0 -0.018850834678350342 0.097876773669868203 0 0.0093311045073480176 0.096525196700939092 0 0.0014876795655749909 0.1175593862523763 0 -0.018850834678350342 0.097876773669868203 0 -0.02135248830395033 0.116939069095244 0 -0.035766371746122433 0.098688025520469486 0 -0.018850834678350342 0.097876773669868203 0 -0.035766371746122433 0.098688025520469486 0 -0.018850834678350342 0.097876773669868203 0 -0.02135248830395033 0.116939069095244 0 -0.016348408676340211 0.078808592830473354 0 -0.01384598267433274 0.059740411991078192 0 -0.012107191358518919 0.065300364080782353 0 -0.016348408676340211 0.078808592830473354 0 -0.01384598267433274 0.059740411991078192 0 -0.012107191358518919 0.065300364080782353 0 -0.0037838957382719169 0.066525822972718501 0 -0.01384598267433274 0.059740411991078192 0 -0.012107191358518919 0.065300364080782353 0 -0.0037838957382719169 0.066525822972718501 0 -0.008297098303109476 0.072771022191935361 0 -0.012107191358518919 0.065300364080782353 0 -0.01384598267433274 0.059740411991078192 0 -0.0037838957382719169 0.066525822972718501 0 -0.008297098303109476 0.072771022191935361 0 -0.00094889743930686083 0.080449308883767265 0 -0.008297098303109476 0.072771022191935361 0 -0.00094889743930686083 0.080449308883767265 0 -0.016348408676340211 0.078808592830473354 0 -0.012107191358518919 0.065300364080782353 0 -0.008297098303109476 0.072771022191935361 0 -0.016348408676340211 0.078808592830473354 0 -0.018850834678350342 0.097876773669868203 0 -0.00094889743930686083 0.080449308883767265 0 0.0093311045073480176 0.096525196700939092 0 -0.018850834678350342 0.097876773669868203 0 -0.00094889743930686083 0.080449308883767265 0 -0.016348408676340211 0.078808592830473354 0 -0.018850834678350342 0.097876773669868203 0 -0.016348408676340211 0.078808592830473354 0 -0.018850834678350342 0.097876773669868203 0 -0.028499405327835649 0.084480139584431152 0 -0.035766371746122433 0.098688025520469486 0 -0.018850834678350342 0.097876773669868203 0 -0.028499405327835649 0.084480139584431152 0 -0.016348408676340211 0.078808592830473354 0 -0.016348408676340211 0.078808592830473354 0 -0.02737899902541507 0.070677749965705902 0 -0.01384598267433274 0.059740411991078192 0 -0.028499405327835649 0.084480139584431152 0 -0.016348408676340211 0.078808592830473354 0 -0.02737899902541507 0.070677749965705902 0 -0.045389099553075268 0.071243561349696921 0 -0.042578282236568198 0.077159770922334711 0 -0.032474655659237933 0.054820264473603553 0 -0.02737899902541507 0.070677749965705902 0 -0.042578282236568198 0.077159770922334711 0 -0.032474655659237933 0.054820264473603553 0 -0.042578282236568198 0.077159770922334711 0 -0.032474655659237933 0.054820264473603553 0 -0.028499405327835649 0.084480139584431152 0 -0.02737899902541507 0.070677749965705902 0 -0.042578282236568198 0.077159770922334711 0 -0.045389099553075268 0.071243561349696921 0 -0.042578282236568198 0.077159770922334711 0 -0.051844385280633988 0.074838236314223108 0 -0.028499405327835649 0.084480139584431152 0 -0.042578282236568198 0.077159770922334711 0 -0.035766371746122433 0.098688025520469486 0 -0.042578282236568198 0.077159770922334711 0 -0.035766371746122433 0.098688025520469486 0 -0.052681908813894757 0.099499277371067521 0 -0.042578282236568198 0.077159770922334711 0 -0.057320625568748791 0.082291204596858875 0 -0.052681908813894757 0.099499277371067521 0 -0.042578282236568198 0.077159770922334711 0 -0.052681908813894757 0.099499277371067521 0 -0.057320625568748791 0.082291204596858875 0 -0.052681908813894757 0.099499277371067521 0 -0.070178487928896235 0.089689700405588116 0 -0.057320625568748791 0.082291204596858875 0 -0.059412571726056518 0.075399023369853241 0 -0.068442513925956419 0.077540060304883363 0 -0.045389099553075268 0.071243561349696921 0 -0.054521347318721138 0.068097621332371877 0 -0.056878176397121311 0.048586682070888447 0 -0.042578282236568198 0.077159770922334711 0 -0.057320625568748791 0.082291204596858875 0 -0.051844385280633988 0.074838236314223108 0 -0.045389099553075268 0.071243561349696921 0 -0.051844385280633988 0.074838236314223108 0 -0.054521347318721138 0.068097621332371877 0 -0.059412571726056518 0.075399023369853241 0 -0.054521347318721138 0.068097621332371877 0 -0.062681188863148371 0.070031729403553622 0 -0.057320625568748791 0.082291204596858875 0 -0.051844385280633988 0.074838236314223108 0 -0.059412571726056518 0.075399023369853241 0 -0.051844385280633988 0.074838236314223108 0 -0.059412571726056518 0.075399023369853241 0 -0.054521347318721138 0.068097621332371877 0 -0.06022027583527069 0.063439461097245547 0 -0.054521347318721138 0.068097621332371877 0 -0.062681188863148371 0.070031729403553622 0 -0.02135248830395033 0.116939069095244 0 -0.041241471257892327 0.12432472401196649 0 -0.043374058193132177 0.110679446716811 0 -0.02135248830395033 0.116939069095244 0 -0.043374058193132177 0.110679446716811 0 -0.035766371746122433 0.098688025520469486 0 -0.035766371746122433 0.098688025520469486 0 -0.052681908813894757 0.099499277371067521 0 -0.043374058193132177 0.110679446716811 0 -0.035766371746122433 0.098688025520469486 0 -0.052681908813894757 0.099499277371067521 0 -0.043374058193132177 0.110679446716811 0 -0.052681908813894757 0.099499277371067521 0 -0.05862880058622498 0.1126480835033058 0 -0.052681908813894757 0.099499277371067521 0 -0.05862880058622498 0.1126480835033058 0 -0.041241471257892327 0.12432472401196649 0 -0.043374058193132177 0.110679446716811 0 -0.05862880058622498 0.1126480835033058 0 -0.069497422774714615 0.13667902463223611 0 -0.041241471257892327 0.12432472401196649 0 -0.05862880058622498 0.1126480835033058 0 -0.041241471257892327 0.12432472401196649 0 -0.05862880058622498 0.1126480835033058 0 -0.069497422774714615 0.13667902463223611 0 -0.05862880058622498 0.1126480835033058 0 -0.083731371395551188 0.11686343499407981 0 -0.069497422774714615 0.13667902463223611 0 -0.05862880058622498 0.1126480835033058 0 -0.05862880058622498 0.1126480835033058 0 -0.083731371395551188 0.11686343499407981 0 -0.076506846777718907 0.1006418970192724 0 -0.092980446536911704 0.1331744498276867 0 -0.083731371395551188 0.11686343499407981 0 -0.10123487584456491 0.1214367827406168 0 -0.076506846777718907 0.1006418970192724 0 -0.1011630358522447 0.1018243826202517 0 -0.083731371395551188 0.11686343499407981 0 -0.076506846777718907 0.1006418970192724 0 -0.099358171848043839 0.10842926889186839 0 -0.078935322732876276 0.099011028921194122 0 -0.091710220804487264 0.091415961164498169 0 -0.1011630358522447 0.1018243826202517 0 -0.078935322732876276 0.099011028921194122 0 -0.076506846777718907 0.1006418970192724 0 -0.1011630358522447 0.1018243826202517 0 -0.076506846777718907 0.1006418970192724 0 -0.099358171848043839 0.10842926889186839 0 -0.1011630358522447 0.1018243826202517 0 -0.078935322732876276 0.099011028921194122 0 -0.07593146744857647 0.093850120387733799 0 -0.080527169935791509 0.089429322615254062 0 -0.052681908813894757 0.099499277371067521 0 -0.076506846777718907 0.1006418970192724 0 -0.05862880058622498 0.1126480835033058 0 -0.076506846777718907 0.1006418970192724 0 -0.052681908813894757 0.099499277371067521 0 -0.05862880058622498 0.1126480835033058 0 -0.076506846777718907 0.1006418970192724 0 -0.052681908813894757 0.099499277371067521 0 -0.076506846777718907 0.1006418970192724 0 -0.070178487928896235 0.089689700405588116 0 -0.07593146744857647 0.093850120387733799 0 -0.076506846777718907 0.1006418970192724 0 -0.070178487928896235 0.089689700405588116 0 -0.078935322732876276 0.099011028921194122 0 -0.07593146744857647 0.093850120387733799 0 -0.076506846777718907 0.1006418970192724 0 -0.078935322732876276 0.099011028921194122 0 -0.076506846777718907 0.1006418970192724 0 -0.057320625568748791 0.082291204596858875 0 -0.070178487928896235 0.089689700405588116 0 -0.068442513925956419 0.077540060304883363 0 -0.070178487928896235 0.089689700405588116 0 -0.077020211702791982 0.082092707838982315 0 -0.068442513925956419 0.077540060304883363 0 -0.070178487928896235 0.089689700405588116 0 -0.077020211702791982 0.082092707838982315 0 -0.080527169935791509 0.089429322615254062 0 -0.07593146744857647 0.093850120387733799 0 -0.070178487928896235 0.089689700405588116 0 -0.080527169935791509 0.089429322615254062 0 -0.06022027583527069 0.063439461097245547 0 -0.062681188863148371 0.070031729403553622 0 -0.070809235509737084 0.065682480913414165 0 -0.059412571726056518 0.075399023369853241 0 -0.062681188863148371 0.070031729403553622 0 -0.068442513925956419 0.077540060304883363 0 -0.062681188863148371 0.070031729403553622 0 -0.068442513925956419 0.077540060304883363 0 -0.070809235509737084 0.065682480913414165 0 -0.068442513925956419 0.077540060304883363 0 -0.070809235509737084 0.065682480913414165 0 -0.078688271337016918 0.073709825687239716 0 -0.077020211702791982 0.082092707838982315 0 -0.068442513925956419 0.077540060304883363 0 -0.078688271337016918 0.073709825687239716 0 -0.070809235509737084 0.065682480913414165 0 -0.078688271337016918 0.073709825687239716 0 -0.088302998192585441 0.063340798223716577 0 -0.078688271337016918 0.073709825687239716 0 -0.088302998192585441 0.063340798223716577 0 -0.087264615386298844 0.080094630181946333 0 -0.078935322732876276 0.099011028921194122 0 -0.080527169935791509 0.089429322615254062 0 -0.091710220804487264 0.091415961164498169 0 -0.077020211702791982 0.082092707838982315 0 -0.080527169935791509 0.089429322615254062 0 -0.087264615386298844 0.080094630181946333 0 -0.077020211702791982 0.082092707838982315 0 -0.078688271337016918 0.073709825687239716 0 -0.087264615386298844 0.080094630181946333 0 -0.080527169935791509 0.089429322615254062 0 -0.087264615386298844 0.080094630181946333 0 -0.091710220804487264 0.091415961164498169 0 -0.107475059658428 0.078725578895063097 0 -0.1011630358522447 0.1018243826202517 0 -0.091710220804487264 0.091415961164498169 0 -0.107475059658428 0.078725578895063097 0 -0.1011630358522447 0.1018243826202517 0 -0.087264615386298844 0.080094630181946333 0 -0.091710220804487264 0.091415961164498169 0 -0.107475059658428 0.078725578895063097 0 -0.088302998192585441 0.063340798223716577 0 -0.107475059658428 0.078725578895063097 0 -0.1013403021764709 0.05978660543920275 0 -0.107475059658428 0.078725578895063097 0 -0.1137870834646149 0.05562677516987545 0 -0.1013403021764709 0.05978660543920275 0 -0.088302998192585441 0.063340798223716577 0 -0.087264615386298844 0.080094630181946333 0 -0.107475059658428 0.078725578895063097 0 -0.107475059658428 0.078725578895063097 0 -0.1137870834646149 0.05562677516987545 0 -0.12555919993749581 0.074513052641059827 0 -0.107475059658428 0.078725578895063097 0 -0.1137870834646149 0.05562677516987545 0 -0.12555919993749581 0.074513052641059827 0 -0.107475059658428 0.078725578895063097 0 -0.12253721158103251 0.10284946621916841 0 -0.12253721158103251 0.10284946621916841 0 -0.1011630358522447 0.1018243826202517 0 -0.107475059658428 0.078725578895063097 0 -0.12253721158103251 0.10284946621916841 0 -0.1011630358522447 0.1018243826202517 0 -0.12253721158103251 0.10284946621916841 0 -0.1153934773557851 0.1163257612668233 0 -0.1011630358522447 0.1018243826202517 0 -0.13365238924311981 0.1137327452711079 0 -0.12253721158103251 0.10284946621916841 0 -0.1153934773557851 0.1163257612668233 0 -0.083731371395551188 0.11686343499407981 0 -0.10123487584456491 0.1214367827406168 0 -0.099358171848043839 0.10842926889186839 0 -0.1153934773557851 0.1163257612668233 0 -0.10123487584456491 0.1214367827406168 0 -0.099358171848043839 0.10842926889186839 0 -0.1153934773557851 0.1163257612668233 0 -0.099358171848043839 0.10842926889186839 0 -0.1011630358522447 0.1018243826202517 0 -0.099358171848043839 0.10842926889186839 0 -0.1011630358522447 0.1018243826202517 0 -0.09673983842062929 0.030761090493250539 0 -0.1001996351276304 0.017057058065514389 0 -0.084497044657106127 0.02342215933849779 0 -0.10313083161275451 0.025085840363287381 0 -0.1001996351276304 0.017057058065514389 0 -0.1106912341528842 0.017429842581940819 0 -0.10313083161275451 0.025085840363287381 0 -0.09673983842062929 0.030761090493250539 0 -0.11075678684090361 0.02894564150812641 0 -0.10313083161275451 0.025085840363287381 0 -0.1106912341528842 0.017429842581940819 0 -0.11075678684090361 0.02894564150812641 0 -0.10313083161275451 0.025085840363287381 0 -0.09673983842062929 0.030761090493250539 0 -0.1001996351276304 0.017057058065514389 0 -0.1001996351276304 0.017057058065514389 0 -0.097339793965444635 0.0014702746002475051 0 -0.11513624889174549 0.0044251206728230311 0 -0.1001996351276304 0.017057058065514389 0 -0.097339793965444635 0.0014702746002475051 0 -0.08934655684875642 0.0099481384354821664 0 -0.1001996351276304 0.017057058065514389 0 -0.11513624889174549 0.0044251206728230311 0 -0.1106912341528842 0.017429842581940819 0 -0.1001996351276304 0.017057058065514389 0 -0.11513624889174549 0.0044251206728230311 0 -0.11513624889174549 0.0044251206728230311 0 -0.1219836811650646 0.011748063150332579 0 -0.1106912341528842 0.017429842581940819 0 -0.12345413124058099 -0.0026093364490894278 0 -0.11513624889174549 0.0044251206728230311 0 -0.123578269483202 -0.00085227759491413035 0 -0.11513624889174549 0.0044251206728230311 0 -0.12275838666696889 0.003568930646270774 0 -0.12345413124058099 -0.0026093364490894278 0 -0.123578269483202 -0.00085227759491413035 0 -0.11513624889174549 0.0044251206728230311 0 -0.11513624889174549 0.0044251206728230311 0 -0.12275838666696889 0.003568930646270774 0 -0.1219836811650646 0.011748063150332579 0 -0.11513624889174549 0.0044251206728230311 0 -0.1219836811650646 0.011748063150332579 0 -0.1219836811650646 0.011748063150332579 0 -0.1249195052217579 0.014887761336909061 0 -0.12652878579515359 0.0089986111617814807 0 -0.1219836811650646 0.011748063150332579 0 -0.1249195052217579 0.014887761336909061 0 -0.1249195052217579 0.014887761336909061 0 -0.12009910727080179 0.032527971444687762 0 -0.1249195052217579 0.014887761336909061 0 -0.11075678684090361 0.02894564150812641 0 -0.1166336979506287 0.030653059219259791 0 -0.1219836811650646 0.011748063150332579 0 -0.1249195052217579 0.014887761336909061 0 -0.11075678684090361 0.02894564150812641 0 -0.1219836811650646 0.011748063150332579 0 -0.1106912341528842 0.017429842581940819 0 -0.11075678684090361 0.02894564150812641 0 -0.1249195052217579 0.014887761336909061 0 -0.1166336979506287 0.030653059219259791 0 -0.12009910727080179 0.032527971444687762 0 -0.1219836811650646 0.011748063150332579 0 -0.11075678684090361 0.02894564150812641 0 -0.12009910727080179 0.032527971444687762 0 -0.1137870834646149 0.05562677516987545 0 -0.12009910727080179 0.032527971444687762 0 -0.1113989668729251 0.042328376371938578 0 -0.1137870834646149 0.05562677516987545 0 -0.137918070352859 0.042168677243141911 0 -0.12009910727080179 0.032527971444687762 0 -0.1137870834646149 0.05562677516987545 0 -0.1166336979506287 0.030653059219259791 0 -0.12009910727080179 0.032527971444687762 0 -0.1166336979506287 0.030653059219259791 0 -0.12009910727080179 0.032527971444687762 0 -0.1116836902904008 0.036119653681986809 0 -0.12009910727080179 0.032527971444687762 0 -0.1113989668729251 0.042328376371938578 0 -0.1116836902904008 0.036119653681986809 0 -0.11075678684090361 0.02894564150812641 0 -0.1166336979506287 0.030653059219259791 0 -0.1116836902904008 0.036119653681986809 0 -0.088302998192585441 0.063340798223716577 0 -0.1013403021764709 0.05978660543920275 0 -0.099529892516744545 0.046143219865921493 0 -0.088302998192585441 0.063340798223716577 0 -0.099529892516744545 0.046143219865921493 0 -0.1137870834646149 0.05562677516987545 0 -0.1013403021764709 0.05978660543920275 0 -0.099529892516744545 0.046143219865921493 0 -0.1113989668729251 0.042328376371938578 0 -0.1137870834646149 0.05562677516987545 0 -0.099529892516744545 0.046143219865921493 0 -0.09673983842062929 0.030761090493250539 0 -0.11075678684090361 0.02894564150812641 0 -0.099529892516744545 0.046143219865921493 0 -0.11075678684090361 0.02894564150812641 0 -0.099529892516744545 0.046143219865921493 0 -0.11075678684090361 0.02894564150812641 0 -0.1116836902904008 0.036119653681986809 0 -0.099529892516744545 0.046143219865921493 0 -0.1113989668729251 0.042328376371938578 0 -0.1116836902904008 0.036119653681986809 0 -0.099529892516744545 0.046143219865921493 0 -0.09673983842062929 0.030761090493250539 0 -0.099529892516744545 0.046143219865921493 0 -0.085567274007828847 0.037920219164345438 0 -0.099529892516744545 0.046143219865921493 0 -0.085567274007828847 0.037920219164345438 0 -0.084377623838503946 0.049400370162749223 0 -0.085567274007828847 0.037920219164345438 0 -0.084377623838503946 0.049400370162749223 0 -0.07434952427882649 0.044896778585211801 0 -0.085567274007828847 0.037920219164345438 0 -0.075670869246735051 0.034464574546532477 0 -0.07434952427882649 0.044896778585211801 0 -0.085567274007828847 0.037920219164345438 0 -0.075670869246735051 0.034464574546532477 0 -0.084497044657106127 0.02342215933849779 0 -0.088302998192585441 0.063340798223716577 0 -0.099529892516744545 0.046143219865921493 0 -0.084377623838503946 0.049400370162749223 0 -0.088302998192585441 0.063340798223716577 0 -0.084377623838503946 0.049400370162749223 0 -0.074138430196534391 0.054700834974550777 0 -0.070809235509737084 0.065682480913414165 0 -0.088302998192585441 0.063340798223716577 0 -0.074138430196534391 0.054700834974550777 0 -0.074138430196534391 0.054700834974550777 0 -0.065541666301821025 0.048375943748559962 0 -0.07434952427882649 0.044896778585211801 0 -0.084377623838503946 0.049400370162749223 0 -0.074138430196534391 0.054700834974550777 0 -0.07434952427882649 0.044896778585211801 0 -0.065541666301821025 0.048375943748559962 0 -0.065396115895012222 0.056120773366299483 0 -0.056878176397121311 0.048586682070888447 0 -0.074138430196534391 0.054700834974550777 0 -0.065541666301821025 0.048375943748559962 0 -0.065396115895012222 0.056120773366299483 0 -0.06022027583527069 0.063439461097245547 0 -0.070809235509737084 0.065682480913414165 0 -0.065396115895012222 0.056120773366299483 0 -0.070809235509737084 0.065682480913414165 0 -0.074138430196534391 0.054700834974550777 0 -0.065396115895012222 0.056120773366299483 0 -0.06836725324116763 0.02592980279208015 0 -0.056878176397121311 0.048586682070888447 0 -0.065573250048746257 0.040153912852527271 0 -0.06836725324116763 0.02592980279208015 0 -0.056878176397121311 0.048586682070888447 0 -0.075670869246735051 0.034464574546532477 0 -0.07434952427882649 0.044896778585211801 0 -0.065573250048746257 0.040153912852527271 0 -0.065541666301821025 0.048375943748559962 0 -0.065573250048746257 0.040153912852527271 0 -0.056878176397121311 0.048586682070888447 0 -0.065541666301821025 0.048375943748559962 0 -0.07434952427882649 0.044896778585211801 0 -0.065573250048746257 0.040153912852527271 0 -0.065573250048746257 0.040153912852527271 0 -0.06836725324116763 0.02592980279208015 0 -0.075670869246735051 0.034464574546532477 0 -0.065573250048746257 0.040153912852527271 0 -0.06836725324116763 0.02592980279208015 0 -0.06836725324116763 0.02592980279208015 0 -0.084497044657106127 0.02342215933849779 0 -0.077557311163558393 0.007806672819215767 0 -0.075670869246735051 0.034464574546532477 0 -0.06836725324116763 0.02592980279208015 0 -0.084497044657106127 0.02342215933849779 0 -0.06836725324116763 0.02592980279208015 0 -0.077557311163558393 0.007806672819215767 0 -0.1001996351276304 0.017057058065514389 0 -0.084497044657106127 0.02342215933849779 0 -0.08934655684875642 0.0099481384354821664 0 -0.09673983842062929 0.030761090493250539 0 -0.085567274007828847 0.037920219164345438 0 -0.084497044657106127 0.02342215933849779 0 -0.097339793965444635 0.0014702746002475051 0 -0.08774775776592722 0.00222715717532423 0 -0.08934655684875642 0.0099481384354821664 0 -0.084497044657106127 0.02342215933849779 0 -0.08934655684875642 0.0099481384354821664 0 -0.077557311163558393 0.007806672819215767 0 -0.08774775776592722 0.00222715717532423 0 -0.08934655684875642 0.0099481384354821664 0 -0.077557311163558393 0.007806672819215767 0 -0.074172204535923519 -0.003622871426795779 0 -0.06836725324116763 0.02592980279208015 0 -0.074172204535923519 -0.003622871426795779 0 -0.06836725324116763 0.02592980279208015 0 -0.062324866257127159 0.01030051266141619 0 -0.074172204535923519 -0.003622871426795779 0 -0.06836725324116763 0.02592980279208015 0 -0.077557311163558393 0.007806672819215767 0 -0.074172204535923519 -0.003622871426795779 0 -0.062621954844513841 0.00016814050181585479 0 -0.062324866257127159 0.01030051266141619 0 -0.053767449513817532 -0.0095357650378190655 0 -0.05297021437178339 0.0075589418943471549 0 -0.042758837776374868 0.0032432525641449832 0 -0.062621954844513841 0.00016814050181585479 0 -0.05297021437178339 0.0075589418943471549 0 -0.062324866257127159 0.01030051266141619 0 -0.05297021437178339 0.0075589418943471549 0 -0.053492704292247388 0.02146854954563357 0 -0.043091985461061827 0.014697298721561679 0 -0.05297021437178339 0.0075589418943471549 0 -0.062324866257127159 0.01030051266141619 0 -0.053492704292247388 0.02146854954563357 0 -0.06836725324116763 0.02592980279208015 0 -0.053492704292247388 0.02146854954563357 0 -0.05323457775922405 0.039889699816723648 0 -0.053492704292247388 0.02146854954563357 0 -0.040376933371277117 0.027954201385500279 0 -0.05323457775922405 0.039889699816723648 0 -0.06836725324116763 0.02592980279208015 0 -0.062324866257127159 0.01030051266141619 0 -0.053492704292247388 0.02146854954563357 0 -0.053492704292247388 0.02146854954563357 0 -0.040376933371277117 0.027954201385500279 0 -0.043091985461061827 0.014697298721561679 0 -0.040376933371277117 0.027954201385500279 0 -0.02751928898333101 0.016018702954275921 0 -0.040376933371277117 0.027954201385500279 0 -0.043091985461061827 0.014697298721561679 0 -0.02751928898333101 0.016018702954275921 0 -0.036445250551881428 -0.01252291571164172 0 -0.02751928898333101 0.016018702954275921 0 -0.042758837776374868 0.0032432525641449832 0 -0.043091985461061827 0.014697298721561679 0 -0.02751928898333101 0.016018702954275921 0 -0.036445250551881428 -0.01252291571164172 0 -0.042758837776374868 0.0032432525641449832 0 -0.02751928898333101 0.016018702954275921 0 -0.05297021437178339 0.0075589418943471549 0 -0.042758837776374868 0.0032432525641449832 0 -0.043091985461061827 0.014697298721561679 0 -0.045389099553075268 0.071243561349696921 0 -0.056878176397121311 0.048586682070888447 0 -0.0454568169123757 0.055557041144208091 0 -0.045389099553075268 0.071243561349696921 0 -0.056878176397121311 0.048586682070888447 0 -0.06022027583527069 0.063439461097245547 0 -0.054521347318721138 0.068097621332371877 0 -0.056878176397121311 0.048586682070888447 0 -0.06022027583527069 0.063439461097245547 0 -0.065396115895012222 0.056120773366299483 0 -0.056878176397121311 0.048586682070888447 0 -0.056878176397121311 0.048586682070888447 0 -0.04454056385476346 0.047944224525151929 0 -0.0454568169123757 0.055557041144208091 0 -0.06836725324116763 0.02592980279208015 0 -0.056878176397121311 0.048586682070888447 0 -0.05323457775922405 0.039889699816723648 0 -0.056878176397121311 0.048586682070888447 0 -0.05323457775922405 0.039889699816723648 0 -0.04454056385476346 0.047944224525151929 0 -0.05323457775922405 0.039889699816723648 0 -0.037473563545446689 0.040689145495217661 0 -0.04454056385476346 0.047944224525151929 0 -0.040376933371277117 0.027954201385500279 0 -0.037473563545446689 0.040689145495217661 0 -0.02237102908190958 0.032480758024871562 0 -0.040376933371277117 0.027954201385500279 0 -0.05323457775922405 0.039889699816723648 0 -0.037473563545446689 0.040689145495217661 0 -0.040376933371277117 0.027954201385500279 0 -0.05323457775922405 0.039889699816723648 0 -0.045389099553075268 0.071243561349696921 0 -0.032474655659237933 0.054820264473603553 0 -0.0454568169123757 0.055557041144208091 0 -0.04454056385476346 0.047944224525151929 0 -0.032474655659237933 0.054820264473603553 0 -0.0454568169123757 0.055557041144208091 0 -0.037473563545446689 0.040689145495217661 0 -0.04454056385476346 0.047944224525151929 0 -0.032474655659237933 0.054820264473603553 0 -0.032474655659237933 0.054820264473603553 0 -0.02237102908190958 0.032480758024871562 0 -0.01384598267433274 0.059740411991078192 0 -0.02737899902541507 0.070677749965705902 0 -0.032474655659237933 0.054820264473603553 0 -0.01384598267433274 0.059740411991078192 0 -0.02237102908190958 0.032480758024871562 0 -0.01384598267433274 0.059740411991078192 0 -0.02237102908190958 0.032480758024871562 0 -0.01103577335376028 0.038326959813821622 0 -0.01384598267433274 0.059740411991078192 0 -0.037473563545446689 0.040689145495217661 0 -0.032474655659237933 0.054820264473603553 0 -0.02237102908190958 0.032480758024871562 0 -0.032474655659237933 0.054820264473603553 0 -0.02237102908190958 0.032480758024871562 0 -0.01103577335376028 0.038326959813821622 0 0.0088136187659860008 0.030537050573206579 0 0.0017752120971553959 0.044631177892322342 0 -0.01103577335376028 0.038326959813821622 0 -0.01384598267433274 0.059740411991078192 0 -0.01103577335376028 0.038326959813821622 0 -0.01384598267433274 0.059740411991078192 0 0.0017752120971553959 0.044631177892322342 0 -2.5756374584902361e-05 0.058314793878570151 0 -0.01384598267433274 0.059740411991078192 0 0.0017752120971553959 0.044631177892322342 0 -0.0037838957382719169 0.066525822972718501 0 -2.5756374584902361e-05 0.058314793878570151 0 -0.01384598267433274 0.059740411991078192 0 -0.0054153547126200878 -0.004499944540692094 0 -0.02751928898333101 0.016018702954275921 0 -0.014230779199093839 0.01448235286217351 0 -0.036445250551881428 -0.01252291571164172 0 -0.022670329290189958 -0.0019576409730586298 0 -0.02751928898333101 0.016018702954275921 0 -0.022670329290189958 -0.0019576409730586298 0 -0.0054153547126200878 -0.004499944540692094 0 -0.02751928898333101 0.016018702954275921 0 -0.0054153547126200878 -0.004499944540692094 0 -0.02751928898333101 0.016018702954275921 0 -0.040376933371277117 0.027954201385500279 0 -0.02237102908190958 0.032480758024871562 0 -0.02751928898333101 0.016018702954275921 0 -0.02237102908190958 0.032480758024871562 0 -0.02751928898333101 0.016018702954275921 0 -0.02237102908190958 0.032480758024871562 0 -0.014230779199093839 0.01448235286217351 0 -0.02237102908190958 0.032480758024871562 0 -0.02751928898333101 0.016018702954275921 0 -0.014230779199093839 0.01448235286217351 0 -0.02237102908190958 0.032480758024871562 0 -0.0082255640331907083 0.01691350763656467 0 -0.014230779199093839 0.01448235286217351 0 -0.01103577335376028 0.038326959813821622 0 -0.0082255640331907083 0.01691350763656467 0 0.0088136187659860008 0.030537050573206579 0 -0.02237102908190958 0.032480758024871562 0 -0.01103577335376028 0.038326959813821622 0 -0.0082255640331907083 0.01691350763656467 0 -0.01103577335376028 0.038326959813821622 0 -0.0082255640331907083 0.01691350763656467 0 -0.0054153547126200878 -0.004499944540692094 0 -0.0082255640331907083 0.01691350763656467 0 -0.014230779199093839 0.01448235286217351 0 -0.0054153547126200878 -0.004499944540692094 0 -0.0082255640331907083 0.01691350763656467 0 -0.0054153547126200878 -0.004499944540692094 0 -0.014230779199093839 0.01448235286217351 0 -0.0054153547126200878 -0.004499944540692094 0 -0.0082255640331907083 0.01691350763656467 0 0.007737179087918814 0.0097710316486944119 0 -0.0054153547126200878 -0.004499944540692094 0 0.007737179087918814 0.0097710316486944119 0 0.01683772057632647 -0.0051461828340893922 0 -0.0082255640331907083 0.01691350763656467 0 0.007737179087918814 0.0097710316486944119 0 0.0088136187659860008 0.030537050573206579 0 0.007737179087918814 0.0097710316486944119 0 0.0088136187659860008 0.030537050573206579 0 0.02667547484309345 0.011050727408482451 0 0.0088136187659860008 0.030537050573206579 0 0.02667547484309345 0.011050727408482451 0 0.030513634465390752 0.038936794419736603 0 0.007737179087918814 0.0097710316486944119 0 0.02667547484309345 0.011050727408482451 0 0.01683772057632647 -0.0051461828340893922 0 -2.5756374584902361e-05 0.058314793878570151 0 0.013700617079263551 0.050758947637931491 0 0.010018614901782231 0.067473585411103487 0 -2.5756374584902361e-05 0.058314793878570151 0 0.013700617079263551 0.050758947637931491 0 0.0017752120971553959 0.044631177892322342 0 0.0088136187659860008 0.030537050573206579 0 0.013700617079263551 0.050758947637931491 0 0.0017752120971553959 0.044631177892322342 0 0.0088136187659860008 0.030537050573206579 0 0.013700617079263551 0.050758947637931491 0 0.030513634465390752 0.038936794419736603 0 0.013700617079263551 0.050758947637931491 0 0.034150883266255441 0.068423238895632371 0 0.010018614901782231 0.067473585411103487 0 0.013700617079263551 0.050758947637931491 0 0.030513634465390752 0.038936794419736603 0 0.034150883266255441 0.068423238895632371 0 0.030513634465390752 0.038936794419736603 0 0.051323255725444217 0.050677714204711642 0 0.034150883266255441 0.068423238895632371 0 0.051323255725444217 0.050677714204711642 0 0.034150883266255441 0.068423238895632371 0 0.030513634465390752 0.038936794419736603 0 0.051323255725444217 0.050677714204711642 0 0.049637778212275448 0.02411296560457641 0 0.051323255725444217 0.050677714204711642 0 0.068495628184633034 0.032932189513790878 0 0.051323255725444217 0.050677714204711642 0 0.049637778212275448 0.02411296560457641 0 0.068495628184633034 0.032932189513790878 0 0.051323255725444217 0.050677714204711642 0 0.070827235171898387 0.052917080391761309 0 0.056404276934410358 0.073073121746886058 0 0.02667547484309345 0.011050727408482451 0 0.059776520656627981 0.003056059375832032 0 0.039472356190468447 -0.0096960632835737613 0 0.02667547484309345 0.011050727408482451 0 0.049637778212275448 0.02411296560457641 0 0.059776520656627981 0.003056059375832032 0 0.02667547484309345 0.011050727408482451 0 0.030513634465390752 0.038936794419736603 0 0.049637778212275448 0.02411296560457641 0 0.049637778212275448 0.02411296560457641 0 0.065894481924339471 0.018821969829267239 0 0.068495628184633034 0.032932189513790878 0 0.049637778212275448 0.02411296560457641 0 0.059776520656627981 0.003056059375832032 0 0.065894481924339471 0.018821969829267239 0 0.059776520656627981 0.003056059375832032 0 0.085668000643821435 0.01518666482286964 0 0.059776520656627981 0.003056059375832032 0 0.077223083901312925 0.0014125193684112081 0 0.085668000643821435 0.01518666482286964 0 0.059776520656627981 0.003056059375832032 0 0.085668000643821435 0.01518666482286964 0 0.065894481924339471 0.018821969829267239 0 0.077223083901312925 0.0014125193684112081 0 0.089119929176642396 0.01161952329038587 0 0.08996039967402443 0.00097647457745585003 0 0.077223083901312925 0.0014125193684112081 0 0.085668000643821435 0.01518666482286964 0 0.089119929176642396 0.01161952329038587 0 0.085668000643821435 0.01518666482286964 0 0.089119929176642396 0.01161952329038587 0 0.089119929176642396 0.01161952329038587 0 0.08996039967402443 0.00097647457745585003 0 0.099565667544075837 0.0050497816632932577 0 0.085668000643821435 0.01518666482286964 0 0.09156116244205835 0.03043311517904217 0 0.068495628184633034 0.032932189513790878 0 0.085668000643821435 0.01518666482286964 0 0.068495628184633034 0.032932189513790878 0 0.085668000643821435 0.01518666482286964 0 0.065894481924339471 0.018821969829267239 0 0.068495628184633034 0.032932189513790878 0 0.068495628184633034 0.032932189513790878 0 0.070827235171898387 0.052917080391761309 0 0.087356157680730212 0.045677471987011227 0 0.051323255725444217 0.050677714204711642 0 0.068495628184633034 0.032932189513790878 0 0.070827235171898387 0.052917080391761309 0 0.070827235171898387 0.052917080391761309 0 0.091849024648107028 0.060497349011966739 0 0.087356157680730212 0.045677471987011227 0 0.070827235171898387 0.052917080391761309 0 0.091849024648107028 0.060497349011966739 0 0.077983767705560786 0.06928384401656254 0 0.09156116244205835 0.03043311517904217 0 0.068495628184633034 0.032932189513790878 0 0.087356157680730212 0.045677471987011227 0 0.09156116244205835 0.03043311517904217 0 0.104668983364815 0.044627456873352858 0 0.107047741425327 0.025203442546992201 0 0.09156116244205835 0.03043311517904217 0 0.087356157680730212 0.045677471987011227 0 0.104668983364815 0.044627456873352858 0 0.091849024648107028 0.060497349011966739 0 0.087356157680730212 0.045677471987011227 0 0.104668983364815 0.044627456873352858 0 0.091849024648107028 0.060497349011966739 0 0.104668983364815 0.044627456873352858 0 0.1060906476521236 0.061973766398062652 0 0.104668983364815 0.044627456873352858 0 0.1060906476521236 0.061973766398062652 0 0.12035066749852701 0.053386832719278653 0 0.1060906476521236 0.061973766398062652 0 0.12035066749852701 0.053386832719278653 0 0.1158295755014538 0.06737906578124761 0 0.12035066749852701 0.053386832719278653 0 0.1158295755014538 0.06737906578124761 0 0.12856208893244769 0.066405694334864096 0 0.104668983364815 0.044627456873352858 0 0.12035066749852701 0.053386832719278653 0 0.1284274822068317 0.035220220271116438 0 0.104668983364815 0.044627456873352858 0 0.107047741425327 0.025203442546992201 0 0.1284274822068317 0.035220220271116438 0 0.1210563824489856 0.023128270427769809 0 0.1140172734025723 0.0038083816366286049 0 0.13508849082785329 0.02121821883217433 0 0.1210563824489856 0.023128270427769809 0 0.107047741425327 0.025203442546992201 0 0.1284274822068317 0.035220220271116438 0 0.1210563824489856 0.023128270427769809 0 0.1140172734025723 0.0038083816366286049 0 0.107047741425327 0.025203442546992201 0 0.107047741425327 0.025203442546992201 0 0.1284274822068317 0.035220220271116438 0 0.1140172734025723 0.0038083816366286049 0 0.13508849082785329 0.02121821883217433 0 0.089119929176642396 0.01161952329038587 0 0.099565667544075837 0.0050497816632932577 0 0.107047741425327 0.025203442546992201 0 0.1140172734025723 0.0038083816366286049 0 0.099565667544075837 0.0050497816632932577 0 0.107047741425327 0.025203442546992201 0 0.085668000643821435 0.01518666482286964 0 0.107047741425327 0.025203442546992201 0 0.085668000643821435 0.01518666482286964 0 0.089119929176642396 0.01161952329038587 0 0.107047741425327 0.025203442546992201 0 0.085668000643821435 0.01518666482286964 0 0.09156116244205835 0.03043311517904217 0 0.107047741425327 0.025203442546992201 0 0.1083964795917054 0.094464896193731662 0 0.096285408309030526 0.10200324553671949 0 0.1220588612501409 0.091118888825217098 0 0.096285408309030526 0.10200324553671949 0 0.1220588612501409 0.091118888825217098 0 0.096285408309030526 0.10200324553671949 0 0.1036706905028469 0.1098448118072038 0 0.1113994272777963 0.1043781773538088 0 0.1036706905028469 0.1098448118072038 0 0.1100602903776684 0.1111601512633161 0 0.1113994272777963 0.1043781773538088 0 0.1083964795917054 0.094464896193731662 0 0.096285408309030526 0.10200324553671949 0 0.09387692206444273 0.092470465794147597 0 0.096285408309030526 0.10200324553671949 0 0.096953054785149984 0.1138007433397598 0 0.1036706905028469 0.1098448118072038 0 0.096953054785149984 0.1138007433397598 0 0.09503260243580941 0.12400804428531501 0 0.104710853992589 0.1177120378564709 0 0.104710853992589 0.1177120378564709 0 0.1159157623772538 0.1206746914452211 0 0.1072460175074206 0.12933583234744811 0 0.09503260243580941 0.12400804428531501 0 0.104710853992589 0.1177120378564709 0 0.1072460175074206 0.12933583234744811 0 0.096953054785149984 0.1138007433397598 0 0.104710853992589 0.1177120378564709 0 0.1036706905028469 0.1098448118072038 0 0.104710853992589 0.1177120378564709 0 0.1036706905028469 0.1098448118072038 0 0.1100602903776684 0.1111601512633161 0 0.1100602903776684 0.1111601512633161 0 0.1159157623772538 0.1206746914452211 0 0.118210004888039 0.11069481785159541 0 0.104710853992589 0.1177120378564709 0 0.1100602903776684 0.1111601512633161 0 0.1159157623772538 0.1206746914452211 0 0.1159157623772538 0.1206746914452211 0 0.12429625959685089 0.1155341807121988 0 0.12545578104020799 0.12558907474460859 0 0.118210004888039 0.11069481785159541 0 0.12429625959685089 0.1155341807121988 0 0.12830555969957891 0.1072640177883066 0 0.1159157623772538 0.1206746914452211 0 0.118210004888039 0.11069481785159541 0 0.12429625959685089 0.1155341807121988 0 0.118210004888039 0.11069481785159541 0 0.1211940693946167 0.10270492311628369 0 0.12830555969957891 0.1072640177883066 0 0.096285408309030526 0.10200324553671949 0 0.1113994272777963 0.1043781773538088 0 0.1220588612501409 0.091118888825217098 0 0.1100602903776684 0.1111601512633161 0 0.118210004888039 0.11069481785159541 0 0.1113994272777963 0.1043781773538088 0 0.118210004888039 0.11069481785159541 0 0.1211940693946167 0.10270492311628369 0 0.1113994272777963 0.1043781773538088 0 0.1211940693946167 0.10270492311628369 0 0.1220588612501409 0.091118888825217098 0 0.1266186537300418 0.099601326921232469 0 0.1211940693946167 0.10270492311628369 0 0.1113994272777963 0.1043781773538088 0 0.1220588612501409 0.091118888825217098 0 0.1220588612501409 0.091118888825217098 0 0.1212672627232791 0.082298732965182725 0 0.11711408725055281 0.085358758694931675 0 0.1212672627232791 0.082298732965182725 0 0.1151156740060153 0.081882419759679234 0 0.1207320540130917 0.07414893302055181 0 0.1212672627232791 0.082298732965182725 0 0.1207320540130917 0.07414893302055181 0 0.13172058213017759 0.077953325581359478 0 0.1212672627232791 0.082298732965182725 0 0.11711408725055281 0.085358758694931675 0 0.1151156740060153 0.081882419759679234 0 0.11711408725055281 0.085358758694931675 0 0.1151156740060153 0.081882419759679234 0 0.11001455102277589 0.086134993229647655 0 0.1151156740060153 0.081882419759679234 0 0.1128612543088259 0.076807931032463306 0 0.10885263738550351 0.080710360444995785 0 0.1151156740060153 0.081882419759679234 0 0.11001455102277589 0.086134993229647655 0 0.10885263738550351 0.080710360444995785 0 0.1220588612501409 0.091118888825217098 0 0.11711408725055281 0.085358758694931675 0 0.11001455102277589 0.086134993229647655 0 0.1207320540130917 0.07414893302055181 0 0.1158295755014538 0.06737906578124761 0 0.12856208893244769 0.066405694334864096 0 0.1128612543088259 0.076807931032463306 0 0.1158295755014538 0.06737906578124761 0 0.10408034977974499 0.075429056258734112 0 0.1151156740060153 0.081882419759679234 0 0.1207320540130917 0.07414893302055181 0 0.1128612543088259 0.076807931032463306 0 0.1207320540130917 0.07414893302055181 0 0.1128612543088259 0.076807931032463306 0 0.1158295755014538 0.06737906578124761 0 0.1060906476521236 0.061973766398062652 0 0.1158295755014538 0.06737906578124761 0 0.10408034977974499 0.075429056258734112 0 0.1128612543088259 0.076807931032463306 0 0.10408034977974499 0.075429056258734112 0 0.10885263738550351 0.080710360444995785 0 0.1060906476521236 0.061973766398062652 0 0.10408034977974499 0.075429056258734112 0 0.094232434072178975 0.073960466401819303 0 0.10408034977974499 0.075429056258734112 0 0.094232434072178975 0.073960466401819303 0 0.10219135781015561 0.083297401944454563 0 0.091849024648107028 0.060497349011966739 0 0.1060906476521236 0.061973766398062652 0 0.094232434072178975 0.073960466401819303 0 0.1083964795917054 0.094464896193731662 0 0.1220588612501409 0.091118888825217098 0 0.09387692206444273 0.092470465794147597 0 0.11001455102277589 0.086134993229647655 0 0.10219135781015561 0.083297401944454563 0 0.09387692206444273 0.092470465794147597 0 0.1220588612501409 0.091118888825217098 0 0.09387692206444273 0.092470465794147597 0 0.1220588612501409 0.091118888825217098 0 0.11001455102277589 0.086134993229647655 0 0.09387692206444273 0.092470465794147597 0 0.11001455102277589 0.086134993229647655 0 0.10219135781015561 0.083297401944454563 0 0.10885263738550351 0.080710360444995785 0 0.10408034977974499 0.075429056258734112 0 0.10219135781015561 0.083297401944454563 0 0.10885263738550351 0.080710360444995785 0 0.094232434072178975 0.073960466401819303 0 0.10219135781015561 0.083297401944454563 0 0.093181758210827692 0.082982119600863422 0 0.10219135781015561 0.083297401944454563 0 0.09387692206444273 0.092470465794147597 0 0.093181758210827692 0.082982119600863422 0 0.09387692206444273 0.092470465794147597 0 0.08242631889653354 0.082200144263032168 0 0.065694982878744479 0.093822042763078095 0 0.09387692206444273 0.092470465794147597 0 0.065694982878744479 0.093822042763078095 0 0.094232434072178975 0.073960466401819303 0 0.093181758210827692 0.082982119600863422 0 0.08242631889653354 0.082200144263032168 0 0.09387692206444273 0.092470465794147597 0 0.093181758210827692 0.082982119600863422 0 0.08242631889653354 0.082200144263032168 0 0.091849024648107028 0.060497349011966739 0 0.094232434072178975 0.073960466401819303 0 0.077983767705560786 0.06928384401656254 0 0.094232434072178975 0.073960466401819303 0 0.08242631889653354 0.082200144263032168 0 0.077983767705560786 0.06928384401656254 0 0.070827235171898387 0.052917080391761309 0 0.077983767705560786 0.06928384401656254 0 0.056404276934410358 0.073073121746886058 0 0.077983767705560786 0.06928384401656254 0 0.069324984979664217 0.07990096032649141 0 0.056404276934410358 0.073073121746886058 0 0.08242631889653354 0.082200144263032168 0 0.077983767705560786 0.06928384401656254 0 0.069324984979664217 0.07990096032649141 0 0.08242631889653354 0.082200144263032168 0 0.069324984979664217 0.07990096032649141 0 0.065694982878744479 0.093822042763078095 0 0.069324984979664217 0.07990096032649141 0 0.065694982878744479 0.093822042763078095 0 0.056404276934410358 0.073073121746886058 0 0.065694982878744479 0.093822042763078095 0 0.071206089874853773 0.1117395064545965 0 0.053621345580901092 0.1036125044727802 0 0.065694982878744479 0.093822042763078095 0 0.081352062306882564 0.10070555591128 0 0.071206089874853773 0.1117395064545965 0 0.096285408309030526 0.10200324553671949 0 0.071206089874853773 0.1117395064545965 0 0.096285408309030526 0.10200324553671949 0 0.081352062306882564 0.10070555591128 0 0.071206089874853773 0.1117395064545965 0 0.09387692206444273 0.092470465794147597 0 0.065694982878744479 0.093822042763078095 0 0.081352062306882564 0.10070555591128 0 0.096285408309030526 0.10200324553671949 0 0.09387692206444273 0.092470465794147597 0 0.081352062306882564 0.10070555591128 0 0.087176883141472983 0.11509616984120161 0 0.071206089874853773 0.1117395064545965 0 0.081832243628569959 0.13045125548124289 0 0.096285408309030526 0.10200324553671949 0 0.087176883141472983 0.11509616984120161 0 0.071206089874853773 0.1117395064545965 0 0.096953054785149984 0.1138007433397598 0 0.09503260243580941 0.12400804428531501 0 0.087176883141472983 0.11509616984120161 0 0.09503260243580941 0.12400804428531501 0 0.087176883141472983 0.11509616984120161 0 0.081832243628569959 0.13045125548124289 0 0.096285408309030526 0.10200324553671949 0 0.096953054785149984 0.1138007433397598 0 0.087176883141472983 0.11509616984120161 0 0.071206089874853773 0.1117395064545965 0 0.081832243628569959 0.13045125548124289 0 0.063421746438209997 0.12989875110768509 0 0.071206089874853773 0.1117395064545965 0 0.046126771440677457 0.1214757673724743 0 0.063421746438209997 0.12989875110768509 0 0.071206089874853773 0.1117395064545965 0 0.052046228494151817 0.1126639186237188 0 0.046126771440677457 0.1214757673724743 0 0.071206089874853773 0.1117395064545965 0 0.046126771440677457 0.1214757673724743 0 0.052046228494151817 0.1126639186237188 0 0.046126771440677457 0.1214757673724743 0 0.045952863055702071 0.1183586318185486 0 0.052046228494151817 0.1126639186237188 0 0.043324072518624718 0.1081331830001947 0 0.045952863055702071 0.1183586318185486 0 0.065694982878744479 0.093822042763078095 0 0.053621345580901092 0.1036125044727802 0 0.037513043693046248 0.095173619732008607 0 0.065694982878744479 0.093822042763078095 0 0.037513043693046248 0.095173619732008607 0 0.071206089874853773 0.1117395064545965 0 0.052046228494151817 0.1126639186237188 0 0.053621345580901092 0.1036125044727802 0 0.052046228494151817 0.1126639186237188 0 0.053621345580901092 0.1036125044727802 0 0.043324072518624718 0.1081331830001947 0 0.053621345580901092 0.1036125044727802 0 0.043324072518624718 0.1081331830001947 0 0.037513043693046248 0.095173619732008607 0 0.043324072518624718 0.1081331830001947 0 0.037513043693046248 0.095173619732008607 0 0.02965632833015416 0.1122017217506847 0 0.046126771440677457 0.1214757673724743 0 0.02965632833015416 0.1122017217506847 0 0.023367006524189379 0.13031153419117961 0 0.043324072518624718 0.1081331830001947 0 0.045952863055702071 0.1183586318185486 0 0.02965632833015416 0.1122017217506847 0 0.046126771440677457 0.1214757673724743 0 0.045952863055702071 0.1183586318185486 0 0.02965632833015416 0.1122017217506847 0 0.046126771440677457 0.1214757673724743 0 0.045952863055702071 0.1183586318185486 0 0.051323255725444217 0.050677714204711642 0 0.056404276934410358 0.073073121746886058 0 0.034150883266255441 0.068423238895632371 0 0.065694982878744479 0.093822042763078095 0 0.037513043693046248 0.095173619732008607 0 0.056404276934410358 0.073073121746886058 0 0.037513043693046248 0.095173619732008607 0 0.056404276934410358 0.073073121746886058 0 0.034150883266255441 0.068423238895632371 0 0.034150883266255441 0.068423238895632371 0 0.021577769270398079 0.082330057064175538 0 0.010018614901782231 0.067473585411103487 0 0.037513043693046248 0.095173619732008607 0 0.021577769270398079 0.082330057064175538 0 0.0093311045073480176 0.096525196700939092 0 0.037513043693046248 0.095173619732008607 0 0.034150883266255441 0.068423238895632371 0 0.021577769270398079 0.082330057064175538 0 -0.00094889743930686083 0.080449308883767265 0 0.021577769270398079 0.082330057064175538 0 0.0093311045073480176 0.096525196700939092 0 -0.00094889743930686083 0.080449308883767265 0 0.021577769270398079 0.082330057064175538 0 0.010018614901782231 0.067473585411103487 0 -0.0037838957382719169 0.066525822972718501 0 -0.00094889743930686083 0.080449308883767265 0 0.010018614901782231 0.067473585411103487 0 -0.0037838957382719169 0.066525822972718501 0 -2.5756374584902361e-05 0.058314793878570151 0 0.010018614901782231 0.067473585411103487 0 0.02965632833015416 0.1122017217506847 0 0.0014876795655749909 0.1175593862523763 0 0.023367006524189379 0.13031153419117961 0 0.037513043693046248 0.095173619732008607 0 0.02965632833015416 0.1122017217506847 0 0.0093311045073480176 0.096525196700939092 0 0.037513043693046248 0.095173619732008607 0 0.0093311045073480176 0.096525196700939092 0 0.02965632833015416 0.1122017217506847 0 0.0093311045073480176 0.096525196700939092 0 0.0014876795655749909 0.1175593862523763 0 0.0014876795655749909 0.1175593862523763 0 0.00060724160770164737 0.1391473010098859 0 0.023367006524189379 0.13031153419117961 0 0.00060724160770164737 0.1391473010098859 0 0.023367006524189379 0.13031153419117961 0 0.013907058752674169 0.14649211359808079 0 0.00060724160770164737 0.1391473010098859 0 0.023367006524189379 0.13031153419117961 0 0.023367006524189379 0.13031153419117961 0 0.029976055700820559 0.1496702395383491 0 0.036983361551811783 0.1355537433053606 0 0.023367006524189379 0.13031153419117961 0 0.029976055700820559 0.1496702395383491 0 0.013907058752674169 0.14649211359808079 0 0.029976055700820559 0.1496702395383491 0 0.013907058752674169 0.14649211359808079 0 0.013735025606090729 0.1598543123039613 0 0.013907058752674169 0.14649211359808079 0 0.0019659200932441311 0.15334109372563759 0 0.013735025606090729 0.1598543123039613 0 0.00060724160770164737 0.1391473010098859 0 0.013907058752674169 0.14649211359808079 0 0.0019659200932441311 0.15334109372563759 0 0.0019659200932441311 0.15334109372563759 0 3.2029427356376078e-05 0.16713249641365691 0 0.013735025606090729 0.1598543123039613 0 3.2029427356376078e-05 0.16713249641365691 0 0.013735025606090729 0.1598543123039613 0 0.012488667871597459 0.17335944429204581 0 -0.0079130973513044552 0.17958405798156679 0 3.2029427356376078e-05 0.16713249641365691 0 0.012488667871597459 0.17335944429204581 0 -0.0079130973513044552 0.17958405798156679 0 0.012488667871597459 0.17335944429204581 0 0.01253988948996917 0.19105960002002359 0 0.012488667871597459 0.17335944429204581 0 0.031213590245001869 0.18157844847629051 0 0.012488667871597459 0.17335944429204581 0 0.031213590245001869 0.18157844847629051 0 0.01253988948996917 0.19105960002002359 0 0.012488667871597459 0.17335944429204581 0 0.031213590245001869 0.18157844847629051 0 0.027216254329868409 0.16629720043503221 0 0.029976055700820559 0.1496702395383491 0 0.013735025606090729 0.1598543123039613 0 0.027216254329868409 0.16629720043503221 0 0.013735025606090729 0.1598543123039613 0 0.012488667871597459 0.17335944429204581 0 0.027216254329868409 0.16629720043503221 0 0.029976055700820559 0.1496702395383491 0 0.027216254329868409 0.16629720043503221 0 0.048667932225831427 0.16702355756451431 0 0.031213590245001869 0.18157844847629051 0 0.027216254329868409 0.16629720043503221 0 0.048667932225831427 0.16702355756451431 0 0.031213590245001869 0.18157844847629051 0 0.048667932225831427 0.16702355756451431 0 0.049938512618406553 0.18979745266053441 0 0.031213590245001869 0.18157844847629051 0 0.049938512618406553 0.18979745266053441 0 0.048667932225831427 0.16702355756451431 0 0.049938512618406553 0.18979745266053441 0 0.067343013049877942 0.17986122121479539 0 0.048667932225831427 0.16702355756451431 0 0.049938512618406553 0.18979745266053441 0 0.048667932225831427 0.16702355756451431 0 0.069183348668543837 0.15999997498785851 0 0.067343013049877942 0.17986122121479539 0 0.048667932225831427 0.16702355756451431 0 0.047397351833255982 0.1442496624684943 0 0.069183348668543837 0.15999997498785851 0 0.048667932225831427 0.16702355756451431 0 0.047397351833255982 0.1442496624684943 0 0.047397351833255982 0.1442496624684943 0 0.070632011785273952 0.1432480142670477 0 0.069183348668543837 0.15999997498785851 0 0.047397351833255982 0.1442496624684943 0 0.063421746438209997 0.12989875110768509 0 0.070632011785273952 0.1432480142670477 0 0.046126771440677457 0.1214757673724743 0 0.047397351833255982 0.1442496624684943 0 0.063421746438209997 0.12989875110768509 0 0.046126771440677457 0.1214757673724743 0 0.023367006524189379 0.13031153419117961 0 0.036983361551811783 0.1355537433053606 0 0.046126771440677457 0.1214757673724743 0 0.023367006524189379 0.13031153419117961 0 0.046126771440677457 0.1214757673724743 0 0.047397351833255982 0.1442496624684943 0 0.036983361551811783 0.1355537433053606 0 0.046126771440677457 0.1214757673724743 0 0.047397351833255982 0.1442496624684943 0 0.029976055700820559 0.1496702395383491 0 0.048667932225831427 0.16702355756451431 0 0.047397351833255982 0.1442496624684943 0 0.029976055700820559 0.1496702395383491 0 0.047397351833255982 0.1442496624684943 0 0.036983361551811783 0.1355537433053606 0 0.01076626984877675 0.24408077366129649 0 0.03148999112015103 0.2373294643965497 0 0.01076626984877675 0.24408077366129649 0 0.03148999112015103 0.2373294643965497 0 0.02627912150193995 0.26628746332017011 0 0.01076626984877675 0.24408077366129649 0 0.018338928388365629 0.22663920524508499 0 0.03148999112015103 0.2373294643965497 0 -0.01089765353363099 0.24311401117758299 0 0.01076626984877675 0.24408077366129649 0 0.00082111797816907667 0.21708680559880331 0 0.01076626984877675 0.24408077366129649 0 0.018338928388365629 0.22663920524508499 0 0.00082111797816907667 0.21708680559880331 0 0.018338928388365629 0.22663920524508499 0 0.023147757207163042 0.21176473348394309 0 0.037235779817460929 0.22013716155054491 0 0.018338928388365629 0.22663920524508499 0 0.037235779817460929 0.22013716155054491 0 0.03148999112015103 0.2373294643965497 0 0.00082111797816907667 0.21708680559880331 0 0.01253988948996917 0.19105960002002359 0 0.023147757207163042 0.21176473348394309 0 0.00082111797816907667 0.21708680559880331 0 0.01253988948996917 0.19105960002002359 0 0.018338928388365629 0.22663920524508499 0 0.023147757207163042 0.21176473348394309 0 0.00082111797816907667 0.21708680559880331 0 -0.0048585527816108476 0.19925930445668999 0 0.00082111797816907667 0.21708680559880331 0 0.01253988948996917 0.19105960002002359 0 0.023147757207163042 0.21176473348394309 0 0.01253988948996917 0.19105960002002359 0 0.034920186187135882 0.19895943775100419 0 0.031213590245001869 0.18157844847629051 0 0.01253988948996917 0.19105960002002359 0 0.034920186187135882 0.19895943775100419 0 0.031213590245001869 0.18157844847629051 0 0.034920186187135882 0.19895943775100419 0 0.049938512618406553 0.18979745266053441 0 0.034920186187135882 0.19895943775100419 0 0.049938512618406553 0.18979745266053441 0 0.051076112504965118 0.21018780389616709 0 0.049938512618406553 0.18979745266053441 0 0.051076112504965118 0.21018780389616709 0 0.067215551275879068 0.197380931522846 0 0.049938512618406553 0.18979745266053441 0 0.067215551275879068 0.197380931522846 0 0.067343013049877942 0.17986122121479539 0 0.049938512618406553 0.18979745266053441 0 0.051076112504965118 0.21018780389616709 0 0.049938512618406553 0.18979745266053441 0 0.067215551275879068 0.197380931522846 0 0.023147757207163042 0.21176473348394309 0 0.034920186187135882 0.19895943775100419 0 0.037235779817460929 0.22013716155054491 0 0.034920186187135882 0.19895943775100419 0 0.051076112504965118 0.21018780389616709 0 0.037235779817460929 0.22013716155054491 0 0.051076112504965118 0.21018780389616709 0 0.037235779817460929 0.22013716155054491 0 0.052213712391524232 0.23057815513179969 0 0.037235779817460929 0.22013716155054491 0 0.052213712391524232 0.23057815513179969 0 0.03148999112015103 0.2373294643965497 0 0.052213712391524232 0.23057815513179969 0 0.03148999112015103 0.2373294643965497 0 0.051076112504965118 0.21018780389616709 0 0.052213712391524232 0.23057815513179969 0 0.051076112504965118 0.21018780389616709 0 0.052213712391524232 0.23057815513179969 0 0.071507307971144615 0.22429274775340491 0 0.052213712391524232 0.23057815513179969 0 0.071507307971144615 0.22429274775340491 0 0.052213712391524232 0.23057815513179969 0 0.053657123075677653 0.25644986202533759 0 0.052213712391524232 0.23057815513179969 0 0.045108599420089157 0.24395067529032369 0 0.053657123075677653 0.25644986202533759 0 0.052213712391524232 0.23057815513179969 0 0.065466428581269054 0.2385041264087796 0 0.053657123075677653 0.25644986202533759 0 0.052213712391524232 0.23057815513179969 0 0.03148999112015103 0.2373294643965497 0 0.045108599420089157 0.24395067529032369 0 0.03148999112015103 0.2373294643965497 0 0.045108599420089157 0.24395067529032369 0 0.02627912150193995 0.26628746332017011 0 0.077821885225998436 0.24776685808953491 0 0.08508812580872753 0.23322585510307489 0 0.10198664737631841 0.23908385415372971 0 0.077821885225998436 0.24776685808953491 0 0.10198664737631841 0.23908385415372971 0 0.077821885225998436 0.24776685808953491 0 0.10198664737631841 0.23908385415372971 0 0.090787051862541907 0.26102511833908237 0 0.077821885225998436 0.24776685808953491 0 0.065466428581269054 0.2385041264087796 0 0.053657123075677653 0.25644986202533759 0 0.077821885225998436 0.24776685808953491 0 0.065466428581269054 0.2385041264087796 0 0.08508812580872753 0.23322585510307489 0 0.052213712391524232 0.23057815513179969 0 0.065466428581269054 0.2385041264087796 0 0.071507307971144615 0.22429274775340491 0 0.065466428581269054 0.2385041264087796 0 0.071507307971144615 0.22429274775340491 0 0.08508812580872753 0.23322585510307489 0 0.08508812580872753 0.23322585510307489 0 0.090800903550763923 0.21800734037500669 0 0.10198664737631841 0.23908385415372971 0 0.071507307971144615 0.22429274775340491 0 0.08508812580872753 0.23322585510307489 0 0.090800903550763923 0.21800734037500669 0 0.071507307971144615 0.22429274775340491 0 0.090800903550763923 0.21800734037500669 0 0.090800903550763923 0.21800734037500669 0 0.084492589933351916 0.204964410385157 0 0.071781544225822572 0.21045089232937481 0 0.090800903550763923 0.21800734037500669 0 0.084492589933351916 0.204964410385157 0 0.095918766889329071 0.20817002597713219 0 0.084492589933351916 0.204964410385157 0 0.098287074942817104 0.1979864201517538 0 0.095918766889329071 0.20817002597713219 0 0.051076112504965118 0.21018780389616709 0 0.071781544225822572 0.21045089232937481 0 0.067215551275879068 0.197380931522846 0 0.071507307971144615 0.22429274775340491 0 0.090800903550763923 0.21800734037500669 0 0.071781544225822572 0.21045089232937481 0 0.051076112504965118 0.21018780389616709 0 0.071507307971144615 0.22429274775340491 0 0.071781544225822572 0.21045089232937481 0 0.084492589933351916 0.204964410385157 0 0.071781544225822572 0.21045089232937481 0 0.067215551275879068 0.197380931522846 0 0.084492589933351916 0.204964410385157 0 0.067215551275879068 0.197380931522846 0 0.067215551275879068 0.197380931522846 0 0.084974151047563895 0.1898886408931835 0 0.067343013049877942 0.17986122121479539 0 0.084492589933351916 0.204964410385157 0 0.067215551275879068 0.197380931522846 0 0.084974151047563895 0.1898886408931835 0 0.084492589933351916 0.204964410385157 0 0.084974151047563895 0.1898886408931835 0 0.098287074942817104 0.1979864201517538 0 0.084974151047563895 0.1898886408931835 0 0.098287074942817104 0.1979864201517538 0 0.101477264765369 0.1806948540610194 0 0.098287074942817104 0.1979864201517538 0 0.1086509319563039 0.18952568130083111 0 0.101477264765369 0.1806948540610194 0 0.098287074942817104 0.1979864201517538 0 0.1086509319563039 0.18952568130083111 0 0.1094287880019157 0.20008819590740851 0 0.1086509319563039 0.18952568130083111 0 0.1186040710558203 0.18970692640353751 0 0.1094287880019157 0.20008819590740851 0 0.1186040710558203 0.18970692640353751 0 0.1207528278046345 0.20065507663982471 0 0.12998996330504731 0.1919576109595727 0 0.1207528278046345 0.20065507663982471 0 0.1094287880019157 0.20008819590740851 0 0.1147984394213849 0.2059757057031415 0 0.1186040710558203 0.18970692640353751 0 0.1207528278046345 0.20065507663982471 0 0.1094287880019157 0.20008819590740851 0 0.114119032410608 0.21041083309976749 0 0.11009449913038399 0.21172193299661071 0 0.12615140952663831 0.23040085021792461 0 0.1094287880019157 0.20008819590740851 0 0.1147984394213849 0.2059757057031415 0 0.11009449913038399 0.21172193299661071 0 0.114119032410608 0.21041083309976749 0 0.1249322286856851 0.21063034646455289 0 0.12615140952663831 0.23040085021792461 0 0.114119032410608 0.21041083309976749 0 0.1147984394213849 0.2059757057031415 0 0.11009449913038399 0.21172193299661071 0 0.114119032410608 0.21041083309976749 0 0.1147984394213849 0.2059757057031415 0 0.1195970497593828 0.20700248987209571 0 0.1207528278046345 0.20065507663982471 0 0.1147984394213849 0.2059757057031415 0 0.1195970497593828 0.20700248987209571 0 0.1207528278046345 0.20065507663982471 0 0.1195970497593828 0.20700248987209571 0 0.1249322286856851 0.21063034646455289 0 0.114119032410608 0.21041083309976749 0 0.1195970497593828 0.20700248987209571 0 0.1249322286856851 0.21063034646455289 0 0.114119032410608 0.21041083309976749 0 0.11009449913038399 0.21172193299661071 0 0.090800903550763923 0.21800734037500669 0 0.11009449913038399 0.21172193299661071 0 0.090800903550763923 0.21800734037500669 0 0.11009449913038399 0.21172193299661071 0 0.095918766889329071 0.20817002597713219 0 0.098287074942817104 0.1979864201517538 0 0.11009449913038399 0.21172193299661071 0 0.098287074942817104 0.1979864201517538 0 0.1094287880019157 0.20008819590740851 0 0.11009449913038399 0.21172193299661071 0 0.098287074942817104 0.1979864201517538 0 0.11009449913038399 0.21172193299661071 0 0.095918766889329071 0.20817002597713219 0 0.090800903550763923 0.21800734037500669 0 0.11009449913038399 0.21172193299661071 0 0.10198664737631841 0.23908385415372971 0 0.11009449913038399 0.21172193299661071 0 0.10198664737631841 0.23908385415372971 0 0.12615140952663831 0.23040085021792461 0 0.11009449913038399 0.21172193299661071 0 0.12615140952663831 0.23040085021792461 0 0.10198664737631841 0.23908385415372971 0 0.12615140952663831 0.23040085021792461 0 0.10198664737631841 0.23908385415372971 0 0.12615140952663831 0.23040085021792461 0 0.1237548121372911 0.25040365365415101 0 0.086315818060029775 0.14830898510012341 0 0.081832243628569959 0.13045125548124289 0 0.070632011785273952 0.1432480142670477 0 0.086315818060029775 0.14830898510012341 0 0.081832243628569959 0.13045125548124289 0 0.096861684142476714 0.1375484395726774 0 0.09503260243580941 0.12400804428531501 0 0.081832243628569959 0.13045125548124289 0 0.096861684142476714 0.1375484395726774 0 0.081832243628569959 0.13045125548124289 0 0.063421746438209997 0.12989875110768509 0 0.070632011785273952 0.1432480142670477 0 0.086315818060029775 0.14830898510012341 0 0.070632011785273952 0.1432480142670477 0 0.069183348668543837 0.15999997498785851 0 0.069183348668543837 0.15999997498785851 0 0.067343013049877942 0.17986122121479539 0 0.083344132985544397 0.17472097524270799 0 0.084974151047563895 0.1898886408931835 0 0.083344132985544397 0.17472097524270799 0 0.101477264765369 0.1806948540610194 0 0.083344132985544397 0.17472097524270799 0 0.093526888314971343 0.16351295726152079 0 0.101477264765369 0.1806948540610194 0 0.084974151047563895 0.1898886408931835 0 0.067343013049877942 0.17986122121479539 0 0.083344132985544397 0.17472097524270799 0 0.069183348668543837 0.15999997498785851 0 0.083344132985544397 0.17472097524270799 0 0.093526888314971343 0.16351295726152079 0 0.086315818060029775 0.14830898510012341 0 0.069183348668543837 0.15999997498785851 0 0.093526888314971343 0.16351295726152079 0 0.093526888314971343 0.16351295726152079 0 0.1117235952715601 0.16487800202239519 0 0.10211578988919839 0.15155617672598351 0 0.093526888314971343 0.16351295726152079 0 0.101477264765369 0.1806948540610194 0 0.1117235952715601 0.16487800202239519 0 0.1086509319563039 0.18952568130083111 0 0.101477264765369 0.1806948540610194 0 0.11545746101559751 0.17915200998043629 0 0.101477264765369 0.1806948540610194 0 0.11545746101559751 0.17915200998043629 0 0.1117235952715601 0.16487800202239519 0 0.1086509319563039 0.18952568130083111 0 0.1186040710558203 0.18970692640353751 0 0.11545746101559751 0.17915200998043629 0 0.11545746101559751 0.17915200998043629 0 0.12534316642989971 0.1689540580131581 0 0.12775327531185121 0.18064147432111591 0 0.1186040710558203 0.18970692640353751 0 0.11545746101559751 0.17915200998043629 0 0.12775327531185121 0.18064147432111591 0 0.1117235952715601 0.16487800202239519 0 0.1233576491457682 0.15920872173521661 0 0.115965025839337 0.15181317625809629 0 0.11545746101559751 0.17915200998043629 0 0.1117235952715601 0.16487800202239519 0 0.12534316642989971 0.1689540580131581 0 0.1117235952715601 0.16487800202239519 0 0.1233576491457682 0.15920872173521661 0 0.12534316642989971 0.1689540580131581 0 0.115965025839337 0.15181317625809629 0 0.1086276333338321 0.1416303434959518 0 0.120164717041955 0.13501008370583409 0 0.1233576491457682 0.15920872173521661 0 0.115965025839337 0.15181317625809629 0 0.12908872507654001 0.1493316127512363 0 0.115965025839337 0.15181317625809629 0 0.120164717041955 0.13501008370583409 0 0.12908872507654001 0.1493316127512363 0 0.1117235952715601 0.16487800202239519 0 0.115965025839337 0.15181317625809629 0 0.10211578988919839 0.15155617672598351 0 0.086315818060029775 0.14830898510012341 0 0.10211578988919839 0.15155617672598351 0 0.096861684142476714 0.1375484395726774 0 0.086315818060029775 0.14830898510012341 0 0.093526888314971343 0.16351295726152079 0 0.10211578988919839 0.15155617672598351 0 0.10211578988919839 0.15155617672598351 0 0.1086276333338321 0.1416303434959518 0 0.096861684142476714 0.1375484395726774 0 0.115965025839337 0.15181317625809629 0 0.10211578988919839 0.15155617672598351 0 0.1086276333338321 0.1416303434959518 0 0.09503260243580941 0.12400804428531501 0 0.096861684142476714 0.1375484395726774 0 0.1072460175074206 0.12933583234744811 0 0.1086276333338321 0.1416303434959518 0 0.096861684142476714 0.1375484395726774 0 0.1072460175074206 0.12933583234744811 0 0.1159157623772538 0.1206746914452211 0 0.1072460175074206 0.12933583234744811 0 0.120164717041955 0.13501008370583409 0 0.1086276333338321 0.1416303434959518 0 0.1072460175074206 0.12933583234744811 0 0.120164717041955 0.13501008370583409 0 0.1159157623772538 0.1206746914452211 0 0.120164717041955 0.13501008370583409 0 0.12545578104020799 0.12558907474460859 0 0.120164717041955 0.13501008370583409 0 0.133195548606274 0.13185482235681331 0 0.12908872507654001 0.1493316127512363 0 0.12545578104020799 0.12558907474460859 0 0.133195548606274 0.13185482235681331 0 0.1323063750093412 0.1191132404930739 0 0.120164717041955 0.13501008370583409 0 0.12545578104020799 0.12558907474460859 0 0.133195548606274 0.13185482235681331 0 0.133195548606274 0.13185482235681331 0 0.15036333008237129 0.134520829097971 0 0.1396499852223177 0.14162897832338331 0 0.133195548606274 0.13185482235681331 0 0.15036333008237129 0.134520829097971 0 0.14355150061181929 0.1227190236732805 0 0.15036333008237129 0.134520829097971 0 0.1459523371240854 0.15080864908751249 0 0.16427648456075991 0.1445138581371509 0 0.1459523371240854 0.15080864908751249 0 0.1585139763095903 0.15978284998206621 0 0.16427648456075991 0.1445138581371509 0 0.15036333008237129 0.134520829097971 0 0.1459523371240854 0.15080864908751249 0 0.1396499852223177 0.14162897832338331 0 0.133195548606274 0.13185482235681331 0 0.1396499852223177 0.14162897832338331 0 0.12908872507654001 0.1493316127512363 0 0.1459523371240854 0.15080864908751249 0 0.12908872507654001 0.1493316127512363 0 0.13466773311150401 0.16106675963119679 0 0.1459523371240854 0.15080864908751249 0 0.1396499852223177 0.14162897832338331 0 0.12908872507654001 0.1493316127512363 0 0.1233576491457682 0.15920872173521661 0 0.12534316642989971 0.1689540580131581 0 0.13466773311150401 0.16106675963119679 0 0.1233576491457682 0.15920872173521661 0 0.12908872507654001 0.1493316127512363 0 0.13466773311150401 0.16106675963119679 0 0.12534316642989971 0.1689540580131581 0 0.13466773311150401 0.16106675963119679 0 0.13674919811340461 0.1727787682859577 0 0.13466773311150401 0.16106675963119679 0 0.13674919811340461 0.1727787682859577 0 0.14612689778381871 0.1658664177501413 0 0.12775327531185121 0.18064147432111591 0 0.13895349677775401 0.18412338017899951 0 0.12998996330504731 0.1919576109595727 0 0.1186040710558203 0.18970692640353751 0 0.12775327531185121 0.18064147432111591 0 0.12998996330504731 0.1919576109595727 0 0.12534316642989971 0.1689540580131581 0 0.12775327531185121 0.18064147432111591 0 0.13674919811340461 0.1727787682859577 0 0.12775327531185121 0.18064147432111591 0 0.13674919811340461 0.1727787682859577 0 0.13895349677775401 0.18412338017899951 0 0.13895349677775401 0.18412338017899951 0 0.14731354624869869 0.17761661654971661 0 0.14951331791559611 0.18820041706879609 0 0.13674919811340461 0.1727787682859577 0 0.13895349677775401 0.18412338017899951 0 0.14731354624869869 0.17761661654971661 0 0.13674919811340461 0.1727787682859577 0 0.14731354624869869 0.17761661654971661 0 0.14612689778381871 0.1658664177501413 0 0.14731354624869869 0.17761661654971661 0 0.15570773569106169 0.1709675066026024 0 0.15906668745052671 0.1814323135374705 0 0.14731354624869869 0.17761661654971661 0 0.15906668745052671 0.1814323135374705 0 0.14951331791559611 0.18820041706879609 0 0.1459523371240854 0.15080864908751249 0 0.13466773311150401 0.16106675963119679 0 0.14612689778381871 0.1658664177501413 0 0.14612689778381871 0.1658664177501413 0 0.15570773569106169 0.1709675066026024 0 0.1585139763095903 0.15978284998206621 0 0.14731354624869869 0.17761661654971661 0 0.14612689778381871 0.1658664177501413 0 0.15570773569106169 0.1709675066026024 0 0.1459523371240854 0.15080864908751249 0 0.14612689778381871 0.1658664177501413 0 0.1585139763095903 0.15978284998206621 0 0.1585139763095903 0.15978284998206621 0 0.1725189722575694 0.1711287260787549 0 0.17606425181177771 0.1550849855359378 0 0.15570773569106169 0.1709675066026024 0 0.1585139763095903 0.15978284998206621 0 0.1725189722575694 0.1711287260787549 0 0.15906668745052671 0.1814323135374705 0 0.17505302157345939 0.18626933241259849 0 0.1725189722575694 0.1711287260787549 0 0.15906668745052671 0.1814323135374705 0 0.17505302157345939 0.18626933241259849 0 0.16311041054338199 0.19350426012039809 0 0.15570773569106169 0.1709675066026024 0 0.15906668745052671 0.1814323135374705 0 0.1725189722575694 0.1711287260787549 0 0.1867201702468291 0.1813823084171941 0 0.1725189722575694 0.1711287260787549 0 0.194743125972036 0.16621658008530049 0 0.17505302157345939 0.18626933241259849 0 0.1867201702468291 0.1813823084171941 0 0.1725189722575694 0.1711287260787549 0 0.17505302157345939 0.18626933241259849 0 0.1867201702468291 0.1813823084171941 0 0.18640932009914221 0.19341313057303711 0 0.1725189722575694 0.1711287260787549 0 0.17606425181177771 0.1550849855359378 0 0.194743125972036 0.16621658008530049 0 0.17606425181177771 0.1550849855359378 0 0.18638974023800339 0.13759668240688039 0 0.16427648456075991 0.1445138581371509 0 0.17606425181177771 0.1550849855359378 0 0.18638974023800339 0.13759668240688039 0 0.194743125972036 0.16621658008530049 0 0.18638974023800339 0.13759668240688039 0 0.16913294595705339 0.12970495101158869 0 0.16427648456075991 0.1445138581371509 0 0.18638974023800339 0.13759668240688039 0 0.16913294595705339 0.12970495101158869 0 0.17853174144814671 0.1173511519242656 0 0.15036333008237129 0.134520829097971 0 0.16913294595705339 0.12970495101158869 0 0.16427648456075991 0.1445138581371509 0 0.15036333008237129 0.134520829097971 0 0.16913294595705339 0.12970495101158869 0 0.15968809025208319 0.1173863305821075 0 0.1585139763095903 0.15978284998206621 0 0.17606425181177771 0.1550849855359378 0 0.16427648456075991 0.1445138581371509 0 0.14507644727454511 0.22360061042130991 0 0.15705394394192179 0.23696148580664261 0 0.144211127632207 0.25140962284038709 0 0.12615140952663831 0.23040085021792461 0 0.144211127632207 0.25140962284038709 0 0.12615140952663831 0.23040085021792461 0 0.14507644727454511 0.22360061042130991 0 0.144211127632207 0.25140962284038709 0 0.12615140952663831 0.23040085021792461 0 0.1237548121372911 0.25040365365415101 0 0.144211127632207 0.25140962284038709 0 0.12615140952663831 0.23040085021792461 0 0.14507644727454511 0.22360061042130991 0 0.12615140952663831 0.23040085021792461 0 0.14507644727454511 0.22360061042130991 0 0.13449194699820941 0.2151000053922881 0 0.14507644727454511 0.22360061042130991 0 0.1595427862275613 0.22415502614812549 0 0.15705394394192179 0.23696148580664261 0 0.14507644727454511 0.22360061042130991 0 0.1560820462024011 0.2131968066876257 0 0.1595427862275613 0.22415502614812549 0 0.1560820462024011 0.2131968066876257 0 0.1439401223741712 0.2080997203529204 0 0.15369500477730741 0.20066456579038339 0 0.14507644727454511 0.22360061042130991 0 0.1439401223741712 0.2080997203529204 0 0.13449194699820941 0.2151000053922881 0 0.14507644727454511 0.22360061042130991 0 0.1560820462024011 0.2131968066876257 0 0.1439401223741712 0.2080997203529204 0 0.1249322286856851 0.21063034646455289 0 0.12615140952663831 0.23040085021792461 0 0.13449194699820941 0.2151000053922881 0 0.1249322286856851 0.21063034646455289 0 0.13449194699820941 0.2151000053922881 0 0.1323595271300074 0.2027684995047328 0 0.1207528278046345 0.20065507663982471 0 0.1249322286856851 0.21063034646455289 0 0.1323595271300074 0.2027684995047328 0 0.1439401223741712 0.2080997203529204 0 0.13449194699820941 0.2151000053922881 0 0.1323595271300074 0.2027684995047328 0 0.1439401223741712 0.2080997203529204 0 0.1323595271300074 0.2027684995047328 0 0.14190603922887721 0.19611739812541459 0 0.1323595271300074 0.2027684995047328 0 0.12998996330504731 0.1919576109595727 0 0.14190603922887721 0.19611739812541459 0 0.1207528278046345 0.20065507663982471 0 0.1323595271300074 0.2027684995047328 0 0.12998996330504731 0.1919576109595727 0 0.13895349677775401 0.18412338017899951 0 0.12998996330504731 0.1919576109595727 0 0.14190603922887721 0.19611739812541459 0 0.14190603922887721 0.19611739812541459 0 0.15369500477730741 0.20066456579038339 0 0.14951331791559611 0.18820041706879609 0 0.13895349677775401 0.18412338017899951 0 0.14190603922887721 0.19611739812541459 0 0.14951331791559611 0.18820041706879609 0 0.1439401223741712 0.2080997203529204 0 0.14190603922887721 0.19611739812541459 0 0.15369500477730741 0.20066456579038339 0 0.15369500477730741 0.20066456579038339 0 0.14951331791559611 0.18820041706879609 0 0.16311041054338199 0.19350426012039809 0 0.17505302157345939 0.18626933241259849 0 0.16311041054338199 0.19350426012039809 0 0.17370720205910201 0.20375422949448099 0 0.15906668745052671 0.1814323135374705 0 0.14951331791559611 0.18820041706879609 0 0.16311041054338199 0.19350426012039809 0 0.15369500477730741 0.20066456579038339 0 0.16311041054338199 0.19350426012039809 0 0.1629097677801325 0.20538074000299231 0 0.16311041054338199 0.19350426012039809 0 0.17370720205910201 0.20375422949448099 0 0.1629097677801325 0.20538074000299231 0 0.17505302157345939 0.18626933241259849 0 0.17370720205910201 0.20375422949448099 0 0.1869707118323104 0.21087313325896909 0 0.17505302157345939 0.18626933241259849 0 0.18640932009914221 0.19341313057303711 0 0.1869707118323104 0.21087313325896909 0 0.17505302157345939 0.18626933241259849 0 0.1869707118323104 0.21087313325896909 0 0.17370720205910201 0.20375422949448099 0 0.1869707118323104 0.21087313325896909 0 0.1783514910193077 0.21805332836715949 0 0.17370720205910201 0.20375422949448099 0 0.1783514910193077 0.21805332836715949 0 0.16795417531847001 0.21578383792207301 0 0.17370720205910201 0.20375422949448099 0 0.16795417531847001 0.21578383792207301 0 0.1629097677801325 0.20538074000299231 0 0.1560820462024011 0.2131968066876257 0 0.15369500477730741 0.20066456579038339 0 0.1629097677801325 0.20538074000299231 0 0.1560820462024011 0.2131968066876257 0 0.16795417531847001 0.21578383792207301 0 0.1595427862275613 0.22415502614812549 0 0.1560820462024011 0.2131968066876257 0 0.16795417531847001 0.21578383792207301 0 0.1629097677801325 0.20538074000299231 0 0.1595427862275613 0.22415502614812549 0 0.1715473184004683 0.2312323899029764 0 0.15705394394192179 0.23696148580664261 0 0.16795417531847001 0.21578383792207301 0 0.1595427862275613 0.22415502614812549 0 0.1715473184004683 0.2312323899029764 0 0.1869707118323104 0.21087313325896909 0 0.1783514910193077 0.21805332836715949 0 0.18399947018721249 0.22745494188495261 0 0.1783514910193077 0.21805332836715949 0 0.1715473184004683 0.2312323899029764 0 0.18399947018721249 0.22745494188495261 0 0.1783514910193077 0.21805332836715949 0 0.16795417531847001 0.21578383792207301 0 0.1715473184004683 0.2312323899029764 0 0.1715473184004683 0.2312323899029764 0 0.18399947018721249 0.22745494188495261 0 0.18216219224271321 0.23980775172674629 0 0.18216219224271321 0.23980775172674629 0 0.16896730229524981 0.2512227884657301 0 0.18740846823947421 0.25365170427473249 0 0.1715473184004683 0.2312323899029764 0 0.18216219224271321 0.23980775172674629 0 0.16896730229524981 0.2512227884657301 0 0.1715473184004683 0.2312323899029764 0 0.15705394394192179 0.23696148580664261 0 0.16896730229524981 0.2512227884657301 0 0.15705394394192179 0.23696148580664261 0 0.144211127632207 0.25140962284038709 0 0.16896730229524981 0.2512227884657301 0 0.21861583773316909 0.2480079147206064 0 0.19888840209116129 0.23547693410533971 0 0.21144989744010181 0.22345637544214031 0 0.21861583773316909 0.2480079147206064 0 0.19888840209116129 0.23547693410533971 0 0.21080609235001219 0.26008073495171019 0 0.21861583773316909 0.2480079147206064 0 0.21144989744010181 0.22345637544214031 0 0.19888840209116129 0.23547693410533971 0 0.21080609235001219 0.26008073495171019 0 0.19888840209116129 0.23547693410533971 0 0.18740846823947421 0.25365170427473249 0 0.19900909774743891 0.25729818564446988 0 0.18216219224271321 0.23980775172674629 0 0.19888840209116129 0.23547693410533971 0 0.18740846823947421 0.25365170427473249 0 0.1869707118323104 0.21087313325896909 0 0.18399947018721249 0.22745494188495261 0 0.19888840209116129 0.23547693410533971 0 0.19888840209116129 0.23547693410533971 0 0.21144989744010181 0.22345637544214031 0 0.19892960876962221 0.20843475300758851 0 0.18399947018721249 0.22745494188495261 0 0.18216219224271321 0.23980775172674629 0 0.19888840209116129 0.23547693410533971 0 0.1869707118323104 0.21087313325896909 0 0.19888840209116129 0.23547693410533971 0 0.21144989744010181 0.22345637544214031 0 0.20309651170606849 0.19483647776372071 0 0.22364412047702889 0.20523108090384451 0 0.21144989744010181 0.22345637544214031 0 0.20309651170606849 0.19483647776372071 0 0.21144989744010181 0.22345637544214031 0 0.19892960876962221 0.20843475300758851 0 0.20309651170606849 0.19483647776372071 0 0.21144989744010181 0.22345637544214031 0 0.19892960876962221 0.20843475300758851 0 0.1869707118323104 0.21087313325896909 0 0.19888840209116129 0.23547693410533971 0 0.19892960876962221 0.20843475300758851 0 0.18640932009914221 0.19341313057303711 0 0.1869707118323104 0.21087313325896909 0 0.19892960876962221 0.20843475300758851 0 0.18640932009914221 0.19341313057303711 0 0.19892960876962221 0.20843475300758851 0 0.20309651170606849 0.19483647776372071 0 0.1867201702468291 0.1813823084171941 0 0.18640932009914221 0.19341313057303711 0 0.20309651170606849 0.19483647776372071 0 0.18640932009914221 0.19341313057303711 0 0.19892960876962221 0.20843475300758851 0 0.20309651170606849 0.19483647776372071 0 0.22364412047702889 0.20523108090384451 0 0.21999082294685429 0.1853724117404007 0 0.24529085009647519 0.19906825553599819 0 0.22364412047702889 0.20523108090384451 0 0.21999082294685429 0.1853724117404007 0 0.24529085009647519 0.19906825553599819 0 0.23782189951698071 0.21560433407119159 0 0.25206310705512192 0.22402937074294871 0 0.24529085009647519 0.19906825553599819 0 0.25206310705512192 0.22402937074294871 0 0.24529085009647519 0.19906825553599819 0 0.23782189951698071 0.21560433407119159 0 0.22364412047702889 0.20523108090384451 0 0.23782189951698071 0.21560433407119159 0 0.22364412047702889 0.20523108090384451 0 0.22877584748920021 0.22595266694163621 0 0.21144989744010181 0.22345637544214031 0 0.22364412047702889 0.20523108090384451 0 0.22877584748920021 0.22595266694163621 0 0.21144989744010181 0.22345637544214031 0 0.22877584748920021 0.22595266694163621 0 0.22979591571459801 0.2454676059297104 0 0.23782189951698071 0.21560433407119159 0 0.22877584748920021 0.22595266694163621 0 0.24304299177331601 0.2368731438364724 0 0.23782189951698071 0.21560433407119159 0 0.24304299177331601 0.2368731438364724 0 0.25206310705512192 0.22402937074294871 0 0.24304299177331601 0.2368731438364724 0 0.24597911108282469 0.24581283367756371 0 0.25883536401376722 0.24899048594989959 0 0.24304299177331601 0.2368731438364724 0 0.24597911108282469 0.24581283367756371 0 0.23872796406035879 0.24738402509289861 0 0.24597911108282469 0.24581283367756371 0 0.24754718126061201 0.25173994340319622 0 0.25114480103714221 0.2503150809598027 0 0.24597911108282469 0.24581283367756371 0 0.24754718126061201 0.25173994340319622 0 0.24406129295716719 0.25221772367660628 0 0.24597911108282469 0.24581283367756371 0 0.23872796406035879 0.24738402509289861 0 0.24406129295716719 0.25221772367660628 0 0.24304299177331601 0.2368731438364724 0 0.23872796406035879 0.24738402509289861 0 0.22979591571459801 0.2454676059297104 0 0.22877584748920021 0.22595266694163621 0 0.24304299177331601 0.2368731438364724 0 0.22979591571459801 0.2454676059297104 0 0.21861583773316909 0.2480079147206064 0 0.21144989744010181 0.22345637544214031 0 0.22979591571459801 0.2454676059297104 0 0.21144989744010181 0.22345637544214031 0 0.22979591571459801 0.2454676059297104 0 0.21861583773316909 0.2480079147206064 0 0.22979591571459801 0.2454676059297104 0 0.22683051227471149 0.25517232926798589 0 0.21261656064773221 0.15417078986135729 0 0.20228746257294411 0.14577128429687969 0 0.194743125972036 0.16621658008530049 0 0.21261656064773221 0.15417078986135729 0 0.21173277892725451 0.14173731870153039 0 0.20228746257294411 0.14577128429687969 0 0.21261656064773221 0.15417078986135729 0 0.21173277892725451 0.14173731870153039 0 0.22028380278530441 0.14377696019529501 0 0.21173277892725451 0.14173731870153039 0 0.21808546872809331 0.1328633347190887 0 0.20539059990219841 0.13210422443503131 0 0.21173277892725451 0.14173731870153039 0 0.21808546872809331 0.1328633347190887 0 0.22028380278530441 0.14377696019529501 0 0.21808546872809331 0.1328633347190887 0 0.22525200497795439 0.12163785638149829 0 0.21238835402625589 0.1205991865824681 0 0.21808546872809331 0.1328633347190887 0 0.20539059990219841 0.13210422443503131 0 0.21238835402625589 0.1205991865824681 0 0.21173277892725451 0.14173731870153039 0 0.20539059990219841 0.13210422443503131 0 0.20228746257294411 0.14577128429687969 0 0.18638974023800339 0.13759668240688039 0 0.20539059990219841 0.13210422443503131 0 0.1973866549968995 0.11734874119714481 0 0.18638974023800339 0.13759668240688039 0 0.20539059990219841 0.13210422443503131 0 0.20228746257294411 0.14577128429687969 0 0.18638974023800339 0.13759668240688039 0 0.20228746257294411 0.14577128429687969 0 0.194743125972036 0.16621658008530049 0 0.18638974023800339 0.13759668240688039 0 0.194743125972036 0.16621658008530049 0 0.1867201702468291 0.1813823084171941 0 0.20309651170606849 0.19483647776372071 0 0.194743125972036 0.16621658008530049 0 0.20309651170606849 0.19483647776372071 0 0.194743125972036 0.16621658008530049 0 0.194743125972036 0.16621658008530049 0 0.21851107262849251 0.16693783564535569 0 0.21999082294685429 0.1853724117404007 0 0.20309651170606849 0.19483647776372071 0 0.194743125972036 0.16621658008530049 0 0.21999082294685429 0.1853724117404007 0 0.21261656064773221 0.15417078986135729 0 0.194743125972036 0.16621658008530049 0 0.21851107262849251 0.16693783564535569 0 0.21851107262849251 0.16693783564535569 0 0.22816474336957049 0.1569606743233728 0 0.2385185931378285 0.1741071403290477 0 0.21261656064773221 0.15417078986135729 0 0.21851107262849251 0.16693783564535569 0 0.22816474336957049 0.1569606743233728 0 0.21851107262849251 0.16693783564535569 0 0.21999082294685429 0.1853724117404007 0 0.2385185931378285 0.1741071403290477 0 0.24529085009647519 0.19906825553599819 0 0.2385185931378285 0.1741071403290477 0 0.24529085009647519 0.19906825553599819 0 0.21999082294685429 0.1853724117404007 0 0.2385185931378285 0.1741071403290477 0 0.24529085009647519 0.19906825553599819 0 0.2385185931378285 0.1741071403290477 0 0.2572614987433941 0.17557495846575299 0 0.22816474336957049 0.1569606743233728 0 0.2385185931378285 0.1741071403290477 0 0.24348353492961811 0.15140119456074971 0 0.2385185931378285 0.1741071403290477 0 0.24348353492961811 0.15140119456074971 0 0.2572614987433941 0.17557495846575299 0 0.24348353492961811 0.15140119456074971 0 0.24075667915360649 0.13823171572586221 0 0.25848584631921268 0.1366553478211682 0 0.24348353492961811 0.15140119456074971 0 0.227012723464809 0.14099710817364619 0 0.24075667915360649 0.13823171572586221 0 0.24348353492961811 0.15140119456074971 0 0.22028380278530441 0.14377696019529501 0 0.22816474336957049 0.1569606743233728 0 0.24348353492961811 0.15140119456074971 0 0.22028380278530441 0.14377696019529501 0 0.24348353492961811 0.15140119456074971 0 0.227012723464809 0.14099710817364619 0 0.22028380278530441 0.14377696019529501 0 0.21261656064773221 0.15417078986135729 0 0.22816474336957049 0.1569606743233728 0 0.22028380278530441 0.14377696019529501 0 0.227012723464809 0.14099710817364619 0 0.22525200497795439 0.12163785638149829 0 0.227012723464809 0.14099710817364619 0 0.23429132989929061 0.1300867664849201 0 0.22525200497795439 0.12163785638149829 0 0.21808546872809331 0.1328633347190887 0 0.227012723464809 0.14099710817364619 0 0.22525200497795439 0.12163785638149829 0 0.21808546872809331 0.1328633347190887 0 0.227012723464809 0.14099710817364619 0 0.22028380278530441 0.14377696019529501 0 0.227012723464809 0.14099710817364619 0 0.23429132989929061 0.1300867664849201 0 0.24075667915360649 0.13823171572586221 0 0.23429132989929061 0.1300867664849201 0 0.2449922006142625 0.12642869214883201 0 0.2357396426012861 0.12010847542678479 0 0.24075667915360649 0.13823171572586221 0 0.2449922006142625 0.12642869214883201 0 0.25848584631921268 0.1366553478211682 0 0.23429132989929061 0.1300867664849201 0 0.24075667915360649 0.13823171572586221 0 0.2449922006142625 0.12642869214883201 0 0.2449922006142625 0.12642869214883201 0 0.24189003911980109 0.1107298477098463 0 0.2357396426012861 0.12010847542678479 0 0.2449922006142625 0.12642869214883201 0 0.24189003911980109 0.1107298477098463 0 0.25667278429039669 0.11474718359631721 0 0.24189003911980109 0.1107298477098463 0 0.2357396426012861 0.12010847542678479 0 0.23253895000737021 0.1105300151385237 0 0.24189003911980109 0.1107298477098463 0 0.24856881645266679 0.095531334985857891 0 0.25667278429039669 0.11474718359631721 0 0.24189003911980109 0.1107298477098463 0 0.24856881645266679 0.095531334985857891 0 0.23637725843259699 0.097660041737159017 0 0.24189003911980109 0.1107298477098463 0 0.23637725843259699 0.097660041737159017 0 0.23253895000737021 0.1105300151385237 0 0.23637725843259699 0.097660041737159017 0 0.22349128649109851 0.10227860458935049 0 0.23346760430763211 0.084147312065630628 0 0.23637725843259699 0.097660041737159017 0 0.22349128649109851 0.10227860458935049 0 0.23253895000737021 0.1105300151385237 0 0.22349128649109851 0.10227860458935049 0 0.2195098978082102 0.1095145130866121 0 0.22349128649109851 0.10227860458935049 0 0.22525200497795439 0.12163785638149829 0 0.22349128649109851 0.10227860458935049 0 0.23253895000737021 0.1105300151385237 0 0.22525200497795439 0.12163785638149829 0 0.22349128649109851 0.10227860458935049 0 0.2195098978082102 0.1095145130866121 0 0.22525200497795439 0.12163785638149829 0 0.2357396426012861 0.12010847542678479 0 0.23253895000737021 0.1105300151385237 0 0.22525200497795439 0.12163785638149829 0 0.23429132989929061 0.1300867664849201 0 0.2357396426012861 0.12010847542678479 0 0.22525200497795439 0.12163785638149829 0 0.2195098978082102 0.1095145130866121 0 0.22525200497795439 0.12163785638149829 0 0.21238835402625589 0.1205991865824681 0 0.20539059990219841 0.13210422443503131 0 0.21238835402625589 0.1205991865824681 0 0.1973866549968995 0.11734874119714481 0 0.21238835402625589 0.1205991865824681 0 0.20767391954830811 0.11047042783361111 0 0.1973866549968995 0.11734874119714481 0 0.2195098978082102 0.1095145130866121 0 0.21238835402625589 0.1205991865824681 0 0.20767391954830811 0.11047042783361111 0 0.22349128649109851 0.10227860458935049 0 0.2195098978082102 0.1095145130866121 0 0.20929197364802379 0.1009192917278261 0 0.2195098978082102 0.1095145130866121 0 0.20767391954830811 0.11047042783361111 0 0.20929197364802379 0.1009192917278261 0 0.22349128649109851 0.10227860458935049 0 0.20929197364802379 0.1009192917278261 0 0.20834779377156859 0.087108780076003034 0 0.20929197364802379 0.1009192917278261 0 0.19657116798443469 0.093628446274393456 0 0.20834779377156859 0.087108780076003034 0 0.20767391954830811 0.11047042783361111 0 0.20929197364802379 0.1009192917278261 0 0.1995980244411141 0.1052240429883762 0 0.19657116798443469 0.093628446274393456 0 0.1870664060279045 0.1037533079089054 0 0.1805170767525264 0.089221976127609737 0 0.20929197364802379 0.1009192917278261 0 0.1995980244411141 0.1052240429883762 0 0.19657116798443469 0.093628446274393456 0 0.1995980244411141 0.1052240429883762 0 0.19657116798443469 0.093628446274393456 0 0.1870664060279045 0.1037533079089054 0 0.1995980244411141 0.1052240429883762 0 0.1973866549968995 0.11734874119714481 0 0.1870664060279045 0.1037533079089054 0 0.1973866549968995 0.11734874119714481 0 0.17853174144814671 0.1173511519242656 0 0.1870664060279045 0.1037533079089054 0 0.20767391954830811 0.11047042783361111 0 0.1995980244411141 0.1052240429883762 0 0.1973866549968995 0.11734874119714481 0 0.19660268204573361 0.063058201865200919 0 0.1965869250150685 0.07834332406979716 0 0.1715233636115609 0.072794462783088529 0 0.19660268204573361 0.063058201865200919 0 0.1965869250150685 0.07834332406979716 0 0.1965869250150685 0.07834332406979716 0 0.2081148388651051 0.073398436149232957 0 0.20425456518668811 0.065416156303873457 0 0.19660268204573361 0.063058201865200919 0 0.1965869250150685 0.07834332406979716 0 0.20425456518668811 0.065416156303873457 0 0.19657116798443469 0.093628446274393456 0 0.1965869250150685 0.07834332406979716 0 0.1805170767525264 0.089221976127609737 0 0.19657116798443469 0.093628446274393456 0 0.1965869250150685 0.07834332406979716 0 0.20834779377156859 0.087108780076003034 0 0.19657116798443469 0.093628446274393456 0 0.1965869250150685 0.07834332406979716 0 0.1965869250150685 0.07834332406979716 0 0.20834779377156859 0.087108780076003034 0 0.2081148388651051 0.073398436149232957 0 0.22349128649109851 0.10227860458935049 0 0.20834779377156859 0.087108780076003034 0 0.22131006310930229 0.078295865168821838 0 0.20834779377156859 0.087108780076003034 0 0.2081148388651051 0.073398436149232957 0 0.22131006310930229 0.078295865168821838 0 0.22131006310930229 0.078295865168821838 0 0.2191288397275305 0.054313125748290961 0 0.21007484724289749 0.057828055127668442 0 0.2081148388651051 0.073398436149232957 0 0.22131006310930229 0.078295865168821838 0 0.21007484724289749 0.057828055127668442 0 0.2081148388651051 0.073398436149232957 0 0.20425456518668811 0.065416156303873457 0 0.21007484724289749 0.057828055127668442 0 0.2305361473180981 0.06615914705009189 0 0.22131006310930229 0.078295865168821838 0 0.23346760430763211 0.084147312065630628 0 0.22131006310930229 0.078295865168821838 0 0.2191288397275305 0.054313125748290961 0 0.2305361473180981 0.06615914705009189 0 0.22131006310930229 0.078295865168821838 0 0.2191288397275305 0.054313125748290961 0 0.22349128649109851 0.10227860458935049 0 0.23346760430763211 0.084147312065630628 0 0.22349128649109851 0.10227860458935049 0 0.22131006310930229 0.078295865168821838 0 0.23346760430763211 0.084147312065630628 0 0.22349128649109851 0.10227860458935049 0 0.22131006310930229 0.078295865168821838 0 0.24856881645266679 0.095531334985857891 0 0.23346760430763211 0.084147312065630628 0 0.25083969566647812 0.082544616478772703 0 0.24856881645266679 0.095531334985857891 0 0.23637725843259699 0.097660041737159017 0 0.23346760430763211 0.084147312065630628 0 0.2305361473180981 0.06615914705009189 0 0.23346760430763211 0.084147312065630628 0 0.24344392212416679 0.066016019541911414 0 0.23346760430763211 0.084147312065630628 0 0.24344392212416679 0.066016019541911414 0 0.23346760430763211 0.084147312065630628 0 0.24344392212416679 0.066016019541911414 0 0.25083969566647812 0.082544616478772703 0 0.2305361473180981 0.06615914705009189 0 0.24344392212416679 0.066016019541911414 0 0.235330307321856 0.048023412725797979 0 0.24344392212416679 0.066016019541911414 0 0.235330307321856 0.048023412725797979 0 0.25342023994070001 0.047884727018191381 0 0.24344392212416679 0.066016019541911414 0 0.25342023994070001 0.047884727018191381 0 0.235330307321856 0.048023412725797979 0 0.2317862696079778 0.029518640959801869 0 0.25153177491617879 0.041733699703297752 0 0.235330307321856 0.048023412725797979 0 0.25153177491617879 0.041733699703297752 0 0.235330307321856 0.048023412725797979 0 0.25153177491617879 0.041733699703297752 0 0.25342023994070001 0.047884727018191381 0 0.22093140081733079 0.043673994181458682 0 0.2317862696079778 0.029518640959801869 0 0.21422024207424251 0.021293849182347131 0 0.235330307321856 0.048023412725797979 0 0.22093140081733079 0.043673994181458682 0 0.2317862696079778 0.029518640959801869 0 0.22093140081733079 0.043673994181458682 0 0.2317862696079778 0.029518640959801869 0 0.235330307321856 0.048023412725797979 0 0.22093140081733079 0.043673994181458682 0 0.21865668519588349 0.049121745904949367 0 0.235330307321856 0.048023412725797979 0 0.2191288397275305 0.054313125748290961 0 0.235330307321856 0.048023412725797979 0 0.2191288397275305 0.054313125748290961 0 0.21865668519588349 0.049121745904949367 0 0.2305361473180981 0.06615914705009189 0 0.235330307321856 0.048023412725797979 0 0.2191288397275305 0.054313125748290961 0 0.2191288397275305 0.054313125748290961 0 0.21865668519588349 0.049121745904949367 0 0.23453834131703649 0.0026377026814196061 0 0.24358789196364111 7.324729670624437e-05 0 0.2417712880019352 0.0099422601815810641 0 0.24358789196364111 7.324729670624437e-05 0 0.2417712880019352 0.0099422601815810641 0 0.25322849713948081 0.001567162893323492 0 0.2432100547534739 0.01462854956133006 0 0.2417712880019352 0.0099422601815810641 0 0.25322849713948081 0.001567162893323492 0 0.2432100547534739 0.01462854956133006 0 0.25322849713948081 0.001567162893323492 0 0.2432100547534739 0.01462854956133006 0 0.25279801641514837 0.01408547019193046 0 0.25322849713948081 0.001567162893323492 0 0.2432100547534739 0.01462854956133006 0 0.2417712880019352 0.0099422601815810641 0 0.23453834131703649 0.0026377026814196061 0 0.2417712880019352 0.0099422601815810641 0 0.23125498641178471 0.013953466690768411 0 0.2432100547534739 0.01462854956133006 0 0.2417712880019352 0.0099422601815810641 0 0.23125498641178471 0.013953466690768411 0 0.2432100547534739 0.01462854956133006 0 0.2317862696079778 0.029518640959801869 0 0.25153177491617879 0.041733699703297752 0 0.2432100547534739 0.01462854956133006 0 0.25153177491617879 0.041733699703297752 0 0.2432100547534739 0.01462854956133006 0 0.2317862696079778 0.029518640959801869 0 0.23125498641178471 0.013953466690768411 0 0.2432100547534739 0.01462854956133006 0 0.2317862696079778 0.029518640959801869 0 0.2317862696079778 0.029518640959801869 0 0.23125498641178471 0.013953466690768411 0 0.21422024207424251 0.021293849182347131 0 0.2317862696079778 0.029518640959801869 0 0.21422024207424251 0.021293849182347131 0 0.23125498641178471 0.013953466690768411 0 0.22275708432177749 0.0049055413070795148 0 0.21422024207424251 0.021293849182347131 0 0.23453834131703649 0.0026377026814196061 0 0.23125498641178471 0.013953466690768411 0 0.22275708432177749 0.0049055413070795148 0 0.20951141291401651 0.0048084935125456618 0 0.21422024207424251 0.021293849182347131 0 0.20242777803689521 0.0098322857311452377 0 0.22275708432177749 0.0049055413070795148 0 0.20951141291401651 0.0048084935125456618 0 0.21422024207424251 0.021293849182347131 0 0.21422024207424251 0.021293849182347131 0 0.20242777803689521 0.0098322857311452377 0 0.1966542145405076 0.013069057404891201 0 0.20951141291401651 0.0048084935125456618 0 0.20242777803689521 0.0098322857311452377 0 0.20005301305848669 0.0012175524953399069 0 0.21422024207424251 0.021293849182347131 0 0.1966542145405076 0.013069057404891201 0 0.1966542145405076 0.013069057404891201 0 0.19662844829310519 0.03806362963504601 0 0.1966542145405076 0.013069057404891201 0 0.19662844829310519 0.03806362963504601 0 0.18364466518245959 0.025714227452125898 0 0.21422024207424251 0.021293849182347131 0 0.1966542145405076 0.013069057404891201 0 0.19662844829310519 0.03806362963504601 0 0.1966542145405076 0.013069057404891201 0 0.183869147657509 0.01293037926594365 0 0.18364466518245959 0.025714227452125898 0 0.1966542145405076 0.013069057404891201 0 0.19295101887208399 0.0052546144099616223 0 0.17557536233252691 0.0031994855859125062 0 0.1966542145405076 0.013069057404891201 0 0.19295101887208399 0.0052546144099616223 0 0.1977527791515005 0.0067981180832108051 0 0.20242777803689521 0.0098322857311452377 0 0.1966542145405076 0.013069057404891201 0 0.1977527791515005 0.0067981180832108051 0 0.19295101887208399 0.0052546144099616223 0 0.20005301305848669 0.0012175524953399069 0 0.19129573766686511 -0.0045631708181214118 0 0.20242777803689521 0.0098322857311452377 0 0.1977527791515005 0.0067981180832108051 0 0.20005301305848669 0.0012175524953399069 0 0.19295101887208399 0.0052546144099616223 0 0.1977527791515005 0.0067981180832108051 0 0.20005301305848669 0.0012175524953399069 0 0.19660268204573361 0.063058201865200919 0 0.20425456518668811 0.065416156303873457 0 0.21007484724289749 0.057828055127668442 0 0.19660268204573361 0.063058201865200919 0 0.21007484724289749 0.057828055127668442 0 0.20425456518668811 0.065416156303873457 0 0.21007484724289749 0.057828055127668442 0 0.2191288397275305 0.054313125748290961 0 0.21007484724289749 0.057828055127668442 0 0.2191288397275305 0.054313125748290961 0 0.21007484724289749 0.057828055127668442 0 0.21865668519588349 0.049121745904949367 0 0.22093140081733079 0.043673994181458682 0 0.21007484724289749 0.057828055127668442 0 0.22093140081733079 0.043673994181458682 0 0.21007484724289749 0.057828055127668442 0 0.21865668519588349 0.049121745904949367 0 0.22093140081733079 0.043673994181458682 0 0.21007484724289749 0.057828055127668442 0 0.19662844829310519 0.03806362963504601 0 0.22093140081733079 0.043673994181458682 0 0.21422024207424251 0.021293849182347131 0 0.19662844829310519 0.03806362963504601 0 0.19660268204573361 0.063058201865200919 0 0.19662844829310519 0.03806362963504601 0 0.19660268204573361 0.063058201865200919 0 0.19662844829310519 0.03806362963504601 0 0.17956371993810519 0.04900647454170845 0 0.19660268204573361 0.063058201865200919 0 0.21007484724289749 0.057828055127668442 0 0.19662844829310519 0.03806362963504601 0 0.19660268204573361 0.063058201865200919 0 0.17956371993810519 0.04900647454170845 0 0.1715233636115609 0.072794462783088529 0 0.17956371993810519 0.04900647454170845 0 0.1667679579218862 0.037341123753653678 0 0.18364466518245959 0.025714227452125898 0 0.19662844829310519 0.03806362963504601 0 0.17956371993810519 0.04900647454170845 0 0.18364466518245959 0.025714227452125898 0 0.1667679579218862 0.037341123753653678 0 0.16256081646226239 0.0547980101535889 0 0.1498072229883364 0.045236997995240669 0 0.1667679579218862 0.037341123753653678 0 0.15542084702078771 0.02712538763493522 0 0.1498072229883364 0.045236997995240669 0 0.17956371993810519 0.04900647454170845 0 0.1667679579218862 0.037341123753653678 0 0.16256081646226239 0.0547980101535889 0 0.17956371993810519 0.04900647454170845 0 0.16256081646226239 0.0547980101535889 0 0.1715233636115609 0.072794462783088529 0 0.19295101887208399 0.0052546144099616223 0 0.17557536233252691 0.0031994855859125062 0 0.19129573766686511 -0.0045631708181214118 0 0.183869147657509 0.01293037926594365 0 0.18364466518245959 0.025714227452125898 0 0.16552949457093361 0.00641810954893853 0 0.17557536233252691 0.0031994855859125062 0 0.183869147657509 0.01293037926594365 0 0.16552949457093361 0.00641810954893853 0 0.1966542145405076 0.013069057404891201 0 0.17557536233252691 0.0031994855859125062 0 0.1966542145405076 0.013069057404891201 0 0.17557536233252691 0.0031994855859125062 0 0.183869147657509 0.01293037926594365 0 0.18364466518245959 0.025714227452125898 0 0.16552949457093361 0.00641810954893853 0 0.1667679579218862 0.037341123753653678 0 0.18364466518245959 0.025714227452125898 0 0.16554930864478751 0.02191326910259505 0 0.18364466518245959 0.025714227452125898 0 0.16554930864478751 0.02191326910259505 0 0.16552949457093361 0.00641810954893853 0 0.1667679579218862 0.037341123753653678 0 0.16554930864478751 0.02191326910259505 0 0.15542084702078771 0.02712538763493522 0 0.16554930864478751 0.02191326910259505 0 0.15591794230819969 0.01318060109265921 0 0.15542084702078771 0.02712538763493522 0 0.17557536233252691 0.0031994855859125062 0 0.16552949457093361 0.00641810954893853 0 0.15449651012454671 -0.0066700862330673419 0 0.16554930864478751 0.02191326910259505 0 0.16552949457093361 0.00641810954893853 0 0.15591794230819969 0.01318060109265921 0 0.16552949457093361 0.00641810954893853 0 0.15143987796377409 0.0024651481115419878 0 0.15591794230819969 0.01318060109265921 0 0.14662929915161019 0.0076723739954572337 0 0.15143987796377409 0.0024651481115419878 0 0.1417083298287195 -0.0020673357250960401 0 0.14662929915161019 0.0076723739954572337 0 0.13519265304207509 0.0069862304084238637 0 0.1417083298287195 -0.0020673357250960401 0 0.14662929915161019 0.0076723739954572337 0 0.15143987796377409 0.0024651481115419878 0 0.15591794230819969 0.01318060109265921 0 0.14662929915161019 0.0076723739954572337 0 0.15591794230819969 0.01318060109265921 0 0.14541669738470081 0.01760687438863771 0 0.14662929915161019 0.0076723739954572337 0 0.14541669738470081 0.01760687438863771 0 0.13519265304207509 0.0069862304084238637 0 0.14541669738470081 0.01760687438863771 0 0.14283214808570199 0.029281539824420871 0 0.13508849082785329 0.02121821883217433 0 0.15591794230819969 0.01318060109265921 0 0.14541669738470081 0.01760687438863771 0 0.15542084702078771 0.02712538763493522 0 0.14541669738470081 0.01760687438863771 0 0.15542084702078771 0.02712538763493522 0 0.14283214808570199 0.029281539824420871 0 0.14283214808570199 0.029281539824420871 0 0.13508849082785329 0.02121821883217433 0 0.1284274822068317 0.035220220271116438 0 0.1210563824489856 0.023128270427769809 0 0.13508849082785329 0.02121821883217433 0 0.1284274822068317 0.035220220271116438 0 0.1140172734025723 0.0038083816366286049 0 0.13519265304207509 0.0069862304084238637 0 0.12816907747161399 -0.0043459578003969294 0 0.1140172734025723 0.0038083816366286049 0 0.13508849082785329 0.02121821883217433 0 0.13519265304207509 0.0069862304084238637 0 0.14541669738470081 0.01760687438863771 0 0.13508849082785329 0.02121821883217433 0 0.13519265304207509 0.0069862304084238637 0 0.13519265304207509 0.0069862304084238637 0 0.1417083298287195 -0.0020673357250960401 0 0.12816907747161399 -0.0043459578003969294 0 0.1498072229883364 0.045236997995240669 0 0.13478235593873361 0.052979229172201187 0 0.14676431806752491 0.06464640054050616 0 0.16256081646226239 0.0547980101535889 0 0.1498072229883364 0.045236997995240669 0 0.14676431806752491 0.06464640054050616 0 0.15542084702078771 0.02712538763493522 0 0.14283214808570199 0.029281539824420871 0 0.1498072229883364 0.045236997995240669 0 0.14283214808570199 0.029281539824420871 0 0.1498072229883364 0.045236997995240669 0 0.1284274822068317 0.035220220271116438 0 0.1498072229883364 0.045236997995240669 0 0.1284274822068317 0.035220220271116438 0 0.1498072229883364 0.045236997995240669 0 0.1284274822068317 0.035220220271116438 0 0.13478235593873361 0.052979229172201187 0 0.12035066749852701 0.053386832719278653 0 0.1284274822068317 0.035220220271116438 0 0.13478235593873361 0.052979229172201187 0 0.13478235593873361 0.052979229172201187 0 0.12856208893244769 0.066405694334864096 0 0.14676431806752491 0.06464640054050616 0 0.12035066749852701 0.053386832719278653 0 0.13478235593873361 0.052979229172201187 0 0.12856208893244769 0.066405694334864096 0 0.12856208893244769 0.066405694334864096 0 0.13172058213017759 0.077953325581359478 0 0.14676431806752491 0.06464640054050616 0 0.1207320540130917 0.07414893302055181 0 0.12856208893244769 0.066405694334864096 0 0.13172058213017759 0.077953325581359478 0 0.14676431806752491 0.06464640054050616 0 0.1464440451773841 0.082530723700965508 0 0.1715233636115609 0.072794462783088529 0 0.13172058213017759 0.077953325581359478 0 0.14676431806752491 0.06464640054050616 0 0.1464440451773841 0.082530723700965508 0 0.1464440451773841 0.082530723700965508 0 0.15342893996069451 0.097269170535974933 0 0.164302500645087 0.088563091700730567 0 0.1464440451773841 0.082530723700965508 0 0.13561025908276439 0.096169382161497147 0 0.15342893996069451 0.097269170535974933 0 0.1220588612501409 0.091118888825217098 0 0.1464440451773841 0.082530723700965508 0 0.13561025908276439 0.096169382161497147 0 0.1220588612501409 0.091118888825217098 0 0.13172058213017759 0.077953325581359478 0 0.1464440451773841 0.082530723700965508 0 0.1220588612501409 0.091118888825217098 0 0.1464440451773841 0.082530723700965508 0 0.1220588612501409 0.091118888825217098 0 0.1212672627232791 0.082298732965182725 0 0.13172058213017759 0.077953325581359478 0 0.1220588612501409 0.091118888825217098 0 0.1266186537300418 0.099601326921232469 0 0.13561025908276439 0.096169382161497147 0 0.1266186537300418 0.099601326921232469 0 0.12830555969957891 0.1072640177883066 0 0.13561025908276439 0.096169382161497147 0 0.1211940693946167 0.10270492311628369 0 0.1266186537300418 0.099601326921232469 0 0.12830555969957891 0.1072640177883066 0 0.12830555969957891 0.1072640177883066 0 0.13561025908276439 0.096169382161497147 0 0.14240137134669001 0.10928596298261969 0 0.12429625959685089 0.1155341807121988 0 0.12545578104020799 0.12558907474460859 0 0.1323063750093412 0.1191132404930739 0 0.12429625959685089 0.1155341807121988 0 0.12830555969957891 0.1072640177883066 0 0.1323063750093412 0.1191132404930739 0 0.12830555969957891 0.1072640177883066 0 0.1323063750093412 0.1191132404930739 0 0.14240137134669001 0.10928596298261969 0 0.1323063750093412 0.1191132404930739 0 0.14355150061181929 0.1227190236732805 0 0.14240137134669001 0.10928596298261969 0 0.133195548606274 0.13185482235681331 0 0.1323063750093412 0.1191132404930739 0 0.14355150061181929 0.1227190236732805 0 0.14355150061181929 0.1227190236732805 0 0.14240137134669001 0.10928596298261969 0 0.15968809025208319 0.1173863305821075 0 0.15036333008237129 0.134520829097971 0 0.14355150061181929 0.1227190236732805 0 0.15968809025208319 0.1173863305821075 0 0.15342893996069451 0.097269170535974933 0 0.14240137134669001 0.10928596298261969 0 0.15968809025208319 0.1173863305821075 0 0.13561025908276439 0.096169382161497147 0 0.15342893996069451 0.097269170535974933 0 0.14240137134669001 0.10928596298261969 0 0.15342893996069451 0.097269170535974933 0 0.16959907772326899 0.1009991253560141 0 0.164302500645087 0.088563091700730567 0 0.15342893996069451 0.097269170535974933 0 0.16959907772326899 0.1009991253560141 0 0.15968809025208319 0.1173863305821075 0 0.16959907772326899 0.1009991253560141 0 0.15968809025208319 0.1173863305821075 0 0.17853174144814671 0.1173511519242656 0 0.16913294595705339 0.12970495101158869 0 0.15968809025208319 0.1173863305821075 0 0.17853174144814671 0.1173511519242656 0 0.18638974023800339 0.13759668240688039 0 0.1973866549968995 0.11734874119714481 0 0.17853174144814671 0.1173511519242656 0 0.16959907772326899 0.1009991253560141 0 0.17853174144814671 0.1173511519242656 0 0.1870664060279045 0.1037533079089054 0 0.16959907772326899 0.1009991253560141 0 0.1870664060279045 0.1037533079089054 0 0.1805170767525264 0.089221976127609737 0 0.1965869250150685 0.07834332406979716 0 0.1805170767525264 0.089221976127609737 0 0.1715233636115609 0.072794462783088529 0 0.1805170767525264 0.089221976127609737 0 0.1715233636115609 0.072794462783088529 0 0.164302500645087 0.088563091700730567 0 0.19660268204573361 0.063058201865200919 0 0.1715233636115609 0.072794462783088529 0 0.16256081646226239 0.0547980101535889 0 0.14676431806752491 0.06464640054050616 0 0.1715233636115609 0.072794462783088529 0 0.1464440451773841 0.082530723700965508 0 0.1715233636115609 0.072794462783088529 0 0.16959907772326899 0.1009991253560141 0 0.1805170767525264 0.089221976127609737 0 0.164302500645087 0.088563091700730567 0 0.1464440451773841 0.082530723700965508 0 0.1715233636115609 0.072794462783088529 0 0.164302500645087 0.088563091700730567 0 0.1003207041141756 0.48565106709880479 0 0.1002756942524138 0.46709273325952477 0 0.081982916910680159 0.48354636662976308 0 0.1003207041141756 0.48565106709880479 0 0.1181865919462475 0.47585097273577792 0 0.1002756942524138 0.46709273325952477 0 0.1003207041141756 0.48565106709880479 0 0.1126322470475238 0.5 0 0.088161193308234964 0.5 0 0.1003207041141756 0.48565106709880479 0 0.1126322470475238 0.5 0 0.1181865919462475 0.47585097273577792 0 0.1126322470475238 0.5 0 0.1181865919462475 0.47585097273577792 0 0.13519621017317651 0.48349315062375697 0 0.1185684715941475 0.45063909988928658 0 0.086656400250966437 0.44142517557508881 0 0.1078793124457611 0.42442226480979472 0 0.1181865919462475 0.47585097273577792 0 0.1185684715941475 0.45063909988928658 0 0.1002756942524138 0.46709273325952477 0 0.1181865919462475 0.47585097273577792 0 0.1185684715941475 0.45063909988928658 0 0.13133079743650031 0.46265179081840963 0 0.1185684715941475 0.45063909988928658 0 0.1002756942524138 0.46709273325952477 0 0.1185684715941475 0.45063909988928658 0 0.1002756942524138 0.46709273325952477 0 0.086656400250966437 0.44142517557508881 0 0.1002756942524138 0.46709273325952477 0 0.081720501632964487 0.46532188160232141 0 0.086656400250966437 0.44142517557508881 0 0.086656400250966437 0.44142517557508881 0 0.06543348805617176 0.45842808634038279 0 0.086656400250966437 0.44142517557508881 0 0.06543348805617176 0.45842808634038279 0 0.0590824776501006 0.42815691960574581 0 0.081720501632964487 0.46532188160232141 0 0.086656400250966437 0.44142517557508881 0 0.06543348805617176 0.45842808634038279 0 0.081720501632964487 0.46532188160232141 0 0.06543348805617176 0.45842808634038279 0 0.067439922145609676 0.47511714534479138 0 0.081720501632964487 0.46532188160232141 0 0.067439922145609676 0.47511714534479138 0 0.081982916910680159 0.48354636662976308 0 0.1002756942524138 0.46709273325952477 0 0.081982916910680159 0.48354636662976308 0 0.1002756942524138 0.46709273325952477 0 0.081720501632964487 0.46532188160232141 0 0.081982916910680159 0.48354636662976308 0 0.1003207041141756 0.48565106709880479 0 0.081982916910680159 0.48354636662976308 0 0.088161193308234964 0.5 0 0.067439922145609676 0.47511714534479138 0 0.081982916910680159 0.48354636662976308 0 0.063690139568946147 0.50000000000000078 0 0.081982916910680159 0.48354636662976308 0 0.088161193308234964 0.5 0 0.063690139568946147 0.50000000000000078 0 0.081982916910680159 0.48354636662976308 0 0.063690139568946147 0.50000000000000078 0 0.063690139568946147 0.50000000000000078 0 0.051318929461318247 0.47987782419143848 0 0.038947719353690347 0.5 0 0.067439922145609676 0.47511714534479138 0 0.063690139568946147 0.50000000000000078 0 0.051318929461318247 0.47987782419143848 0 0.06543348805617176 0.45842808634038279 0 0.067439922145609676 0.47511714534479138 0 0.051318929461318247 0.47987782419143848 0 0.051318929461318247 0.47987782419143848 0 0.030858639133235371 0.47775181293423891 0 0.0421363072268231 0.46512851131883742 0 0.051318929461318247 0.47987782419143848 0 0.038947719353690347 0.5 0 0.030858639133235371 0.47775181293423891 0 0.038947719353690347 0.5 0 0.020834713636241311 0.48742264183743222 0 0.030858639133235371 0.47775181293423891 0 0.038947719353690347 0.5 0 0.020834713636241311 0.48742264183743222 0 0.014205299138434491 0.5 0 0.030858639133235371 0.47775181293423891 0 0.016759791287306289 0.47388078896093128 0 0.02671265030223809 0.46141909375811768 0 0.020834713636241311 0.48742264183743222 0 0.030858639133235371 0.47775181293423891 0 0.016759791287306289 0.47388078896093128 0 0.0034021192685400881 0.48548060729199077 0 0.0091202822774312346 0.45755969251855932 0 0.016759791287306289 0.47388078896093128 0 0.0034021192685400881 0.48548060729199077 0 0.0091202822774312346 0.45755969251855932 0 -0.00056542977438533222 0.47272372691794812 0 0.0034021192685400881 0.48548060729199077 0 0.0091202822774312346 0.45755969251855932 0 0.020834713636241311 0.48742264183743222 0 0.016759791287306289 0.47388078896093128 0 0.0034021192685400881 0.48548060729199077 0 0.020834713636241311 0.48742264183743222 0 0.0034021192685400881 0.48548060729199077 0 0.014205299138434491 0.5 0 -0.010537121076821251 0.5 0 0.0034021192685400881 0.48548060729199077 0 0.014205299138434491 0.5 0 0.0091202822774312346 0.45755969251855932 0 0.014838445286322379 0.42963877774512782 0 -0.006833924212033572 0.4445697285251774 0 0.0091202822774312346 0.45755969251855932 0 0.014838445286322379 0.42963877774512782 0 -0.0020420754861762221 0.4652552634997314 0 -0.006833924212033572 0.4445697285251774 0 0.0091202822774312346 0.45755969251855932 0 -0.0020420754861762221 0.4652552634997314 0 -0.00056542977438533222 0.47272372691794812 0 0.0091202822774312346 0.45755969251855932 0 0.016759791287306289 0.47388078896093128 0 0.0091202822774312346 0.45755969251855932 0 0.02671265030223809 0.46141909375811768 0 0.0091202822774312346 0.45755969251855932 0 0.02671265030223809 0.46141909375811768 0 0.025368502571835039 0.44404058823352249 0 0.02671265030223809 0.46141909375811768 0 0.025368502571835039 0.44404058823352249 0 0.04108588858570153 0.44729436460780048 0 0.0091202822774312346 0.45755969251855932 0 0.025368502571835039 0.44404058823352249 0 0.014838445286322379 0.42963877774512782 0 0.025368502571835039 0.44404058823352249 0 0.04108588858570153 0.44729436460780048 0 0.035085246407481972 0.42429101253800761 0 0.02671265030223809 0.46141909375811768 0 0.04108588858570153 0.44729436460780048 0 0.0421363072268231 0.46512851131883742 0 0.030858639133235371 0.47775181293423891 0 0.02671265030223809 0.46141909375811768 0 0.0421363072268231 0.46512851131883742 0 0.06543348805617176 0.45842808634038279 0 0.051318929461318247 0.47987782419143848 0 0.0421363072268231 0.46512851131883742 0 0.06543348805617176 0.45842808634038279 0 0.04108588858570153 0.44729436460780048 0 0.0421363072268231 0.46512851131883742 0 0.06543348805617176 0.45842808634038279 0 0.04108588858570153 0.44729436460780048 0 0.0590824776501006 0.42815691960574581 0 0.0590824776501006 0.42815691960574581 0 0.044690979457007507 0.40115224216229678 0 0.065395777678740538 0.40579337813237742 0 0.035085246407481972 0.42429101253800761 0 0.020556608295213521 0.40171786297169643 0 0.044690979457007507 0.40115224216229678 0 0.0590824776501006 0.42815691960574581 0 0.035085246407481972 0.42429101253800761 0 0.044690979457007507 0.40115224216229678 0 0.04108588858570153 0.44729436460780048 0 0.0590824776501006 0.42815691960574581 0 0.035085246407481972 0.42429101253800761 0 0.025368502571835039 0.44404058823352249 0 0.035085246407481972 0.42429101253800761 0 0.014838445286322379 0.42963877774512782 0 0.035085246407481972 0.42429101253800761 0 0.014838445286322379 0.42963877774512782 0 0.020556608295213521 0.40171786297169643 0 0.014838445286322379 0.42963877774512782 0 0.020556608295213521 0.40171786297169643 0 -0.0066193460430503523 0.40341679454510287 0 -0.0021863188058899139 0.42141529129835048 0 0.020556608295213521 0.40171786297169643 0 -0.0021863188058899139 0.42141529129835048 0 0.014838445286322379 0.42963877774512782 0 0.020556608295213521 0.40171786297169643 0 -0.0021863188058899139 0.42141529129835048 0 -0.006833924212033572 0.4445697285251774 0 0.014838445286322379 0.42963877774512782 0 0.0086842152848790755 0.38523504373447992 0 0.026274771304104671 0.37379694819826492 0 0.010137955772266539 0.36938126065657378 0 -0.0023628468434420511 0.37374995271218259 0 0.0086842152848790755 0.38523504373447992 0 0.010137955772266539 0.36938126065657378 0 -0.0066193460430503523 0.40341679454510287 0 0.0086842152848790755 0.38523504373447992 0 0.020556608295213521 0.40171786297169643 0 0.020556608295213521 0.40171786297169643 0 0.033729128789065768 0.38845413161721237 0 0.026274771304104671 0.37379694819826492 0 0.0086842152848790755 0.38523504373447992 0 0.020556608295213521 0.40171786297169643 0 0.026274771304104671 0.37379694819826492 0 0.020556608295213521 0.40171786297169643 0 0.026274771304104671 0.37379694819826492 0 0.033729128789065768 0.38845413161721237 0 0.043394156099937367 0.37714947313659147 0 0.026274771304104671 0.37379694819826492 0 0.043394156099937367 0.37714947313659147 0 0.044690979457007507 0.40115224216229678 0 0.033729128789065768 0.38845413161721237 0 0.043394156099937367 0.37714947313659147 0 0.044690979457007507 0.40115224216229678 0 0.020556608295213521 0.40171786297169643 0 0.033729128789065768 0.38845413161721237 0 0.044690979457007507 0.40115224216229678 0 0.044690979457007507 0.40115224216229678 0 0.062085439978671858 0.38316599641644328 0 0.065395777678740538 0.40579337813237742 0 0.043394156099937367 0.37714947313659147 0 0.044690979457007507 0.40115224216229678 0 0.062085439978671858 0.38316599641644328 0 0.043394156099937367 0.37714947313659147 0 0.062085439978671858 0.38316599641644328 0 0.052810472301516982 0.36534064570187341 0 0.062085439978671858 0.38316599641644328 0 0.08085023897102156 0.39707992304830247 0 0.085677562569003177 0.37450784230470802 0 0.08085023897102156 0.39707992304830247 0 0.097960350813023025 0.39201777310136499 0 0.085677562569003177 0.37450784230470802 0 0.08085023897102156 0.39707992304830247 0 0.095745917546048109 0.40720828275798188 0 0.097960350813023025 0.39201777310136499 0 0.062085439978671858 0.38316599641644328 0 0.08085023897102156 0.39707992304830247 0 0.065395777678740538 0.40579337813237742 0 0.08085023897102156 0.39707992304830247 0 0.065395777678740538 0.40579337813237742 0 0.080269752336901132 0.41941180942909873 0 0.0590824776501006 0.42815691960574581 0 0.065395777678740538 0.40579337813237742 0 0.080269752336901132 0.41941180942909873 0 0.086656400250966437 0.44142517557508881 0 0.0590824776501006 0.42815691960574581 0 0.080269752336901132 0.41941180942909873 0 0.086656400250966437 0.44142517557508881 0 0.080269752336901132 0.41941180942909873 0 0.1078793124457611 0.42442226480979472 0 0.08085023897102156 0.39707992304830247 0 0.080269752336901132 0.41941180942909873 0 0.095745917546048109 0.40720828275798188 0 0.095745917546048109 0.40720828275798188 0 0.1078793124457611 0.42442226480979472 0 0.1117699331635337 0.40310964340134869 0 0.080269752336901132 0.41941180942909873 0 0.095745917546048109 0.40720828275798188 0 0.1078793124457611 0.42442226480979472 0 0.086656400250966437 0.44142517557508881 0 0.1078793124457611 0.42442226480979472 0 0.1185684715941475 0.45063909988928658 0 0.1078793124457611 0.42442226480979472 0 0.1261680570909825 0.42761152876396741 0 0.1078793124457611 0.42442226480979472 0 0.12910222464055579 0.40741935404450069 0 0.1261680570909825 0.42761152876396741 0 0.1078793124457611 0.42442226480979472 0 0.1117699331635337 0.40310964340134869 0 0.12910222464055579 0.40741935404450069 0 0.1078793124457611 0.42442226480979472 0 0.12910222464055579 0.40741935404450069 0 0.1117699331635337 0.40310964340134869 0 0.1282091585592445 0.40059749250746429 0 0.12910222464055579 0.40741935404450069 0 0.1117699331635337 0.40310964340134869 0 0.11424468759989739 0.37878411484653818 0 0.1282091585592445 0.40059749250746429 0 0.11424468759989739 0.37878411484653818 0 0.1305294873686805 0.38013736261558212 0 0.1282091585592445 0.40059749250746429 0 0.11424468759989739 0.37878411484653818 0 0.1282091585592445 0.40059749250746429 0 0.11424468759989739 0.37878411484653818 0 0.097960350813023025 0.39201777310136499 0 0.085677562569003177 0.37450784230470802 0 0.1117699331635337 0.40310964340134869 0 0.11424468759989739 0.37878411484653818 0 0.097960350813023025 0.39201777310136499 0 0.095745917546048109 0.40720828275798188 0 0.1117699331635337 0.40310964340134869 0 0.097960350813023025 0.39201777310136499 0 0.1002802166405502 0.3569707371856119 0 0.10650166789825161 0.34173321696584219 0 0.086315745681203107 0.33515735952468573 0 0.11424468759989739 0.37878411484653818 0 0.1002802166405502 0.3569707371856119 0 0.11424468759989739 0.37878411484653818 0 0.1002802166405502 0.3569707371856119 0 0.085677562569003177 0.37450784230470802 0 0.11424468759989739 0.37878411484653818 0 0.1002802166405502 0.3569707371856119 0 0.12611350939531649 0.35827718664563252 0 0.11424468759989739 0.37878411484653818 0 0.12611350939531649 0.35827718664563252 0 0.1305294873686805 0.38013736261558212 0 0.1002802166405502 0.3569707371856119 0 0.10650166789825161 0.34173321696584219 0 0.12611350939531649 0.35827718664563252 0 0.1245346445823074 0.32833600024269077 0 0.09526422319188102 0.3299248012305902 0 0.1245346445823074 0.32833600024269077 0 0.10650166789825161 0.34173321696584219 0 0.12611350939531649 0.35827718664563252 0 0.1245346445823074 0.32833600024269077 0 0.1085140679023668 0.31607215846179049 0 0.1191211202746205 0.30303694054839692 0 0.1245346445823074 0.32833600024269077 0 0.1085140679023668 0.31607215846179049 0 0.09526422319188102 0.3299248012305902 0 0.1085140679023668 0.31607215846179049 0 0.09526422319188102 0.3299248012305902 0 0.092654707796012856 0.30930096609492591 0 0.1245346445823074 0.32833600024269077 0 0.10650166789825161 0.34173321696584219 0 0.09526422319188102 0.3299248012305902 0 0.10650166789825161 0.34173321696584219 0 0.09526422319188102 0.3299248012305902 0 0.086315745681203107 0.33515735952468573 0 0.086315745681203107 0.33515735952468573 0 0.074436606478466685 0.34130206712207861 0 0.085057962977263604 0.34693109494841301 0 0.086315745681203107 0.33515735952468573 0 0.072351274721856013 0.31334398186375961 0 0.09526422319188102 0.3299248012305902 0 0.072351274721856013 0.31334398186375961 0 0.092654707796012856 0.30930096609492591 0 0.09526422319188102 0.3299248012305902 0 0.086315745681203107 0.33515735952468573 0 0.072351274721856013 0.31334398186375961 0 0.086315745681203107 0.33515735952468573 0 0.072351274721856013 0.31334398186375961 0 0.067957318765057464 0.33036183796656082 0 0.072351274721856013 0.31334398186375961 0 0.067957318765057464 0.33036183796656082 0 0.056568806888925793 0.32178318332995859 0 0.086315745681203107 0.33515735952468573 0 0.074436606478466685 0.34130206712207861 0 0.067957318765057464 0.33036183796656082 0 0.074436606478466685 0.34130206712207861 0 0.067957318765057464 0.33036183796656082 0 0.062520170375484005 0.34000688060209572 0 0.074436606478466685 0.34130206712207861 0 0.062520170375484005 0.34000688060209572 0 0.067713412976760909 0.35012701202262247 0 0.067713412976760909 0.35012701202262247 0 0.066223462457760465 0.36272709453220658 0 0.05618754246325898 0.35230480189545599 0 0.067713412976760909 0.35012701202262247 0 0.079199283108834423 0.35429421596127592 0 0.066223462457760465 0.36272709453220658 0 0.074436606478466685 0.34130206712207861 0 0.067713412976760909 0.35012701202262247 0 0.079199283108834423 0.35429421596127592 0 0.1002802166405502 0.3569707371856119 0 0.086315745681203107 0.33515735952468573 0 0.085057962977263604 0.34693109494841301 0 0.1002802166405502 0.3569707371856119 0 0.085057962977263604 0.34693109494841301 0 0.079199283108834423 0.35429421596127592 0 0.1002802166405502 0.3569707371856119 0 0.086315745681203107 0.33515735952468573 0 0.074436606478466685 0.34130206712207861 0 0.085057962977263604 0.34693109494841301 0 0.079199283108834423 0.35429421596127592 0 0.1002802166405502 0.3569707371856119 0 0.079199283108834423 0.35429421596127592 0 0.085677562569003177 0.37450784230470802 0 0.079199283108834423 0.35429421596127592 0 0.085677562569003177 0.37450784230470802 0 0.066223462457760465 0.36272709453220658 0 0.062085439978671858 0.38316599641644328 0 0.085677562569003177 0.37450784230470802 0 0.066223462457760465 0.36272709453220658 0 0.062085439978671858 0.38316599641644328 0 0.066223462457760465 0.36272709453220658 0 0.052810472301516982 0.36534064570187341 0 0.066223462457760465 0.36272709453220658 0 0.052810472301516982 0.36534064570187341 0 0.05618754246325898 0.35230480189545599 0 0.062520170375484005 0.34000688060209572 0 0.067713412976760909 0.35012701202262247 0 0.05618754246325898 0.35230480189545599 0 0.062520170375484005 0.34000688060209572 0 0.05618754246325898 0.35230480189545599 0 0.049990335990127227 0.34121381822007951 0 0.052810472301516982 0.36534064570187341 0 0.05618754246325898 0.35230480189545599 0 0.042097332742867213 0.35314670411088611 0 0.05618754246325898 0.35230480189545599 0 0.042097332742867213 0.35314670411088611 0 0.049990335990127227 0.34121381822007951 0 0.042097332742867213 0.35314670411088611 0 0.031992934312995852 0.34587603342483331 0 0.026274771304104671 0.37379694819826492 0 0.043394156099937367 0.37714947313659147 0 0.042097332742867213 0.35314670411088611 0 0.026274771304104671 0.37379694819826492 0 0.043394156099937367 0.37714947313659147 0 0.042097332742867213 0.35314670411088611 0 0.043394156099937367 0.37714947313659147 0 0.052810472301516982 0.36534064570187341 0 0.042097332742867213 0.35314670411088611 0 0.026274771304104671 0.37379694819826492 0 0.016857404035577572 0.35529398353799968 0 0.010137955772266539 0.36938126065657378 0 0.031992934312995852 0.34587603342483331 0 0.026274771304104671 0.37379694819826492 0 0.031992934312995852 0.34587603342483331 0 0.026274771304104671 0.37379694819826492 0 0.016857404035577572 0.35529398353799968 0 0.031992934312995852 0.34587603342483331 0 0.016857404035577572 0.35529398353799968 0 0.021314287075948839 0.34108332665343749 0 0.016857404035577572 0.35529398353799968 0 0.009655657859591521 0.34212251374216662 0 0.021314287075948839 0.34108332665343749 0 -0.010271067033279129 0.34584987706401471 0 0.0012362350802134321 0.35883037509994198 0 0.009655657859591521 0.34212251374216662 0 0.016857404035577572 0.35529398353799968 0 0.0012362350802134321 0.35883037509994198 0 0.009655657859591521 0.34212251374216662 0 -0.0023628468434420511 0.37374995271218259 0 0.0012362350802134321 0.35883037509994198 0 0.010137955772266539 0.36938126065657378 0 0.016857404035577572 0.35529398353799968 0 0.0012362350802134321 0.35883037509994198 0 0.010137955772266539 0.36938126065657378 0 0.0063315748167999709 0.32317445318370869 0 0.0034725227375250172 0.30963903749478672 0 0.015178895195135961 0.30715225449986888 0 0.0063315748167999709 0.32317445318370869 0 0.022143640609262029 0.31743506486298978 0 0.015178895195135961 0.30715225449986888 0 -0.007636957573278591 0.31214386631899882 0 0.0063315748167999709 0.32317445318370869 0 0.0034725227375250172 0.30963903749478672 0 -0.001898476827708107 0.33458251633580649 0 0.0063315748167999709 0.32317445318370869 0 0.009655657859591521 0.34212251374216662 0 0.0063315748167999709 0.32317445318370869 0 0.009655657859591521 0.34212251374216662 0 0.02325395680865713 0.32954031030856928 0 0.031992934312995852 0.34587603342483331 0 0.02325395680865713 0.32954031030856928 0 0.021314287075948839 0.34108332665343749 0 0.031992934312995852 0.34587603342483331 0 0.02325395680865713 0.32954031030856928 0 0.037711097321887023 0.31795511865140158 0 0.009655657859591521 0.34212251374216662 0 0.02325395680865713 0.32954031030856928 0 0.021314287075948839 0.34108332665343749 0 0.02325395680865713 0.32954031030856928 0 0.022143640609262029 0.31743506486298978 0 0.037711097321887023 0.31795511865140158 0 0.0063315748167999709 0.32317445318370869 0 0.02325395680865713 0.32954031030856928 0 0.022143640609262029 0.31743506486298978 0 0.022143640609262029 0.31743506486298978 0 0.037711097321887023 0.31795511865140158 0 0.028242678903830049 0.30935318767140052 0 0.040800509385797053 0.32914393508518047 0 0.039503686028726892 0.305141166059475 0 0.040800509385797053 0.32914393508518047 0 0.049030137275830103 0.31299962116952967 0 0.039503686028726892 0.305141166059475 0 0.037711097321887023 0.31795511865140158 0 0.040800509385797053 0.32914393508518047 0 0.039503686028726892 0.305141166059475 0 0.031992934312995852 0.34587603342483331 0 0.037711097321887023 0.31795511865140158 0 0.040800509385797053 0.32914393508518047 0 0.042097332742867213 0.35314670411088611 0 0.040800509385797053 0.32914393508518047 0 0.042097332742867213 0.35314670411088611 0 0.040800509385797053 0.32914393508518047 0 0.049990335990127227 0.34121381822007951 0 0.031992934312995852 0.34587603342483331 0 0.037711097321887023 0.31795511865140158 0 0.042097332742867213 0.35314670411088611 0 0.031992934312995852 0.34587603342483331 0 0.040800509385797053 0.32914393508518047 0 0.040800509385797053 0.32914393508518047 0 0.049990335990127227 0.34121381822007951 0 0.055456505527322647 0.33282751379994441 0 0.067957318765057464 0.33036183796656082 0 0.062520170375484005 0.34000688060209572 0 0.055456505527322647 0.33282751379994441 0 0.067957318765057464 0.33036183796656082 0 0.055456505527322647 0.33282751379994441 0 0.056568806888925793 0.32178318332995859 0 0.062520170375484005 0.34000688060209572 0 0.049990335990127227 0.34121381822007951 0 0.055456505527322647 0.33282751379994441 0 0.040800509385797053 0.32914393508518047 0 0.049030137275830103 0.31299962116952967 0 0.056568806888925793 0.32178318332995859 0 0.072351274721856013 0.31334398186375961 0 0.056568806888925793 0.32178318332995859 0 0.057186802441435133 0.30864616532542771 0 0.040800509385797053 0.32914393508518047 0 0.055456505527322647 0.33282751379994441 0 0.056568806888925793 0.32178318332995859 0 0.049030137275830103 0.31299962116952967 0 0.056568806888925793 0.32178318332995859 0 0.057186802441435133 0.30864616532542771 0 0.057186802441435133 0.30864616532542771 0 0.051090881634265589 0.30028365604760648 0 0.058386803762508932 0.29153060420283339 0 0.049030137275830103 0.31299962116952967 0 0.057186802441435133 0.30864616532542771 0 0.051090881634265589 0.30028365604760648 0 0.055623088543593477 0.29168784585568441 0 0.058386803762508932 0.29153060420283339 0 0.054640105809635207 0.274068853940511 0 0.055623088543593477 0.29168784585568441 0 0.045490464570784282 0.28280023173921132 0 0.054640105809635207 0.274068853940511 0 0.055623088543593477 0.29168784585568441 0 0.054640105809635207 0.274068853940511 0 0.058386803762508932 0.29153060420283339 0 0.054640105809635207 0.274068853940511 0 0.067827925020752994 0.28019392992351472 0 0.051090881634265589 0.30028365604760648 0 0.055623088543593477 0.29168784585568441 0 0.058386803762508932 0.29153060420283339 0 0.055623088543593477 0.29168784585568441 0 0.045490464570784282 0.28280023173921132 0 0.042478584243317193 0.29369265154438401 0 0.051090881634265589 0.30028365604760648 0 0.055623088543593477 0.29168784585568441 0 0.042478584243317193 0.29369265154438401 0 0.045490464570784282 0.28280023173921132 0 0.042478584243317193 0.29369265154438401 0 0.034206726977202298 0.28372315016392341 0 0.042478584243317193 0.29369265154438401 0 0.034206726977202298 0.28372315016392341 0 0.027996719092446921 0.2979964530803263 0 0.049030137275830103 0.31299962116952967 0 0.051090881634265589 0.30028365604760648 0 0.039503686028726892 0.305141166059475 0 0.051090881634265589 0.30028365604760648 0 0.042478584243317193 0.29369265154438401 0 0.039503686028726892 0.305141166059475 0 0.039503686028726892 0.305141166059475 0 0.028242678903830049 0.30935318767140052 0 0.027996719092446921 0.2979964530803263 0 0.042478584243317193 0.29369265154438401 0 0.039503686028726892 0.305141166059475 0 0.027996719092446921 0.2979964530803263 0 0.037711097321887023 0.31795511865140158 0 0.039503686028726892 0.305141166059475 0 0.028242678903830049 0.30935318767140052 0 0.027996719092446921 0.2979964530803263 0 0.016848120903846839 0.28790234493178729 0 0.015178895195135961 0.30715225449986888 0 0.028242678903830049 0.30935318767140052 0 0.027996719092446921 0.2979964530803263 0 0.015178895195135961 0.30715225449986888 0 0.022143640609262029 0.31743506486298978 0 0.028242678903830049 0.30935318767140052 0 0.015178895195135961 0.30715225449986888 0 0.034206726977202298 0.28372315016392341 0 0.027996719092446921 0.2979964530803263 0 0.016848120903846839 0.28790234493178729 0 -0.0010988800717985641 0.27612506461500019 0 0.016848120903846839 0.28790234493178729 0 1.6578511442726379e-05 0.29608557597657048 0 1.6578511442726379e-05 0.29608557597657048 0 0.0034725227375250172 0.30963903749478672 0 0.015178895195135961 0.30715225449986888 0 0.016848120903846839 0.28790234493178729 0 1.6578511442726379e-05 0.29608557597657048 0 0.015178895195135961 0.30715225449986888 0 -0.0010988800717985641 0.27612506461500019 0 -0.002858477276545702 0.25878204093389939 0 0.009086994139923095 0.26140165200638921 0 0.01076626984877675 0.24408077366129649 0 0.009086994139923095 0.26140165200638921 0 0.02627912150193995 0.26628746332017011 0 -0.002858477276545702 0.25878204093389939 0 0.01076626984877675 0.24408077366129649 0 0.009086994139923095 0.26140165200638921 0 -0.0010988800717985641 0.27612506461500019 0 0.009086994139923095 0.26140165200638921 0 0.02627912150193995 0.26628746332017011 0 -0.0010988800717985641 0.27612506461500019 0 0.02627912150193995 0.26628746332017011 0 -0.0010988800717985641 0.27612506461500019 0 0.016848120903846839 0.28790234493178729 0 0.02627912150193995 0.26628746332017011 0 0.034206726977202298 0.28372315016392341 0 0.016848120903846839 0.28790234493178729 0 0.02627912150193995 0.26628746332017011 0 0.02627912150193995 0.26628746332017011 0 0.042854708387048052 0.27266591223783121 0 0.053657123075677653 0.25644986202533759 0 0.02627912150193995 0.26628746332017011 0 0.053657123075677653 0.25644986202533759 0 0.045108599420089157 0.24395067529032369 0 0.02627912150193995 0.26628746332017011 0 0.053657123075677653 0.25644986202533759 0 0.034206726977202298 0.28372315016392341 0 0.02627912150193995 0.26628746332017011 0 0.042854708387048052 0.27266591223783121 0 0.045490464570784282 0.28280023173921132 0 0.034206726977202298 0.28372315016392341 0 0.042854708387048052 0.27266591223783121 0 0.042854708387048052 0.27266591223783121 0 0.054640105809635207 0.274068853940511 0 0.053657123075677653 0.25644986202533759 0 0.045490464570784282 0.28280023173921132 0 0.042854708387048052 0.27266591223783121 0 0.054640105809635207 0.274068853940511 0 0.054640105809635207 0.274068853940511 0 0.053657123075677653 0.25644986202533759 0 0.069102093616995264 0.26520976223600012 0 0.054640105809635207 0.274068853940511 0 0.053657123075677653 0.25644986202533759 0 0.077821885225998436 0.24776685808953491 0 0.053657123075677653 0.25644986202533759 0 0.077821885225998436 0.24776685808953491 0 0.053657123075677653 0.25644986202533759 0 0.069102093616995264 0.26520976223600012 0 0.077821885225998436 0.24776685808953491 0 0.069102093616995264 0.26520976223600012 0 0.090787051862541907 0.26102511833908237 0 0.090787051862541907 0.26102511833908237 0 0.080138205381467223 0.27570127808527523 0 0.098166168045905847 0.27770819480508618 0 0.069102093616995264 0.26520976223600012 0 0.090787051862541907 0.26102511833908237 0 0.080138205381467223 0.27570127808527523 0 0.069102093616995264 0.26520976223600012 0 0.080138205381467223 0.27570127808527523 0 0.067827925020752994 0.28019392992351472 0 0.054640105809635207 0.274068853940511 0 0.069102093616995264 0.26520976223600012 0 0.067827925020752994 0.28019392992351472 0 0.080138205381467223 0.27570127808527523 0 0.067827925020752994 0.28019392992351472 0 0.079388730567544127 0.29343370244006262 0 0.058386803762508932 0.29153060420283339 0 0.067827925020752994 0.28019392992351472 0 0.079388730567544127 0.29343370244006262 0 0.072351274721856013 0.31334398186375961 0 0.058386803762508932 0.29153060420283339 0 0.079388730567544127 0.29343370244006262 0 0.072351274721856013 0.31334398186375961 0 0.058386803762508932 0.29153060420283339 0 0.072351274721856013 0.31334398186375961 0 0.057186802441435133 0.30864616532542771 0 0.058386803762508932 0.29153060420283339 0 0.072351274721856013 0.31334398186375961 0 0.092654707796012856 0.30930096609492591 0 0.079388730567544127 0.29343370244006262 0 0.092654707796012856 0.30930096609492591 0 0.079388730567544127 0.29343370244006262 0 0.1042842807472882 0.2948076229180997 0 0.080138205381467223 0.27570127808527523 0 0.079388730567544127 0.29343370244006262 0 0.098166168045905847 0.27770819480508618 0 0.079388730567544127 0.29343370244006262 0 0.1042842807472882 0.2948076229180997 0 0.098166168045905847 0.27770819480508618 0 0.1042842807472882 0.2948076229180997 0 0.12355021418147739 0.28315708337917911 0 0.098166168045905847 0.27770819480508618 0 0.1085140679023668 0.31607215846179049 0 0.092654707796012856 0.30930096609492591 0 0.1042842807472882 0.2948076229180997 0 0.1085140679023668 0.31607215846179049 0 0.1042842807472882 0.2948076229180997 0 0.1191211202746205 0.30303694054839692 0 0.1042842807472882 0.2948076229180997 0 0.1191211202746205 0.30303694054839692 0 0.12355021418147739 0.28315708337917911 0 0.12355021418147739 0.28315708337917911 0 0.1106518028105558 0.26408204856852108 0 0.098166168045905847 0.27770819480508618 0 0.12355021418147739 0.28315708337917911 0 0.1106518028105558 0.26408204856852108 0 0.1357730733407361 0.26704189249019228 0 0.1106518028105558 0.26408204856852108 0 0.1237548121372911 0.25040365365415101 0 0.1357730733407361 0.26704189249019228 0 0.10198664737631841 0.23908385415372971 0 0.1106518028105558 0.26408204856852108 0 0.1237548121372911 0.25040365365415101 0 0.10198664737631841 0.23908385415372971 0 0.090787051862541907 0.26102511833908237 0 0.1106518028105558 0.26408204856852108 0 0.090787051862541907 0.26102511833908237 0 0.1106518028105558 0.26408204856852108 0 0.098166168045905847 0.27770819480508618 0 0.1357730733407361 0.26704189249019228 0 0.16227084573777659 0.27241839546284891 0 0.1357730733407361 0.26704189249019228 0 0.14302073676843441 0.28282831827815358 0 0.16227084573777659 0.27241839546284891 0 0.144211127632207 0.25140962284038709 0 0.1357730733407361 0.26704189249019228 0 0.16227084573777659 0.27241839546284891 0 0.144211127632207 0.25140962284038709 0 0.16227084573777659 0.27241839546284891 0 0.1237548121372911 0.25040365365415101 0 0.144211127632207 0.25140962284038709 0 0.1357730733407361 0.26704189249019228 0 0.12355021418147739 0.28315708337917911 0 0.1357730733407361 0.26704189249019228 0 0.14302073676843441 0.28282831827815358 0 0.12355021418147739 0.28315708337917911 0 0.13634294048644471 0.29882373002425772 0 0.14302073676843441 0.28282831827815358 0 0.1191211202746205 0.30303694054839692 0 0.12355021418147739 0.28315708337917911 0 0.13634294048644471 0.29882373002425772 0 0.1245346445823074 0.32833600024269077 0 0.1191211202746205 0.30303694054839692 0 0.13634294048644471 0.29882373002425772 0 0.1245346445823074 0.32833600024269077 0 0.13634294048644471 0.29882373002425772 0 0.14991574074249631 0.31015208874251771 0 0.13634294048644471 0.29882373002425772 0 0.14991574074249631 0.31015208874251771 0 0.15716661009573721 0.29270049003429049 0 0.14302073676843441 0.28282831827815358 0 0.15716661009573721 0.29270049003429049 0 0.16227084573777659 0.27241839546284891 0 0.13634294048644471 0.29882373002425772 0 0.14302073676843441 0.28282831827815358 0 0.15716661009573721 0.29270049003429049 0 0.15716661009573721 0.29270049003429049 0 0.16913114185933459 0.30859601049949248 0 0.17628774142582301 0.28872417458196881 0 0.15716661009573721 0.29270049003429049 0 0.17628774142582301 0.28872417458196881 0 0.16227084573777659 0.27241839546284891 0 0.14991574074249631 0.31015208874251771 0 0.15716661009573721 0.29270049003429049 0 0.16913114185933459 0.30859601049949248 0 0.16913114185933459 0.30859601049949248 0 0.17628774142582301 0.28872417458196881 0 0.1903046371138703 0.30502995370108787 0 0.17628774142582301 0.28872417458196881 0 0.1903046371138703 0.30502995370108787 0 0.17628774142582301 0.28872417458196881 0 0.1903016909948344 0.28894432002911141 0 0.1903046371138703 0.30502995370108787 0 0.17628774142582301 0.28872417458196881 0 0.18242182469480581 0.27650710890792468 0 0.1903016909948344 0.28894432002911141 0 0.18242182469480581 0.27650710890792468 0 0.16227084573777659 0.27241839546284891 0 0.18242182469480581 0.27650710890792468 0 0.16227084573777659 0.27241839546284891 0 0.1784092948357425 0.26359973091277222 0 0.17628774142582301 0.28872417458196881 0 0.18242182469480581 0.27650710890792468 0 0.16227084573777659 0.27241839546284891 0 0.18242182469480581 0.27650710890792468 0 0.1784092948357425 0.26359973091277222 0 0.1938326578165806 0.26815969771526882 0 0.17628774142582301 0.28872417458196881 0 0.16227084573777659 0.27241839546284891 0 0.16227084573777659 0.27241839546284891 0 0.16896730229524981 0.2512227884657301 0 0.1784092948357425 0.26359973091277222 0 0.144211127632207 0.25140962284038709 0 0.16227084573777659 0.27241839546284891 0 0.16896730229524981 0.2512227884657301 0 0.16896730229524981 0.2512227884657301 0 0.1784092948357425 0.26359973091277222 0 0.18740846823947421 0.25365170427473249 0 0.1784092948357425 0.26359973091277222 0 0.18740846823947421 0.25365170427473249 0 0.1938326578165806 0.26815969771526882 0 0.19888840209116129 0.23547693410533971 0 0.19900909774743891 0.25729818564446988 0 0.21080609235001219 0.26008073495171019 0 0.18740846823947421 0.25365170427473249 0 0.19900909774743891 0.25729818564446988 0 0.1938326578165806 0.26815969771526882 0 0.19900909774743891 0.25729818564446988 0 0.1938326578165806 0.26815969771526882 0 0.20410986823996641 0.26912185717529807 0 0.18242182469480581 0.27650710890792468 0 0.20257280365183489 0.28059582235300201 0 0.18242182469480581 0.27650710890792468 0 0.1938326578165806 0.26815969771526882 0 0.20257280365183489 0.28059582235300201 0 0.1938326578165806 0.26815969771526882 0 0.20257280365183489 0.28059582235300201 0 0.20410986823996641 0.26912185717529807 0 0.21080609235001219 0.26008073495171019 0 0.2227237826088638 0.2846845357980804 0 0.20257280365183489 0.28059582235300201 0 0.21106975605418801 0.27484167990934549 0 0.2227237826088638 0.2846845357980804 0 0.21106975605418801 0.27484167990934549 0 0.21080609235001219 0.26008073495171019 0 0.2227237826088638 0.2846845357980804 0 0.20257280365183489 0.28059582235300201 0 0.20410986823996641 0.26912185717529807 0 0.21106975605418801 0.27484167990934549 0 0.20410986823996641 0.26912185717529807 0 0.21106975605418801 0.27484167990934549 0 0.21080609235001219 0.26008073495171019 0 0.19900909774743891 0.25729818564446988 0 0.20410986823996641 0.26912185717529807 0 0.21080609235001219 0.26008073495171019 0 0.21080609235001219 0.26008073495171019 0 0.2212217565830962 0.25864056565276378 0 0.22274206173530051 0.26870572444536772 0 0.21861583773316909 0.2480079147206064 0 0.21080609235001219 0.26008073495171019 0 0.2212217565830962 0.25864056565276378 0 0.21861583773316909 0.2480079147206064 0 0.22683051227471149 0.25517232926798589 0 0.2212217565830962 0.25864056565276378 0 0.22979591571459801 0.2454676059297104 0 0.22683051227471149 0.25517232926798589 0 0.236167923816374 0.26089749014594171 0 0.22683051227471149 0.25517232926798589 0 0.22861908566897529 0.26281408040918802 0 0.236167923816374 0.26089749014594171 0 0.22861908566897529 0.26281408040918802 0 0.236167923816374 0.26089749014594171 0 0.23457905838481691 0.26473379894782068 0 0.22861908566897529 0.26281408040918802 0 0.2301732012195527 0.26873457399524858 0 0.23457905838481691 0.26473379894782068 0 0.22861908566897529 0.26281408040918802 0 0.2212217565830962 0.25864056565276378 0 0.22274206173530051 0.26870572444536772 0 0.22683051227471149 0.25517232926798589 0 0.22861908566897529 0.26281408040918802 0 0.2212217565830962 0.25864056565276378 0 0.22274206173530051 0.26870572444536772 0 0.22716569729339561 0.27621787095215528 0 0.2227237826088638 0.2846845357980804 0 0.21080609235001219 0.26008073495171019 0 0.22274206173530051 0.26870572444536772 0 0.2227237826088638 0.2846845357980804 0 0.22716569729339561 0.27621787095215528 0 0.23400276260091271 0.27847903621448039 0 0.23534309892208111 0.27222697874991769 0 0.22716569729339561 0.27621787095215528 0 0.23400276260091271 0.27847903621448039 0 0.2227237826088638 0.2846845357980804 0 0.22716569729339561 0.27621787095215528 0 0.2301732012195527 0.26873457399524858 0 0.23534309892208111 0.27222697874991769 0 0.22861908566897529 0.26281408040918802 0 0.22274206173530051 0.26870572444536772 0 0.2301732012195527 0.26873457399524858 0 0.22274206173530051 0.26870572444536772 0 0.22716569729339561 0.27621787095215528 0 0.2301732012195527 0.26873457399524858 0 0.2301732012195527 0.26873457399524858 0 0.23471625421524789 0.26836957829965641 0 0.23534309892208111 0.27222697874991769 0 0.2301732012195527 0.26873457399524858 0 0.23471625421524789 0.26836957829965641 0 0.23457905838481691 0.26473379894782068 0 0.23986011568388679 0.27529558036022722 0 0.24814193398909379 0.26747883641728087 0 0.23753995914326589 0.28769079670133441 0 0.24469312351334099 0.28084461689483831 0 0.24814193398909379 0.26747883641728087 0 0.23753995914326589 0.28769079670133441 0 0.24814193398909379 0.26747883641728087 0 0.23753995914326589 0.28769079670133441 0 0.23808757755473839 0.26857508792118212 0 0.2389600935266202 0.26567329158790692 0 0.23457905838481691 0.26473379894782068 0 0.23808757755473839 0.26857508792118212 0 0.23471625421524789 0.26836957829965641 0 0.23457905838481691 0.26473379894782068 0 0.23808757755473839 0.26857508792118212 0 0.23471625421524789 0.26836957829965641 0 0.23534309892208111 0.27222697874991769 0 0.23808757755473839 0.26857508792118212 0 0.23534309892208111 0.27222697874991769 0 0.24096916414652311 0.26997476436338891 0 0.23534309892208111 0.27222697874991769 0 0.24096916414652311 0.26997476436338891 0 0.23986011568388679 0.27529558036022722 0 0.23808757755473839 0.26857508792118212 0 0.24096916414652311 0.26997476436338891 0 0.2389600935266202 0.26567329158790692 0 0.24096916414652311 0.26997476436338891 0 0.2389600935266202 0.26567329158790692 0 0.24359250206673699 0.26707494577339719 0 0.23400276260091271 0.27847903621448039 0 0.23986011568388679 0.27529558036022722 0 0.23753995914326589 0.28769079670133441 0 0.23400276260091271 0.27847903621448039 0 0.23534309892208111 0.27222697874991769 0 0.23986011568388679 0.27529558036022722 0 0.24469312351334099 0.28084461689483831 0 0.24974881049697181 0.27565606026683231 0 0.25356056632276941 0.278496798151594 0 0.24469312351334099 0.28084461689483831 0 0.24859510455974981 0.27415127501483499 0 0.24814193398909379 0.26747883641728087 0 0.24469312351334099 0.28084461689483831 0 0.24859510455974981 0.27415127501483499 0 0.24974881049697181 0.27565606026683231 0 0.24096916414652311 0.26997476436338891 0 0.23986011568388679 0.27529558036022722 0 0.24814193398909379 0.26747883641728087 0 0.24096916414652311 0.26997476436338891 0 0.24359250206673699 0.26707494577339719 0 0.24814193398909379 0.26747883641728087 0 0.24859510455974981 0.27415127501483499 0 0.24814193398909379 0.26747883641728087 0 0.25175082265017062 0.27176378157205289 0 0.24814193398909379 0.26747883641728087 0 0.24765272800574811 0.26435603050115092 0 0.24545517582202259 0.26015212901290302 0 0.24765272800574811 0.26435603050115092 0 0.24545517582202259 0.26015212901290302 0 0.24796660317796029 0.26109502635171888 0 0.24814193398909379 0.26747883641728087 0 0.25077181893251688 0.26293191046267989 0 0.22979591571459801 0.2454676059297104 0 0.24814193398909379 0.26747883641728087 0 0.236167923816374 0.26089749014594171 0 0.23872796406035879 0.24738402509289861 0 0.22979591571459801 0.2454676059297104 0 0.24545517582202259 0.26015212901290302 0 0.22979591571459801 0.2454676059297104 0 0.24814193398909379 0.26747883641728087 0 0.24359250206673699 0.26707494577339719 0 0.24814193398909379 0.26747883641728087 0 0.236167923816374 0.26089749014594171 0 0.22979591571459801 0.2454676059297104 0 0.24814193398909379 0.26747883641728087 0 0.24545517582202259 0.26015212901290302 0 0.24814193398909379 0.26747883641728087 0 0.24765272800574811 0.26435603050115092 0 0.25077181893251688 0.26293191046267989 0 0.24765272800574811 0.26435603050115092 0 0.24796660317796029 0.26109502635171888 0 0.25077181893251688 0.26293191046267989 0 0.24545517582202259 0.26015212901290302 0 0.2475159055082298 0.25856323898562011 0 0.2464157001646495 0.25579338651301031 0 0.24545517582202259 0.26015212901290302 0 0.2475159055082298 0.25856323898562011 0 0.24796660317796029 0.26109502635171888 0 0.24796660317796029 0.26109502635171888 0 0.24963802538920571 0.26062575329037152 0 0.2491252010854072 0.25880630341819288 0 0.24796660317796029 0.26109502635171888 0 0.24963802538920571 0.26062575329037152 0 0.25077181893251688 0.26293191046267989 0 0.2475159055082298 0.25856323898562011 0 0.24796660317796029 0.26109502635171888 0 0.2491252010854072 0.25880630341819288 0 0.2475159055082298 0.25856323898562011 0 0.2491252010854072 0.25880630341819288 0 0.24861684729110919 0.25696934963227558 0 0.2464157001646495 0.25579338651301031 0 0.24754718126061201 0.25173994340319622 0 0.25013500106127667 0.25456069218899802 0 0.24545517582202259 0.26015212901290302 0 0.2464157001646495 0.25579338651301031 0 0.24406129295716719 0.25221772367660628 0 0.23872796406035879 0.24738402509289861 0 0.24545517582202259 0.26015212901290302 0 0.24406129295716719 0.25221772367660628 0 0.24861684729110919 0.25696934963227558 0 0.25013500106127667 0.25456069218899802 0 0.2505394965135781 0.25735616064213468 0 0.2491252010854072 0.25880630341819288 0 0.24861684729110919 0.25696934963227558 0 0.2505394965135781 0.25735616064213468 0 0.24861684729110919 0.25696934963227558 0 0.2464157001646495 0.25579338651301031 0 0.25013500106127667 0.25456069218899802 0 0.2475159055082298 0.25856323898562011 0 0.24861684729110919 0.25696934963227558 0 0.2464157001646495 0.25579338651301031 0 0.24754718126061201 0.25173994340319622 0 0.25114480103714221 0.2503150809598027 0 0.25013500106127667 0.25456069218899802 0 0.2464157001646495 0.25579338651301031 0 0.24754718126061201 0.25173994340319622 0 0.24406129295716719 0.25221772367660628 0 0.2389600935266202 0.26567329158790692 0 0.236167923816374 0.26089749014594171 0 0.23457905838481691 0.26473379894782068 0 0.2389600935266202 0.26567329158790692 0 0.24359250206673699 0.26707494577339719 0 0.236167923816374 0.26089749014594171 0 0.24430837153511539 0.30471362827615778 0 0.24690670309572349 0.32048091748518159 0 0.25140429275343101 0.30402446948105671 0 0.23627897507287479 0.30779030507430222 0 0.24430837153511539 0.30471362827615778 0 0.24690670309572349 0.32048091748518159 0 0.23860734010356929 0.29838263698501438 0 0.23627897507287479 0.30779030507430222 0 0.24430837153511539 0.30471362827615778 0 0.23860734010356929 0.29838263698501438 0 0.23627897507287479 0.30779030507430222 0 0.22898990340370631 0.30322888184576868 0 0.23860734010356929 0.29838263698501438 0 0.24430837153511539 0.30471362827615778 0 0.24861220915978899 0.28993740008503938 0 0.24430837153511539 0.30471362827615778 0 0.24861220915978899 0.28993740008503938 0 0.25140429275343101 0.30402446948105671 0 0.24469312351334099 0.28084461689483831 0 0.24861220915978899 0.28993740008503938 0 0.25356056632276941 0.278496798151594 0 0.24861220915978899 0.28993740008503938 0 0.23753995914326589 0.28769079670133441 0 0.24469312351334099 0.28084461689483831 0 0.24861220915978899 0.28993740008503938 0 0.23753995914326589 0.28769079670133441 0 0.23860734010356929 0.29838263698501438 0 0.24861220915978899 0.28993740008503938 0 0.23753995914326589 0.28769079670133441 0 0.23860734010356929 0.29838263698501438 0 0.23753995914326589 0.28769079670133441 0 0.22898990340370631 0.30322888184576868 0 0.23753995914326589 0.28769079670133441 0 0.22687289239818881 0.2932502787171401 0 0.22898990340370631 0.30322888184576868 0 0.23753995914326589 0.28769079670133441 0 0.22898990340370631 0.30322888184576868 0 0.22687289239818881 0.2932502787171401 0 0.2227237826088638 0.2846845357980804 0 0.2107302889852824 0.29211481946419821 0 0.22687289239818881 0.2932502787171401 0 0.22175823311283069 0.30184023675432731 0 0.2107302889852824 0.29211481946419821 0 0.23753995914326589 0.28769079670133441 0 0.2227237826088638 0.2846845357980804 0 0.23400276260091271 0.27847903621448039 0 0.23753995914326589 0.28769079670133441 0 0.2227237826088638 0.2846845357980804 0 0.23753995914326589 0.28769079670133441 0 0.22687289239818881 0.2932502787171401 0 0.2227237826088638 0.2846845357980804 0 0.22687289239818881 0.2932502787171401 0 0.2227237826088638 0.2846845357980804 0 0.22175823311283069 0.30184023675432731 0 0.22898990340370631 0.30322888184576868 0 0.22043984766414551 0.31876696699020252 0 0.22687289239818881 0.2932502787171401 0 0.22175823311283069 0.30184023675432731 0 0.22898990340370631 0.30322888184576868 0 0.23627897507287479 0.30779030507430222 0 0.22898990340370631 0.30322888184576868 0 0.23167700497023591 0.31673277441472991 0 0.22898990340370631 0.30322888184576868 0 0.22043984766414551 0.31876696699020252 0 0.2093132257230671 0.31035515684366921 0 0.2107302889852824 0.29211481946419821 0 0.21476743301072451 0.31310259214796698 0 0.2107302889852824 0.29211481946419821 0 0.21476743301072451 0.31310259214796698 0 0.22043984766414551 0.31876696699020252 0 0.2093132257230671 0.31035515684366921 0 0.2107302889852824 0.29211481946419821 0 0.2028845845279493 0.30281014522038419 0 0.22175823311283069 0.30184023675432731 0 0.2107302889852824 0.29211481946419821 0 0.22043984766414551 0.31876696699020252 0 0.2107302889852824 0.29211481946419821 0 0.22043984766414551 0.31876696699020252 0 0.2093132257230671 0.31035515684366921 0 0.20292292583186999 0.31134894327783869 0 0.2028845845279493 0.30281014522038419 0 0.20257280365183489 0.28059582235300201 0 0.2227237826088638 0.2846845357980804 0 0.2107302889852824 0.29211481946419821 0 0.20257280365183489 0.28059582235300201 0 0.2227237826088638 0.2846845357980804 0 0.2107302889852824 0.29211481946419821 0 0.19963438327504021 0.29388212812809561 0 0.2028845845279493 0.30281014522038419 0 0.20257280365183489 0.28059582235300201 0 0.2107302889852824 0.29211481946419821 0 0.19963438327504021 0.29388212812809561 0 0.18242182469480581 0.27650710890792468 0 0.20257280365183489 0.28059582235300201 0 0.1903016909948344 0.28894432002911141 0 0.19963438327504021 0.29388212812809561 0 0.1903016909948344 0.28894432002911141 0 0.1903046371138703 0.30502995370108787 0 0.20257280365183489 0.28059582235300201 0 0.19963438327504021 0.29388212812809561 0 0.1903016909948344 0.28894432002911141 0 0.20292292583186999 0.31134894327783869 0 0.2028845845279493 0.30281014522038419 0 0.1903046371138703 0.30502995370108787 0 0.19963438327504021 0.29388212812809561 0 0.2028845845279493 0.30281014522038419 0 0.1903046371138703 0.30502995370108787 0 0.20292292583186999 0.31134894327783869 0 0.1903046371138703 0.30502995370108787 0 0.20432153280191759 0.32133573282020711 0 0.2013085728643895 0.33448142872622921 0 0.2123459087535868 0.32356959727899248 0 0.18307548736316021 0.32515839826689191 0 0.20432153280191759 0.32133573282020711 0 0.2123459087535868 0.32356959727899248 0 0.18307548736316021 0.32515839826689191 0 0.1903046371138703 0.30502995370108787 0 0.20432153280191759 0.32133573282020711 0 0.18307548736316021 0.32515839826689191 0 0.2123459087535868 0.32356959727899248 0 0.18307548736316021 0.32515839826689191 0 0.1903046371138703 0.30502995370108787 0 0.20432153280191759 0.32133573282020711 0 0.2013085728643895 0.33448142872622921 0 0.1932178809950372 0.34403381108965569 0 0.18307548736316021 0.32515839826689191 0 0.2013085728643895 0.33448142872622921 0 0.20681327916622719 0.34498010597381129 0 0.1932178809950372 0.34403381108965569 0 0.2257695956147294 0.33339680067819472 0 0.21830915544543389 0.34698075917447319 0 0.20681327916622719 0.34498010597381129 0 0.2257695956147294 0.33339680067819472 0 0.20681327916622719 0.34498010597381129 0 0.2125027156688829 0.33330540814485121 0 0.2257695956147294 0.33339680067819472 0 0.20681327916622719 0.34498010597381129 0 0.2013085728643895 0.33448142872622921 0 0.2125027156688829 0.33330540814485121 0 0.20681327916622719 0.34498010597381129 0 0.2013085728643895 0.33448142872622921 0 0.2125027156688829 0.33330540814485121 0 0.2123459087535868 0.32356959727899248 0 0.20292292583186999 0.31134894327783869 0 0.2079507931304416 0.31706643108933968 0 0.20432153280191759 0.32133573282020711 0 0.2079507931304416 0.31706643108933968 0 0.2123459087535868 0.32356959727899248 0 0.2122468294242193 0.3174382978755047 0 0.2093132257230671 0.31035515684366921 0 0.2079507931304416 0.31706643108933968 0 0.2122468294242193 0.3174382978755047 0 0.2093132257230671 0.31035515684366921 0 0.20292292583186999 0.31134894327783869 0 0.2079507931304416 0.31706643108933968 0 0.2079507931304416 0.31706643108933968 0 0.20432153280191759 0.32133573282020711 0 0.2123459087535868 0.32356959727899248 0 0.2125027156688829 0.33330540814485121 0 0.2123459087535868 0.32356959727899248 0 0.2191010371953756 0.32737946231314152 0 0.2123459087535868 0.32356959727899248 0 0.2172595742133564 0.3229827493111837 0 0.2191010371953756 0.32737946231314152 0 0.2172595742133564 0.3229827493111837 0 0.215936225302159 0.31936949367622058 0 0.22043984766414551 0.31876696699020252 0 0.2123459087535868 0.32356959727899248 0 0.2172595742133564 0.3229827493111837 0 0.215936225302159 0.31936949367622058 0 0.21795605212267999 0.31775942625512799 0 0.21476743301072451 0.31310259214796698 0 0.22043984766414551 0.31876696699020252 0 0.215936225302159 0.31936949367622058 0 0.21795605212267999 0.31775942625512799 0 0.22043984766414551 0.31876696699020252 0 0.215936225302159 0.31936949367622058 0 0.21795605212267999 0.31775942625512799 0 0.21476743301072451 0.31310259214796698 0 0.2123459087535868 0.32356959727899248 0 0.215936225302159 0.31936949367622058 0 0.2122468294242193 0.3174382978755047 0 0.215936225302159 0.31936949367622058 0 0.2122468294242193 0.3174382978755047 0 0.21476743301072451 0.31310259214796698 0 0.2093132257230671 0.31035515684366921 0 0.2122468294242193 0.3174382978755047 0 0.21476743301072451 0.31310259214796698 0 0.22043984766414551 0.31876696699020252 0 0.23167700497023591 0.31673277441472991 0 0.2257695956147294 0.33339680067819472 0 0.22898990340370631 0.30322888184576868 0 0.22043984766414551 0.31876696699020252 0 0.23167700497023591 0.31673277441472991 0 0.22043984766414551 0.31876696699020252 0 0.2257695956147294 0.33339680067819472 0 0.2172595742133564 0.3229827493111837 0 0.22043984766414551 0.31876696699020252 0 0.2191010371953756 0.32737946231314152 0 0.22043984766414551 0.31876696699020252 0 0.2191010371953756 0.32737946231314152 0 0.2257695956147294 0.33339680067819472 0 0.2125027156688829 0.33330540814485121 0 0.2191010371953756 0.32737946231314152 0 0.2257695956147294 0.33339680067819472 0 0.2257695956147294 0.33339680067819472 0 0.24210995853007361 0.33902833068296429 0 0.23322120005381891 0.3538510012638878 0 0.2257695956147294 0.33339680067819472 0 0.23322120005381891 0.3538510012638878 0 0.24210995853007361 0.33902833068296429 0 0.24690670309572349 0.32048091748518159 0 0.25671527198553967 0.33798730398705912 0 0.2257695956147294 0.33339680067819472 0 0.24210995853007361 0.33902833068296429 0 0.24690670309572349 0.32048091748518159 0 0.23167700497023591 0.31673277441472991 0 0.2257695956147294 0.33339680067819472 0 0.24690670309572349 0.32048091748518159 0 0.2257695956147294 0.33339680067819472 0 0.24690670309572349 0.32048091748518159 0 0.23627897507287479 0.30779030507430222 0 0.23167700497023591 0.31673277441472991 0 0.24690670309572349 0.32048091748518159 0 0.23322120005381891 0.3538510012638878 0 0.2414799555367951 0.37652078233155711 0 0.24563243924907771 0.36340839440377848 0 0.23322120005381891 0.3538510012638878 0 0.2414799555367951 0.37652078233155711 0 0.24563243924907771 0.36340839440377848 0 0.2414799555367951 0.37652078233155711 0 0.25474883095265249 0.3708773854403154 0 0.24563243924907771 0.36340839440377848 0 0.23322120005381891 0.3538510012638878 0 0.25307977045304431 0.35238440857935388 0 0.23322120005381891 0.3538510012638878 0 0.25307977045304431 0.35238440857935388 0 0.24210995853007361 0.33902833068296429 0 0.23322120005381891 0.3538510012638878 0 0.25307977045304431 0.35238440857935388 0 0.2257695956147294 0.33339680067819472 0 0.23322120005381891 0.3538510012638878 0 0.21830915544543389 0.34698075917447319 0 0.23322120005381891 0.3538510012638878 0 0.22735808088292811 0.37051178595922418 0 0.2414799555367951 0.37652078233155711 0 0.23322120005381891 0.3538510012638878 0 0.22735808088292811 0.37051178595922418 0 0.21665140716702869 0.36506373705116418 0 0.22735808088292811 0.37051178595922418 0 0.21665140716702869 0.36506373705116418 0 0.21655023624882591 0.37716947337851447 0 0.21665140716702869 0.36506373705116418 0 0.2026323604836876 0.37189472207200852 0 0.21655023624882591 0.37716947337851447 0 0.21665140716702869 0.36506373705116418 0 0.20326736192691 0.35606314841182479 0 0.2026323604836876 0.37189472207200852 0 0.23322120005381891 0.3538510012638878 0 0.21830915544543389 0.34698075917447319 0 0.20326736192691 0.35606314841182479 0 0.23322120005381891 0.3538510012638878 0 0.21665140716702869 0.36506373705116418 0 0.20326736192691 0.35606314841182479 0 0.23322120005381891 0.3538510012638878 0 0.20326736192691 0.35606314841182479 0 0.21830915544543389 0.34698075917447319 0 0.20326736192691 0.35606314841182479 0 0.20681327916622719 0.34498010597381129 0 0.20681327916622719 0.34498010597381129 0 0.1879038117006914 0.35719777542259668 0 0.20326736192691 0.35606314841182479 0 0.20681327916622719 0.34498010597381129 0 0.1879038117006914 0.35719777542259668 0 0.20681327916622719 0.34498010597381129 0 0.1879038117006914 0.35719777542259668 0 0.1932178809950372 0.34403381108965569 0 0.20326736192691 0.35606314841182479 0 0.1879038117006914 0.35719777542259668 0 0.20326736192691 0.35606314841182479 0 0.2026323604836876 0.37189472207200852 0 0.18915249303321721 0.36808114474833042 0 0.20326736192691 0.35606314841182479 0 0.1879038117006914 0.35719777542259668 0 0.18915249303321721 0.36808114474833042 0 0.2026323604836876 0.37189472207200852 0 0.18915249303321721 0.36808114474833042 0 0.1888590075990339 0.38238167430726128 0 0.1879038117006914 0.35719777542259668 0 0.18915249303321721 0.36808114474833042 0 0.17331352380000101 0.35827529555975951 0 0.18915249303321721 0.36808114474833042 0 0.17331352380000101 0.35827529555975951 0 0.17609220146464291 0.375062290544876 0 0.16114910272027019 0.37249005786897171 0 0.17331352380000101 0.35827529555975951 0 0.17609220146464291 0.375062290544876 0 0.16114910272027019 0.37249005786897171 0 0.17331352380000101 0.35827529555975951 0 0.15000087712925511 0.35163726256424871 0 0.1642568514790527 0.34616820368698581 0 0.17331352380000101 0.35827529555975951 0 0.15000087712925511 0.35163726256424871 0 0.1879038117006914 0.35719777542259668 0 0.17331352380000101 0.35827529555975951 0 0.1787564240439454 0.34188248524310511 0 0.1642568514790527 0.34616820368698581 0 0.17331352380000101 0.35827529555975951 0 0.1787564240439454 0.34188248524310511 0 0.1879038117006914 0.35719777542259668 0 0.17331352380000101 0.35827529555975951 0 0.1879038117006914 0.35719777542259668 0 0.1932178809950372 0.34403381108965569 0 0.1787564240439454 0.34188248524310511 0 0.1932178809950372 0.34403381108965569 0 0.1787564240439454 0.34188248524310511 0 0.18307548736316021 0.32515839826689191 0 0.1787564240439454 0.34188248524310511 0 0.18307548736316021 0.32515839826689191 0 0.15380506597273369 0.32674719925479129 0 0.16913114185933459 0.30859601049949248 0 0.1903046371138703 0.30502995370108787 0 0.18307548736316021 0.32515839826689191 0 0.18307548736316021 0.32515839826689191 0 0.15380506597273369 0.32674719925479129 0 0.16913114185933459 0.30859601049949248 0 0.18307548736316021 0.32515839826689191 0 0.15380506597273369 0.32674719925479129 0 0.14991574074249631 0.31015208874251771 0 0.16913114185933459 0.30859601049949248 0 0.15380506597273369 0.32674719925479129 0 0.1642568514790527 0.34616820368698581 0 0.1787564240439454 0.34188248524310511 0 0.15380506597273369 0.32674719925479129 0 0.1642568514790527 0.34616820368698581 0 0.15380506597273369 0.32674719925479129 0 0.15000087712925511 0.35163726256424871 0 0.1245346445823074 0.32833600024269077 0 0.15380506597273369 0.32674719925479129 0 0.15000087712925511 0.35163726256424871 0 0.1245346445823074 0.32833600024269077 0 0.14991574074249631 0.31015208874251771 0 0.15380506597273369 0.32674719925479129 0 0.1245346445823074 0.32833600024269077 0 0.15380506597273369 0.32674719925479129 0 0.1245346445823074 0.32833600024269077 0 0.12611350939531649 0.35827718664563252 0 0.15000087712925511 0.35163726256424871 0 0.12611350939531649 0.35827718664563252 0 0.14397658536997759 0.3731290873293443 0 0.1305294873686805 0.38013736261558212 0 0.12611350939531649 0.35827718664563252 0 0.14397658536997759 0.3731290873293443 0 0.15000087712925511 0.35163726256424871 0 0.16114910272027019 0.37249005786897171 0 0.14397658536997759 0.3731290873293443 0 0.15000087712925511 0.35163726256424871 0 0.1425945497936045 0.40559315969179538 0 0.15193393673985081 0.40079625400999269 0 0.14010349591896629 0.38989893174893109 0 0.15193393673985081 0.40079625400999269 0 0.15303000018395149 0.38607952223945929 0 0.14010349591896629 0.38989893174893109 0 0.14397658536997759 0.3731290873293443 0 0.15303000018395149 0.38607952223945929 0 0.14010349591896629 0.38989893174893109 0 0.16114910272027019 0.37249005786897171 0 0.14397658536997759 0.3731290873293443 0 0.15303000018395149 0.38607952223945929 0 0.14397658536997759 0.3731290873293443 0 0.1305294873686805 0.38013736261558212 0 0.14010349591896629 0.38989893174893109 0 0.1305294873686805 0.38013736261558212 0 0.14010349591896629 0.38989893174893109 0 0.1282091585592445 0.40059749250746429 0 0.1425945497936045 0.40559315969179538 0 0.14010349591896629 0.38989893174893109 0 0.1282091585592445 0.40059749250746429 0 0.1425945497936045 0.40559315969179538 0 0.1282091585592445 0.40059749250746429 0 0.14217362951859169 0.42241087016839057 0 0.12910222464055579 0.40741935404450069 0 0.1261680570909825 0.42761152876396741 0 0.14217362951859169 0.42241087016839057 0 0.1282091585592445 0.40059749250746429 0 0.12910222464055579 0.40741935404450069 0 0.14217362951859169 0.42241087016839057 0 0.1282091585592445 0.40059749250746429 0 0.14217362951859169 0.42241087016839057 0 0.1261680570909825 0.42761152876396741 0 0.14217362951859169 0.42241087016839057 0 0.13431027210841839 0.44190630180767032 0 0.14217362951859169 0.42241087016839057 0 0.1533104049018699 0.44621821939829748 0 0.13431027210841839 0.44190630180767032 0 0.14217362951859169 0.42241087016839057 0 0.16064864253628111 0.42015074981917733 0 0.1533104049018699 0.44621821939829748 0 0.15193393673985081 0.40079625400999269 0 0.14993271262714111 0.41322934614569878 0 0.16064864253628111 0.42015074981917733 0 0.14217362951859169 0.42241087016839057 0 0.14993271262714111 0.41322934614569878 0 0.16064864253628111 0.42015074981917733 0 0.1425945497936045 0.40559315969179538 0 0.14217362951859169 0.42241087016839057 0 0.14993271262714111 0.41322934614569878 0 0.1425945497936045 0.40559315969179538 0 0.15193393673985081 0.40079625400999269 0 0.14993271262714111 0.41322934614569878 0 0.16064864253628111 0.42015074981917733 0 0.17668891305763701 0.40793289771339297 0 0.17301285913744169 0.42001296234391239 0 0.16064864253628111 0.42015074981917733 0 0.17668891305763701 0.40793289771339297 0 0.16798688017069241 0.39408328024005712 0 0.16064864253628111 0.42015074981917733 0 0.16798688017069241 0.39408328024005712 0 0.16064864253628111 0.42015074981917733 0 0.16933196928969871 0.43706796859801522 0 0.17301285913744169 0.42001296234391239 0 0.16064864253628111 0.42015074981917733 0 0.16933196928969871 0.43706796859801522 0 0.1533104049018699 0.44621821939829748 0 0.16064864253628111 0.42015074981917733 0 0.1533104049018699 0.44621821939829748 0 0.17301285913744169 0.42001296234391239 0 0.19080449410274081 0.4158856059482024 0 0.19118059233041729 0.44064711797742567 0 0.16933196928969871 0.43706796859801522 0 0.17301285913744169 0.42001296234391239 0 0.19118059233041729 0.44064711797742567 0 0.17301285913744169 0.42001296234391239 0 0.19118059233041729 0.44064711797742567 0 0.17668891305763701 0.40793289771339297 0 0.18923135640850891 0.39987824413967782 0 0.19080449410274081 0.4158856059482024 0 0.17668891305763701 0.40793289771339297 0 0.17301285913744169 0.42001296234391239 0 0.19080449410274081 0.4158856059482024 0 0.17668891305763701 0.40793289771339297 0 0.16798688017069241 0.39408328024005712 0 0.18923135640850891 0.39987824413967782 0 0.16798688017069241 0.39408328024005712 0 0.1888590075990339 0.38238167430726128 0 0.18923135640850891 0.39987824413967782 0 0.15193393673985081 0.40079625400999269 0 0.15303000018395149 0.38607952223945929 0 0.16798688017069241 0.39408328024005712 0 0.15193393673985081 0.40079625400999269 0 0.16064864253628111 0.42015074981917733 0 0.16798688017069241 0.39408328024005712 0 0.16114910272027019 0.37249005786897171 0 0.16798688017069241 0.39408328024005712 0 0.17609220146464291 0.375062290544876 0 0.16114910272027019 0.37249005786897171 0 0.15303000018395149 0.38607952223945929 0 0.16798688017069241 0.39408328024005712 0 0.16798688017069241 0.39408328024005712 0 0.17609220146464291 0.375062290544876 0 0.1888590075990339 0.38238167430726128 0 0.18915249303321721 0.36808114474833042 0 0.17609220146464291 0.375062290544876 0 0.1888590075990339 0.38238167430726128 0 0.1888590075990339 0.38238167430726128 0 0.18923135640850891 0.39987824413967782 0 0.20410052243450311 0.38866643588107791 0 0.2026323604836876 0.37189472207200852 0 0.1888590075990339 0.38238167430726128 0 0.20410052243450311 0.38866643588107791 0 0.18923135640850891 0.39987824413967782 0 0.20565767005940491 0.4040569019309006 0 0.20410052243450311 0.38866643588107791 0 0.20565767005940491 0.4040569019309006 0 0.20410052243450311 0.38866643588107791 0 0.21977228378316421 0.39094418906442607 0 0.20565767005940491 0.4040569019309006 0 0.21977228378316421 0.39094418906442607 0 0.22296471164153531 0.40576225170887081 0 0.20410052243450311 0.38866643588107791 0 0.21655023624882591 0.37716947337851447 0 0.21977228378316421 0.39094418906442607 0 0.2026323604836876 0.37189472207200852 0 0.20410052243450311 0.38866643588107791 0 0.21655023624882591 0.37716947337851447 0 0.22888760540817191 0.37995393577099712 0 0.21977228378316421 0.39094418906442607 0 0.2388567712970939 0.38831981857459308 0 0.22735808088292811 0.37051178595922418 0 0.21655023624882591 0.37716947337851447 0 0.22888760540817191 0.37995393577099712 0 0.21655023624882591 0.37716947337851447 0 0.22888760540817191 0.37995393577099712 0 0.21977228378316421 0.39094418906442607 0 0.22735808088292811 0.37051178595922418 0 0.22888760540817191 0.37995393577099712 0 0.2414799555367951 0.37652078233155711 0 0.22296471164153531 0.40576225170887081 0 0.2388567712970939 0.38831981857459308 0 0.21977228378316421 0.39094418906442607 0 0.22296471164153531 0.40576225170887081 0 0.2388567712970939 0.38831981857459308 0 0.22296471164153531 0.40576225170887081 0 0.24700452705901491 0.39731184256776753 0 0.2388567712970939 0.38831981857459308 0 0.22296471164153531 0.40576225170887081 0 0.24700452705901491 0.39731184256776753 0 0.24875274529320859 0.41034313502267061 0 0.24700452705901491 0.39731184256776753 0 0.2388567712970939 0.38831981857459308 0 0.25529510740054662 0.38660849566249311 0 0.2388567712970939 0.38831981857459308 0 0.25474883095265249 0.3708773854403154 0 0.2414799555367951 0.37652078233155711 0 0.2388567712970939 0.38831981857459308 0 0.25474883095265249 0.3708773854403154 0 0.2388567712970939 0.38831981857459308 0 0.25529510740054662 0.38660849566249311 0 0.25474883095265249 0.3708773854403154 0 0.22888760540817191 0.37995393577099712 0 0.2414799555367951 0.37652078233155711 0 0.2388567712970939 0.38831981857459308 0 0.24851186324200861 0.42612127543322392 0 0.2304168464418824 0.42239153013484038 0 0.22664579396219109 0.44095205054320991 0 0.24851186324200861 0.42612127543322392 0 0.24875274529320859 0.41034313502267061 0 0.2304168464418824 0.42239153013484038 0 0.22296471164153531 0.40576225170887081 0 0.24875274529320859 0.41034313502267061 0 0.2304168464418824 0.42239153013484038 0 0.22296471164153531 0.40576225170887081 0 0.2304168464418824 0.42239153013484038 0 0.20707265198597671 0.42320468484314849 0 0.2304168464418824 0.42239153013484038 0 0.20707265198597671 0.42320468484314849 0 0.22664579396219109 0.44095205054320991 0 0.20707265198597671 0.42320468484314849 0 0.20870512962261961 0.44065302169585557 0 0.22664579396219109 0.44095205054320991 0 0.20565767005940491 0.4040569019309006 0 0.22296471164153531 0.40576225170887081 0 0.20707265198597671 0.42320468484314849 0 0.22296471164153531 0.40576225170887081 0 0.20707265198597671 0.42320468484314849 0 0.20565767005940491 0.4040569019309006 0 0.20707265198597671 0.42320468484314849 0 0.19080449410274081 0.4158856059482024 0 0.18923135640850891 0.39987824413967782 0 0.20565767005940491 0.4040569019309006 0 0.19080449410274081 0.4158856059482024 0 0.20707265198597671 0.42320468484314849 0 0.19080449410274081 0.4158856059482024 0 0.19118059233041729 0.44064711797742567 0 0.20707265198597671 0.42320468484314849 0 0.19118059233041729 0.44064711797742567 0 0.20870512962261961 0.44065302169585557 0 0.20707265198597671 0.42320468484314849 0 0.19118059233041729 0.44064711797742567 0 0.19118059233041729 0.44064711797742567 0 0.20649207451360671 0.45803726252610572 0 0.20870512962261961 0.44065302169585557 0 0.19118059233041729 0.44064711797742567 0 0.20649207451360671 0.45803726252610572 0 0.19118059233041729 0.44064711797742567 0 0.18918843909001659 0.46637554932048952 0 0.20649207451360671 0.45803726252610572 0 0.20649207451360671 0.45803726252610572 0 0.22447628523342089 0.45669601015256572 0 0.2218035566967908 0.47542740707479009 0 0.20649207451360671 0.45803726252610572 0 0.2218035566967908 0.47542740707479009 0 0.20649207451360671 0.45803726252610572 0 0.20870512962261961 0.44065302169585557 0 0.22447628523342089 0.45669601015256572 0 0.20870512962261961 0.44065302169585557 0 0.22664579396219109 0.44095205054320991 0 0.22447628523342089 0.45669601015256572 0 0.22664579396219109 0.44095205054320991 0 0.22447628523342089 0.45669601015256572 0 0.24387312118696991 0.44641362218798752 0 0.22447628523342089 0.45669601015256572 0 0.24535072876931971 0.46353714142564229 0 0.2218035566967908 0.47542740707479009 0 0.22447628523342089 0.45669601015256572 0 0.24535072876931971 0.46353714142564229 0 0.24387312118696991 0.44641362218798752 0 0.24851186324200861 0.42612127543322392 0 0.22664579396219109 0.44095205054320991 0 0.24387312118696991 0.44641362218798752 0 0.235507897628602 0.5 0 0.2339316947354308 0.49518830076074333 0 0.26058444884581539 0.49278245114111452 0 0.2477737713961462 0.48216639517777599 0 0.2339316947354308 0.49518830076074333 0 0.26058444884581539 0.49278245114111452 0 0.2339316947354308 0.49518830076074333 0 0.26058444884581539 0.49278245114111452 0 0.2477737713961462 0.48216639517777599 0 0.23262008305815901 0.48771236777867011 0 0.2339316947354308 0.49518830076074333 0 0.24535072876931971 0.46353714142564229 0 0.2477737713961462 0.48216639517777599 0 0.23262008305815901 0.48771236777867011 0 0.24535072876931971 0.46353714142564229 0 0.2218035566967908 0.47542740707479009 0 0.24535072876931971 0.46353714142564229 0 0.2218035566967908 0.47542740707479009 0 0.23262008305815901 0.48771236777867011 0 0.2218035566967908 0.47542740707479009 0 0.23262008305815901 0.48771236777867011 0 0.2218035566967908 0.47542740707479009 0 0.23262008305815901 0.48771236777867011 0 0.21860513812649141 0.48894045123797031 0 0.2339316947354308 0.49518830076074333 0 0.20727894062504609 0.49759415038037219 0 0.21860513812649141 0.48894045123797031 0 0.2339316947354308 0.49518830076074333 0 0.20727894062504609 0.49759415038037219 0 0.235507897628602 0.5 0 0.2339316947354308 0.49518830076074333 0 0.2080670420716316 0.5 0 0.23262008305815901 0.48771236777867011 0 0.2339316947354308 0.49518830076074333 0 0.21860513812649141 0.48894045123797031 0 0.20727894062504609 0.49759415038037219 0 0.21860513812649141 0.48894045123797031 0 0.19747209552716061 0.48771370353738919 0 0.2339316947354308 0.49518830076074333 0 0.20727894062504609 0.49759415038037219 0 0.2080670420716316 0.5 0 0.2218035566967908 0.47542740707479009 0 0.19747209552716061 0.48771370353738919 0 0.2218035566967908 0.47542740707479009 0 0.21860513812649141 0.48894045123797031 0 0.19747209552716061 0.48771370353738919 0 0.20649207451360671 0.45803726252610572 0 0.2218035566967908 0.47542740707479009 0 0.19747209552716061 0.48771370353738919 0 0.18918843909001659 0.46637554932048952 0 0.20649207451360671 0.45803726252610572 0 0.19747209552716061 0.48771370353738919 0 0.20727894062504609 0.49759415038037219 0 0.1806261865146612 0.50000000000000056 0 0.20727894062504609 0.49759415038037219 0 0.2080670420716316 0.5 0 0.1806261865146612 0.50000000000000056 0 0.20727894062504609 0.49759415038037219 0 0.19747209552716061 0.48771370353738919 0 0.1806261865146612 0.50000000000000056 0 0.19747209552716061 0.48771370353738919 0 0.1806261865146612 0.50000000000000056 0 0.1731406343575326 0.49999999999999262 0 0.19747209552716061 0.48771370353738919 0 0.1731406343575326 0.49999999999999262 0 0.19747209552716061 0.48771370353738919 0 0.1731406343575326 0.49999999999999262 0 0.1749998658708781 0.48021637039394388 0 0.1731406343575326 0.49999999999999262 0 0.16413130096485251 0.49011108356984889 0 0.1749998658708781 0.48021637039394388 0 0.1731406343575326 0.49999999999999262 0 0.16413130096485251 0.49011108356984889 0 0.15512196757217259 0.5 0 0.16413130096485251 0.49011108356984889 0 0.15512196757217259 0.5 0 0.15512906463468221 0.48021570599247859 0 0.1749998658708781 0.48021637039394388 0 0.17315482848255009 0.46043141198495252 0 0.15512906463468221 0.48021570599247859 0 0.16413130096485251 0.49011108356984889 0 0.1749998658708781 0.48021637039394388 0 0.15512906463468221 0.48021570599247859 0 0.17315482848255009 0.46043141198495252 0 0.15512906463468221 0.48021570599247859 0 0.18918843909001659 0.46637554932048952 0 0.19747209552716061 0.48771370353738919 0 0.1749998658708781 0.48021637039394388 0 0.18918843909001659 0.46637554932048952 0 0.1749998658708781 0.48021637039394388 0 0.17315482848255009 0.46043141198495252 0 0.19118059233041729 0.44064711797742567 0 0.18918843909001659 0.46637554932048952 0 0.17315482848255009 0.46043141198495252 0 0.16933196928969871 0.43706796859801522 0 0.19118059233041729 0.44064711797742567 0 0.17315482848255009 0.46043141198495252 0 0.19118059233041729 0.44064711797742567 0 0.17315482848255009 0.46043141198495252 0 0.16933196928969871 0.43706796859801522 0 0.17315482848255009 0.46043141198495252 0 0.1533104049018699 0.44621821939829748 0 0.17315482848255009 0.46043141198495252 0 0.15741919007476801 0.46144150724761168 0 0.1533104049018699 0.44621821939829748 0 0.17315482848255009 0.46043141198495252 0 0.15741919007476801 0.46144150724761168 0 0.15512906463468221 0.48021570599247859 0 0.1533104049018699 0.44621821939829748 0 0.14597216726745871 0.47228568897741757 0 0.15741919007476801 0.46144150724761168 0 0.1533104049018699 0.44621821939829748 0 0.14597216726745871 0.47228568897741757 0 0.1533104049018699 0.44621821939829748 0 0.13133079743650031 0.46265179081840963 0 0.14597216726745871 0.47228568897741757 0 0.1533104049018699 0.44621821939829748 0 0.13431027210841839 0.44190630180767032 0 0.13133079743650031 0.46265179081840963 0 0.1185684715941475 0.45063909988928658 0 0.1261680570909825 0.42761152876396741 0 0.13431027210841839 0.44190630180767032 0 0.1185684715941475 0.45063909988928658 0 0.13431027210841839 0.44190630180767032 0 0.13133079743650031 0.46265179081840963 0 0.13133079743650031 0.46265179081840963 0 0.13519621017317651 0.48349315062375697 0 0.14597216726745871 0.47228568897741757 0 0.1181865919462475 0.47585097273577792 0 0.13133079743650031 0.46265179081840963 0 0.13519621017317651 0.48349315062375697 0 0.1126322470475238 0.5 0 0.13519621017317651 0.48349315062375697 0 0.13710330078681271 0.50000000000000333 0 0.13710330078681271 0.50000000000000333 0 0.15512196757217259 0.5 0 0.15512906463468221 0.48021570599247859 0 0.13710330078681271 0.50000000000000333 0 0.15512906463468221 0.48021570599247859 0 0.13519621017317651 0.48349315062375697 0 0.13710330078681271 0.50000000000000333 0 0.15512906463468221 0.48021570599247859 0 0.13519621017317651 0.48349315062375697 0 0.15512906463468221 0.48021570599247859 0 0.14597216726745871 0.47228568897741757 0 0.15741919007476801 0.46144150724761168 0 0.15512906463468221 0.48021570599247859 0 0.14597216726745871 0.47228568897741757 0 0.3615355780257562 0.48366995061930029 0 0.35668503147167291 0.46451616159546238 0 0.34054271117696938 0.48556490228222798 0 0.35668503147167291 0.46451616159546238 0 0.33406124760529959 0.46577883700334788 0 0.34054271117696938 0.48556490228222798 0 0.3615355780257562 0.48366995061930029 0 0.34054271117696938 0.48556490228222798 0 0.34527131985648418 0.49999999999999711 0 0.3615355780257562 0.48366995061930029 0 0.34054271117696938 0.48556490228222798 0 0.34527131985648418 0.49999999999999711 0 0.37366170780626912 0.5 0 0.3615355780257562 0.48366995061930029 0 0.37366170780626912 0.5 0 0.3615355780257562 0.48366995061930029 0 0.38252844487454291 0.48177499895637271 0 0.3615355780257562 0.48366995061930029 0 0.38252844487454291 0.48177499895637271 0 0.37051413401241468 0.47277940772623789 0 0.3615355780257562 0.48366995061930029 0 0.38252844487454291 0.48177499895637271 0 0.37051413401241468 0.47277940772623789 0 0.3615355780257562 0.48366995061930029 0 0.35668503147167291 0.46451616159546238 0 0.36666013966788241 0.4491311782202384 0 0.35668503147167291 0.46451616159546238 0 0.37625666745501668 0.46053448708447842 0 0.37051413401241468 0.47277940772623789 0 0.35668503147167291 0.46451616159546238 0 0.37625666745501668 0.46053448708447842 0 0.36666013966788241 0.4491311782202384 0 0.37937629386806121 0.43872867722892561 0 0.37625666745501668 0.46053448708447842 0 0.36666013966788241 0.4491311782202384 0 0.3625084526778195 0.43700970929484612 0 0.37937629386806121 0.43872867722892561 0 0.36666013966788241 0.4491311782202384 0 0.35379119691684269 0.44553334291900698 0 0.3625084526778195 0.43700970929484612 0 0.35379119691684269 0.44553334291900698 0 0.34115051771231453 0.45207780047101448 0 0.33734039418391287 0.4336557722609074 0 0.36666013966788241 0.4491311782202384 0 0.35379119691684269 0.44553334291900698 0 0.35668503147167291 0.46451616159546238 0 0.35379119691684269 0.44553334291900698 0 0.35067679342197872 0.4315075318406601 0 0.3625084526778195 0.43700970929484612 0 0.35379119691684269 0.44553334291900698 0 0.35668503147167291 0.46451616159546238 0 0.34115051771231453 0.45207780047101448 0 0.35668503147167291 0.46451616159546238 0 0.33406124760529959 0.46577883700334788 0 0.34115051771231453 0.45207780047101448 0 0.33406124760529959 0.46577883700334788 0 0.32757978403363069 0.44599277172446739 0 0.33406124760529959 0.46577883700334788 0 0.34115051771231453 0.45207780047101448 0 0.32757978403363069 0.44599277172446739 0 0.34115051771231453 0.45207780047101448 0 0.32757978403363069 0.44599277172446739 0 0.33734039418391287 0.4336557722609074 0 0.32757978403363069 0.44599277172446739 0 0.31077593116618157 0.44431490519712952 0 0.31599224498690393 0.42786634447819399 0 0.32757978403363069 0.44599277172446739 0 0.30881476533589158 0.46309438616712051 0 0.31077593116618157 0.44431490519712952 0 0.33406124760529959 0.46577883700334788 0 0.32757978403363069 0.44599277172446739 0 0.30881476533589158 0.46309438616712051 0 0.33406124760529959 0.46577883700334788 0 0.31388995706658479 0.48797075190185668 0 0.30881476533589158 0.46309438616712051 0 0.33406124760529959 0.46577883700334788 0 0.34054271117696938 0.48556490228222798 0 0.33406124760529959 0.46577883700334788 0 0.34054271117696938 0.48556490228222798 0 0.31388995706658479 0.48797075190185668 0 0.34527131985648418 0.49999999999999711 0 0.34054271117696938 0.48556490228222798 0 0.31783046429951373 0.5 0 0.34527131985648418 0.49999999999999711 0 0.34054271117696938 0.48556490228222798 0 0.34054271117696938 0.48556490228222798 0 0.31388995706658479 0.48797075190185668 0 0.31783046429951373 0.5 0 0.34054271117696938 0.48556490228222798 0 0.31388995706658479 0.48797075190185668 0 0.31388995706658479 0.48797075190185668 0 0.28723720295620009 0.4903766015214856 0 0.31388995706658479 0.48797075190185668 0 0.31783046429951373 0.5 0 0.29038960874254321 0.5 0 0.31388995706658479 0.48797075190185668 0 0.29038960874254321 0.5 0 0.28723720295620009 0.4903766015214856 0 0.31388995706658479 0.48797075190185668 0 0.28602487146532363 0.46724378819905132 0 0.30881476533589158 0.46309438616712051 0 0.31388995706658479 0.48797075190185668 0 0.28723720295620009 0.4903766015214856 0 0.28602487146532363 0.46724378819905132 0 0.29038960874254321 0.5 0 0.28723720295620009 0.4903766015214856 0 0.26294875318557259 0.5 0 0.28723720295620009 0.4903766015214856 0 0.26627680277821408 0.47239623878943038 0 0.26058444884581539 0.49278245114111452 0 0.28723720295620009 0.4903766015214856 0 0.26058444884581539 0.49278245114111452 0 0.28723720295620009 0.4903766015214856 0 0.26058444884581539 0.49278245114111452 0 0.26294875318557259 0.5 0 0.28723720295620009 0.4903766015214856 0 0.26627680277821408 0.47239623878943038 0 0.28602487146532363 0.46724378819905132 0 0.2477737713961462 0.48216639517777599 0 0.26627680277821408 0.47239623878943038 0 0.26058444884581539 0.49278245114111452 0 0.24535072876931971 0.46353714142564229 0 0.2477737713961462 0.48216639517777599 0 0.26627680277821408 0.47239623878943038 0 0.235507897628602 0.5 0 0.26058444884581539 0.49278245114111452 0 0.26294875318557259 0.5 0 0.24851186324200861 0.42612127543322392 0 0.24387312118696991 0.44641362218798752 0 0.26889790084184778 0.45164687577649282 0 0.24535072876931971 0.46353714142564229 0 0.26627680277821408 0.47239623878943038 0 0.26889790084184778 0.45164687577649282 0 0.24535072876931971 0.46353714142564229 0 0.26889790084184778 0.45164687577649282 0 0.24535072876931971 0.46353714142564229 0 0.24387312118696991 0.44641362218798752 0 0.26889790084184778 0.45164687577649282 0 0.26627680277821408 0.47239623878943038 0 0.26889790084184778 0.45164687577649282 0 0.28602487146532363 0.46724378819905132 0 0.26889790084184778 0.45164687577649282 0 0.29244507291437583 0.43975661012734352 0 0.26889790084184778 0.45164687577649282 0 0.29244507291437583 0.43975661012734352 0 0.26913296831018207 0.42432817164402642 0 0.26889790084184778 0.45164687577649282 0 0.29244507291437583 0.43975661012734352 0 0.28602487146532363 0.46724378819905132 0 0.29244507291437583 0.43975661012734352 0 0.28602487146532363 0.46724378819905132 0 0.30881476533589158 0.46309438616712051 0 0.29244507291437583 0.43975661012734352 0 0.30881476533589158 0.46309438616712051 0 0.31077593116618157 0.44431490519712952 0 0.29244507291437583 0.43975661012734352 0 0.31599224498690393 0.42786634447819399 0 0.29244507291437583 0.43975661012734352 0 0.3012855480636531 0.41947099546635158 0 0.31599224498690393 0.42786634447819399 0 0.29244507291437583 0.43975661012734352 0 0.31077593116618157 0.44431490519712952 0 0.31599224498690393 0.42786634447819399 0 0.29195269793751838 0.40534064770183692 0 0.31574605749847551 0.41065836326544608 0 0.3012855480636531 0.41947099546635158 0 0.29195269793751838 0.40534064770183692 0 0.31574605749847551 0.41065836326544608 0 0.3012855480636531 0.41947099546635158 0 0.31574605749847551 0.41065836326544608 0 0.31599224498690393 0.42786634447819399 0 0.28459512512045809 0.41778387141555717 0 0.26815933837656142 0.4000229321382277 0 0.29195269793751838 0.40534064770183692 0 0.3012855480636531 0.41947099546635158 0 0.28459512512045809 0.41778387141555717 0 0.29195269793751838 0.40534064770183692 0 0.29244507291437583 0.43975661012734352 0 0.28459512512045809 0.41778387141555717 0 0.26913296831018207 0.42432817164402642 0 0.29244507291437583 0.43975661012734352 0 0.3012855480636531 0.41947099546635158 0 0.28459512512045809 0.41778387141555717 0 0.28459512512045809 0.41778387141555717 0 0.26913296831018207 0.42432817164402642 0 0.26815933837656142 0.4000229321382277 0 0.24851186324200861 0.42612127543322392 0 0.24875274529320859 0.41034313502267061 0 0.26913296831018207 0.42432817164402642 0 0.24875274529320859 0.41034313502267061 0 0.26913296831018207 0.42432817164402642 0 0.26815933837656142 0.4000229321382277 0 0.24851186324200861 0.42612127543322392 0 0.26889790084184778 0.45164687577649282 0 0.26913296831018207 0.42432817164402642 0 0.26329517234175742 0.37623931938384603 0 0.25529510740054662 0.38660849566249311 0 0.25474883095265249 0.3708773854403154 0 0.25529510740054662 0.38660849566249311 0 0.26815933837656142 0.4000229321382277 0 0.26846404409649838 0.38463926197358839 0 0.26329517234175742 0.37623931938384603 0 0.25529510740054662 0.38660849566249311 0 0.26846404409649838 0.38463926197358839 0 0.24700452705901491 0.39731184256776753 0 0.25529510740054662 0.38660849566249311 0 0.26815933837656142 0.4000229321382277 0 0.24700452705901491 0.39731184256776753 0 0.24875274529320859 0.41034313502267061 0 0.26815933837656142 0.4000229321382277 0 0.26815933837656142 0.4000229321382277 0 0.27799819681643811 0.38879578326303821 0 0.26846404409649838 0.38463926197358839 0 0.26815933837656142 0.4000229321382277 0 0.27799819681643811 0.38879578326303821 0 0.28495636425019311 0.39650296998121359 0 0.26815933837656142 0.4000229321382277 0 0.29195269793751838 0.40534064770183692 0 0.27799819681643811 0.38879578326303821 0 0.27854433004299478 0.37894789035894749 0 0.28261352211089619 0.38337946983336518 0 0.27799819681643811 0.38879578326303821 0 0.26846404409649838 0.38463926197358839 0 0.27854433004299478 0.37894789035894749 0 0.26329517234175742 0.37623931938384603 0 0.26846404409649838 0.38463926197358839 0 0.27109772960410022 0.37476354513892163 0 0.26846404409649838 0.38463926197358839 0 0.27854433004299478 0.37894789035894749 0 0.27109772960410022 0.37476354513892163 0 0.28263893704278698 0.37578386118478668 0 0.28686564413278282 0.37501265201308159 0 0.28540065611254112 0.37699757485168328 0 0.28877769117631819 0.37511120485963212 0 0.29580737881628899 0.39544386869491682 0 0.28877769117631819 0.37511120485963212 0 0.28751502729228151 0.3810111305004017 0 0.29580737881628899 0.39544386869491682 0 0.28877769117631819 0.37511120485963212 0 0.29600011223610567 0.38461474192486672 0 0.29580737881628899 0.39544386869491682 0 0.27854433004299478 0.37894789035894749 0 0.28263893704278698 0.37578386118478668 0 0.283396802526453 0.37884230615916181 0 0.28263893704278698 0.37578386118478668 0 0.283396802526453 0.37884230615916181 0 0.28540065611254112 0.37699757485168328 0 0.28686564413278282 0.37501265201308159 0 0.28540065611254112 0.37699757485168328 0 0.28713975467848091 0.37703314055619969 0 0.28540065611254112 0.37699757485168328 0 0.28713975467848091 0.37703314055619969 0 0.28751502729228151 0.3810111305004017 0 0.28713975467848091 0.37703314055619969 0 0.28877769117631819 0.37511120485963212 0 0.28751502729228151 0.3810111305004017 0 0.28686564413278282 0.37501265201308159 0 0.28713975467848091 0.37703314055619969 0 0.28877769117631819 0.37511120485963212 0 0.28686564413278282 0.37501265201308159 0 0.28877769117631819 0.37511120485963212 0 0.283396802526453 0.37884230615916181 0 0.28540065611254112 0.37699757485168328 0 0.28751502729228151 0.3810111305004017 0 0.27854433004299478 0.37894789035894749 0 0.283396802526453 0.37884230615916181 0 0.28261352211089619 0.38337946983336518 0 0.283396802526453 0.37884230615916181 0 0.28751502729228151 0.3810111305004017 0 0.28261352211089619 0.38337946983336518 0 0.28751502729228151 0.3810111305004017 0 0.28261352211089619 0.38337946983336518 0 0.28561325387631342 0.38930023888527687 0 0.27799819681643811 0.38879578326303821 0 0.28261352211089619 0.38337946983336518 0 0.28561325387631342 0.38930023888527687 0 0.28751502729228151 0.3810111305004017 0 0.28561325387631342 0.38930023888527687 0 0.29580737881628899 0.39544386869491682 0 0.28877769117631819 0.37511120485963212 0 0.29600011223610567 0.38461474192486672 0 0.30086192344575458 0.37573406374406187 0 0.28877769117631819 0.37511120485963212 0 0.30086192344575458 0.37573406374406187 0 0.26815933837656142 0.4000229321382277 0 0.28495636425019311 0.39650296998121359 0 0.29195269793751838 0.40534064770183692 0 0.28561325387631342 0.38930023888527687 0 0.28495636425019311 0.39650296998121359 0 0.29580737881628899 0.39544386869491682 0 0.27799819681643811 0.38879578326303821 0 0.28561325387631342 0.38930023888527687 0 0.28495636425019311 0.39650296998121359 0 0.28495636425019311 0.39650296998121359 0 0.29580737881628899 0.39544386869491682 0 0.2916938765034135 0.39938585581145419 0 0.29600011223610567 0.38461474192486672 0 0.29580737881628899 0.39544386869491682 0 0.29855345550606122 0.39216983040085612 0 0.29580737881628899 0.39544386869491682 0 0.2916938765034135 0.39938585581145419 0 0.29744614698975552 0.3998143102381464 0 0.28495636425019311 0.39650296998121359 0 0.2916938765034135 0.39938585581145419 0 0.29195269793751838 0.40534064770183692 0 0.2916938765034135 0.39938585581145419 0 0.29195269793751838 0.40534064770183692 0 0.29744614698975552 0.3998143102381464 0 0.29195269793751838 0.40534064770183692 0 0.30672317883255151 0.40181077406806259 0 0.31574605749847551 0.41065836326544608 0 0.29744614698975552 0.3998143102381464 0 0.30135159360190528 0.39705155122026592 0 0.30672317883255151 0.40181077406806259 0 0.29195269793751838 0.40534064770183692 0 0.29744614698975552 0.3998143102381464 0 0.30672317883255151 0.40181077406806259 0 0.30135159360190528 0.39705155122026592 0 0.29855345550606122 0.39216983040085612 0 0.3069123531532546 0.39174632430081552 0 0.29580737881628899 0.39544386869491682 0 0.30135159360190528 0.39705155122026592 0 0.29855345550606122 0.39216983040085612 0 0.29580737881628899 0.39544386869491682 0 0.29744614698975552 0.3998143102381464 0 0.30135159360190528 0.39705155122026592 0 0.30135159360190528 0.39705155122026592 0 0.3069123531532546 0.39174632430081552 0 0.30672317883255151 0.40181077406806259 0 0.3069123531532546 0.39174632430081552 0 0.30672317883255151 0.40181077406806259 0 0.31886419089569001 0.39827684068319702 0 0.29855345550606122 0.39216983040085612 0 0.30086192344575458 0.37573406374406187 0 0.30875051133275389 0.38418597896307299 0 0.29600011223610567 0.38461474192486672 0 0.29855345550606122 0.39216983040085612 0 0.30086192344575458 0.37573406374406187 0 0.30086192344575458 0.37573406374406187 0 0.30875051133275389 0.38418597896307299 0 0.32552782116826029 0.37700542076504412 0 0.29855345550606122 0.39216983040085612 0 0.30086192344575458 0.37573406374406187 0 0.29855345550606122 0.39216983040085612 0 0.3069123531532546 0.39174632430081552 0 0.30875051133275389 0.38418597896307299 0 0.3069123531532546 0.39174632430081552 0 0.30875051133275389 0.38418597896307299 0 0.31612815629438867 0.38788640195057822 0 0.30875051133275389 0.38418597896307299 0 0.31612815629438867 0.38788640195057822 0 0.32552782116826029 0.37700542076504412 0 0.30086192344575458 0.37573406374406187 0 0.32552782116826029 0.37700542076504412 0 0.32323665349307268 0.38968159280459608 0 0.32552782116826029 0.37700542076504412 0 0.33214486258735682 0.39493488334433391 0 0.31612815629438867 0.38788640195057822 0 0.32323665349307268 0.38968159280459608 0 0.32552782116826029 0.37700542076504412 0 0.32552782116826029 0.37700542076504412 0 0.33214486258735682 0.39493488334433391 0 0.35019371889076623 0.37827677778602631 0 0.32552782116826029 0.37700542076504412 0 0.35019371889076623 0.37827677778602631 0 0.33214486258735682 0.39493488334433391 0 0.35019371889076623 0.37827677778602631 0 0.34703331715148239 0.39399159303249598 0 0.33214486258735682 0.39493488334433391 0 0.34721565993964071 0.40890878536309311 0 0.33214486258735682 0.39493488334433391 0 0.33191432999496012 0.40938397267614263 0 0.34721565993964071 0.40890878536309311 0 0.33214486258735682 0.39493488334433391 0 0.34721565993964071 0.40890878536309311 0 0.34703331715148239 0.39399159303249598 0 0.31886419089569001 0.39827684068319702 0 0.31574605749847551 0.41065836326544608 0 0.33191432999496012 0.40938397267614263 0 0.33214486258735682 0.39493488334433391 0 0.31886419089569001 0.39827684068319702 0 0.33191432999496012 0.40938397267614263 0 0.32323665349307268 0.38968159280459608 0 0.33214486258735682 0.39493488334433391 0 0.31886419089569001 0.39827684068319702 0 0.31612815629438867 0.38788640195057822 0 0.32323665349307268 0.38968159280459608 0 0.31886419089569001 0.39827684068319702 0 0.3069123531532546 0.39174632430081552 0 0.31612815629438867 0.38788640195057822 0 0.31886419089569001 0.39827684068319702 0 0.30672317883255151 0.40181077406806259 0 0.31886419089569001 0.39827684068319702 0 0.31574605749847551 0.41065836326544608 0 0.31574605749847551 0.41065836326544608 0 0.33953941705943408 0.41597607882904908 0 0.31574605749847551 0.41065836326544608 0 0.31599224498690393 0.42786634447819399 0 0.33953941705943408 0.41597607882904908 0 0.31599224498690393 0.42786634447819399 0 0.33953941705943408 0.41597607882904908 0 0.32757978403363069 0.44599277172446739 0 0.32109832046196202 0.42620670644558689 0 0.32757978403363069 0.44599277172446739 0 0.31599224498690393 0.42786634447819399 0 0.32109832046196202 0.42620670644558689 0 0.31599224498690393 0.42786634447819399 0 0.32109832046196202 0.42620670644558689 0 0.33953941705943408 0.41597607882904908 0 0.32757978403363069 0.44599277172446739 0 0.32109832046196202 0.42620670644558689 0 0.33734039418391287 0.4336557722609074 0 0.32109832046196202 0.42620670644558689 0 0.33734039418391287 0.4336557722609074 0 0.33953941705943408 0.41597607882904908 0 0.33734039418391287 0.4336557722609074 0 0.33953941705943408 0.41597607882904908 0 0.35067679342197872 0.4315075318406601 0 0.31574605749847551 0.41065836326544608 0 0.33191432999496012 0.40938397267614263 0 0.33953941705943408 0.41597607882904908 0 0.33191432999496012 0.40938397267614263 0 0.33953941705943408 0.41597607882904908 0 0.34721565993964071 0.40890878536309311 0 0.33191432999496012 0.40938397267614263 0 0.34721565993964071 0.40890878536309311 0 0.33953941705943408 0.41597607882904908 0 0.34944383815532848 0.41097479045485402 0 0.35969631153933268 0.4204810597761629 0 0.33953941705943408 0.41597607882904908 0 0.34721565993964071 0.40890878536309311 0 0.34944383815532848 0.41097479045485402 0 0.33953941705943408 0.41597607882904908 0 0.35969631153933268 0.4204810597761629 0 0.33953941705943408 0.41597607882904908 0 0.34944383815532848 0.41097479045485402 0 0.34721565993964071 0.40890878536309311 0 0.35394943534014572 0.40869966598256652 0 0.34721565993964071 0.40890878536309311 0 0.34944383815532848 0.41097479045485402 0 0.35394943534014572 0.40869966598256652 0 0.34721565993964071 0.40890878536309311 0 0.35394943534014572 0.40869966598256652 0 0.35091261609529578 0.40130962256993369 0 0.34721565993964071 0.40890878536309311 0 0.34944383815532848 0.41097479045485402 0 0.34944383815532848 0.41097479045485402 0 0.35969631153933268 0.4204810597761629 0 0.34944383815532848 0.41097479045485402 0 0.35394943534014572 0.40869966598256652 0 0.35969631153933268 0.4204810597761629 0 0.34944383815532848 0.41097479045485402 0 0.35394943534014572 0.40869966598256652 0 0.35379119691684269 0.44553334291900698 0 0.33734039418391287 0.4336557722609074 0 0.35067679342197872 0.4315075318406601 0 0.33953941705943408 0.41597607882904908 0 0.35067679342197872 0.4315075318406601 0 0.35969631153933268 0.4204810597761629 0 0.35067679342197872 0.4315075318406601 0 0.3625084526778195 0.43700970929484612 0 0.35969631153933268 0.4204810597761629 0 0.35969631153933268 0.4204810597761629 0 0.37937629386806121 0.43872867722892561 0 0.3740979599754185 0.42369976749307858 0 0.35969631153933268 0.4204810597761629 0 0.37937629386806121 0.43872867722892561 0 0.3625084526778195 0.43700970929484612 0 0.35969631153933268 0.4204810597761629 0 0.37937629386806121 0.43872867722892561 0 0.3740979599754185 0.42369976749307858 0 0.35969631153933268 0.4204810597761629 0 0.35394943534014572 0.40869966598256652 0 0.36966932715288081 0.41564598319156598 0 0.37872352642598028 0.40793029927922181 0 0.35394943534014572 0.40869966598256652 0 0.35969631153933268 0.4204810597761629 0 0.36966932715288081 0.41564598319156598 0 0.35394943534014572 0.40869966598256652 0 0.37872352642598028 0.40793029927922181 0 0.3740979599754185 0.42369976749307858 0 0.36966932715288081 0.41564598319156598 0 0.38116916670267181 0.41843736815896332 0 0.3740979599754185 0.42369976749307858 0 0.35969631153933268 0.4204810597761629 0 0.36966932715288081 0.41564598319156598 0 0.35394943534014572 0.40869966598256652 0 0.35935635017510742 0.39293315061162792 0 0.37974907273737663 0.39567200638251149 0 0.35394943534014572 0.40869966598256652 0 0.37974907273737663 0.39567200638251149 0 0.37872352642598028 0.40793029927922181 0 0.35394943534014572 0.40869966598256652 0 0.37974907273737663 0.39567200638251149 0 0.37485961661327177 0.37954813480700839 0 0.35019371889076623 0.37827677778602631 0 0.37485961661327177 0.37954813480700839 0 0.35019371889076623 0.37827677778602631 0 0.35935635017510742 0.39293315061162792 0 0.37485961661327177 0.37954813480700839 0 0.35935635017510742 0.39293315061162792 0 0.37974907273737663 0.39567200638251149 0 0.35019371889076623 0.37827677778602631 0 0.34703331715148239 0.39399159303249598 0 0.35935635017510742 0.39293315061162792 0 0.35394943534014572 0.40869966598256652 0 0.35091261609529578 0.40130962256993369 0 0.35935635017510742 0.39293315061162792 0 0.34721565993964071 0.40890878536309311 0 0.34703331715148239 0.39399159303249598 0 0.35091261609529578 0.40130962256993369 0 0.34703331715148239 0.39399159303249598 0 0.35091261609529578 0.40130962256993369 0 0.35935635017510742 0.39293315061162792 0 0.35858860643021168 0.35343476705452692 0 0.33898009071736229 0.34548807593637421 0 0.34180615481609139 0.36353216619376483 0 0.35858860643021168 0.35343476705452692 0 0.35705163671727758 0.33618102220453538 0 0.33898009071736229 0.34548807593637421 0 0.35019371889076623 0.37827677778602631 0 0.36037648859278182 0.36683268230180183 0 0.34180615481609139 0.36353216619376483 0 0.35858860643021168 0.35343476705452692 0 0.36037648859278182 0.36683268230180183 0 0.34180615481609139 0.36353216619376483 0 0.37485961661327177 0.37954813480700839 0 0.36037648859278182 0.36683268230180183 0 0.37643434621356781 0.3593715656676828 0 0.37485961661327177 0.37954813480700839 0 0.35019371889076623 0.37827677778602631 0 0.36037648859278182 0.36683268230180183 0 0.35858860643021168 0.35343476705452692 0 0.36037648859278182 0.36683268230180183 0 0.37643434621356781 0.3593715656676828 0 0.35858860643021168 0.35343476705452692 0 0.37349252016933743 0.3401425533806538 0 0.37643434621356781 0.3593715656676828 0 0.35858860643021168 0.35343476705452692 0 0.37349252016933743 0.3401425533806538 0 0.35705163671727758 0.33618102220453538 0 0.37349252016933743 0.3401425533806538 0 0.36615660335142691 0.32318469994278343 0 0.35705163671727758 0.33618102220453538 0 0.36615660335142691 0.32318469994278343 0 0.34841866377272052 0.31950079960881089 0 0.36484859857571789 0.30040387662965262 0 0.36615660335142691 0.32318469994278343 0 0.34841866377272052 0.31950079960881089 0 0.35705163671727758 0.33618102220453538 0 0.34841866377272052 0.31950079960881089 0 0.35705163671727758 0.33618102220453538 0 0.33898009071736229 0.34548807593637421 0 0.3294775845653129 0.3233820090427284 0 0.32263672039333829 0.3403007028128166 0 0.33898009071736229 0.34548807593637421 0 0.34841866377272052 0.31950079960881089 0 0.3294775845653129 0.3233820090427284 0 0.33898009071736229 0.34548807593637421 0 0.34841866377272052 0.31950079960881089 0 0.3294775845653129 0.3233820090427284 0 0.34044734696101769 0.30278540813588012 0 0.3294775845653129 0.3233820090427284 0 0.30674214967940211 0.33386819045053678 0 0.30968226279622563 0.31293525380377413 0 0.3294775845653129 0.3233820090427284 0 0.30968226279622563 0.31293525380377413 0 0.32436400310469521 0.30747679677116291 0 0.3294775845653129 0.3233820090427284 0 0.32263672039333829 0.3403007028128166 0 0.30674214967940211 0.33386819045053678 0 0.32263672039333829 0.3403007028128166 0 0.32361608748309761 0.35772558693497569 0 0.30380203656257848 0.35480112709729938 0 0.32263672039333829 0.3403007028128166 0 0.32361608748309761 0.35772558693497569 0 0.33898009071736229 0.34548807593637421 0 0.32361608748309761 0.35772558693497569 0 0.33898009071736229 0.34548807593637421 0 0.34180615481609139 0.36353216619376483 0 0.32552782116826029 0.37700542076504412 0 0.35019371889076623 0.37827677778602631 0 0.34180615481609139 0.36353216619376483 0 0.32552782116826029 0.37700542076504412 0 0.32361608748309761 0.35772558693497569 0 0.34180615481609139 0.36353216619376483 0 0.32552782116826029 0.37700542076504412 0 0.32361608748309761 0.35772558693497569 0 0.31345196716492268 0.36631654963534521 0 0.30086192344575458 0.37573406374406187 0 0.32552782116826029 0.37700542076504412 0 0.31345196716492268 0.36631654963534521 0 0.32361608748309761 0.35772558693497569 0 0.31345196716492268 0.36631654963534521 0 0.30380203656257848 0.35480112709729938 0 0.30086192344575458 0.37573406374406187 0 0.30380203656257848 0.35480112709729938 0 0.30086192344575458 0.37573406374406187 0 0.31345196716492268 0.36631654963534521 0 0.30380203656257848 0.35480112709729938 0 0.30086192344575458 0.37573406374406187 0 0.30380203656257848 0.35480112709729938 0 0.2953934605115458 0.36429305312325561 0 0.30380203656257848 0.35480112709729938 0 0.30674214967940211 0.33386819045053678 0 0.30380203656257848 0.35480112709729938 0 0.28138720792820132 0.35373497604831122 0 0.29061143920828952 0.33259755638683169 0 0.30380203656257848 0.35480112709729938 0 0.28138720792820132 0.35373497604831122 0 0.2953934605115458 0.36429305312325561 0 0.28877769117631819 0.37511120485963212 0 0.28138720792820132 0.35373497604831122 0 0.27898725239916372 0.36911888254105962 0 0.28877769117631819 0.37511120485963212 0 0.28138720792820132 0.35373497604831122 0 0.2953934605115458 0.36429305312325561 0 0.28877769117631819 0.37511120485963212 0 0.28138720792820132 0.35373497604831122 0 0.28877769117631819 0.37511120485963212 0 0.30086192344575458 0.37573406374406187 0 0.2953934605115458 0.36429305312325561 0 0.28263893704278698 0.37578386118478668 0 0.28686564413278282 0.37501265201308159 0 0.27898725239916372 0.36911888254105962 0 0.28686564413278282 0.37501265201308159 0 0.28877769117631819 0.37511120485963212 0 0.27898725239916372 0.36911888254105962 0 0.27854433004299478 0.37894789035894749 0 0.28263893704278698 0.37578386118478668 0 0.27898725239916372 0.36911888254105962 0 0.27854433004299478 0.37894789035894749 0 0.27898725239916372 0.36911888254105962 0 0.27109772960410022 0.37476354513892163 0 0.26329517234175742 0.37623931938384603 0 0.27109772960410022 0.37476354513892163 0 0.2668701496549894 0.36430790870391139 0 0.27898725239916372 0.36911888254105962 0 0.27109772960410022 0.37476354513892163 0 0.2668701496549894 0.36430790870391139 0 0.28138720792820132 0.35373497604831122 0 0.27898725239916372 0.36911888254105962 0 0.2668701496549894 0.36430790870391139 0 0.28138720792820132 0.35373497604831122 0 0.2668701496549894 0.36430790870391139 0 0.26640982494037241 0.34815466891112501 0 0.28138720792820132 0.35373497604831122 0 0.26640982494037241 0.34815466891112501 0 0.27399672468008718 0.33235874723698922 0 0.2668701496549894 0.36430790870391139 0 0.26640982494037241 0.34815466891112501 0 0.25307977045304431 0.35238440857935388 0 0.26640982494037241 0.34815466891112501 0 0.25307977045304431 0.35238440857935388 0 0.25671527198553967 0.33798730398705912 0 0.24563243924907771 0.36340839440377848 0 0.25307977045304431 0.35238440857935388 0 0.25474883095265249 0.3708773854403154 0 0.2668701496549894 0.36430790870391139 0 0.25307977045304431 0.35238440857935388 0 0.25474883095265249 0.3708773854403154 0 0.26329517234175742 0.37623931938384603 0 0.2668701496549894 0.36430790870391139 0 0.25474883095265249 0.3708773854403154 0 0.24690670309572349 0.32048091748518159 0 0.26660624143197309 0.31098251842566721 0 0.268043810576718 0.30756503429216908 0 0.24690670309572349 0.32048091748518159 0 0.268043810576718 0.30756503429216908 0 0.24690670309572349 0.32048091748518159 0 0.26114618966363762 0.32483592653421978 0 0.25671527198553967 0.33798730398705912 0 0.24690670309572349 0.32048091748518159 0 0.26114618966363762 0.32483592653421978 0 0.26660624143197309 0.31098251842566721 0 0.26114618966363762 0.32483592653421978 0 0.25671527198553967 0.33798730398705912 0 0.27399672468008718 0.33235874723698922 0 0.24210995853007361 0.33902833068296429 0 0.25307977045304431 0.35238440857935388 0 0.25671527198553967 0.33798730398705912 0 0.28138720792820132 0.35373497604831122 0 0.27399672468008718 0.33235874723698922 0 0.26640982494037241 0.34815466891112501 0 0.25671527198553967 0.33798730398705912 0 0.27399672468008718 0.33235874723698922 0 0.27399672468008718 0.33235874723698922 0 0.2758087034121729 0.31328247046233748 0 0.28443698829604108 0.31894885678052148 0 0.27399672468008718 0.33235874723698922 0 0.26660624143197309 0.31098251842566721 0 0.26114618966363762 0.32483592653421978 0 0.27399672468008718 0.33235874723698922 0 0.26660624143197309 0.31098251842566721 0 0.27399672468008718 0.33235874723698922 0 0.2758087034121729 0.31328247046233748 0 0.26660624143197309 0.31098251842566721 0 0.28443698829604108 0.31894885678052148 0 0.29653701886778538 0.31427801101181141 0 0.29061143920828952 0.33259755638683169 0 0.2758087034121729 0.31328247046233748 0 0.28443698829604108 0.31894885678052148 0 0.28466950841346023 0.30733981518917391 0 0.28443698829604108 0.31894885678052148 0 0.29653701886778538 0.31427801101181141 0 0.28466950841346023 0.30733981518917391 0 0.27399672468008718 0.33235874723698922 0 0.28443698829604108 0.31894885678052148 0 0.29061143920828952 0.33259755638683169 0 0.28138720792820132 0.35373497604831122 0 0.27399672468008718 0.33235874723698922 0 0.29061143920828952 0.33259755638683169 0 0.32263672039333829 0.3403007028128166 0 0.30380203656257848 0.35480112709729938 0 0.30674214967940211 0.33386819045053678 0 0.30380203656257848 0.35480112709729938 0 0.29061143920828952 0.33259755638683169 0 0.30674214967940211 0.33386819045053678 0 0.29653701886778538 0.31427801101181141 0 0.30674214967940211 0.33386819045053678 0 0.30968226279622563 0.31293525380377413 0 0.29653701886778538 0.31427801101181141 0 0.29061143920828952 0.33259755638683169 0 0.30674214967940211 0.33386819045053678 0 0.30674214967940211 0.33386819045053678 0 0.30968226279622563 0.31293525380377413 0 0.29653701886778538 0.31427801101181141 0 0.3071434233593775 0.29928592336432908 0 0.29248489720183168 0.2960981979610216 0 0.29653701886778538 0.31427801101181141 0 0.30968226279622563 0.31293525380377413 0 0.3071434233593775 0.29928592336432908 0 0.3071434233593775 0.29928592336432908 0 0.30221666747411918 0.28095013917906447 0 0.32267329755572438 0.29067704530096478 0 0.3071434233593775 0.29928592336432908 0 0.29248489720183168 0.2960981979610216 0 0.30221666747411918 0.28095013917906447 0 0.29248489720183168 0.2960981979610216 0 0.28217384384735711 0.28207647154324461 0 0.30221666747411918 0.28095013917906447 0 0.29248489720183168 0.2960981979610216 0 0.28217384384735711 0.28207647154324461 0 0.28209192545438611 0.29754516069919401 0 0.29653701886778538 0.31427801101181141 0 0.29248489720183168 0.2960981979610216 0 0.28466950841346023 0.30733981518917391 0 0.29248489720183168 0.2960981979610216 0 0.28209192545438611 0.29754516069919401 0 0.28466950841346023 0.30733981518917391 0 0.2758087034121729 0.31328247046233748 0 0.28466950841346023 0.30733981518917391 0 0.27551602987917861 0.3050560394755007 0 0.2758087034121729 0.31328247046233748 0 0.27551602987917861 0.3050560394755007 0 0.268043810576718 0.30756503429216908 0 0.2758087034121729 0.31328247046233748 0 0.26660624143197309 0.31098251842566721 0 0.268043810576718 0.30756503429216908 0 0.27551602987917861 0.3050560394755007 0 0.268043810576718 0.30756503429216908 0 0.27044957597848263 0.30285682622296922 0 0.268043810576718 0.30756503429216908 0 0.26637414778976942 0.30076113315008179 0 0.27044957597848263 0.30285682622296922 0 0.268043810576718 0.30756503429216908 0 0.26637414778976942 0.30076113315008179 0 0.26290303458575348 0.30332914225028879 0 0.27551602987917861 0.3050560394755007 0 0.27044957597848263 0.30285682622296922 0 0.27211713824047801 0.29794431310826019 0 0.26637414778976942 0.30076113315008179 0 0.27044957597848263 0.30285682622296922 0 0.27211713824047801 0.29794431310826019 0 0.28209192545438611 0.29754516069919401 0 0.28466950841346023 0.30733981518917391 0 0.27551602987917861 0.3050560394755007 0 0.28209192545438611 0.29754516069919401 0 0.27551602987917861 0.3050560394755007 0 0.27211713824047801 0.29794431310826019 0 0.27211713824047801 0.29794431310826019 0 0.26424882450060633 0.291362097494617 0 0.26547625112712342 0.27346739952907978 0 0.28217384384735711 0.28207647154324461 0 0.27211713824047801 0.29794431310826019 0 0.26547625112712342 0.27346739952907978 0 0.27211713824047801 0.29794431310826019 0 0.26547625112712342 0.27346739952907978 0 0.28217384384735711 0.28207647154324461 0 0.28209192545438611 0.29754516069919401 0 0.27211713824047801 0.29794431310826019 0 0.26637414778976942 0.30076113315008179 0 0.27211713824047801 0.29794431310826019 0 0.26424882450060633 0.291362097494617 0 0.26424882450060633 0.291362097494617 0 0.25834030130643598 0.28654159939089408 0 0.25893628403922458 0.29809604229476938 0 0.26424882450060633 0.291362097494617 0 0.25834030130643598 0.28654159939089408 0 0.26547625112712342 0.27346739952907978 0 0.26637414778976942 0.30076113315008179 0 0.26424882450060633 0.291362097494617 0 0.25893628403922458 0.29809604229476938 0 0.24861220915978899 0.28993740008503938 0 0.25834030130643598 0.28654159939089408 0 0.25356056632276941 0.278496798151594 0 0.24861220915978899 0.28993740008503938 0 0.25834030130643598 0.28654159939089408 0 0.25893628403922458 0.29809604229476938 0 0.24690670309572349 0.32048091748518159 0 0.268043810576718 0.30756503429216908 0 0.2582578959373022 0.30689435926413511 0 0.24690670309572349 0.32048091748518159 0 0.25140429275343101 0.30402446948105671 0 0.2582578959373022 0.30689435926413511 0 0.25140429275343101 0.30402446948105671 0 0.2582578959373022 0.30689435926413511 0 0.25893628403922458 0.29809604229476938 0 0.24861220915978899 0.28993740008503938 0 0.25140429275343101 0.30402446948105671 0 0.25893628403922458 0.29809604229476938 0 0.268043810576718 0.30756503429216908 0 0.2582578959373022 0.30689435926413511 0 0.26290303458575348 0.30332914225028879 0 0.2582578959373022 0.30689435926413511 0 0.26290303458575348 0.30332914225028879 0 0.25893628403922458 0.29809604229476938 0 0.26637414778976942 0.30076113315008179 0 0.26290303458575348 0.30332914225028879 0 0.25893628403922458 0.29809604229476938 0 0.25548923570329152 0.26160343476736542 0 0.26547625112712342 0.27346739952907978 0 0.25883536401376722 0.24899048594989959 0 0.26547625112712342 0.27346739952907978 0 0.25883536401376722 0.24899048594989959 0 0.26547625112712342 0.27346739952907978 0 0.26743152286471661 0.25329145143570758 0 0.25883536401376722 0.24899048594989959 0 0.26743152286471661 0.25329145143570758 0 0.26326289898663768 0.248690939492587 0 0.25883536401376722 0.24899048594989959 0 0.25433547577477289 0.25677054441894198 0 0.25548923570329152 0.26160343476736542 0 0.25883536401376722 0.24899048594989959 0 0.25433547577477289 0.25677054441894198 0 0.25883536401376722 0.24899048594989959 0 0.25433547577477289 0.25677054441894198 0 0.25403297896519522 0.25213803859112971 0 0.25883536401376722 0.24899048594989959 0 0.25403297896519522 0.25213803859112971 0 0.25114480103714221 0.2503150809598027 0 0.25883536401376722 0.24899048594989959 0 0.25228932297764711 0.25313189271151271 0 0.25114480103714221 0.2503150809598027 0 0.25013500106127667 0.25456069218899802 0 0.25403297896519522 0.25213803859112971 0 0.25228932297764711 0.25313189271151271 0 0.25114480103714221 0.2503150809598027 0 0.25403297896519522 0.25213803859112971 0 0.25228932297764711 0.25313189271151271 0 0.2527285994728336 0.25483839990647278 0 0.25433547577477289 0.25677054441894198 0 0.25403297896519522 0.25213803859112971 0 0.2527285994728336 0.25483839990647278 0 0.25433547577477289 0.25677054441894198 0 0.25217664043929439 0.25658776562262042 0 0.25224761574558541 0.25866267762295242 0 0.25433547577477289 0.25677054441894198 0 0.25217664043929439 0.25658776562262042 0 0.2527285994728336 0.25483839990647278 0 0.25228932297764711 0.25313189271151271 0 0.2527285994728336 0.25483839990647278 0 0.25013500106127667 0.25456069218899802 0 0.25217664043929439 0.25658776562262042 0 0.2527285994728336 0.25483839990647278 0 0.25013500106127667 0.25456069218899802 0 0.25217664043929439 0.25658776562262042 0 0.2505394965135781 0.25735616064213468 0 0.25224761574558541 0.25866267762295242 0 0.25217664043929439 0.25658776562262042 0 0.25013500106127667 0.25456069218899802 0 0.2505394965135781 0.25735616064213468 0 0.24963802538920571 0.26062575329037152 0 0.25224761574558541 0.25866267762295242 0 0.25077181893251688 0.26293191046267989 0 0.25433547577477289 0.25677054441894198 0 0.25077181893251688 0.26293191046267989 0 0.24963802538920571 0.26062575329037152 0 0.2491252010854072 0.25880630341819288 0 0.25224761574558541 0.25866267762295242 0 0.25433547577477289 0.25677054441894198 0 0.25548923570329152 0.26160343476736542 0 0.25077181893251688 0.26293191046267989 0 0.25433547577477289 0.25677054441894198 0 0.25224761574558541 0.25866267762295242 0 0.25077181893251688 0.26293191046267989 0 0.2491252010854072 0.25880630341819288 0 0.2505394965135781 0.25735616064213468 0 0.25224761574558541 0.25866267762295242 0 0.24814193398909379 0.26747883641728087 0 0.25548923570329152 0.26160343476736542 0 0.25077181893251688 0.26293191046267989 0 0.24814193398909379 0.26747883641728087 0 0.25310531470089459 0.26801674631270761 0 0.25175082265017062 0.27176378157205289 0 0.25548923570329152 0.26160343476736542 0 0.25310531470089459 0.26801674631270761 0 0.25699353887160048 0.27035912758579561 0 0.24814193398909379 0.26747883641728087 0 0.25548923570329152 0.26160343476736542 0 0.25310531470089459 0.26801674631270761 0 0.25310531470089459 0.26801674631270761 0 0.25175082265017062 0.27176378157205289 0 0.25699353887160048 0.27035912758579561 0 0.25175082265017062 0.27176378157205289 0 0.25699353887160048 0.27035912758579561 0 0.25356056632276941 0.278496798151594 0 0.24974881049697181 0.27565606026683231 0 0.25175082265017062 0.27176378157205289 0 0.25356056632276941 0.278496798151594 0 0.24859510455974981 0.27415127501483499 0 0.24974881049697181 0.27565606026683231 0 0.25175082265017062 0.27176378157205289 0 0.25834030130643598 0.28654159939089408 0 0.25356056632276941 0.278496798151594 0 0.26547625112712342 0.27346739952907978 0 0.25699353887160048 0.27035912758579561 0 0.25356056632276941 0.278496798151594 0 0.26547625112712342 0.27346739952907978 0 0.25548923570329152 0.26160343476736542 0 0.25699353887160048 0.27035912758579561 0 0.26547625112712342 0.27346739952907978 0 0.28217384384735711 0.28207647154324461 0 0.26547625112712342 0.27346739952907978 0 0.27777225893559498 0.27011618250763308 0 0.26547625112712342 0.27346739952907978 0 0.27777225893559498 0.27011618250763308 0 0.27631004459715869 0.2598280092644939 0 0.26547625112712342 0.27346739952907978 0 0.27631004459715869 0.2598280092644939 0 0.26743152286471661 0.25329145143570758 0 0.27631004459715869 0.2598280092644939 0 0.26743152286471661 0.25329145143570758 0 0.27374762366203981 0.2501980555692947 0 0.27631004459715869 0.2598280092644939 0 0.27374762366203981 0.2501980555692947 0 0.28247692351273551 0.25038816072899422 0 0.28247692351273551 0.25038816072899422 0 0.28977012353047332 0.26407060228390772 0 0.2953649462846093 0.24601591543830309 0 0.27631004459715869 0.2598280092644939 0 0.28247692351273551 0.25038816072899422 0 0.28977012353047332 0.26407060228390772 0 0.27777225893559498 0.27011618250763308 0 0.27631004459715869 0.2598280092644939 0 0.28977012353047332 0.26407060228390772 0 0.28217384384735711 0.28207647154324461 0 0.27777225893559498 0.27011618250763308 0 0.28977012353047332 0.26407060228390772 0 0.28217384384735711 0.28207647154324461 0 0.28977012353047332 0.26407060228390772 0 0.30221666747411918 0.28095013917906447 0 0.30221666747411918 0.28095013917906447 0 0.31242739223744292 0.25971127793767479 0 0.3179050955384346 0.27535816429641607 0 0.28977012353047332 0.26407060228390772 0 0.30221666747411918 0.28095013917906447 0 0.31242739223744292 0.25971127793767479 0 0.28977012353047332 0.26407060228390772 0 0.31242739223744292 0.25971127793767479 0 0.2953649462846093 0.24601591543830309 0 0.31242739223744292 0.25971127793767479 0 0.33430302488645181 0.27009419476796059 0 0.33086927230514168 0.24614275572726591 0 0.33430302488645181 0.27009419476796059 0 0.33086927230514168 0.24614275572726591 0 0.35099513415312628 0.24976786504313009 0 0.31242739223744292 0.25971127793767479 0 0.33430302488645181 0.27009419476796059 0 0.3179050955384346 0.27535816429641607 0 0.33430302488645181 0.27009419476796059 0 0.3179050955384346 0.27535816429641607 0 0.32267329755572438 0.29067704530096478 0 0.30221666747411918 0.28095013917906447 0 0.3179050955384346 0.27535816429641607 0 0.32267329755572438 0.29067704530096478 0 0.3071434233593775 0.29928592336432908 0 0.32267329755572438 0.29067704530096478 0 0.32436400310469521 0.30747679677116291 0 0.30968226279622563 0.31293525380377413 0 0.3071434233593775 0.29928592336432908 0 0.32436400310469521 0.30747679677116291 0 0.32267329755572438 0.29067704530096478 0 0.32436400310469521 0.30747679677116291 0 0.34044734696101769 0.30278540813588012 0 0.3294775845653129 0.3233820090427284 0 0.32436400310469521 0.30747679677116291 0 0.34044734696101769 0.30278540813588012 0 0.32267329755572438 0.29067704530096478 0 0.34044734696101769 0.30278540813588012 0 0.35070726785668171 0.28457109491243737 0 0.33430302488645181 0.27009419476796059 0 0.32267329755572438 0.29067704530096478 0 0.35070726785668171 0.28457109491243737 0 0.34044734696101769 0.30278540813588012 0 0.35070726785668171 0.28457109491243737 0 0.36484859857571789 0.30040387662965262 0 0.34841866377272052 0.31950079960881089 0 0.34044734696101769 0.30278540813588012 0 0.36484859857571789 0.30040387662965262 0 0.36615660335142691 0.32318469994278343 0 0.36484859857571789 0.30040387662965262 0 0.37768921731678712 0.31153580241694001 0 0.35070726785668171 0.28457109491243737 0 0.36484859857571789 0.30040387662965262 0 0.37697918702766348 0.28236086992420362 0 0.35070726785668171 0.28457109491243737 0 0.36097941453150079 0.26702929523291608 0 0.37697918702766348 0.28236086992420362 0 0.36097941453150079 0.26702929523291608 0 0.38765580417654988 0.26396439569787172 0 0.37354045573460032 0.24772367312124621 0 0.36097941453150079 0.26702929523291608 0 0.38765580417654988 0.26396439569787172 0 0.36097941453150079 0.26702929523291608 0 0.37354045573460032 0.24772367312124621 0 0.35099513415312628 0.24976786504313009 0 0.33430302488645181 0.27009419476796059 0 0.36097941453150079 0.26702929523291608 0 0.35099513415312628 0.24976786504313009 0 0.33430302488645181 0.27009419476796059 0 0.36097941453150079 0.26702929523291608 0 0.33430302488645181 0.27009419476796059 0 0.35070726785668171 0.28457109491243737 0 0.36097941453150079 0.26702929523291608 0 0.38765580417654988 0.26396439569787172 0 0.39972175574387991 0.28376465048602628 0 0.41433219382159908 0.26089949616282709 0 0.38765580417654988 0.26396439569787172 0 0.41433219382159908 0.26089949616282709 0 0.40002096830554901 0.2402128569813021 0 0.38765580417654988 0.26396439569787172 0 0.41433219382159908 0.26089949616282709 0 0.38765580417654988 0.26396439569787172 0 0.37354045573460032 0.24772367312124621 0 0.40002096830554901 0.2402128569813021 0 0.36097941453150079 0.26702929523291608 0 0.38765580417654988 0.26396439569787172 0 0.37697918702766348 0.28236086992420362 0 0.38765580417654988 0.26396439569787172 0 0.37697918702766348 0.28236086992420362 0 0.39972175574387991 0.28376465048602628 0 0.37697918702766348 0.28236086992420362 0 0.38989013113789828 0.29879329922390241 0 0.39972175574387991 0.28376465048602628 0 0.36484859857571789 0.30040387662965262 0 0.37697918702766348 0.28236086992420362 0 0.38989013113789828 0.29879329922390241 0 0.36484859857571789 0.30040387662965262 0 0.37768921731678712 0.31153580241694001 0 0.38989013113789828 0.29879329922390241 0 0.37768921731678712 0.31153580241694001 0 0.38989013113789828 0.29879329922390241 0 0.38986153620210529 0.3237613338714217 0 0.38989013113789828 0.29879329922390241 0 0.40687960739173912 0.30656538823862117 0 0.38986153620210529 0.3237613338714217 0 0.38989013113789828 0.29879329922390241 0 0.39972175574387991 0.28376465048602628 0 0.40687960739173912 0.30656538823862117 0 0.39972175574387991 0.28376465048602628 0 0.40687960739173912 0.30656538823862117 0 0.42212015990934559 0.29026025982474651 0 0.40687960739173912 0.30656538823862117 0 0.43103077966696679 0.31172537101809361 0 0.42212015990934559 0.29026025982474651 0 0.43103077966696679 0.31172537101809361 0 0.42212015990934559 0.29026025982474651 0 0.45089657039804382 0.29109659776660851 0 0.42212015990934559 0.29026025982474651 0 0.4376491459044064 0.271969735579349 0 0.45089657039804382 0.29109659776660851 0 0.42212015990934559 0.29026025982474651 0 0.41433219382159908 0.26089949616282709 0 0.4376491459044064 0.271969735579349 0 0.39972175574387991 0.28376465048602628 0 0.42212015990934559 0.29026025982474651 0 0.41433219382159908 0.26089949616282709 0 0.41433219382159908 0.26089949616282709 0 0.43352875615764502 0.25382981741107608 0 0.4244326656786267 0.23891213018441429 0 0.41433219382159908 0.26089949616282709 0 0.43352875615764502 0.25382981741107608 0 0.4376491459044064 0.271969735579349 0 0.43352875615764502 0.25382981741107608 0 0.4376491459044064 0.271969735579349 0 0.45547721943765929 0.25824814475604402 0 0.43352875615764502 0.25382981741107608 0 0.45547721943765929 0.25824814475604402 0 0.44412814387945032 0.23916754138017379 0 0.4376491459044064 0.271969735579349 0 0.46239276674748608 0.27595611110568602 0 0.45089657039804382 0.29109659776660851 0 0.4376491459044064 0.271969735579349 0 0.46239276674748608 0.27595611110568602 0 0.45547721943765929 0.25824814475604402 0 0.46239276674748608 0.27595611110568602 0 0.45547721943765929 0.25824814475604402 0 0.47162304205064881 0.26493608105139321 0 0.45547721943765929 0.25824814475604402 0 0.47255770201617231 0.25145590111043847 0 0.47162304205064881 0.26493608105139321 0 0.45547721943765929 0.25824814475604402 0 0.47255770201617231 0.25145590111043847 0 0.4605014815776215 0.24173544554921941 0 0.47255770201617231 0.25145590111043847 0 0.47162304205064881 0.26493608105139321 0 0.48846629610629849 0.2616721820458584 0 0.46239276674748608 0.27595611110568602 0 0.47162304205064881 0.26493608105139321 0 0.47922122594562772 0.27734806623893937 0 0.47162304205064881 0.26493608105139321 0 0.47922122594562772 0.27734806623893937 0 0.48846629610629849 0.2616721820458584 0 0.48846629610629849 0.2616721820458584 0 0.49524426212048911 0.28904148779106509 0 0.47922122594562772 0.27734806623893937 0 0.48846629610629849 0.2616721820458584 0 0.49524426212048911 0.28904148779106509 0 0.5 0.27031511086670118 0 0.48846629610629849 0.2616721820458584 0 0.49524426212048911 0.28904148779106509 0 0.5 0.27031511086670118 0 0.48846629610629849 0.2616721820458584 0 0.50000000000000433 0.24214426978938761 0 0.48608441147425591 0.30796348019836189 0 0.50000000000000167 0.29848595194401489 0 0.47544828519902271 0.29479127485531159 0 0.48608441147425591 0.30796348019836189 0 0.50000000000000167 0.29848595194401489 0 0.49999999999999872 0.31380169340348568 0 0.5 0.27031511086670118 0 0.50000000000000167 0.29848595194401489 0 0.49524426212048911 0.28904148779106509 0 0.50000000000000167 0.29848595194401489 0 0.49524426212048911 0.28904148779106509 0 0.47544828519902271 0.29479127485531159 0 0.50000000000000167 0.29848595194401489 0 0.47544828519902271 0.29479127485531159 0 0.47922122594562772 0.27734806623893937 0 0.49524426212048911 0.28904148779106509 0 0.47544828519902271 0.29479127485531159 0 0.46239276674748608 0.27595611110568602 0 0.47922122594562772 0.27734806623893937 0 0.47544828519902271 0.29479127485531159 0 0.48608441147425591 0.30796348019836189 0 0.47544828519902271 0.29479127485531159 0 0.46951066154593019 0.31176445798722152 0 0.46951066154593019 0.31176445798722152 0 0.45089657039804382 0.29109659776660851 0 0.45234776235238427 0.322996274910267 0 0.47544828519902271 0.29479127485531159 0 0.46951066154593019 0.31176445798722152 0 0.45089657039804382 0.29109659776660851 0 0.43103077966696679 0.31172537101809361 0 0.45089657039804382 0.29109659776660851 0 0.45234776235238427 0.322996274910267 0 0.47544828519902271 0.29479127485531159 0 0.45089657039804382 0.29109659776660851 0 0.46239276674748608 0.27595611110568602 0 0.47544828519902271 0.29479127485531159 0 0.45089657039804382 0.29109659776660851 0 0.45234776235238427 0.322996274910267 0 0.46981903518337759 0.33066553065073861 0 0.4571479849290695 0.35658902758234801 0 0.43103077966696679 0.31172537101809361 0 0.45234776235238427 0.322996274910267 0 0.43329124731881818 0.33874384449464812 0 0.45234776235238427 0.322996274910267 0 0.4571479849290695 0.35658902758234801 0 0.43329124731881818 0.33874384449464812 0 0.46951066154593019 0.31176445798722152 0 0.45234776235238427 0.322996274910267 0 0.46981903518337759 0.33066553065073861 0 0.48608441147425591 0.30796348019836189 0 0.46951066154593019 0.31176445798722152 0 0.48546311062632908 0.32097402280177623 0 0.46951066154593019 0.31176445798722152 0 0.46981903518337759 0.33066553065073861 0 0.48546311062632908 0.32097402280177623 0 0.46981903518337759 0.33066553065073861 0 0.48294762232630217 0.34356136798229681 0 0.4571479849290695 0.35658902758234801 0 0.46981903518337759 0.33066553065073861 0 0.48294762232630217 0.34356136798229681 0 0.48546311062632908 0.32097402280177623 0 0.48294762232630217 0.34356136798229681 0 0.48546311062632908 0.32097402280177623 0 0.49301161100999669 0.3384795051339462 0 0.49999999999999911 0.3349506821697732 0 0.49999999999999872 0.31380169340348568 0 0.48294762232630217 0.34356136798229681 0 0.49301161100999669 0.3384795051339462 0 0.48546311062632908 0.32097402280177623 0 0.48294762232630217 0.34356136798229681 0 0.49301161100999669 0.3384795051339462 0 0.49301161100999669 0.3384795051339462 0 0.49999999999999911 0.3349506821697732 0 0.49301161100999669 0.3384795051339462 0 0.49999999999999872 0.31380169340348568 0 0.49301161100999669 0.3384795051339462 0 0.49999999999999872 0.31380169340348568 0 0.48546311062632908 0.32097402280177623 0 0.48608441147425591 0.30796348019836189 0 0.49999999999999872 0.31380169340348568 0 0.48546311062632908 0.32097402280177623 0 0.48518442465506922 0.36611932763423882 0 0.5 0.3581028396746041 0 0.5 0.38125499717943501 0 0.49301161100999669 0.3384795051339462 0 0.48518442465506922 0.36611932763423882 0 0.49301161100999669 0.3384795051339462 0 0.48518442465506922 0.36611932763423882 0 0.5 0.3581028396746041 0 0.49301161100999669 0.3384795051339462 0 0.49999999999999911 0.3349506821697732 0 0.5 0.3581028396746041 0 0.48294762232630217 0.34356136798229681 0 0.49301161100999669 0.3384795051339462 0 0.48518442465506922 0.36611932763423882 0 0.48294762232630217 0.34356136798229681 0 0.48015243031322119 0.36866025905841332 0 0.4571479849290695 0.35658902758234801 0 0.48294762232630217 0.34356136798229681 0 0.4571479849290695 0.35658902758234801 0 0.48294762232630217 0.34356136798229681 0 0.48015243031322119 0.36866025905841332 0 0.48294762232630217 0.34356136798229681 0 0.48518442465506922 0.36611932763423882 0 0.48015243031322119 0.36866025905841332 0 0.48015243031322119 0.36866025905841332 0 0.4571479849290695 0.35658902758234801 0 0.45895872081054051 0.37968344554554417 0 0.4571479849290695 0.35658902758234801 0 0.43134834753183859 0.36961668718240248 0 0.43329124731881818 0.33874384449464812 0 0.4571479849290695 0.35658902758234801 0 0.43134834753183859 0.36961668718240248 0 0.4571479849290695 0.35658902758234801 0 0.43134834753183859 0.36961668718240248 0 0.45895872081054051 0.37968344554554417 0 0.43134834753183859 0.36961668718240248 0 0.41352516647121218 0.34784492452428462 0 0.39859161338257287 0.36454549752972459 0 0.43134834753183859 0.36961668718240248 0 0.39859161338257287 0.36454549752972459 0 0.40554871013460758 0.38264434678245701 0 0.43134834753183859 0.36961668718240248 0 0.41352516647121218 0.34784492452428462 0 0.43329124731881818 0.33874384449464812 0 0.43103077966696679 0.31172537101809361 0 0.43329124731881818 0.33874384449464812 0 0.41434744296143861 0.32369078175049321 0 0.40687960739173912 0.30656538823862117 0 0.43103077966696679 0.31172537101809361 0 0.41434744296143861 0.32369078175049321 0 0.41352516647121218 0.34784492452428462 0 0.41434744296143861 0.32369078175049321 0 0.40189190974142402 0.33588609159017802 0 0.41352516647121218 0.34784492452428462 0 0.43329124731881818 0.33874384449464812 0 0.41434744296143861 0.32369078175049321 0 0.40189190974142402 0.33588609159017802 0 0.38986153620210529 0.3237613338714217 0 0.38983349333093997 0.34824732621451271 0 0.40687960739173912 0.30656538823862117 0 0.41434744296143861 0.32369078175049321 0 0.38986153620210529 0.3237613338714217 0 0.41434744296143861 0.32369078175049321 0 0.40189190974142402 0.33588609159017802 0 0.38986153620210529 0.3237613338714217 0 0.36615660335142691 0.32318469994278343 0 0.37768921731678712 0.31153580241694001 0 0.38986153620210529 0.3237613338714217 0 0.37349252016933743 0.3401425533806538 0 0.36615660335142691 0.32318469994278343 0 0.38986153620210529 0.3237613338714217 0 0.37349252016933743 0.3401425533806538 0 0.38986153620210529 0.3237613338714217 0 0.38983349333093997 0.34824732621451271 0 0.37349252016933743 0.3401425533806538 0 0.38983349333093997 0.34824732621451271 0 0.37643434621356781 0.3593715656676828 0 0.38983349333093997 0.34824732621451271 0 0.37643434621356781 0.3593715656676828 0 0.39859161338257287 0.36454549752972459 0 0.37485961661327177 0.37954813480700839 0 0.37643434621356781 0.3593715656676828 0 0.39859161338257287 0.36454549752972459 0 0.41352516647121218 0.34784492452428462 0 0.38983349333093997 0.34824732621451271 0 0.39859161338257287 0.36454549752972459 0 0.41352516647121218 0.34784492452428462 0 0.40189190974142402 0.33588609159017802 0 0.38983349333093997 0.34824732621451271 0 0.39961888608725782 0.39577578857759638 0 0.40554871013460758 0.38264434678245701 0 0.37974907273737663 0.39567200638251149 0 0.39070621274458728 0.40133974087291069 0 0.37872352642598028 0.40793029927922181 0 0.40349761751181479 0.4071609325758766 0 0.39070621274458728 0.40133974087291069 0 0.39961888608725782 0.39577578857759638 0 0.40349761751181479 0.4071609325758766 0 0.40554871013460758 0.38264434678245701 0 0.37974907273737663 0.39567200638251149 0 0.37485961661327177 0.37954813480700839 0 0.39859161338257287 0.36454549752972459 0 0.40554871013460758 0.38264434678245701 0 0.37485961661327177 0.37954813480700839 0 0.40554871013460758 0.38264434678245701 0 0.37974907273737663 0.39567200638251149 0 0.39070621274458728 0.40133974087291069 0 0.39961888608725782 0.39577578857759638 0 0.37974907273737663 0.39567200638251149 0 0.39070621274458728 0.40133974087291069 0 0.37974907273737663 0.39567200638251149 0 0.37872352642598028 0.40793029927922181 0 0.37872352642598028 0.40793029927922181 0 0.39044110925977449 0.41989445118369167 0 0.39718697449537749 0.41521027869048671 0 0.36966932715288081 0.41564598319156598 0 0.37872352642598028 0.40793029927922181 0 0.38116916670267181 0.41843736815896332 0 0.37872352642598028 0.40793029927922181 0 0.38116916670267181 0.41843736815896332 0 0.39044110925977449 0.41989445118369167 0 0.3740979599754185 0.42369976749307858 0 0.38950477895119878 0.4299039143616401 0 0.37937629386806121 0.43872867722892561 0 0.3740979599754185 0.42369976749307858 0 0.38116916670267181 0.41843736815896332 0 0.38950477895119878 0.4299039143616401 0 0.38116916670267181 0.41843736815896332 0 0.39044110925977449 0.41989445118369167 0 0.38950477895119878 0.4299039143616401 0 0.38950477895119878 0.4299039143616401 0 0.39360820751612052 0.44100616072071691 0 0.37937629386806121 0.43872867722892561 0 0.38950477895119878 0.4299039143616401 0 0.39842388214230151 0.42319637648876518 0 0.40669888154672829 0.43636530474189172 0 0.38950477895119878 0.4299039143616401 0 0.40669888154672829 0.43636530474189172 0 0.39360820751612052 0.44100616072071691 0 0.39842388214230151 0.42319637648876518 0 0.40828766645842812 0.41460793346611641 0 0.40669888154672829 0.43636530474189172 0 0.39044110925977449 0.41989445118369167 0 0.38950477895119878 0.4299039143616401 0 0.39842388214230151 0.42319637648876518 0 0.37872352642598028 0.40793029927922181 0 0.39718697449537749 0.41521027869048671 0 0.40349761751181479 0.4071609325758766 0 0.37872352642598028 0.40793029927922181 0 0.40349761751181479 0.4071609325758766 0 0.39044110925977449 0.41989445118369167 0 0.39842388214230151 0.42319637648876518 0 0.39718697449537749 0.41521027869048671 0 0.39842388214230151 0.42319637648876518 0 0.39718697449537749 0.41521027869048671 0 0.40828766645842812 0.41460793346611641 0 0.39718697449537749 0.41521027869048671 0 0.40349761751181479 0.4071609325758766 0 0.40828766645842812 0.41460793346611641 0 0.40349761751181479 0.4071609325758766 0 0.40828766645842812 0.41460793346611641 0 0.41769322518569851 0.41457973263928521 0 0.40349761751181479 0.4071609325758766 0 0.42827170859764929 0.40639156587253139 0 0.40349761751181479 0.4071609325758766 0 0.41769322518569851 0.41457973263928521 0 0.42827170859764929 0.40639156587253139 0 0.40828766645842812 0.41460793346611641 0 0.41769322518569851 0.41457973263928521 0 0.41432747217312399 0.42306673170157588 0 0.41769322518569851 0.41457973263928521 0 0.41432747217312399 0.42306673170157588 0 0.42463011550164098 0.42671395595901029 0 0.40828766645842812 0.41460793346611641 0 0.40669888154672829 0.43636530474189172 0 0.41432747217312399 0.42306673170157588 0 0.40828766645842812 0.41460793346611641 0 0.40669888154672829 0.43636530474189172 0 0.40669888154672829 0.43636530474189172 0 0.41432747217312399 0.42306673170157588 0 0.42463011550164098 0.42671395595901029 0 0.40669888154672829 0.43636530474189172 0 0.42463011550164098 0.42671395595901029 0 0.41843151971263481 0.4452805543159859 0 0.42463011550164098 0.42671395595901029 0 0.44113739352681203 0.41775345664879349 0 0.4403657813783648 0.43100668538557108 0 0.42463011550164098 0.42671395595901029 0 0.4403657813783648 0.43100668538557108 0 0.43160340402300268 0.44216302701295979 0 0.41769322518569851 0.41457973263928521 0 0.42463011550164098 0.42671395595901029 0 0.42827170859764929 0.40639156587253139 0 0.42463011550164098 0.42671395595901029 0 0.42827170859764929 0.40639156587253139 0 0.44113739352681203 0.41775345664879349 0 0.42827170859764929 0.40639156587253139 0 0.41859281730790282 0.39206191627422621 0 0.44203588576832931 0.39196223997805663 0 0.39961888608725782 0.39577578857759638 0 0.40349761751181479 0.4071609325758766 0 0.41859281730790282 0.39206191627422621 0 0.40349761751181479 0.4071609325758766 0 0.42827170859764929 0.40639156587253139 0 0.41859281730790282 0.39206191627422621 0 0.43134834753183859 0.36961668718240248 0 0.40554871013460758 0.38264434678245701 0 0.43134834753183859 0.36961668718240248 0 0.40554871013460758 0.38264434678245701 0 0.41859281730790282 0.39206191627422621 0 0.39961888608725782 0.39577578857759638 0 0.40554871013460758 0.38264434678245701 0 0.41859281730790282 0.39206191627422621 0 0.43134834753183859 0.36961668718240248 0 0.41859281730790282 0.39206191627422621 0 0.44203588576832931 0.39196223997805663 0 0.43134834753183859 0.36961668718240248 0 0.44203588576832931 0.39196223997805663 0 0.45895872081054051 0.37968344554554417 0 0.42827170859764929 0.40639156587253139 0 0.44361275569025221 0.40558419689992348 0 0.44203588576832931 0.39196223997805663 0 0.44361275569025221 0.40558419689992348 0 0.44203588576832931 0.39196223997805663 0 0.45551136849119489 0.4021960702532662 0 0.44203588576832931 0.39196223997805663 0 0.45551136849119489 0.4021960702532662 0 0.46245505518943258 0.39289172839809572 0 0.45551136849119489 0.4021960702532662 0 0.46670346888582298 0.40386450581376238 0 0.46162527327843289 0.41057740878317139 0 0.45551136849119489 0.4021960702532662 0 0.46245505518943258 0.39289172839809572 0 0.46670346888582298 0.40386450581376238 0 0.46245505518943258 0.39289172839809572 0 0.45895872081054051 0.37968344554554417 0 0.47735723830013321 0.393759150134529 0 0.44203588576832931 0.39196223997805663 0 0.46245505518943258 0.39289172839809572 0 0.45895872081054051 0.37968344554554417 0 0.48015243031322119 0.36866025905841332 0 0.47735723830013321 0.393759150134529 0 0.48015243031322119 0.36866025905841332 0 0.45895872081054051 0.37968344554554417 0 0.47735723830013321 0.393759150134529 0 0.48518442465506922 0.36611932763423882 0 0.48015243031322119 0.36866025905841332 0 0.47735723830013321 0.393759150134529 0 0.48518442465506922 0.36611932763423882 0 0.47735723830013321 0.393759150134529 0 0.46670346888582298 0.40386450581376238 0 0.47650623635955919 0.39676425842226409 0 0.47735723830013321 0.393759150134529 0 0.46245505518943258 0.39289172839809572 0 0.46670346888582298 0.40386450581376238 0 0.47735723830013321 0.393759150134529 0 0.47650623635955919 0.39676425842226409 0 0.48487134110259689 0.40433895410638931 0 0.47754574374298198 0.41174421664205241 0 0.47650623635955919 0.39676425842226409 0 0.48757073158302983 0.39605648575636643 0 0.48487134110259689 0.40433895410638931 0 0.47650623635955919 0.39676425842226409 0 0.47735723830013321 0.393759150134529 0 0.48757073158302983 0.39605648575636643 0 0.47650623635955919 0.39676425842226409 0 0.47735723830013321 0.393759150134529 0 0.48757073158302983 0.39605648575636643 0 0.5 0.4044071546842658 0 0.5 0.38125499717943501 0 0.48757073158302983 0.39605648575636643 0 0.48487134110259689 0.40433895410638931 0 0.5 0.4044071546842658 0 0.48518442465506922 0.36611932763423882 0 0.47735723830013321 0.393759150134529 0 0.5 0.38125499717943501 0 0.47735723830013321 0.393759150134529 0 0.48757073158302983 0.39605648575636643 0 0.5 0.38125499717943501 0 0.50000000000000311 0.42755931218909671 0 0.47056869676340762 0.42265638441894487 0 0.5 0.4044071546842658 0 0.50000000000000311 0.42755931218909671 0 0.48563958772416149 0.41381718286367469 0 0.50000000000000311 0.42755931218909671 0 0.48563958772416149 0.41381718286367469 0 0.47056869676340762 0.42265638441894487 0 0.48487134110259689 0.40433895410638931 0 0.5 0.4044071546842658 0 0.48563958772416149 0.41381718286367469 0 0.46670346888582298 0.40386450581376238 0 0.47650623635955919 0.39676425842226409 0 0.46964231114303961 0.42100255632866551 0 0.47650623635955919 0.39676425842226409 0 0.46964231114303961 0.42100255632866551 0 0.48563958772416149 0.41381718286367469 0 0.47754574374298198 0.41174421664205241 0 0.47056869676340762 0.42265638441894487 0 0.47650623635955919 0.39676425842226409 0 0.47754574374298198 0.41174421664205241 0 0.46964231114303961 0.42100255632866551 0 0.48487134110259689 0.40433895410638931 0 0.48563958772416149 0.41381718286367469 0 0.47754574374298198 0.41174421664205241 0 0.47754574374298198 0.41174421664205241 0 0.46964231114303961 0.42100255632866551 0 0.47056869676340762 0.42265638441894487 0 0.50000000000000311 0.42755931218909671 0 0.47056869676340762 0.42265638441894487 0 0.47073390578827951 0.44035361518627969 0 0.46206068443137699 0.43192737433555278 0 0.45171057876376852 0.43970293828847701 0 0.47073390578827951 0.44035361518627969 0 0.47056869676340762 0.42265638441894487 0 0.46206068443137699 0.43192737433555278 0 0.45274741507659971 0.42870004901861503 0 0.47056869676340762 0.42265638441894487 0 0.44113739352681203 0.41775345664879349 0 0.45274741507659971 0.42870004901861503 0 0.47056869676340762 0.42265638441894487 0 0.46206068443137699 0.43192737433555278 0 0.47073390578827951 0.44035361518627969 0 0.46206068443137699 0.43192737433555278 0 0.45274741507659971 0.42870004901861503 0 0.45171057876376852 0.43970293828847701 0 0.47056869676340762 0.42265638441894487 0 0.45552733052717992 0.41323094213008599 0 0.44113739352681203 0.41775345664879349 0 0.47056869676340762 0.42265638441894487 0 0.44113739352681203 0.41775345664879349 0 0.46670346888582298 0.40386450581376238 0 0.46964231114303961 0.42100255632866551 0 0.46162527327843289 0.41057740878317139 0 0.46964231114303961 0.42100255632866551 0 0.46162527327843289 0.41057740878317139 0 0.45552733052717992 0.41323094213008599 0 0.46964231114303961 0.42100255632866551 0 0.47056869676340762 0.42265638441894487 0 0.45552733052717992 0.41323094213008599 0 0.45551136849119489 0.4021960702532662 0 0.46162527327843289 0.41057740878317139 0 0.45552733052717992 0.41323094213008599 0 0.44361275569025221 0.40558419689992348 0 0.45552733052717992 0.41323094213008599 0 0.44113739352681203 0.41775345664879349 0 0.44361275569025221 0.40558419689992348 0 0.45551136849119489 0.4021960702532662 0 0.45552733052717992 0.41323094213008599 0 0.42827170859764929 0.40639156587253139 0 0.44361275569025221 0.40558419689992348 0 0.44113739352681203 0.41775345664879349 0 0.45274741507659971 0.42870004901861503 0 0.4403657813783648 0.43100668538557108 0 0.45171057876376852 0.43970293828847701 0 0.44113739352681203 0.41775345664879349 0 0.45274741507659971 0.42870004901861503 0 0.4403657813783648 0.43100668538557108 0 0.4403657813783648 0.43100668538557108 0 0.45171057876376852 0.43970293828847701 0 0.43160340402300268 0.44216302701295979 0 0.45171057876376852 0.43970293828847701 0 0.44241712617233131 0.45829125926554609 0 0.46142587905960969 0.45501530348954738 0 0.45171057876376852 0.43970293828847701 0 0.44241712617233131 0.45829125926554609 0 0.43160340402300268 0.44216302701295979 0 0.50000000000000311 0.42755931218909671 0 0.47887218984210012 0.45978732037213937 0 0.5 0.5 0 0.46142587905960969 0.45501530348954738 0 0.47887218984210012 0.45978732037213937 0 0.46339559473156933 0.47694138433529482 0 0.44241712617233131 0.45829125926554609 0 0.46142587905960969 0.45501530348954738 0 0.46339559473156933 0.47694138433529482 0 0.45171057876376852 0.43970293828847701 0 0.46142587905960969 0.45501530348954738 0 0.47073390578827951 0.44035361518627969 0 0.46142587905960969 0.45501530348954738 0 0.47073390578827951 0.44035361518627969 0 0.47887218984210012 0.45978732037213937 0 0.50000000000000311 0.42755931218909671 0 0.47073390578827951 0.44035361518627969 0 0.47887218984210012 0.45978732037213937 0 0.5 0.5 0 0.45894622898818582 0.5 0 0.46339559473156933 0.47694138433529482 0 0.47887218984210012 0.45978732037213937 0 0.5 0.5 0 0.46339559473156933 0.47694138433529482 0 0.44241712617233131 0.45829125926554609 0 0.46339559473156933 0.47694138433529482 0 0.43553271562416002 0.47953096421584801 0 0.45894622898818582 0.5 0 0.46339559473156933 0.47694138433529482 0 0.43553271562416002 0.47953096421584801 0 0.41987604856390498 0.47695561121775382 0 0.43553271562416002 0.47953096421584801 0 0.40205209575605388 0.50000000000000233 0 0.45894622898818582 0.5 0 0.43553271562416002 0.47953096421584801 0 0.40205209575605388 0.50000000000000233 0 0.40902956286982312 0.47938283699124801 0 0.41987604856390498 0.47695561121775382 0 0.40205209575605388 0.50000000000000233 0 0.40902956286982312 0.47938283699124801 0 0.41987604856390498 0.47695561121775382 0 0.41278303516019349 0.46769948528435562 0 0.40902956286982312 0.47938283699124801 0 0.41278303516019349 0.46769948528435562 0 0.40352131172332928 0.47988004729344252 0 0.40902956286982312 0.47938283699124801 0 0.40352131172332928 0.47988004729344252 0 0.41987604856390498 0.47695561121775382 0 0.42650919953291522 0.4649975304764935 0 0.41278303516019349 0.46769948528435562 0 0.41987604856390498 0.47695561121775382 0 0.43553271562416002 0.47953096421584801 0 0.42650919953291522 0.4649975304764935 0 0.44241712617233131 0.45829125926554609 0 0.43553271562416002 0.47953096421584801 0 0.42650919953291522 0.4649975304764935 0 0.44241712617233131 0.45829125926554609 0 0.4282107694380014 0.45400440949384219 0 0.42650919953291522 0.4649975304764935 0 0.4282107694380014 0.45400440949384219 0 0.42650919953291522 0.4649975304764935 0 0.41798413187772071 0.45777420464937002 0 0.44241712617233131 0.45829125926554609 0 0.4282107694380014 0.45400440949384219 0 0.43160340402300268 0.44216302701295979 0 0.42463011550164098 0.42671395595901029 0 0.43160340402300268 0.44216302701295979 0 0.41843151971263481 0.4452805543159859 0 0.4282107694380014 0.45400440949384219 0 0.43160340402300268 0.44216302701295979 0 0.41843151971263481 0.4452805543159859 0 0.40669888154672829 0.43636530474189172 0 0.41843151971263481 0.4452805543159859 0 0.40511009663502862 0.45812267601766699 0 0.4282107694380014 0.45400440949384219 0 0.41843151971263481 0.4452805543159859 0 0.41798413187772071 0.45777420464937002 0 0.41278303516019349 0.46769948528435562 0 0.40511009663502862 0.45812267601766699 0 0.40352131172332928 0.47988004729344252 0 0.42650919953291522 0.4649975304764935 0 0.41798413187772071 0.45777420464937002 0 0.41278303516019349 0.46769948528435562 0 0.41843151971263481 0.4452805543159859 0 0.41798413187772071 0.45777420464937002 0 0.40511009663502862 0.45812267601766699 0 0.41798413187772071 0.45777420464937002 0 0.41278303516019349 0.46769948528435562 0 0.40511009663502862 0.45812267601766699 0 0.39997463077057882 0.46868436417250631 0 0.39967657327032052 0.46227319892491359 0 0.40511009663502862 0.45812267601766699 0 0.39967657327032052 0.46227319892491359 0 0.40511009663502862 0.45812267601766699 0 0.39905627619678963 0.45697629468168821 0 0.39997463077057882 0.46868436417250631 0 0.39967657327032052 0.46227319892491359 0 0.38907315435812517 0.46364939982724729 0 0.39967657327032052 0.46227319892491359 0 0.39905627619678963 0.45697629468168821 0 0.38907315435812517 0.46364939982724729 0 0.39997463077057882 0.46868436417250631 0 0.38907315435812517 0.46364939982724729 0 0.38697805719900108 0.47121711751004741 0 0.40669888154672829 0.43636530474189172 0 0.39905627619678963 0.45697629468168821 0 0.39360820751612052 0.44100616072071691 0 0.40669888154672829 0.43636530474189172 0 0.40511009663502862 0.45812267601766699 0 0.39905627619678963 0.45697629468168821 0 0.40669888154672829 0.43636530474189172 0 0.40511009663502862 0.45812267601766699 0 0.39905627619678963 0.45697629468168821 0 0.39360820751612052 0.44100616072071691 0 0.37937629386806121 0.43872867722892561 0 0.39905627619678963 0.45697629468168821 0 0.37937629386806121 0.43872867722892561 0 0.38907315435812517 0.46364939982724729 0 0.39905627619678963 0.45697629468168821 0 0.37937629386806121 0.43872867722892561 0 0.37051413401241468 0.47277940772623789 0 0.37625666745501668 0.46053448708447842 0 0.38697805719900108 0.47121711751004741 0 0.37937629386806121 0.43872867722892561 0 0.38907315435812517 0.46364939982724729 0 0.37625666745501668 0.46053448708447842 0 0.38907315435812517 0.46364939982724729 0 0.37625666745501668 0.46053448708447842 0 0.38697805719900108 0.47121711751004741 0 0.37051413401241468 0.47277940772623789 0 0.38252844487454291 0.48177499895637271 0 0.38697805719900108 0.47121711751004741 0 0.37366170780626912 0.5 0 0.38252844487454291 0.48177499895637271 0 0.40205209575605388 0.50000000000000233 0 0.40205209575605388 0.50000000000000233 0 0.40352131172332928 0.47988004729344252 0 0.38252844487454291 0.48177499895637271 0 0.40205209575605388 0.50000000000000233 0 0.40352131172332928 0.47988004729344252 0 0.40902956286982312 0.47938283699124801 0 0.40205209575605388 0.50000000000000233 0 0.40352131172332928 0.47988004729344252 0 0.39997463077057882 0.46868436417250631 0 0.40511009663502862 0.45812267601766699 0 0.40352131172332928 0.47988004729344252 0 0.38252844487454291 0.48177499895637271 0 0.38697805719900108 0.47121711751004741 0 0.40352131172332928 0.47988004729344252 0 0.39997463077057882 0.46868436417250631 0 0.38697805719900108 0.47121711751004741 0 0.40352131172332928 0.47988004729344252 0 0.40511009663502862 0.45812267601766699 0 0.40352131172332928 0.47988004729344252 0 0.38252844487454291 0.48177499895637271 0 0.40352131172332928 0.47988004729344252 0 0.3289686058112683 0.079788728466638495 0 0.33782278864367699 0.090444230160614425 0 0.3207348319878095 0.096095239855301398 0 0.3289686058112683 0.079788728466638495 0 0.33782278864367699 0.090444230160614425 0 0.34723234432684508 0.07673777674972572 0 0.3289686058112683 0.079788728466638495 0 0.34723234432684508 0.07673777674972572 0 0.33079111787542709 0.060886571349719823 0 0.33079111787542709 0.060886571349719823 0 0.31581138617903032 0.051144949016404262 0 0.30973276813572398 0.078311092062943996 0 0.33079111787542709 0.060886571349719823 0 0.30973276813572398 0.078311092062943996 0 0.3289686058112683 0.079788728466638495 0 0.33079111787542709 0.060886571349719823 0 0.30973276813572398 0.078311092062943996 0 0.31581138617903032 0.051144949016404262 0 0.30973276813572398 0.078311092062943996 0 0.3289686058112683 0.079788728466638495 0 0.3207348319878095 0.096095239855301398 0 0.30973276813572398 0.078311092062943996 0 0.3207348319878095 0.096095239855301398 0 0.3269372861996796 0.11349011402544509 0 0.31137509824730553 0.1157635658952223 0 0.3207348319878095 0.096095239855301398 0 0.3269372861996796 0.11349011402544509 0 0.3316860530288091 0.1011317995594459 0 0.3269372861996796 0.11349011402544509 0 0.31137509824730553 0.1157635658952223 0 0.32102431184138358 0.13343223204472221 0 0.3269372861996796 0.11349011402544509 0 0.34861462024147549 0.12168848289337771 0 0.33691138564928869 0.13349826287711791 0 0.3269372861996796 0.11349011402544509 0 0.34373938876374432 0.1045568544559736 0 0.34861462024147549 0.12168848289337771 0 0.33782278864367699 0.090444230160614425 0 0.3207348319878095 0.096095239855301398 0 0.3316860530288091 0.1011317995594459 0 0.3269372861996796 0.11349011402544509 0 0.3316860530288091 0.1011317995594459 0 0.34373938876374432 0.1045568544559736 0 0.33782278864367699 0.090444230160614425 0 0.3316860530288091 0.1011317995594459 0 0.34373938876374432 0.1045568544559736 0 0.34373938876374432 0.1045568544559736 0 0.36159200717423051 0.109352606208449 0 0.35733987946939078 0.091270919050729066 0 0.33782278864367699 0.090444230160614425 0 0.34373938876374432 0.1045568544559736 0 0.35733987946939078 0.091270919050729066 0 0.34373938876374432 0.1045568544559736 0 0.34861462024147549 0.12168848289337771 0 0.36159200717423051 0.109352606208449 0 0.36159200717423051 0.109352606208449 0 0.36936346044693003 0.1274559631872913 0 0.37738222598765819 0.1120262278700697 0 0.34861462024147549 0.12168848289337771 0 0.36159200717423051 0.109352606208449 0 0.36936346044693003 0.1274559631872913 0 0.36159200717423051 0.109352606208449 0 0.35733987946939078 0.091270919050729066 0 0.37528617205714421 0.094334764783468888 0 0.36159200717423051 0.109352606208449 0 0.37528617205714421 0.094334764783468888 0 0.37738222598765819 0.1120262278700697 0 0.35733987946939078 0.091270919050729066 0 0.36938738231620971 0.07603363531429691 0 0.37528617205714421 0.094334764783468888 0 0.33782278864367699 0.090444230160614425 0 0.35733987946939078 0.091270919050729066 0 0.34723234432684508 0.07673777674972572 0 0.35733987946939078 0.091270919050729066 0 0.34723234432684508 0.07673777674972572 0 0.36938738231620971 0.07603363531429691 0 0.34723234432684508 0.07673777674972572 0 0.35783382078717191 0.062073946360916329 0 0.33079111787542709 0.060886571349719823 0 0.34723234432684508 0.07673777674972572 0 0.36938738231620971 0.07603363531429691 0 0.35783382078717191 0.062073946360916329 0 0.36938738231620971 0.07603363531429691 0 0.37214209901123502 0.054263725620741762 0 0.35783382078717191 0.062073946360916329 0 0.37214209901123502 0.054263725620741762 0 0.3518494676151307 0.043462050636495879 0 0.35783382078717191 0.062073946360916329 0 0.37214209901123502 0.054263725620741762 0 0.3518494676151307 0.043462050636495879 0 0.37193385410192598 0.029221965126703969 0 0.3518494676151307 0.043462050636495879 0 0.37290781735483419 0.026037529923271949 0 0.3518494676151307 0.043462050636495879 0 0.37290781735483419 0.026037529923271949 0 0.37193385410192598 0.029221965126703969 0 0.3518494676151307 0.043462050636495879 0 0.34976805000467159 0.023469253040359381 0 0.34086681758239462 0.027803066385440819 0 0.3518494676151307 0.043462050636495879 0 0.35783382078717191 0.062073946360916329 0 0.33079111787542709 0.060886571349719823 0 0.36668735413199832 0.0050801594470710736 0 0.3501393031344246 0.003452411249652146 0 0.36882055153557758 -0.003799999105230289 0 0.36668735413199832 0.0050801594470710736 0 0.37232090593065509 0.01083590475394291 0 0.36882055153557758 -0.003799999105230289 0 0.37232090593065509 0.01083590475394291 0 0.37970057977553112 0.01119520959997267 0 0.36882055153557758 -0.003799999105230289 0 0.37232090593065509 0.01083590475394291 0 0.36668051305400229 0.013508612454481841 0 0.36974439814443122 0.01908913438303959 0 0.36668735413199832 0.0050801594470710736 0 0.37232090593065509 0.01083590475394291 0 0.36668051305400229 0.013508612454481841 0 0.36668735413199832 0.0050801594470710736 0 0.36114748376782391 0.0097731042406131261 0 0.36668051305400229 0.013508612454481841 0 0.36114748376782391 0.0097731042406131261 0 0.36668051305400229 0.013508612454481841 0 0.36249504811893202 0.021655517442231251 0 0.3518494676151307 0.043462050636495879 0 0.36249504811893202 0.021655517442231251 0 0.37290781735483419 0.026037529923271949 0 0.36668051305400229 0.013508612454481841 0 0.36249504811893202 0.021655517442231251 0 0.36974439814443122 0.01908913438303959 0 0.37232090593065509 0.01083590475394291 0 0.36974439814443122 0.01908913438303959 0 0.37647126848190487 0.018757321012730411 0 0.36249504811893202 0.021655517442231251 0 0.36974439814443122 0.01908913438303959 0 0.37290781735483419 0.026037529923271949 0 0.36974439814443122 0.01908913438303959 0 0.37290781735483419 0.026037529923271949 0 0.37647126848190487 0.018757321012730411 0 0.37290781735483419 0.026037529923271949 0 0.37193385410192598 0.029221965126703969 0 0.37918251010091608 0.02534303658674171 0 0.3518494676151307 0.043462050636495879 0 0.36249504811893202 0.021655517442231251 0 0.34976805000467159 0.023469253040359381 0 0.34976805000467159 0.023469253040359381 0 0.34751675737472693 0.016720273713542771 0 0.35194558431097611 0.015169703689830141 0 0.34976805000467159 0.023469253040359381 0 0.34292930416121697 0.018086708227147169 0 0.34086681758239462 0.027803066385440819 0 0.34976805000467159 0.023469253040359381 0 0.34751675737472693 0.016720273713542771 0 0.34292930416121697 0.018086708227147169 0 0.36249504811893202 0.021655517442231251 0 0.34976805000467159 0.023469253040359381 0 0.35194558431097611 0.015169703689830141 0 0.3501393031344246 0.003452411249652146 0 0.34259177832094467 0.0063825016769797523 0 0.34141363344732711 -0.0094026850730369316 0 0.36249504811893202 0.021655517442231251 0 0.3501393031344246 0.003452411249652146 0 0.36114748376782391 0.0097731042406131261 0 0.36249504811893202 0.021655517442231251 0 0.3501393031344246 0.003452411249652146 0 0.36249504811893202 0.021655517442231251 0 0.35194558431097611 0.015169703689830141 0 0.3501393031344246 0.003452411249652146 0 0.36668735413199832 0.0050801594470710736 0 0.36114748376782391 0.0097731042406131261 0 0.3501393031344246 0.003452411249652146 0 0.35194558431097611 0.015169703689830141 0 0.34542409102204269 0.010155429896834409 0 0.3501393031344246 0.003452411249652146 0 0.34751675737472693 0.016720273713542771 0 0.34542409102204269 0.010155429896834409 0 0.34292930416121697 0.018086708227147169 0 0.34751675737472693 0.016720273713542771 0 0.35194558431097611 0.015169703689830141 0 0.34542409102204269 0.010155429896834409 0 0.34542409102204269 0.010155429896834409 0 0.34259177832094467 0.0063825016769797523 0 0.34542409102204269 0.010155429896834409 0 0.3501393031344246 0.003452411249652146 0 0.34259177832094467 0.0063825016769797523 0 0.3501393031344246 0.003452411249652146 0 0.34259177832094467 0.0063825016769797523 0 0.34259177832094467 0.0063825016769797523 0 0.32150308040636472 0.014569529002050609 0 0.34259177832094467 0.0063825016769797523 0 0.33591544181833072 0.01478500144366071 0 0.32150308040636472 0.014569529002050609 0 0.34259177832094467 0.0063825016769797523 0 0.32150308040636472 0.014569529002050609 0 0.32722491393694569 0.0027748930610335672 0 0.34542409102204269 0.010155429896834409 0 0.34259177832094467 0.0063825016769797523 0 0.33591544181833072 0.01478500144366071 0 0.34542409102204269 0.010155429896834409 0 0.33591544181833072 0.01478500144366071 0 0.34292930416121697 0.018086708227147169 0 0.33591544181833072 0.01478500144366071 0 0.32881750002700511 0.01958341652190683 0 0.32150308040636472 0.014569529002050609 0 0.32881750002700511 0.01958341652190683 0 0.33573070495459739 0.02047265813482586 0 0.33205588469779768 0.025191557654673381 0 0.33591544181833072 0.01478500144366071 0 0.32881750002700511 0.01958341652190683 0 0.33573070495459739 0.02047265813482586 0 0.33591544181833072 0.01478500144366071 0 0.33573070495459739 0.02047265813482586 0 0.34292930416121697 0.018086708227147169 0 0.33573070495459739 0.02047265813482586 0 0.34292930416121697 0.018086708227147169 0 0.34086681758239462 0.027803066385440819 0 0.33573070495459739 0.02047265813482586 0 0.34086681758239462 0.027803066385440819 0 0.33205588469779768 0.025191557654673381 0 0.33205588469779768 0.025191557654673381 0 0.32189000422233621 0.02397880596986442 0 0.33447820468485567 0.034660076059099418 0 0.34086681758239462 0.027803066385440819 0 0.33205588469779768 0.025191557654673381 0 0.33447820468485567 0.034660076059099418 0 0.32189000422233621 0.02397880596986442 0 0.32150308040636472 0.014569529002050609 0 0.30041438249178298 0.022756556327117362 0 0.32881750002700511 0.01958341652190683 0 0.32189000422233621 0.02397880596986442 0 0.32150308040636472 0.014569529002050609 0 0.32881750002700511 0.01958341652190683 0 0.33205588469779768 0.025191557654673381 0 0.32189000422233621 0.02397880596986442 0 0.32150308040636472 0.014569529002050609 0 0.3189408731129435 0.0053475756533085776 0 0.30882197995067601 0.0071273478196457437 0 0.3189408731129435 0.0053475756533085776 0 0.30882197995067601 0.0071273478196457437 0 0.31821351815778781 -0.003081467269495609 0 0.32150308040636472 0.014569529002050609 0 0.3189408731129435 0.0053475756533085776 0 0.32722491393694569 0.0027748930610335672 0 0.3189408731129435 0.0053475756533085776 0 0.32722491393694569 0.0027748930610335672 0 0.31821351815778781 -0.003081467269495609 0 0.3518494676151307 0.043462050636495879 0 0.33079111787542709 0.060886571349719823 0 0.32930789796162202 0.046266861930993428 0 0.3518494676151307 0.043462050636495879 0 0.33079111787542709 0.060886571349719823 0 0.3518494676151307 0.043462050636495879 0 0.34086681758239462 0.027803066385440819 0 0.33447820468485567 0.034660076059099418 0 0.3518494676151307 0.043462050636495879 0 0.33447820468485567 0.034660076059099418 0 0.32930789796162202 0.046266861930993428 0 0.32189000422233621 0.02397880596986442 0 0.33447820468485567 0.034660076059099418 0 0.32930789796162202 0.046266861930993428 0 0.32189000422233621 0.02397880596986442 0 0.31581138617903032 0.051144949016404262 0 0.32189000422233621 0.02397880596986442 0 0.31581138617903032 0.051144949016404262 0 0.30869749127326679 0.035092422920539518 0 0.32189000422233621 0.02397880596986442 0 0.32930789796162202 0.046266861930993428 0 0.31581138617903032 0.051144949016404262 0 0.33079111787542709 0.060886571349719823 0 0.32930789796162202 0.046266861930993428 0 0.31581138617903032 0.051144949016404262 0 0.31581138617903032 0.051144949016404262 0 0.30120484974834533 0.062416933300557587 0 0.29667419219991797 0.042489380368772062 0 0.31581138617903032 0.051144949016404262 0 0.30869749127326679 0.035092422920539518 0 0.29667419219991797 0.042489380368772062 0 0.30869749127326679 0.035092422920539518 0 0.29667419219991797 0.042489380368772062 0 0.30041438249178298 0.022756556327117362 0 0.29667419219991797 0.042489380368772062 0 0.30041438249178298 0.022756556327117362 0 0.27932568457720142 0.030943583652184071 0 0.29667419219991797 0.042489380368772062 0 0.28271873396293101 0.045189635649132073 0 0.27932568457720142 0.030943583652184071 0 0.30120484974834533 0.062416933300557587 0 0.29667419219991797 0.042489380368772062 0 0.28855973447046612 0.057841326660239431 0 0.28271873396293101 0.045189635649132073 0 0.28855973447046612 0.057841326660239431 0 0.2799066016366637 0.054511207025012533 0 0.28855973447046612 0.057841326660239431 0 0.2799066016366637 0.054511207025012533 0 0.27613777719673688 0.063676486296887144 0 0.29667419219991797 0.042489380368772062 0 0.28271873396293101 0.045189635649132073 0 0.28855973447046612 0.057841326660239431 0 0.32150308040636472 0.014569529002050609 0 0.30882197995067601 0.0071273478196457437 0 0.30041438249178298 0.022756556327117362 0 0.30882197995067601 0.0071273478196457437 0 0.29018578992418331 0.01277646094863806 0 0.30101268001110632 -0.0060101362968981104 0 0.30882197995067601 0.0071273478196457437 0 0.30041438249178298 0.022756556327117362 0 0.29018578992418331 0.01277646094863806 0 0.32189000422233621 0.02397880596986442 0 0.30869749127326679 0.035092422920539518 0 0.30041438249178298 0.022756556327117362 0 0.32150308040636472 0.014569529002050609 0 0.30041438249178298 0.022756556327117362 0 0.30041438249178298 0.022756556327117362 0 0.29018578992418331 0.01277646094863806 0 0.27932568457720142 0.030943583652184071 0 0.29018578992418331 0.01277646094863806 0 0.27463466430120598 0.017803747242263121 0 0.27932568457720142 0.030943583652184071 0 0.30041438249178298 0.022756556327117362 0 0.27932568457720142 0.030943583652184071 0 0.29018578992418331 0.01277646094863806 0 0.2769053482131274 0.0040376669475161737 0 0.30101268001110632 -0.0060101362968981104 0 0.29018578992418331 0.01277646094863806 0 0.2769053482131274 0.0040376669475161737 0 0.27463466430120598 0.017803747242263121 0 0.2769053482131274 0.0040376669475161737 0 0.27463466430120598 0.017803747242263121 0 0.26510760034691538 0.017226489244343779 0 0.27463466430120598 0.017803747242263121 0 0.26462416812063289 0.02752233450214879 0 0.26510760034691538 0.017226489244343779 0 0.27463466430120598 0.017803747242263121 0 0.27932568457720142 0.030943583652184071 0 0.26462416812063289 0.02752233450214879 0 0.2432100547534739 0.01462854956133006 0 0.25709107959432242 0.030938766009292708 0 0.25656618384609842 0.020880321901809239 0 0.2432100547534739 0.01462854956133006 0 0.25709107959432242 0.030938766009292708 0 0.25153177491617879 0.041733699703297752 0 0.26462416812063289 0.02752233450214879 0 0.25709107959432242 0.030938766009292708 0 0.25656618384609842 0.020880321901809239 0 0.2432100547534739 0.01462854956133006 0 0.25656618384609842 0.020880321901809239 0 0.25279801641514837 0.01408547019193046 0 0.25656618384609842 0.020880321901809239 0 0.26510760034691538 0.017226489244343779 0 0.25279801641514837 0.01408547019193046 0 0.26462416812063289 0.02752233450214879 0 0.25656618384609842 0.020880321901809239 0 0.26510760034691538 0.017226489244343779 0 0.2769053482131274 0.0040376669475161737 0 0.25279801641514837 0.01408547019193046 0 0.25322849713948081 0.001567162893323492 0 0.2769053482131274 0.0040376669475161737 0 0.26510760034691538 0.017226489244343779 0 0.25279801641514837 0.01408547019193046 0 0.2769053482131274 0.0040376669475161737 0 0.25279801641514837 0.01408547019193046 0 0.27167490423253809 0.051958861777618583 0 0.26389928507338289 0.048658425115888623 0 0.26516899964791341 0.056763242896294357 0 0.27167490423253809 0.051958861777618583 0 0.27097190234201618 0.042924597491594947 0 0.26389928507338289 0.048658425115888623 0 0.27167490423253809 0.051958861777618583 0 0.26516899964791341 0.056763242896294357 0 0.27613777719673688 0.063676486296887144 0 0.27167490423253809 0.051958861777618583 0 0.2799066016366637 0.054511207025012533 0 0.27613777719673688 0.063676486296887144 0 0.28271873396293101 0.045189635649132073 0 0.27167490423253809 0.051958861777618583 0 0.2799066016366637 0.054511207025012533 0 0.27932568457720142 0.030943583652184071 0 0.26462416812063289 0.02752233450214879 0 0.25823698666261541 0.039130610977239799 0 0.28271873396293101 0.045189635649132073 0 0.27167490423253809 0.051958861777618583 0 0.27097190234201618 0.042924597491594947 0 0.28271873396293101 0.045189635649132073 0 0.27932568457720142 0.030943583652184071 0 0.27097190234201618 0.042924597491594947 0 0.27932568457720142 0.030943583652184071 0 0.27097190234201618 0.042924597491594947 0 0.25823698666261541 0.039130610977239799 0 0.27932568457720142 0.030943583652184071 0 0.25823698666261541 0.039130610977239799 0 0.27097190234201618 0.042924597491594947 0 0.25823698666261541 0.039130610977239799 0 0.26389928507338289 0.048658425115888623 0 0.25823698666261541 0.039130610977239799 0 0.25342023994070001 0.047884727018191381 0 0.26389928507338289 0.048658425115888623 0 0.26462416812063289 0.02752233450214879 0 0.25709107959432242 0.030938766009292708 0 0.25823698666261541 0.039130610977239799 0 0.26462416812063289 0.02752233450214879 0 0.25823698666261541 0.039130610977239799 0 0.25709107959432242 0.030938766009292708 0 0.25823698666261541 0.039130610977239799 0 0.25153177491617879 0.041733699703297752 0 0.25823698666261541 0.039130610977239799 0 0.25153177491617879 0.041733699703297752 0 0.25342023994070001 0.047884727018191381 0 0.25823698666261541 0.039130610977239799 0 0.25342023994070001 0.047884727018191381 0 0.25823698666261541 0.039130610977239799 0 0.25153177491617879 0.041733699703297752 0 0.25153177491617879 0.041733699703297752 0 0.25342023994070001 0.047884727018191381 0 0.25342023994070001 0.047884727018191381 0 0.26516899964791341 0.056763242896294357 0 0.26071279179620738 0.071637714272885233 0 0.25342023994070001 0.047884727018191381 0 0.26071279179620738 0.071637714272885233 0 0.24344392212416679 0.066016019541911414 0 0.25342023994070001 0.047884727018191381 0 0.26071279179620738 0.071637714272885233 0 0.25342023994070001 0.047884727018191381 0 0.26389928507338289 0.048658425115888623 0 0.26516899964791341 0.056763242896294357 0 0.24344392212416679 0.066016019541911414 0 0.26071279179620738 0.071637714272885233 0 0.25083969566647812 0.082544616478772703 0 0.24856881645266679 0.095531334985857891 0 0.25083969566647812 0.082544616478772703 0 0.26800534365171752 0.095390701527578364 0 0.26071279179620738 0.071637714272885233 0 0.26800534365171752 0.095390701527578364 0 0.26071279179620738 0.071637714272885233 0 0.25083969566647812 0.082544616478772703 0 0.26800534365171752 0.095390701527578364 0 0.27817556969959878 0.079041846210862812 0 0.28467272294452128 0.09179605909433855 0 0.26800534365171752 0.095390701527578364 0 0.26071279179620738 0.071637714272885233 0 0.27817556969959878 0.079041846210862812 0 0.26800534365171752 0.095390701527578364 0 0.26071279179620738 0.071637714272885233 0 0.27817556969959878 0.079041846210862812 0 0.27613777719673688 0.063676486296887144 0 0.26516899964791341 0.056763242896294357 0 0.26071279179620738 0.071637714272885233 0 0.27613777719673688 0.063676486296887144 0 0.27817556969959878 0.079041846210862812 0 0.27613777719673688 0.063676486296887144 0 0.28588876521737389 0.069858304034457072 0 0.28855973447046612 0.057841326660239431 0 0.27613777719673688 0.063676486296887144 0 0.28588876521737389 0.069858304034457072 0 0.28855973447046612 0.057841326660239431 0 0.28588876521737389 0.069858304034457072 0 0.29418900536009568 0.068299684041881234 0 0.30120484974834533 0.062416933300557587 0 0.28855973447046612 0.057841326660239431 0 0.29418900536009568 0.068299684041881234 0 0.29418900536009568 0.068299684041881234 0 0.29238173935997208 0.080432176962414739 0 0.30004687441140998 0.074713730154046351 0 0.28588876521737389 0.069858304034457072 0 0.29418900536009568 0.068299684041881234 0 0.29238173935997208 0.080432176962414739 0 0.27817556969959878 0.079041846210862812 0 0.28588876521737389 0.069858304034457072 0 0.29238173935997208 0.080432176962414739 0 0.27817556969959878 0.079041846210862812 0 0.28467272294452128 0.09179605909433855 0 0.29238173935997208 0.080432176962414739 0 0.28467272294452128 0.09179605909433855 0 0.29562685609787631 0.093621610468178837 0 0.29238173935997208 0.080432176962414739 0 0.29562685609787631 0.093621610468178837 0 0.30272600945291311 0.084108764402434158 0 0.30426054074970332 0.1027671955543535 0 0.30272600945291311 0.084108764402434158 0 0.30973276813572398 0.078311092062943996 0 0.30004687441140998 0.074713730154046351 0 0.30272600945291311 0.084108764402434158 0 0.30973276813572398 0.078311092062943996 0 0.30426054074970332 0.1027671955543535 0 0.3207348319878095 0.096095239855301398 0 0.30973276813572398 0.078311092062943996 0 0.30426054074970332 0.1027671955543535 0 0.30973276813572398 0.078311092062943996 0 0.30426054074970332 0.1027671955543535 0 0.29238173935997208 0.080432176962414739 0 0.30272600945291311 0.084108764402434158 0 0.30004687441140998 0.074713730154046351 0 0.29562685609787631 0.093621610468178837 0 0.29238173935997208 0.080432176962414739 0 0.30272600945291311 0.084108764402434158 0 0.30272600945291311 0.084108764402434158 0 0.30973276813572398 0.078311092062943996 0 0.30120484974834533 0.062416933300557587 0 0.30973276813572398 0.078311092062943996 0 0.30004687441140998 0.074713730154046351 0 0.31581138617903032 0.051144949016404262 0 0.30120484974834533 0.062416933300557587 0 0.30973276813572398 0.078311092062943996 0 0.30120484974834533 0.062416933300557587 0 0.29418900536009568 0.068299684041881234 0 0.30004687441140998 0.074713730154046351 0 0.31137509824730553 0.1157635658952223 0 0.29027997291524549 0.108390814540003 0 0.29891552095315571 0.13117883274388031 0 0.3207348319878095 0.096095239855301398 0 0.31137509824730553 0.1157635658952223 0 0.30426054074970332 0.1027671955543535 0 0.31137509824730553 0.1157635658952223 0 0.30426054074970332 0.1027671955543535 0 0.29027997291524549 0.108390814540003 0 0.28467272294452128 0.09179605909433855 0 0.29562685609787631 0.093621610468178837 0 0.29027997291524549 0.108390814540003 0 0.29562685609787631 0.093621610468178837 0 0.30426054074970332 0.1027671955543535 0 0.29027997291524549 0.108390814540003 0 0.29027997291524549 0.108390814540003 0 0.27529789550722739 0.1191436887822715 0 0.29891552095315571 0.13117883274388031 0 0.27529789550722739 0.1191436887822715 0 0.26800534365171752 0.095390701527578364 0 0.25667278429039669 0.11474718359631721 0 0.29027997291524549 0.108390814540003 0 0.27529789550722739 0.1191436887822715 0 0.26800534365171752 0.095390701527578364 0 0.28467272294452128 0.09179605909433855 0 0.29027997291524549 0.108390814540003 0 0.26800534365171752 0.095390701527578364 0 0.27529789550722739 0.1191436887822715 0 0.26800534365171752 0.095390701527578364 0 0.24856881645266679 0.095531334985857891 0 0.26800534365171752 0.095390701527578364 0 0.25667278429039669 0.11474718359631721 0 0.27529789550722739 0.1191436887822715 0 0.25667278429039669 0.11474718359631721 0 0.25848584631921268 0.1366553478211682 0 0.2449922006142625 0.12642869214883201 0 0.25667278429039669 0.11474718359631721 0 0.25848584631921268 0.1366553478211682 0 0.27529789550722739 0.1191436887822715 0 0.28259044736273742 0.1428966760369646 0 0.27529789550722739 0.1191436887822715 0 0.25848584631921268 0.1366553478211682 0 0.28259044736273742 0.1428966760369646 0 0.25848584631921268 0.1366553478211682 0 0.26668326707393181 0.1590254289262043 0 0.28259044736273742 0.1428966760369646 0 0.26668326707393181 0.1590254289262043 0 0.28988299921824578 0.16664966329165809 0 0.28259044736273742 0.1428966760369646 0 0.24348353492961811 0.15140119456074971 0 0.25848584631921268 0.1366553478211682 0 0.26668326707393181 0.1590254289262043 0 0.24348353492961811 0.15140119456074971 0 0.26668326707393181 0.1590254289262043 0 0.24348353492961811 0.15140119456074971 0 0.2572614987433941 0.17557495846575299 0 0.26668326707393181 0.1590254289262043 0 0.2572614987433941 0.17557495846575299 0 0.27247956316056549 0.18386565960509399 0 0.2647000086065352 0.20091919792896509 0 0.2572614987433941 0.17557495846575299 0 0.27247956316056549 0.18386565960509399 0 0.2745405797063209 0.17177566730126981 0 0.27247956316056549 0.18386565960509399 0 0.2745405797063209 0.17177566730126981 0 0.28388590634883021 0.18035988039149881 0 0.27247956316056549 0.18386565960509399 0 0.28388590634883021 0.18035988039149881 0 0.28409439105661471 0.19408451955785999 0 0.26668326707393181 0.1590254289262043 0 0.2745405797063209 0.17177566730126981 0 0.28988299921824578 0.16664966329165809 0 0.26668326707393181 0.1590254289262043 0 0.28988299921824578 0.16664966329165809 0 0.2572614987433941 0.17557495846575299 0 0.26668326707393181 0.1590254289262043 0 0.2745405797063209 0.17177566730126981 0 0.28988299921824578 0.16664966329165809 0 0.29793129359325021 0.16929461118051839 0 0.28988299921824578 0.16664966329165809 0 0.30162094052677701 0.17924050385363849 0 0.29793129359325021 0.16929461118051839 0 0.28988299921824578 0.16664966329165809 0 0.2952681662344972 0.1575017082290085 0 0.29793129359325021 0.16929461118051839 0 0.28988299921824578 0.16664966329165809 0 0.29662104424436692 0.18859653467468929 0 0.28988299921824578 0.16664966329165809 0 0.28388590634883021 0.18035988039149881 0 0.29662104424436692 0.18859653467468929 0 0.28988299921824578 0.16664966329165809 0 0.30162094052677701 0.17924050385363849 0 0.29662104424436692 0.18859653467468929 0 0.2745405797063209 0.17177566730126981 0 0.28988299921824578 0.16664966329165809 0 0.28388590634883021 0.18035988039149881 0 0.30162094052677701 0.17924050385363849 0 0.29662104424436692 0.18859653467468929 0 0.31064191333582852 0.19254156022757121 0 0.30162094052677701 0.17924050385363849 0 0.29793129359325021 0.16929461118051839 0 0.30860838971965499 0.1704397609581226 0 0.30162094052677701 0.17924050385363849 0 0.30860838971965499 0.1704397609581226 0 0.31597697602944391 0.17916214878172379 0 0.30162094052677701 0.17924050385363849 0 0.31064191333582852 0.19254156022757121 0 0.31597697602944391 0.17916214878172379 0 0.2952681662344972 0.1575017082290085 0 0.29793129359325021 0.16929461118051839 0 0.30603764872965677 0.16012062335991531 0 0.29793129359325021 0.16929461118051839 0 0.30860838971965499 0.1704397609581226 0 0.30603764872965677 0.16012062335991531 0 0.30860838971965499 0.1704397609581226 0 0.30603764872965677 0.16012062335991531 0 0.32147508971914729 0.16438091761481699 0 0.30603764872965677 0.16012062335991531 0 0.29989844226859569 0.1485469672759859 0 0.31379473831280258 0.14797477773306239 0 0.29989844226859569 0.1485469672759859 0 0.29891552095315571 0.13117883274388031 0 0.31379473831280258 0.14797477773306239 0 0.2952681662344972 0.1575017082290085 0 0.30603764872965677 0.16012062335991531 0 0.29989844226859569 0.1485469672759859 0 0.29891552095315571 0.13117883274388031 0 0.32102431184138358 0.13343223204472221 0 0.31379473831280258 0.14797477773306239 0 0.31137509824730553 0.1157635658952223 0 0.29891552095315571 0.13117883274388031 0 0.32102431184138358 0.13343223204472221 0 0.27529789550722739 0.1191436887822715 0 0.29891552095315571 0.13117883274388031 0 0.28259044736273742 0.1428966760369646 0 0.29989844226859569 0.1485469672759859 0 0.29891552095315571 0.13117883274388031 0 0.28259044736273742 0.1428966760369646 0 0.2952681662344972 0.1575017082290085 0 0.29989844226859569 0.1485469672759859 0 0.28259044736273742 0.1428966760369646 0 0.28988299921824578 0.16664966329165809 0 0.2952681662344972 0.1575017082290085 0 0.28259044736273742 0.1428966760369646 0 0.28988299921824578 0.16664966329165809 0 0.28259044736273742 0.1428966760369646 0 0.28247692351273551 0.25038816072899422 0 0.27560737830658738 0.24333680015157191 0 0.28406142469554457 0.2388795816663937 0 0.27374762366203981 0.2501980555692947 0 0.28247692351273551 0.25038816072899422 0 0.27560737830658738 0.24333680015157191 0 0.27560737830658738 0.24333680015157191 0 0.2740561706327786 0.234937252636717 0 0.28406142469554457 0.2388795816663937 0 0.2740561706327786 0.234937252636717 0 0.26726346120470529 0.24473779687775951 0 0.26320293121992039 0.23371535106068711 0 0.27560737830658738 0.24333680015157191 0 0.2740561706327786 0.234937252636717 0 0.26726346120470529 0.24473779687775951 0 0.26743152286471661 0.25329145143570758 0 0.26726346120470529 0.24473779687775951 0 0.26326289898663768 0.248690939492587 0 0.27374762366203981 0.2501980555692947 0 0.27560737830658738 0.24333680015157191 0 0.26726346120470529 0.24473779687775951 0 0.26743152286471661 0.25329145143570758 0 0.27374762366203981 0.2501980555692947 0 0.26726346120470529 0.24473779687775951 0 0.26726346120470529 0.24473779687775951 0 0.26326289898663768 0.248690939492587 0 0.25883536401376722 0.24899048594989959 0 0.26726346120470529 0.24473779687775951 0 0.25883536401376722 0.24899048594989959 0 0.26320293121992039 0.23371535106068711 0 0.25883536401376722 0.24899048594989959 0 0.26320293121992039 0.23371535106068711 0 0.25206310705512192 0.22402937074294871 0 0.24304299177331601 0.2368731438364724 0 0.25883536401376722 0.24899048594989959 0 0.25206310705512192 0.22402937074294871 0 0.25883536401376722 0.24899048594989959 0 0.25206310705512192 0.22402937074294871 0 0.24597911108282469 0.24581283367756371 0 0.25114480103714221 0.2503150809598027 0 0.25883536401376722 0.24899048594989959 0 0.26320293121992039 0.23371535106068711 0 0.25206310705512192 0.22402937074294871 0 0.27204123620867893 0.22071407304911611 0 0.2740561706327786 0.234937252636717 0 0.26320293121992039 0.23371535106068711 0 0.27204123620867893 0.22071407304911611 0 0.2740561706327786 0.234937252636717 0 0.28216059216123518 0.22823991301477339 0 0.28406142469554457 0.2388795816663937 0 0.2740561706327786 0.234937252636717 0 0.27204123620867893 0.22071407304911611 0 0.28216059216123518 0.22823991301477339 0 0.27204123620867893 0.22071407304911611 0 0.28699190001560237 0.21948425245534231 0 0.28216059216123518 0.22823991301477339 0 0.27204123620867893 0.22071407304911611 0 0.2647000086065352 0.20091919792896509 0 0.28148992528677108 0.207575735740189 0 0.27204123620867893 0.22071407304911611 0 0.28148992528677108 0.207575735740189 0 0.28699190001560237 0.21948425245534231 0 0.24529085009647519 0.19906825553599819 0 0.25206310705512192 0.22402937074294871 0 0.2647000086065352 0.20091919792896509 0 0.25206310705512192 0.22402937074294871 0 0.27204123620867893 0.22071407304911611 0 0.2647000086065352 0.20091919792896509 0 0.24529085009647519 0.19906825553599819 0 0.2572614987433941 0.17557495846575299 0 0.2647000086065352 0.20091919792896509 0 0.27247956316056549 0.18386565960509399 0 0.2647000086065352 0.20091919792896509 0 0.28409439105661471 0.19408451955785999 0 0.2647000086065352 0.20091919792896509 0 0.28409439105661471 0.19408451955785999 0 0.28148992528677108 0.207575735740189 0 0.28409439105661471 0.19408451955785999 0 0.29662104424436692 0.18859653467468929 0 0.30335908927048638 0.21054340605772101 0 0.28388590634883021 0.18035988039149881 0 0.28409439105661471 0.19408451955785999 0 0.29662104424436692 0.18859653467468929 0 0.29662104424436692 0.18859653467468929 0 0.31064191333582852 0.19254156022757121 0 0.30335908927048638 0.21054340605772101 0 0.29662104424436692 0.18859653467468929 0 0.30335908927048638 0.21054340605772101 0 0.30335908927048638 0.21054340605772101 0 0.31009713429660613 0.23249027744075271 0 0.32355331230364082 0.21153197190962941 0 0.28409439105661471 0.19408451955785999 0 0.30335908927048638 0.21054340605772101 0 0.28148992528677108 0.207575735740189 0 0.30335908927048638 0.21054340605772101 0 0.28148992528677108 0.207575735740189 0 0.28699190001560237 0.21948425245534231 0 0.30335908927048638 0.21054340605772101 0 0.28699190001560237 0.21948425245534231 0 0.29535344104347683 0.23012421636100189 0 0.28699190001560237 0.21948425245534231 0 0.28216059216123518 0.22823991301477339 0 0.29535344104347683 0.23012421636100189 0 0.28216059216123518 0.22823991301477339 0 0.29535344104347683 0.23012421636100189 0 0.28406142469554457 0.2388795816663937 0 0.30335908927048638 0.21054340605772101 0 0.29535344104347683 0.23012421636100189 0 0.31009713429660613 0.23249027744075271 0 0.30335908927048638 0.21054340605772101 0 0.31009713429660613 0.23249027744075271 0 0.31242739223744292 0.25971127793767479 0 0.31009713429660613 0.23249027744075271 0 0.2953649462846093 0.24601591543830309 0 0.29535344104347683 0.23012421636100189 0 0.31009713429660613 0.23249027744075271 0 0.2953649462846093 0.24601591543830309 0 0.29535344104347683 0.23012421636100189 0 0.2953649462846093 0.24601591543830309 0 0.28406142469554457 0.2388795816663937 0 0.28247692351273551 0.25038816072899422 0 0.2953649462846093 0.24601591543830309 0 0.28406142469554457 0.2388795816663937 0 0.33086927230514168 0.24614275572726591 0 0.35099513415312628 0.24976786504313009 0 0.3439503734153081 0.23565536416947561 0 0.33086927230514168 0.24614275572726591 0 0.33135785829861958 0.22861763401898311 0 0.3439503734153081 0.23565536416947561 0 0.31009713429660613 0.23249027744075271 0 0.33086927230514168 0.24614275572726591 0 0.33135785829861958 0.22861763401898311 0 0.31242739223744292 0.25971127793767479 0 0.31009713429660613 0.23249027744075271 0 0.33086927230514168 0.24614275572726591 0 0.31009713429660613 0.23249027744075271 0 0.33135785829861958 0.22861763401898311 0 0.32355331230364082 0.21153197190962941 0 0.33135785829861958 0.22861763401898311 0 0.32355331230364082 0.21153197190962941 0 0.34582581973332588 0.22024864475451869 0 0.33135785829861958 0.22861763401898311 0 0.34582581973332588 0.22024864475451869 0 0.3439503734153081 0.23565536416947561 0 0.32355331230364082 0.21153197190962941 0 0.33984555619433471 0.20245300905727659 0 0.34582581973332588 0.22024864475451869 0 0.31064191333582852 0.19254156022757121 0 0.30335908927048638 0.21054340605772101 0 0.32355331230364082 0.21153197190962941 0 0.31064191333582852 0.19254156022757121 0 0.32355331230364082 0.21153197190962941 0 0.32567086150165658 0.1924637718901312 0 0.31064191333582852 0.19254156022757121 0 0.32567086150165658 0.1924637718901312 0 0.31597697602944391 0.17916214878172379 0 0.32567086150165658 0.1924637718901312 0 0.33984555619433471 0.20245300905727659 0 0.33808648902362592 0.1879347894045541 0 0.32355331230364082 0.21153197190962941 0 0.32567086150165658 0.1924637718901312 0 0.33984555619433471 0.20245300905727659 0 0.33984555619433471 0.20245300905727659 0 0.33808648902362592 0.1879347894045541 0 0.35057885033775371 0.19273327888037681 0 0.33984555619433471 0.20245300905727659 0 0.35057885033775371 0.19273327888037681 0 0.35421987647084652 0.20791939801710521 0 0.35057885033775371 0.19273327888037681 0 0.36326724369545599 0.19978637220099449 0 0.35421987647084652 0.20791939801710521 0 0.35057885033775371 0.19273327888037681 0 0.36326724369545599 0.19978637220099449 0 0.3658546199943461 0.18527270093631529 0 0.37415913152716251 0.19547235473935859 0 0.36326724369545599 0.19978637220099449 0 0.3658546199943461 0.18527270093631529 0 0.37415913152716251 0.19547235473935859 0 0.3658546199943461 0.18527270093631529 0 0.37897033320165779 0.19031714282881909 0 0.37415913152716251 0.19547235473935859 0 0.36326724369545599 0.19978637220099449 0 0.37407880334966959 0.2066713351465643 0 0.36326724369545599 0.19978637220099449 0 0.37407880334966959 0.2066713351465643 0 0.36500083875384248 0.21677477253250049 0 0.36326724369545599 0.19978637220099449 0 0.36500083875384248 0.21677477253250049 0 0.35421987647084652 0.20791939801710521 0 0.37407880334966959 0.2066713351465643 0 0.36500083875384248 0.21677477253250049 0 0.37706650390405211 0.21653951931368459 0 0.36500083875384248 0.21677477253250049 0 0.35421987647084652 0.20791939801710521 0 0.34582581973332588 0.22024864475451869 0 0.33984555619433471 0.20245300905727659 0 0.35421987647084652 0.20791939801710521 0 0.34582581973332588 0.22024864475451869 0 0.34582581973332588 0.22024864475451869 0 0.36070378258632668 0.2334999213034801 0 0.3439503734153081 0.23565536416947561 0 0.36500083875384248 0.21677477253250049 0 0.34582581973332588 0.22024864475451869 0 0.36070378258632668 0.2334999213034801 0 0.36500083875384248 0.21677477253250049 0 0.36070378258632668 0.2334999213034801 0 0.38148255286335142 0.22939913068834081 0 0.36500083875384248 0.21677477253250049 0 0.38148255286335142 0.22939913068834081 0 0.37706650390405211 0.21653951931368459 0 0.36070378258632668 0.2334999213034801 0 0.37354045573460032 0.24772367312124621 0 0.38148255286335142 0.22939913068834081 0 0.36070378258632668 0.2334999213034801 0 0.37354045573460032 0.24772367312124621 0 0.35099513415312628 0.24976786504313009 0 0.36070378258632668 0.2334999213034801 0 0.35099513415312628 0.24976786504313009 0 0.3439503734153081 0.23565536416947561 0 0.33541741636487671 0.1501890933590537 0 0.33691138564928869 0.13349826287711791 0 0.35206522514263239 0.13984933212301329 0 0.33541741636487671 0.1501890933590537 0 0.33691138564928869 0.13349826287711791 0 0.32102431184138358 0.13343223204472221 0 0.3269372861996796 0.11349011402544509 0 0.33691138564928869 0.13349826287711791 0 0.32102431184138358 0.13343223204472221 0 0.33541741636487671 0.1501890933590537 0 0.31379473831280258 0.14797477773306239 0 0.32147508971914729 0.16438091761481699 0 0.33541741636487671 0.1501890933590537 0 0.32102431184138358 0.13343223204472221 0 0.31379473831280258 0.14797477773306239 0 0.30603764872965677 0.16012062335991531 0 0.31379473831280258 0.14797477773306239 0 0.32147508971914729 0.16438091761481699 0 0.30860838971965499 0.1704397609581226 0 0.32147508971914729 0.16438091761481699 0 0.31597697602944391 0.17916214878172379 0 0.32147508971914729 0.16438091761481699 0 0.31597697602944391 0.17916214878172379 0 0.32932166847894262 0.17949667501295019 0 0.32567086150165658 0.1924637718901312 0 0.31597697602944391 0.17916214878172379 0 0.32932166847894262 0.17949667501295019 0 0.32147508971914729 0.16438091761481699 0 0.32932166847894262 0.17949667501295019 0 0.34501550860544211 0.17252721218203579 0 0.33808648902362592 0.1879347894045541 0 0.32932166847894262 0.17949667501295019 0 0.34501550860544211 0.17252721218203579 0 0.32567086150165658 0.1924637718901312 0 0.33808648902362592 0.1879347894045541 0 0.32932166847894262 0.17949667501295019 0 0.33541741636487671 0.1501890933590537 0 0.32147508971914729 0.16438091761481699 0 0.34501550860544211 0.17252721218203579 0 0.33541741636487671 0.1501890933590537 0 0.34501550860544211 0.17252721218203579 0 0.35533255874635589 0.15548626721126019 0 0.34501550860544211 0.17252721218203579 0 0.37404263546041833 0.16721154495488039 0 0.35533255874635589 0.15548626721126019 0 0.35057885033775371 0.19273327888037681 0 0.34501550860544211 0.17252721218203579 0 0.3658546199943461 0.18527270093631529 0 0.33808648902362592 0.1879347894045541 0 0.35057885033775371 0.19273327888037681 0 0.34501550860544211 0.17252721218203579 0 0.3658546199943461 0.18527270093631529 0 0.37404263546041833 0.16721154495488039 0 0.37621055829633371 0.18031167603338261 0 0.34501550860544211 0.17252721218203579 0 0.3658546199943461 0.18527270093631529 0 0.37404263546041833 0.16721154495488039 0 0.3658546199943461 0.18527270093631529 0 0.37621055829633371 0.18031167603338261 0 0.37897033320165779 0.19031714282881909 0 0.34501550860544211 0.17252721218203579 0 0.37404263546041833 0.16721154495488039 0 0.37404263546041833 0.16721154495488039 0 0.3701220081584099 0.14765415343731739 0 0.35533255874635589 0.15548626721126019 0 0.3701220081584099 0.14765415343731739 0 0.35533255874635589 0.15548626721126019 0 0.35206522514263239 0.13984933212301329 0 0.33541741636487671 0.1501890933590537 0 0.35533255874635589 0.15548626721126019 0 0.35206522514263239 0.13984933212301329 0 0.34861462024147549 0.12168848289337771 0 0.33691138564928869 0.13349826287711791 0 0.35206522514263239 0.13984933212301329 0 0.34861462024147549 0.12168848289337771 0 0.35206522514263239 0.13984933212301329 0 0.36936346044693003 0.1274559631872913 0 0.3701220081584099 0.14765415343731739 0 0.35206522514263239 0.13984933212301329 0 0.36936346044693003 0.1274559631872913 0 0.36936346044693003 0.1274559631872913 0 0.38617844129498657 0.13937507092132231 0 0.39094906672492807 0.12069637725316371 0 0.3701220081584099 0.14765415343731739 0 0.36936346044693003 0.1274559631872913 0 0.38617844129498657 0.13937507092132231 0 0.40271737449614819 0.13532295732364091 0 0.40672881996966048 0.1223300430638123 0 0.39094906672492807 0.12069637725316371 0 0.38617844129498657 0.13937507092132231 0 0.40271737449614819 0.13532295732364091 0 0.39094906672492807 0.12069637725316371 0 0.39984637770843728 0.14772528823418729 0 0.38721296704343611 0.1529993366377547 0 0.40306976231539438 0.16189587772772501 0 0.38617844129498657 0.13937507092132231 0 0.40271737449614819 0.13532295732364091 0 0.39984637770843728 0.14772528823418729 0 0.39984637770843728 0.14772528823418729 0 0.40306976231539438 0.16189587772772501 0 0.41444212283315313 0.1467637027338114 0 0.40271737449614819 0.13532295732364091 0 0.39984637770843728 0.14772528823418729 0 0.41444212283315313 0.1467637027338114 0 0.38617844129498657 0.13937507092132231 0 0.39984637770843728 0.14772528823418729 0 0.38721296704343611 0.1529993366377547 0 0.3701220081584099 0.14765415343731739 0 0.38617844129498657 0.13937507092132231 0 0.38721296704343611 0.1529993366377547 0 0.37404263546041833 0.16721154495488039 0 0.3701220081584099 0.14765415343731739 0 0.38721296704343611 0.1529993366377547 0 0.37404263546041833 0.16721154495488039 0 0.40306976231539438 0.16189587772772501 0 0.37404263546041833 0.16721154495488039 0 0.38721296704343611 0.1529993366377547 0 0.40306976231539438 0.16189587772772501 0 0.37404263546041833 0.16721154495488039 0 0.38597464452891272 0.17844531541351569 0 0.40306976231539438 0.16189587772772501 0 0.38597464452891272 0.17844531541351569 0 0.4026754092870688 0.18024909749345139 0 0.38165911648314699 0.19146852923006399 0 0.37621055829633371 0.18031167603338261 0 0.38597464452891272 0.17844531541351569 0 0.37897033320165779 0.19031714282881909 0 0.38597464452891272 0.17844531541351569 0 0.38165911648314699 0.19146852923006399 0 0.37897033320165779 0.19031714282881909 0 0.37404263546041833 0.16721154495488039 0 0.37621055829633371 0.18031167603338261 0 0.38597464452891272 0.17844531541351569 0 0.38597464452891272 0.17844531541351569 0 0.4026754092870688 0.18024909749345139 0 0.40306976231539438 0.16189587772772501 0 0.4026754092870688 0.18024909749345139 0 0.38165911648314699 0.19146852923006399 0 0.40306976231539438 0.16189587772772501 0 0.42369170209099261 0.16902966575684281 0 0.4320968891703707 0.1565802105005695 0 0.4026754092870688 0.18024909749345139 0 0.40306976231539438 0.16189587772772501 0 0.42369170209099261 0.16902966575684281 0 0.40306976231539438 0.16189587772772501 0 0.4320968891703707 0.1565802105005695 0 0.4026754092870688 0.18024909749345139 0 0.42369170209099261 0.16902966575684281 0 0.4026754092870688 0.18024909749345139 0 0.41825918487008851 0.18222441524604091 0 0.42369170209099261 0.16902966575684281 0 0.4026754092870688 0.18024909749345139 0 0.41825918487008851 0.18222441524604091 0 0.41289482316579013 0.19033738966796229 0 0.41825918487008851 0.18222441524604091 0 0.41289482316579013 0.19033738966796229 0 0.42377938773134138 0.18967894456675499 0 0.43740921978616049 0.17742380108528061 0 0.42369170209099261 0.16902966575684281 0 0.44395310158998091 0.1693436117976172 0 0.41825918487008851 0.18222441524604091 0 0.42825460207524912 0.1818269787451928 0 0.42377938773134138 0.18967894456675499 0 0.41825918487008851 0.18222441524604091 0 0.42825460207524912 0.1818269787451928 0 0.42369170209099261 0.16902966575684281 0 0.42825460207524912 0.1818269787451928 0 0.43740921978616049 0.17742380108528061 0 0.42369170209099261 0.16902966575684281 0 0.42825460207524912 0.1818269787451928 0 0.43740921978616049 0.17742380108528061 0 0.4370773494028054 0.18816478237165421 0 0.42825460207524912 0.1818269787451928 0 0.42377938773134138 0.18967894456675499 0 0.4370773494028054 0.18816478237165421 0 0.42369170209099261 0.16902966575684281 0 0.44470799489491641 0.15781023402023411 0 0.42369170209099261 0.16902966575684281 0 0.44470799489491641 0.15781023402023411 0 0.44395310158998091 0.1693436117976172 0 0.42369170209099261 0.16902966575684281 0 0.4320968891703707 0.1565802105005695 0 0.44470799489491641 0.15781023402023411 0 0.4320968891703707 0.1565802105005695 0 0.42796176972587652 0.14388027049691021 0 0.43525007108876052 0.1456089277793613 0 0.4320968891703707 0.1565802105005695 0 0.43525007108876052 0.1456089277793613 0 0.44503372666207991 0.14626428109724421 0 0.4320968891703707 0.1565802105005695 0 0.44147523139050782 0.15486277747202171 0 0.4320968891703707 0.1565802105005695 0 0.42796176972587652 0.14388027049691021 0 0.41444212283315313 0.1467637027338114 0 0.42796176972587652 0.14388027049691021 0 0.43525007108876052 0.1456089277793613 0 0.43590789879671521 0.13571094902272121 0 0.43590789879671521 0.13571094902272121 0 0.42088891749103607 0.13179244012297381 0 0.43312323851496981 0.1176290975710783 0 0.42796176972587652 0.14388027049691021 0 0.43590789879671521 0.13571094902272121 0 0.42088891749103607 0.13179244012297381 0 0.40271737449614819 0.13532295732364091 0 0.42088891749103607 0.13179244012297381 0 0.40672881996966048 0.1223300430638123 0 0.40271737449614819 0.13532295732364091 0 0.42088891749103607 0.13179244012297381 0 0.41444212283315313 0.1467637027338114 0 0.40306976231539438 0.16189587772772501 0 0.4320968891703707 0.1565802105005695 0 0.41444212283315313 0.1467637027338114 0 0.42796176972587652 0.14388027049691021 0 0.42088891749103607 0.13179244012297381 0 0.41444212283315313 0.1467637027338114 0 0.37354045573460032 0.24772367312124621 0 0.40002096830554901 0.2402128569813021 0 0.38148255286335142 0.22939913068834081 0 0.38148255286335142 0.22939913068834081 0 0.40115253697447939 0.21881907465264311 0 0.38591626962511982 0.21194692272480189 0 0.38148255286335142 0.22939913068834081 0 0.38591626962511982 0.21194692272480189 0 0.37706650390405211 0.21653951931368459 0 0.38148255286335142 0.22939913068834081 0 0.40115253697447939 0.21881907465264311 0 0.40002096830554901 0.2402128569813021 0 0.38148255286335142 0.22939913068834081 0 0.40115253697447939 0.21881907465264311 0 0.40002096830554901 0.2402128569813021 0 0.40115253697447939 0.21881907465264311 0 0.41683500438339322 0.22366503039249261 0 0.40115253697447939 0.21881907465264311 0 0.38591626962511982 0.21194692272480189 0 0.40124081878437712 0.19985377392350889 0 0.38591626962511982 0.21194692272480189 0 0.38307763332716621 0.2009855430266754 0 0.40124081878437712 0.19985377392350889 0 0.37407880334966959 0.2066713351465643 0 0.38591626962511982 0.21194692272480189 0 0.37706650390405211 0.21653951931368459 0 0.37407880334966959 0.2066713351465643 0 0.38591626962511982 0.21194692272480189 0 0.38307763332716621 0.2009855430266754 0 0.38307763332716621 0.2009855430266754 0 0.38165911648314699 0.19146852923006399 0 0.40124081878437712 0.19985377392350889 0 0.37415913152716251 0.19547235473935859 0 0.37407880334966959 0.2066713351465643 0 0.38307763332716621 0.2009855430266754 0 0.37415913152716251 0.19547235473935859 0 0.38307763332716621 0.2009855430266754 0 0.38165911648314699 0.19146852923006399 0 0.37415913152716251 0.19547235473935859 0 0.38165911648314699 0.19146852923006399 0 0.37415913152716251 0.19547235473935859 0 0.38165911648314699 0.19146852923006399 0 0.37897033320165779 0.19031714282881909 0 0.38165911648314699 0.19146852923006399 0 0.37897033320165779 0.19031714282881909 0 0.38165911648314699 0.19146852923006399 0 0.40124081878437712 0.19985377392350889 0 0.4026754092870688 0.18024909749345139 0 0.40124081878437712 0.19985377392350889 0 0.41289482316579013 0.19033738966796229 0 0.4026754092870688 0.18024909749345139 0 0.38165911648314699 0.19146852923006399 0 0.40124081878437712 0.19985377392350889 0 0.40124081878437712 0.19985377392350889 0 0.41762111913982808 0.19778615153547141 0 0.42082252108560919 0.20823901861694891 0 0.40124081878437712 0.19985377392350889 0 0.41289482316579013 0.19033738966796229 0 0.41762111913982808 0.19778615153547141 0 0.41289482316579013 0.19033738966796229 0 0.41762111913982808 0.19778615153547141 0 0.42377938773134138 0.18967894456675499 0 0.42377938773134138 0.18967894456675499 0 0.4370773494028054 0.18816478237165421 0 0.42803989669403691 0.1977398503404463 0 0.41762111913982808 0.19778615153547141 0 0.42377938773134138 0.18967894456675499 0 0.42803989669403691 0.1977398503404463 0 0.42803989669403691 0.1977398503404463 0 0.42082252108560919 0.20823901861694891 0 0.43780829595675369 0.19910274026861671 0 0.4370773494028054 0.18816478237165421 0 0.42803989669403691 0.1977398503404463 0 0.43780829595675369 0.19910274026861671 0 0.42803989669403691 0.1977398503404463 0 0.43780829595675369 0.19910274026861671 0 0.41762111913982808 0.19778615153547141 0 0.42803989669403691 0.1977398503404463 0 0.42082252108560919 0.20823901861694891 0 0.42082252108560919 0.20823901861694891 0 0.43780829595675369 0.19910274026861671 0 0.42082252108560919 0.20823901861694891 0 0.44111112408777581 0.21692697117818421 0 0.42082252108560919 0.20823901861694891 0 0.41683500438339322 0.22366503039249261 0 0.44111112408777581 0.21692697117818421 0 0.42082252108560919 0.20823901861694891 0 0.44111112408777581 0.21692697117818421 0 0.43780829595675369 0.19910274026861671 0 0.40124081878437712 0.19985377392350889 0 0.42082252108560919 0.20823901861694891 0 0.40115253697447939 0.21881907465264311 0 0.42082252108560919 0.20823901861694891 0 0.41683500438339322 0.22366503039249261 0 0.40115253697447939 0.21881907465264311 0 0.40124081878437712 0.19985377392350889 0 0.42082252108560919 0.20823901861694891 0 0.40115253697447939 0.21881907465264311 0 0.42082252108560919 0.20823901861694891 0 0.40002096830554901 0.2402128569813021 0 0.41683500438339322 0.22366503039249261 0 0.4244326656786267 0.23891213018441429 0 0.4244326656786267 0.23891213018441429 0 0.44412814387945032 0.23916754138017379 0 0.44111112408777581 0.21692697117818421 0 0.41683500438339322 0.22366503039249261 0 0.4244326656786267 0.23891213018441429 0 0.44111112408777581 0.21692697117818421 0 0.43352875615764502 0.25382981741107608 0 0.4244326656786267 0.23891213018441429 0 0.44412814387945032 0.23916754138017379 0 0.41433219382159908 0.26089949616282709 0 0.40002096830554901 0.2402128569813021 0 0.4244326656786267 0.23891213018441429 0 0.4605014815776215 0.24173544554921941 0 0.44412814387945032 0.23916754138017379 0 0.46139972708994298 0.22561492373941711 0 0.45547721943765929 0.25824814475604402 0 0.4605014815776215 0.24173544554921941 0 0.44412814387945032 0.23916754138017379 0 0.46139972708994298 0.22561492373941711 0 0.44111112408777581 0.21692697117818421 0 0.44412814387945032 0.23916754138017379 0 0.46139972708994298 0.22561492373941711 0 0.44111112408777581 0.21692697117818421 0 0.46139972708994298 0.22561492373941711 0 0.46378824970858051 0.21248914467557339 0 0.47795891296393672 0.21924355652557029 0 0.4605014815776215 0.24173544554921941 0 0.46139972708994298 0.22561492373941711 0 0.48168833009210987 0.23430287630065119 0 0.46378824970858051 0.21248914467557339 0 0.45601889589626021 0.20164348850955149 0 0.47422949583576629 0.20418423675048861 0 0.46378824970858051 0.21248914467557339 0 0.44111112408777581 0.21692697117818421 0 0.45601889589626021 0.20164348850955149 0 0.46139972708994298 0.22561492373941711 0 0.46378824970858051 0.21248914467557339 0 0.44111112408777581 0.21692697117818421 0 0.44111112408777581 0.21692697117818421 0 0.43780829595675369 0.19910274026861671 0 0.45601889589626021 0.20164348850955149 0 0.4370773494028054 0.18816478237165421 0 0.43780829595675369 0.19910274026861671 0 0.45332304586302419 0.19075769420956479 0 0.43780829595675369 0.19910274026861671 0 0.45601889589626021 0.20164348850955149 0 0.43780829595675369 0.19910274026861671 0 0.45332304586302419 0.19075769420956479 0 0.45601889589626021 0.20164348850955149 0 0.43780829595675369 0.19910274026861671 0 0.45332304586302419 0.19075769420956479 0 0.45332304586302419 0.19075769420956479 0 0.45601889589626021 0.20164348850955149 0 0.46883779576929507 0.18241264815051411 0 0.45601889589626021 0.20164348850955149 0 0.47422949583576629 0.20418423675048861 0 0.45601889589626021 0.20164348850955149 0 0.47422949583576629 0.20418423675048861 0 0.46883779576929507 0.18241264815051411 0 0.47422949583576629 0.20418423675048861 0 0.46883779576929507 0.18241264815051411 0 0.48400454100698109 0.18795187633928431 0 0.47422949583576629 0.20418423675048861 0 0.46883779576929507 0.18241264815051411 0 0.48400454100698109 0.18795187633928431 0 0.49999999999999978 0.20777974504459959 0 0.47422949583576629 0.20418423675048861 0 0.48400454100698109 0.18795187633928431 0 0.49999999999999978 0.20777974504459959 0 0.5 0.18224679137722541 0 0.49999999999999978 0.20777974504459959 0 0.47422949583576629 0.20418423675048861 0 0.49999999999999978 0.20777974504459959 0 0.48858329386758548 0.21725026815776799 0 0.5 0.22496200741699371 0 0.49999999999999978 0.20777974504459959 0 0.48858329386758548 0.21725026815776799 0 0.47422949583576629 0.20418423675048861 0 0.48858329386758548 0.21725026815776799 0 0.47422949583576629 0.20418423675048861 0 0.47795891296393672 0.21924355652557029 0 0.47422949583576629 0.20418423675048861 0 0.47795891296393672 0.21924355652557029 0 0.46378824970858051 0.21248914467557339 0 0.47422949583576629 0.20418423675048861 0 0.47795891296393672 0.21924355652557029 0 0.46139972708994298 0.22561492373941711 0 0.48168833009210987 0.23430287630065119 0 0.47795891296393672 0.21924355652557029 0 0.46139972708994298 0.22561492373941711 0 0.48168833009210987 0.23430287630065119 0 0.48858329386758548 0.21725026815776799 0 0.48168833009210987 0.23430287630065119 0 0.47795891296393672 0.21924355652557029 0 0.48168833009210987 0.23430287630065119 0 0.47795891296393672 0.21924355652557029 0 0.48168833009210987 0.23430287630065119 0 0.5 0.22496200741699371 0 0.50000000000000433 0.24214426978938761 0 0.48858329386758548 0.21725026815776799 0 0.48168833009210987 0.23430287630065119 0 0.5 0.22496200741699371 0 0.48846629610629849 0.2616721820458584 0 0.48168833009210987 0.23430287630065119 0 0.48168833009210987 0.23430287630065119 0 0.50000000000000433 0.24214426978938761 0 0.48846629610629849 0.2616721820458584 0 0.48168833009210987 0.23430287630065119 0 0.50000000000000433 0.24214426978938761 0 0.47255770201617231 0.25145590111043847 0 0.4605014815776215 0.24173544554921941 0 0.48168833009210987 0.23430287630065119 0 0.47255770201617231 0.25145590111043847 0 0.48846629610629849 0.2616721820458584 0 0.48168833009210987 0.23430287630065119 0 0.46112401602534792 0.15126454327341909 0 0.45528237880109818 0.127676116463912 0 0.44503372666207991 0.14626428109724421 0 0.46112401602534792 0.15126454327341909 0 0.462323349009095 0.15610742844779019 0 0.44147523139050782 0.15486277747202171 0 0.46112401602534792 0.15126454327341909 0 0.462323349009095 0.15610742844779019 0 0.48056200801267801 0.14770491102028069 0 0.46112401602534792 0.15126454327341909 0 0.462323349009095 0.15610742844779019 0 0.45528237880109818 0.127676116463912 0 0.47142763870884508 0.13432874480453491 0 0.47273973908073003 0.1146411804739209 0 0.46112401602534792 0.15126454327341909 0 0.45528237880109818 0.127676116463912 0 0.47142763870884508 0.13432874480453491 0 0.46112401602534792 0.15126454327341909 0 0.45528237880109818 0.127676116463912 0 0.43590789879671521 0.13571094902272121 0 0.45528237880109818 0.127676116463912 0 0.44503372666207991 0.14626428109724421 0 0.43590789879671521 0.13571094902272121 0 0.45528237880109818 0.127676116463912 0 0.43312323851496981 0.1176290975710783 0 0.462323349009095 0.15610742844779019 0 0.44147523139050782 0.15486277747202171 0 0.46112401602534792 0.15126454327341909 0 0.44503372666207991 0.14626428109724421 0 0.44147523139050782 0.15486277747202171 0 0.43525007108876052 0.1456089277793613 0 0.43590789879671521 0.13571094902272121 0 0.44503372666207991 0.14626428109724421 0 0.46112401602534792 0.15126454327341909 0 0.44147523139050782 0.15486277747202171 0 0.4320968891703707 0.1565802105005695 0 0.44503372666207991 0.14626428109724421 0 0.44147523139050782 0.15486277747202171 0 0.462323349009095 0.15610742844779019 0 0.44147523139050782 0.15486277747202171 0 0.44470799489491641 0.15781023402023411 0 0.4320968891703707 0.1565802105005695 0 0.44147523139050782 0.15486277747202171 0 0.44470799489491641 0.15781023402023411 0 0.462323349009095 0.15610742844779019 0 0.44470799489491641 0.15781023402023411 0 0.45156277811599738 0.1631960930807759 0 0.44395310158998091 0.1693436117976172 0 0.45156277811599738 0.1631960930807759 0 0.45526666696999651 0.1695230980574623 0 0.44470799489491641 0.15781023402023411 0 0.44395310158998091 0.1693436117976172 0 0.45156277811599738 0.1631960930807759 0 0.4370773494028054 0.18816478237165421 0 0.45332304586302419 0.19075769420956479 0 0.44931119656354368 0.17960427261201531 0 0.43740921978616049 0.17742380108528061 0 0.4370773494028054 0.18816478237165421 0 0.44931119656354368 0.17960427261201531 0 0.43740921978616049 0.17742380108528061 0 0.44395310158998091 0.1693436117976172 0 0.44931119656354368 0.17960427261201531 0 0.44395310158998091 0.1693436117976172 0 0.44931119656354368 0.17960427261201531 0 0.45526666696999651 0.1695230980574623 0 0.44931119656354368 0.17960427261201531 0 0.45526666696999651 0.1695230980574623 0 0.46883779576929507 0.18241264815051411 0 0.45332304586302419 0.19075769420956479 0 0.44931119656354368 0.17960427261201531 0 0.46883779576929507 0.18241264815051411 0 0.45332304586302419 0.19075769420956479 0 0.46883779576929507 0.18241264815051411 0 0.462323349009095 0.15610742844779019 0 0.46883779576929507 0.18241264815051411 0 0.462323349009095 0.15610742844779019 0 0.47377889469337631 0.16830585567424011 0 0.46883779576929507 0.18241264815051411 0 0.462323349009095 0.15610742844779019 0 0.45526666696999651 0.1695230980574623 0 0.46883779576929507 0.18241264815051411 0 0.462323349009095 0.15610742844779019 0 0.45156277811599738 0.1631960930807759 0 0.45526666696999651 0.1695230980574623 0 0.462323349009095 0.15610742844779019 0 0.47377889469337631 0.16830585567424011 0 0.48116167450454789 0.156410633078822 0 0.462323349009095 0.15610742844779019 0 0.48116167450454789 0.156410633078822 0 0.47377889469337631 0.16830585567424011 0 0.48116167450454789 0.156410633078822 0 0.48637723496988472 0.1717652578933056 0 0.48400454100698109 0.18795187633928431 0 0.47458271946693809 0.17932257881957309 0 0.48637723496988472 0.1717652578933056 0 0.48400454100698109 0.18795187633928431 0 0.46883779576929507 0.18241264815051411 0 0.47458271946693809 0.17932257881957309 0 0.46883779576929507 0.18241264815051411 0 0.47458271946693809 0.17932257881957309 0 0.47377889469337631 0.16830585567424011 0 0.46883779576929507 0.18241264815051411 0 0.47458271946693809 0.17932257881957309 0 0.47377889469337631 0.16830585567424011 0 0.47458271946693809 0.17932257881957309 0 0.48637723496988472 0.1717652578933056 0 0.48400454100698109 0.18795187633928431 0 0.5 0.18224679137722541 0 0.48637723496988472 0.1717652578933056 0 0.48116167450454789 0.156410633078822 0 0.50000000000000089 0.15671383770985109 0 0.5 0.18224679137722541 0 0.48637723496988472 0.1717652578933056 0 0.50000000000000089 0.15671383770985109 0 0.48116167450454789 0.156410633078822 0 0.48637723496988472 0.1717652578933056 0 0.50000000000000089 0.15671383770985109 0 0.50000000000000089 0.15671383770985109 0 0.50000000000000866 0.14414527876714589 0 0.4906642045074785 0.15138256685210039 0 0.50000000000000866 0.14414527876714589 0 0.48056200801267801 0.14770491102028069 0 0.50000000000000866 0.14414527876714589 0 0.4906642045074785 0.15138256685210039 0 0.48056200801267801 0.14770491102028069 0 0.50000000000000866 0.14414527876714589 0 0.48056200801267801 0.14770491102028069 0 0.48652474023081538 0.13076542161952051 0 0.48116167450454789 0.156410633078822 0 0.50000000000000089 0.15671383770985109 0 0.4906642045074785 0.15138256685210039 0 0.462323349009095 0.15610742844779019 0 0.48116167450454789 0.156410633078822 0 0.48056200801267801 0.14770491102028069 0 0.46112401602534792 0.15126454327341909 0 0.48056200801267801 0.14770491102028069 0 0.47142763870884508 0.13432874480453491 0 0.46112401602534792 0.15126454327341909 0 0.48056200801267801 0.14770491102028069 0 0.48116167450454789 0.156410633078822 0 0.4906642045074785 0.15138256685210039 0 0.48056200801267801 0.14770491102028069 0 0.47142763870884508 0.13432874480453491 0 0.48652474023081538 0.13076542161952051 0 0.47273973908073003 0.1146411804739209 0 0.48056200801267801 0.14770491102028069 0 0.47142763870884508 0.13432874480453491 0 0.48652474023081538 0.13076542161952051 0 0.50000000000000866 0.14414527876714589 0 0.48652474023081538 0.13076542161952051 0 0.5 0.11656866681513769 0 0.5 0.11656866681513769 0 0.4833243199352959 0.097502454511821698 0 0.47273973908073003 0.1146411804739209 0 0.48652474023081538 0.13076542161952051 0 0.5 0.11656866681513769 0 0.47273973908073003 0.1146411804739209 0 0.5 0.11656866681513769 0 0.4833243199352959 0.097502454511821698 0 0.5 0.088992054863129333 0 0.4833243199352959 0.097502454511821698 0 0.47273973908073003 0.1146411804739209 0 0.46587721760458201 0.091722590090588765 0 0.5 0.088992054863129333 0 0.47800464299116707 0.075587780316331801 0 0.5 0.061415442911120999 0 0.4833243199352959 0.097502454511821698 0 0.5 0.088992054863129333 0 0.47800464299116707 0.075587780316331801 0 0.4833243199352959 0.097502454511821698 0 0.47800464299116707 0.075587780316331801 0 0.46587721760458201 0.091722590090588765 0 0.47800464299116707 0.075587780316331801 0 0.46055974467528921 0.064821044874611919 0 0.48027987233764441 0.049329937916862188 0 0.47800464299116707 0.075587780316331801 0 0.46055974467528921 0.064821044874611919 0 0.45915585901109168 0.079790181887714126 0 0.46055974467528921 0.064821044874611919 0 0.45915585901109168 0.079790181887714126 0 0.44359910435259958 0.080499262844897765 0 0.47800464299116707 0.075587780316331801 0 0.45915585901109168 0.079790181887714126 0 0.46587721760458201 0.091722590090588765 0 0.45915585901109168 0.079790181887714126 0 0.46587721760458201 0.091722590090588765 0 0.4545182306362805 0.089024931119401379 0 0.44359910435259958 0.080499262844897765 0 0.44944074157684888 0.1040876896544049 0 0.44359910435259958 0.080499262844897765 0 0.44944074157684888 0.1040876896544049 0 0.43104426413408431 0.089305686975256066 0 0.4545182306362805 0.089024931119401379 0 0.44359910435259958 0.080499262844897765 0 0.44944074157684888 0.1040876896544049 0 0.44083961701293412 0.080312151832361581 0 0.44359910435259958 0.080499262844897765 0 0.43104426413408431 0.089305686975256066 0 0.45915585901109168 0.079790181887714126 0 0.4545182306362805 0.089024931119401379 0 0.44359910435259958 0.080499262844897765 0 0.46055974467528921 0.064821044874611919 0 0.44083961701293412 0.080312151832361581 0 0.44359910435259958 0.080499262844897765 0 0.46055974467528921 0.064821044874611919 0 0.44083961701293412 0.080312151832361581 0 0.44364018874592792 0.061828610999764222 0 0.44083961701293412 0.080312151832361581 0 0.428520826169004 0.068084944682883189 0 0.44364018874592792 0.061828610999764222 0 0.46055974467528921 0.064821044874611919 0 0.44083961701293412 0.080312151832361581 0 0.45528237880109818 0.127676116463912 0 0.47273973908073003 0.1146411804739209 0 0.44944074157684888 0.1040876896544049 0 0.47273973908073003 0.1146411804739209 0 0.46587721760458201 0.091722590090588765 0 0.44944074157684888 0.1040876896544049 0 0.46587721760458201 0.091722590090588765 0 0.4545182306362805 0.089024931119401379 0 0.44944074157684888 0.1040876896544049 0 0.45528237880109818 0.127676116463912 0 0.44944074157684888 0.1040876896544049 0 0.45528237880109818 0.127676116463912 0 0.44944074157684888 0.1040876896544049 0 0.43312323851496981 0.1176290975710783 0 0.42088891749103607 0.13179244012297381 0 0.43312323851496981 0.1176290975710783 0 0.4175988462922326 0.11340571097169221 0 0.43312323851496981 0.1176290975710783 0 0.4175988462922326 0.11340571097169221 0 0.42592972752695413 0.1024551606818421 0 0.42088891749103607 0.13179244012297381 0 0.4175988462922326 0.11340571097169221 0 0.40672881996966048 0.1223300430638123 0 0.4175988462922326 0.11340571097169221 0 0.40672881996966048 0.1223300430638123 0 0.40316438827742551 0.11158537516157679 0 0.41190863700490982 0.1021408136988628 0 0.41223686407399562 0.088601779905732841 0 0.39497408812304108 0.1004631258967601 0 0.4175988462922326 0.11340571097169221 0 0.41190863700490982 0.1021408136988628 0 0.40316438827742551 0.11158537516157679 0 0.4175988462922326 0.11340571097169221 0 0.41190863700490982 0.1021408136988628 0 0.42592972752695413 0.1024551606818421 0 0.41190863700490982 0.1021408136988628 0 0.42592972752695413 0.1024551606818421 0 0.41223686407399562 0.088601779905732841 0 0.44944074157684888 0.1040876896544049 0 0.43312323851496981 0.1176290975710783 0 0.42592972752695413 0.1024551606818421 0 0.44944074157684888 0.1040876896544049 0 0.42592972752695413 0.1024551606818421 0 0.43104426413408431 0.089305686975256066 0 0.44083961701293412 0.080312151832361581 0 0.43104426413408431 0.089305686975256066 0 0.428520826169004 0.068084944682883189 0 0.42592972752695413 0.1024551606818421 0 0.43104426413408431 0.089305686975256066 0 0.41223686407399562 0.088601779905732841 0 0.43104426413408431 0.089305686975256066 0 0.428520826169004 0.068084944682883189 0 0.41134079412336477 0.069277779692405284 0 0.43104426413408431 0.089305686975256066 0 0.41134079412336477 0.069277779692405284 0 0.41223686407399562 0.088601779905732841 0 0.43104426413408431 0.089305686975256066 0 0.41134079412336477 0.069277779692405284 0 0.41134079412336477 0.069277779692405284 0 0.41223686407399562 0.088601779905732841 0 0.39104144927233531 0.076862074360508709 0 0.41223686407399562 0.088601779905732841 0 0.39104144927233531 0.076862074360508709 0 0.39497408812304108 0.1004631258967601 0 0.41134079412336477 0.069277779692405284 0 0.39104144927233531 0.076862074360508709 0 0.3916373241126454 0.049249872409554668 0 0.36938738231620971 0.07603363531429691 0 0.37214209901123502 0.054263725620741762 0 0.39104144927233531 0.076862074360508709 0 0.39104144927233531 0.076862074360508709 0 0.37528617205714421 0.094334764783468888 0 0.39497408812304108 0.1004631258967601 0 0.36938738231620971 0.07603363531429691 0 0.39104144927233531 0.076862074360508709 0 0.37528617205714421 0.094334764783468888 0 0.37528617205714421 0.094334764783468888 0 0.37738222598765819 0.1120262278700697 0 0.39497408812304108 0.1004631258967601 0 0.37738222598765819 0.1120262278700697 0 0.39094906672492807 0.12069637725316371 0 0.39497408812304108 0.1004631258967601 0 0.36936346044693003 0.1274559631872913 0 0.37738222598765819 0.1120262278700697 0 0.39094906672492807 0.12069637725316371 0 0.40672881996966048 0.1223300430638123 0 0.39094906672492807 0.12069637725316371 0 0.40316438827742551 0.11158537516157679 0 0.39094906672492807 0.12069637725316371 0 0.40316438827742551 0.11158537516157679 0 0.39497408812304108 0.1004631258967601 0 0.41190863700490982 0.1021408136988628 0 0.40316438827742551 0.11158537516157679 0 0.39497408812304108 0.1004631258967601 0 0.40015887547624662 0.026220772337433518 0 0.39485468627841891 0.010051645674026079 0 0.42088882102126202 0.023903290453278901 0 0.40015887547624662 0.026220772337433518 0 0.39485468627841891 0.010051645674026079 0 0.3860354866510996 0.02013117566439666 0 0.40015887547624662 0.026220772337433518 0 0.3860354866510996 0.02013117566439666 0 0.38856412391481587 0.032567191206605582 0 0.39485468627841891 0.010051645674026079 0 0.37970057977553112 0.01119520959997267 0 0.36882055153557758 -0.003799999105230289 0 0.39485468627841891 0.010051645674026079 0 0.36882055153557758 -0.003799999105230289 0 0.39485468627841891 0.010051645674026079 0 0.37970057977553112 0.01119520959997267 0 0.3860354866510996 0.02013117566439666 0 0.37232090593065509 0.01083590475394291 0 0.37970057977553112 0.01119520959997267 0 0.37647126848190487 0.018757321012730411 0 0.37193385410192598 0.029221965126703969 0 0.37918251010091608 0.02534303658674171 0 0.38856412391481587 0.032567191206605582 0 0.37970057977553112 0.01119520959997267 0 0.37647126848190487 0.018757321012730411 0 0.3860354866510996 0.02013117566439666 0 0.37647126848190487 0.018757321012730411 0 0.3860354866510996 0.02013117566439666 0 0.37918251010091608 0.02534303658674171 0 0.37290781735483419 0.026037529923271949 0 0.37647126848190487 0.018757321012730411 0 0.37918251010091608 0.02534303658674171 0 0.3860354866510996 0.02013117566439666 0 0.37918251010091608 0.02534303658674171 0 0.38856412391481587 0.032567191206605582 0 0.37193385410192598 0.029221965126703969 0 0.3916373241126454 0.049249872409554668 0 0.37193385410192598 0.029221965126703969 0 0.38856412391481587 0.032567191206605582 0 0.3916373241126454 0.049249872409554668 0 0.37214209901123502 0.054263725620741762 0 0.37193385410192598 0.029221965126703969 0 0.3916373241126454 0.049249872409554668 0 0.37214209901123502 0.054263725620741762 0 0.39104144927233531 0.076862074360508709 0 0.3916373241126454 0.049249872409554668 0 0.41134079412336477 0.069277779692405284 0 0.3916373241126454 0.049249872409554668 0 0.41134079412336477 0.069277779692405284 0 0.3916373241126454 0.049249872409554668 0 0.41045125951563671 0.044450558688860393 0 0.38856412391481587 0.032567191206605582 0 0.3916373241126454 0.049249872409554668 0 0.41045125951563671 0.044450558688860393 0 0.40015887547624662 0.026220772337433518 0 0.38856412391481587 0.032567191206605582 0 0.41045125951563671 0.044450558688860393 0 0.40015887547624662 0.026220772337433518 0 0.41045125951563671 0.044450558688860393 0 0.42088882102126202 0.023903290453278901 0 0.428520826169004 0.068084944682883189 0 0.41134079412336477 0.069277779692405284 0 0.41045125951563671 0.044450558688860393 0 0.428520826169004 0.068084944682883189 0 0.41045125951563671 0.044450558688860393 0 0.43591929143682168 0.04548231341901339 0 0.428520826169004 0.068084944682883189 0 0.43591929143682168 0.04548231341901339 0 0.44364018874592792 0.061828610999764222 0 0.41045125951563671 0.044450558688860393 0 0.43591929143682168 0.04548231341901339 0 0.42088882102126202 0.023903290453278901 0 0.43591929143682168 0.04548231341901339 0 0.42088882102126202 0.023903290453278901 0 0.43902788474817112 0.01539968802584891 0 0.39485468627841891 0.010051645674026079 0 0.42088882102126202 0.023903290453278901 0 0.39485468627841891 0.010051645674026079 0 0.41943653851222218 0.0061383431934272613 0 0.40738117257841377 -0.002665136544842833 0 0.39485468627841891 0.010051645674026079 0 0.42088882102126202 0.023903290453278901 0 0.41943653851222218 0.0061383431934272613 0 0.42088882102126202 0.023903290453278901 0 0.41943653851222218 0.0061383431934272613 0 0.43902788474817112 0.01539968802584891 0 0.41943653851222218 0.0061383431934272613 0 0.43902788474817112 0.01539968802584891 0 0.43429499320891962 -0.0047086732765122168 0 0.43902788474817112 0.01539968802584891 0 0.45727865852551919 0.00060804052664138546 0 0.43429499320891962 -0.0047086732765122168 0 0.43902788474817112 0.01539968802584891 0 0.45729519850367129 0.029886814192338389 0 0.45727865852551919 0.00060804052664138546 0 0.43591929143682168 0.04548231341901339 0 0.43902788474817112 0.01539968802584891 0 0.45729519850367129 0.029886814192338389 0 0.45729519850367129 0.029886814192338389 0 0.45727865852551919 0.00060804052664138546 0 0.4781223587761273 0.01976206932957145 0 0.46055974467528921 0.064821044874611919 0 0.44364018874592792 0.061828610999764222 0 0.45266354334837772 0.049422932260857061 0 0.43591929143682168 0.04548231341901339 0 0.44364018874592792 0.061828610999764222 0 0.45266354334837772 0.049422932260857061 0 0.43591929143682168 0.04548231341901339 0 0.45729519850367129 0.029886814192338389 0 0.45266354334837772 0.049422932260857061 0 0.45729519850367129 0.029886814192338389 0 0.45266354334837772 0.049422932260857061 0 0.48027987233764441 0.049329937916862188 0 0.46055974467528921 0.064821044874611919 0 0.45266354334837772 0.049422932260857061 0 0.48027987233764441 0.049329937916862188 0 0.46055974467528921 0.064821044874611919 0 0.48027987233764441 0.049329937916862188 0 0.45729519850367129 0.029886814192338389 0 0.48027987233764441 0.049329937916862188 0 0.4781223587761273 0.01976206932957145 0 0.48027987233764441 0.049329937916862188 0 0.49999999999999961 0.033838830959112658 0 0.48027987233764441 0.049329937916862188 0 0.49999999999999961 0.033838830959112658 0 0.4781223587761273 0.01976206932957145 0 0.47800464299116707 0.075587780316331801 0 0.48027987233764441 0.049329937916862188 0 0.5 0.061415442911120999 0 0.48027987233764441 0.049329937916862188 0 0.49999999999999961 0.033838830959112658 0 0.5 0.061415442911120999 0 0.45727865852551919 0.00060804052664138546 0 0.47819264300865699 0.0023194028652181379 0 0.4781223587761273 0.01976206932957145 0 0.49999999999999961 0.033838830959112658 0 0.4781223587761273 0.01976206932957145 0 0.5 0.0043171150505021414 0 0.47819264300865699 0.0023194028652181379 0 0.4781223587761273 0.01976206932957145 0 0.5 0.0043171150505021414 0 0.47819264300865699 0.0023194028652181379 0 0.5 0.0043171150505021414 0 0.47736955473298182 -0.015409613445842419 0 0.5 0.0043171150505021414 0 0.47736955473298182 -0.015409613445842419 0 0.5 -0.025204600858108661 0 0.45727865852551919 0.00060804052664138546 0 0.47819264300865699 0.0023194028652181379 0 0.47736955473298182 -0.015409613445842419 0 0.47736955473298182 -0.015409613445842419 0 0.469877664545028 -0.030575759251921981 0 0.48457853418720342 -0.032239824527374637 0 0.47736955473298182 -0.015409613445842419 0 0.469877664545028 -0.030575759251921981 0 0.46095989784998143 -0.019718441197249779 0 0.47736955473298182 -0.015409613445842419 0 0.5 -0.025204600858108661 0 0.48457853418720342 -0.032239824527374637 0 0.5 -0.025204600858108661 0 0.48457853418720342 -0.032239824527374637 0 0.49999999999998163 -0.054726316766719359 0 0.48457853418720342 -0.032239824527374637 0 0.49999999999998163 -0.054726316766719359 0 0.47652492019061299 -0.045612851315427382 0 0.49999999999998163 -0.054726316766719359 0 0.47763735116388578 -0.059752170691345433 0 0.47652492019061299 -0.045612851315427382 0 0.49999999999998163 -0.054726316766719359 0 0.47652492019061299 -0.045612851315427382 0 0.49999999999998163 -0.054726316766719359 0 0.47763735116388578 -0.059752170691345433 0 0.48710662343744648 -0.071109955780906384 0 0.46536797427236098 -0.050743991821003323 0 0.47285276880252702 -0.074053396212329092 0 0.47763735116388578 -0.059752170691345433 0 0.46536797427236098 -0.050743991821003323 0 0.47285276880252702 -0.074053396212329092 0 0.47763735116388578 -0.059752170691345433 0 0.47652492019061299 -0.045612851315427382 0 0.46536797427236098 -0.050743991821003323 0 0.469877664545028 -0.030575759251921981 0 0.48457853418720342 -0.032239824527374637 0 0.47652492019061299 -0.045612851315427382 0 0.47652492019061299 -0.045612851315427382 0 0.45304984038124679 -0.036499385864129222 0 0.47652492019061299 -0.045612851315427382 0 0.45755043396224437 -0.046312620148539839 0 0.45304984038124679 -0.036499385864129222 0 0.469877664545028 -0.030575759251921981 0 0.47652492019061299 -0.045612851315427382 0 0.45304984038124679 -0.036499385864129222 0 0.47652492019061299 -0.045612851315427382 0 0.45755043396224437 -0.046312620148539839 0 0.46536797427236098 -0.050743991821003323 0 0.46536797427236098 -0.050743991821003323 0 0.45653703374969151 -0.056080857272054273 0 0.45634102594174952 -0.066499010200807673 0 0.45653703374969151 -0.056080857272054273 0 0.44791308798507767 -0.050415594453212198 0 0.45634102594174952 -0.066499010200807673 0 0.45755043396224437 -0.046312620148539839 0 0.46536797427236098 -0.050743991821003323 0 0.45653703374969151 -0.056080857272054273 0 0.45755043396224437 -0.046312620148539839 0 0.45653703374969151 -0.056080857272054273 0 0.44791308798507767 -0.050415594453212198 0 0.44791308798507767 -0.050415594453212198 0 0.44463403607091151 -0.049681855594412502 0 0.43801917930534667 -0.076582128608807185 0 0.45304984038124679 -0.036499385864129222 0 0.42957476057188049 -0.027385920412831031 0 0.43165404132703977 -0.043477117875488393 0 0.44463403607091151 -0.049681855594412502 0 0.45304984038124679 -0.036499385864129222 0 0.43165404132703977 -0.043477117875488393 0 0.45304984038124679 -0.036499385864129222 0 0.42957476057188049 -0.027385920412831031 0 0.44791308798507767 -0.050415594453212198 0 0.44463403607091151 -0.049681855594412502 0 0.45304984038124679 -0.036499385864129222 0 0.45755043396224437 -0.046312620148539839 0 0.44791308798507767 -0.050415594453212198 0 0.45304984038124679 -0.036499385864129222 0 0.45304984038124679 -0.036499385864129222 0 0.4472237710651315 -0.016715487950996651 0 0.42957476057188049 -0.027385920412831031 0 0.45727865852551919 0.00060804052664138546 0 0.4472237710651315 -0.016715487950996651 0 0.43429499320891962 -0.0047086732765122168 0 0.45727865852551919 0.00060804052664138546 0 0.4472237710651315 -0.016715487950996651 0 0.46095989784998143 -0.019718441197249779 0 0.45727865852551919 0.00060804052664138546 0 0.47736955473298182 -0.015409613445842419 0 0.46095989784998143 -0.019718441197249779 0 0.469877664545028 -0.030575759251921981 0 0.45304984038124679 -0.036499385864129222 0 0.46095989784998143 -0.019718441197249779 0 0.45304984038124679 -0.036499385864129222 0 0.4472237710651315 -0.016715487950996651 0 0.46095989784998143 -0.019718441197249779 0 0.46879881881572261 -0.1200633858199617 0 0.47518100696125942 -0.1238297328025003 0 0.47865022618725089 -0.1180786630964506 0 0.46879881881572261 -0.1200633858199617 0 0.47518100696125942 -0.1238297328025003 0 0.47140396831818809 -0.12823393266148669 0 0.46879881881572261 -0.1200633858199617 0 0.47546180398168331 -0.1124473758507659 0 0.47865022618725089 -0.1180786630964506 0 0.46879881881572261 -0.1200633858199617 0 0.47546180398168331 -0.1124473758507659 0 0.46327302507052398 -0.111151471274018 0 0.47546180398168331 -0.1124473758507659 0 0.47865022618725089 -0.1180786630964506 0 0.48619319263919869 -0.1155986026581956 0 0.48619319263919869 -0.1155986026581956 0 0.48018032051043741 -0.12701938744539309 0 0.47912811816707052 -0.1216779427499476 0 0.48088062779336899 -0.1248578648839309 0 0.48619319263919869 -0.1155986026581956 0 0.48088062779336899 -0.1248578648839309 0 0.48619319263919869 -0.1155986026581956 0 0.48018032051043741 -0.12701938744539309 0 0.47865022618725089 -0.1180786630964506 0 0.47912811816707052 -0.1216779427499476 0 0.48619319263919869 -0.1155986026581956 0 0.47518100696125942 -0.1238297328025003 0 0.47912811816707052 -0.1216779427499476 0 0.47816997590974059 -0.12525114749112409 0 0.47518100696125942 -0.1238297328025003 0 0.47865022618725089 -0.1180786630964506 0 0.47912811816707052 -0.1216779427499476 0 0.47912811816707052 -0.1216779427499476 0 0.48088062779336899 -0.1248578648839309 0 0.47816997590974059 -0.12525114749112409 0 0.48881979703981299 -0.12377846436358041 0 0.48619319263919869 -0.1155986026581956 0 0.48018032051043741 -0.12701938744539309 0 0.48881979703981299 -0.12377846436358041 0 0.48619319263919869 -0.1155986026581956 0 0.5 -0.11309777326317939 0 0.48619319263919869 -0.1155986026581956 0 0.49467670938604158 -0.099485102000034409 0 0.48881979703981299 -0.12377846436358041 0 0.5 -0.11309777326317939 0 0.48619319263919869 -0.1155986026581956 0 0.48619319263919869 -0.1155986026581956 0 0.49467670938604158 -0.099485102000034409 0 0.48039375719571992 -0.09734475640520375 0 0.5 -0.11309777326317939 0 0.49467670938604158 -0.099485102000034409 0 0.5 -0.083912045014949421 0 0.48619319263919869 -0.1155986026581956 0 0.49467670938604158 -0.099485102000034409 0 0.48619319263919869 -0.1155986026581956 0 0.48039375719571992 -0.09734475640520375 0 0.47546180398168331 -0.1124473758507659 0 0.48619319263919869 -0.1155986026581956 0 0.48039375719571992 -0.09734475640520375 0 0.47546180398168331 -0.1124473758507659 0 0.48039375719571992 -0.09734475640520375 0 0.46327302507052398 -0.111151471274018 0 0.48039375719571992 -0.09734475640520375 0 0.47285276880252702 -0.074053396212329092 0 0.48039375719571992 -0.09734475640520375 0 0.47285276880252702 -0.074053396212329092 0 0.45948426253461178 -0.083184288121583572 0 0.48039375719571992 -0.09734475640520375 0 0.48504299722081951 -0.083105850219188621 0 0.47285276880252702 -0.074053396212329092 0 0.49467670938604158 -0.099485102000034409 0 0.48039375719571992 -0.09734475640520375 0 0.48504299722081951 -0.083105850219188621 0 0.49467670938604158 -0.099485102000034409 0 0.5 -0.083912045014949421 0 0.48504299722081951 -0.083105850219188621 0 0.5 -0.083912045014949421 0 0.48504299722081951 -0.083105850219188621 0 0.48710662343744648 -0.071109955780906384 0 0.49999999999998163 -0.054726316766719359 0 0.5 -0.083912045014949421 0 0.48710662343744648 -0.071109955780906384 0 0.47763735116388578 -0.059752170691345433 0 0.48710662343744648 -0.071109955780906384 0 0.47285276880252702 -0.074053396212329092 0 0.48504299722081951 -0.083105850219188621 0 0.48710662343744648 -0.071109955780906384 0 0.47285276880252702 -0.074053396212329092 0 0.46536797427236098 -0.050743991821003323 0 0.47285276880252702 -0.074053396212329092 0 0.45634102594174952 -0.066499010200807673 0 0.47285276880252702 -0.074053396212329092 0 0.45634102594174952 -0.066499010200807673 0 0.45948426253461178 -0.083184288121583572 0 0.44791308798507767 -0.050415594453212198 0 0.43801917930534667 -0.076582128608807185 0 0.45634102594174952 -0.066499010200807673 0 0.43801917930534667 -0.076582128608807185 0 0.45948426253461178 -0.083184288121583572 0 0.44791308798507767 -0.050415594453212198 0 0.45634102594174952 -0.066499010200807673 0 0.43801917930534667 -0.076582128608807185 0 0.43801917930534667 -0.076582128608807185 0 0.45948426253461178 -0.083184288121583572 0 0.4542595139106681 -0.10004670958480361 0 0.43801917930534667 -0.076582128608807185 0 0.4542595139106681 -0.10004670958480361 0 0.42812527062561628 -0.10274866276440239 0 0.48039375719571992 -0.09734475640520375 0 0.45948426253461178 -0.083184288121583572 0 0.4542595139106681 -0.10004670958480361 0 0.48039375719571992 -0.09734475640520375 0 0.4542595139106681 -0.10004670958480361 0 0.46327302507052398 -0.111151471274018 0 0.48039375719571992 -0.09734475640520375 0 0.4542595139106681 -0.10004670958480361 0 0.4542595139106681 -0.10004670958480361 0 0.42812527062561628 -0.10274866276440239 0 0.4542595139106681 -0.10004670958480361 0 0.43920955177083948 -0.12120097587351911 0 0.42812527062561628 -0.10274866276440239 0 0.43920955177083948 -0.12120097587351911 0 0.455816470721429 -0.1180729686294143 0 0.45769761380670959 -0.13220089177429381 0 0.4542595139106681 -0.10004670958480361 0 0.43920955177083948 -0.12120097587351911 0 0.455816470721429 -0.1180729686294143 0 0.4542595139106681 -0.10004670958480361 0 0.455816470721429 -0.1180729686294143 0 0.46327302507052398 -0.111151471274018 0 0.46879881881572261 -0.1200633858199617 0 0.455816470721429 -0.1180729686294143 0 0.46327302507052398 -0.111151471274018 0 0.46879881881572261 -0.1200633858199617 0 0.455816470721429 -0.1180729686294143 0 0.46468778800432858 -0.12696320822467061 0 0.42812527062561628 -0.10274866276440239 0 0.4018674570877091 -0.1054633915592743 0 0.41868959145111351 -0.1277033120736947 0 0.43920955177083948 -0.12120097587351911 0 0.42812527062561628 -0.10274866276440239 0 0.41868959145111351 -0.1277033120736947 0 0.42812527062561628 -0.10274866276440239 0 0.41868959145111351 -0.1277033120736947 0 0.42812527062561628 -0.10274866276440239 0 0.4018674570877091 -0.1054633915592743 0 0.42812527062561628 -0.10274866276440239 0 0.41628262850343672 -0.083317029747989685 0 0.4018674570877091 -0.1054633915592743 0 0.43801917930534667 -0.076582128608807185 0 0.42812527062561628 -0.10274866276440239 0 0.43801917930534667 -0.076582128608807185 0 0.42812527062561628 -0.10274866276440239 0 0.41628262850343672 -0.083317029747989685 0 0.43801917930534667 -0.076582128608807185 0 0.41628262850343672 -0.083317029747989685 0 0.42285596283647958 -0.058034035872659769 0 0.41628262850343672 -0.083317029747989685 0 0.40107788960204782 -0.06638621615090709 0 0.42285596283647958 -0.058034035872659769 0 0.40107788960204782 -0.06638621615090709 0 0.37929981636761578 -0.074738396429154419 0 0.39119530695962451 -0.08817560280528805 0 0.40107788960204782 -0.06638621615090709 0 0.37929981636761578 -0.074738396429154419 0 0.40107788960204782 -0.06638621615090709 0 0.37929981636761578 -0.074738396429154419 0 0.38730769205176641 -0.056767015938595337 0 0.37929981636761578 -0.074738396429154419 0 0.39119530695962451 -0.08817560280528805 0 0.3718663216507862 -0.091021132811580474 0 0.41628262850343672 -0.083317029747989685 0 0.39119530695962451 -0.08817560280528805 0 0.4018674570877091 -0.1054633915592743 0 0.41628262850343672 -0.083317029747989685 0 0.40107788960204782 -0.06638621615090709 0 0.39119530695962451 -0.08817560280528805 0 0.39119530695962451 -0.08817560280528805 0 0.4018674570877091 -0.1054633915592743 0 0.37560964354980159 -0.1081781203541451 0 0.39119530695962451 -0.08817560280528805 0 0.37560964354980159 -0.1081781203541451 0 0.3718663216507862 -0.091021132811580474 0 0.4018674570877091 -0.1054633915592743 0 0.37560964354980159 -0.1081781203541451 0 0.37560964354980159 -0.1081781203541451 0 0.39596035370790128 -0.1218519766653101 0 0.3828801169731042 -0.13100368621167649 0 0.4018674570877091 -0.1054633915592743 0 0.37560964354980159 -0.1081781203541451 0 0.39596035370790128 -0.1218519766653101 0 0.4018674570877091 -0.1054633915592743 0 0.39596035370790128 -0.1218519766653101 0 0.41868959145111351 -0.1277033120736947 0 0.42957476057188049 -0.027385920412831031 0 0.40380997966990861 -0.030858801069134089 0 0.40609968076251429 -0.018272454961532871 0 0.41942006328920228 -0.0090535366135950247 0 0.42957476057188049 -0.027385920412831031 0 0.40609968076251429 -0.018272454961532871 0 0.42957476057188049 -0.027385920412831031 0 0.40609968076251429 -0.018272454961532871 0 0.40738117257841377 -0.002665136544842833 0 0.41942006328920228 -0.0090535366135950247 0 0.40609968076251429 -0.018272454961532871 0 0.41943653851222218 0.0061383431934272613 0 0.40738117257841377 -0.002665136544842833 0 0.41942006328920228 -0.0090535366135950247 0 0.41942006328920228 -0.0090535366135950247 0 0.43429499320891962 -0.0047086732765122168 0 0.42957476057188049 -0.027385920412831031 0 0.41943653851222218 0.0061383431934272613 0 0.41942006328920228 -0.0090535366135950247 0 0.43429499320891962 -0.0047086732765122168 0 0.4472237710651315 -0.016715487950996651 0 0.43429499320891962 -0.0047086732765122168 0 0.42957476057188049 -0.027385920412831031 0 0.42957476057188049 -0.027385920412831031 0 0.43165404132703977 -0.043477117875488393 0 0.40815560677468071 -0.045784391633409423 0 0.44463403607091151 -0.049681855594412502 0 0.43801917930534667 -0.076582128608807185 0 0.42285596283647958 -0.058034035872659769 0 0.44463403607091151 -0.049681855594412502 0 0.42285596283647958 -0.058034035872659769 0 0.44463403607091151 -0.049681855594412502 0 0.43165404132703977 -0.043477117875488393 0 0.42285596283647958 -0.058034035872659769 0 0.40107788960204782 -0.06638621615090709 0 0.42285596283647958 -0.058034035872659769 0 0.40107788960204782 -0.06638621615090709 0 0.42285596283647958 -0.058034035872659769 0 0.40815560677468071 -0.045784391633409423 0 0.43165404132703977 -0.043477117875488393 0 0.42285596283647958 -0.058034035872659769 0 0.40815560677468071 -0.045784391633409423 0 0.42957476057188049 -0.027385920412831031 0 0.40815560677468071 -0.045784391633409423 0 0.40380997966990861 -0.030858801069134089 0 0.40815560677468071 -0.045784391633409423 0 0.38500959570082488 -0.038440806915947492 0 0.40380997966990861 -0.030858801069134089 0 0.40107788960204782 -0.06638621615090709 0 0.40815560677468071 -0.045784391633409423 0 0.38730769205176641 -0.056767015938595337 0 0.40815560677468071 -0.045784391633409423 0 0.38730769205176641 -0.056767015938595337 0 0.38500959570082488 -0.038440806915947492 0 0.38730769205176641 -0.056767015938595337 0 0.38500959570082488 -0.038440806915947492 0 0.37026516605614213 -0.054913540989127332 0 0.37929981636761578 -0.074738396429154419 0 0.38730769205176641 -0.056767015938595337 0 0.37026516605614213 -0.054913540989127332 0 0.38500959570082488 -0.038440806915947492 0 0.37604221397302839 -0.024912606529372331 0 0.3647103363148253 -0.036844419345731703 0 0.37604221397302839 -0.024912606529372331 0 0.39021025453964231 -0.024410431421949631 0 0.38262460095314499 -0.0091589895102423893 0 0.38500959570082488 -0.038440806915947492 0 0.37604221397302839 -0.024912606529372331 0 0.39021025453964231 -0.024410431421949631 0 0.39021025453964231 -0.024410431421949631 0 0.40380997966990861 -0.030858801069134089 0 0.40609968076251429 -0.018272454961532871 0 0.39021025453964231 -0.024410431421949631 0 0.40609968076251429 -0.018272454961532871 0 0.38262460095314499 -0.0091589895102423893 0 0.38500959570082488 -0.038440806915947492 0 0.39021025453964231 -0.024410431421949631 0 0.40380997966990861 -0.030858801069134089 0 0.39485468627841891 0.010051645674026079 0 0.40738117257841377 -0.002665136544842833 0 0.38262460095314499 -0.0091589895102423893 0 0.40609968076251429 -0.018272454961532871 0 0.38262460095314499 -0.0091589895102423893 0 0.40738117257841377 -0.002665136544842833 0 0.40609968076251429 -0.018272454961532871 0 0.38262460095314499 -0.0091589895102423893 0 0.40738117257841377 -0.002665136544842833 0 0.38262460095314499 -0.0091589895102423893 0 0.39485468627841891 0.010051645674026079 0 0.38262460095314499 -0.0091589895102423893 0 0.36882055153557758 -0.003799999105230289 0 0.38262460095314499 -0.0091589895102423893 0 0.36882055153557758 -0.003799999105230289 0 0.38262460095314499 -0.0091589895102423893 0 0.36882055153557758 -0.003799999105230289 0 0.35765628235670172 -0.015708385452998169 0 0.38262460095314499 -0.0091589895102423893 0 0.35765628235670172 -0.015708385452998169 0 0.3501393031344246 0.003452411249652146 0 0.36882055153557758 -0.003799999105230289 0 0.37604221397302839 -0.024912606529372331 0 0.35765628235670172 -0.015708385452998169 0 0.3647103363148253 -0.036844419345731703 0 0.37604221397302839 -0.024912606529372331 0 0.38262460095314499 -0.0091589895102423893 0 0.35765628235670172 -0.015708385452998169 0 0.35765628235670172 -0.015708385452998169 0 0.34253415890351763 -0.01778585947138835 0 0.33268796376025578 -0.0222577813957438 0 0.35765628235670172 -0.015708385452998169 0 0.33268796376025578 -0.0222577813957438 0 0.35765628235670172 -0.015708385452998169 0 0.33268796376025578 -0.0222577813957438 0 0.34825655957004981 -0.032952335457551121 0 0.35765628235670172 -0.015708385452998169 0 0.34825655957004981 -0.032952335457551121 0 0.3647103363148253 -0.036844419345731703 0 0.3501393031344246 0.003452411249652146 0 0.36882055153557758 -0.003799999105230289 0 0.34253415890351763 -0.01778585947138835 0 0.3501393031344246 0.003452411249652146 0 0.34141363344732711 -0.0094026850730369316 0 0.34253415890351763 -0.01778585947138835 0 0.36882055153557758 -0.003799999105230289 0 0.35765628235670172 -0.015708385452998169 0 0.34253415890351763 -0.01778585947138835 0 0.36882055153557758 -0.003799999105230289 0 0.34253415890351763 -0.01778585947138835 0 0.3501393031344246 0.003452411249652146 0 0.34141363344732711 -0.0094026850730369316 0 0.34259177832094467 0.0063825016769797523 0 0.33042006715688299 -0.0098314539774990266 0 0.34259177832094467 0.0063825016769797523 0 0.32722491393694569 0.0027748930610335672 0 0.33042006715688299 -0.0098314539774990266 0 0.34259177832094467 0.0063825016769797523 0 0.33042006715688299 -0.0098314539774990266 0 0.34141363344732711 -0.0094026850730369316 0 0.33042006715688299 -0.0098314539774990266 0 0.34141363344732711 -0.0094026850730369316 0 0.33268796376025578 -0.0222577813957438 0 0.34141363344732711 -0.0094026850730369316 0 0.34253415890351763 -0.01778585947138835 0 0.33268796376025578 -0.0222577813957438 0 0.34141363344732711 -0.0094026850730369316 0 0.33268796376025578 -0.0222577813957438 0 0.33042006715688299 -0.0098314539774990266 0 0.33268796376025578 -0.0222577813957438 0 0.32552030396385578 -0.016358436261110099 0 0.33268796376025578 -0.0222577813957438 0 0.31824835599280882 -0.026045409631968369 0 0.31777832717412807 -0.044223409401947342 0 0.33268796376025578 -0.0222577813957438 0 0.32552030396385578 -0.016358436261110099 0 0.31824835599280882 -0.026045409631968369 0 0.32552030396385578 -0.016358436261110099 0 0.31824835599280882 -0.026045409631968369 0 0.30695724017370002 -0.019615242265703041 0 0.32552030396385578 -0.016358436261110099 0 0.31824835599280882 -0.026045409631968369 0 0.33268796376025578 -0.0222577813957438 0 0.31824835599280882 -0.026045409631968369 0 0.32552030396385578 -0.016358436261110099 0 0.30101268001110632 -0.0060101362968981104 0 0.32552030396385578 -0.016358436261110099 0 0.31821351815778781 -0.003081467269495609 0 0.30101268001110632 -0.0060101362968981104 0 0.32722491393694569 0.0027748930610335672 0 0.33042006715688299 -0.0098314539774990266 0 0.31821351815778781 -0.003081467269495609 0 0.33042006715688299 -0.0098314539774990266 0 0.32552030396385578 -0.016358436261110099 0 0.31821351815778781 -0.003081467269495609 0 0.33042006715688299 -0.0098314539774990266 0 0.32552030396385578 -0.016358436261110099 0 0.31777832717412807 -0.044223409401947342 0 0.33580223321210129 -0.040994118429516092 0 0.33029898872064212 -0.060455186400227283 0 0.31906443933291179 -0.056176247345180307 0 0.31777832717412807 -0.044223409401947342 0 0.30313624164806219 -0.046176281004776727 0 0.31906443933291179 -0.056176247345180307 0 0.31777832717412807 -0.044223409401947342 0 0.33029898872064212 -0.060455186400227283 0 0.31906443933291179 -0.056176247345180307 0 0.33029898872064212 -0.060455186400227283 0 0.31086858875945572 -0.06424293541753763 0 0.33268796376025578 -0.0222577813957438 0 0.31777832717412807 -0.044223409401947342 0 0.31824835599280882 -0.026045409631968369 0 0.31777832717412807 -0.044223409401947342 0 0.30313624164806219 -0.046176281004776727 0 0.33268796376025578 -0.0222577813957438 0 0.31777832717412807 -0.044223409401947342 0 0.33580223321210129 -0.040994118429516092 0 0.33268796376025578 -0.0222577813957438 0 0.33580223321210129 -0.040994118429516092 0 0.34825655957004981 -0.032952335457551121 0 0.33580223321210129 -0.040994118429516092 0 0.33029898872064212 -0.060455186400227283 0 0.35042598220636428 -0.048956972663765599 0 0.35042598220636428 -0.048956972663765599 0 0.37026516605614213 -0.054913540989127332 0 0.35438067703073167 -0.066198965352399483 0 0.33029898872064212 -0.060455186400227283 0 0.35042598220636428 -0.048956972663765599 0 0.35438067703073167 -0.066198965352399483 0 0.35042598220636428 -0.048956972663765599 0 0.34825655957004981 -0.032952335457551121 0 0.3647103363148253 -0.036844419345731703 0 0.33580223321210129 -0.040994118429516092 0 0.35042598220636428 -0.048956972663765599 0 0.34825655957004981 -0.032952335457551121 0 0.38500959570082488 -0.038440806915947492 0 0.3647103363148253 -0.036844419345731703 0 0.37026516605614213 -0.054913540989127332 0 0.35042598220636428 -0.048956972663765599 0 0.3647103363148253 -0.036844419345731703 0 0.37026516605614213 -0.054913540989127332 0 0.37929981636761578 -0.074738396429154419 0 0.35752174313318402 -0.083090576707401734 0 0.35438067703073167 -0.066198965352399483 0 0.37929981636761578 -0.074738396429154419 0 0.37026516605614213 -0.054913540989127332 0 0.35438067703073167 -0.066198965352399483 0 0.37929981636761578 -0.074738396429154419 0 0.3718663216507862 -0.091021132811580474 0 0.35752174313318402 -0.083090576707401734 0 0.3718663216507862 -0.091021132811580474 0 0.35752174313318402 -0.083090576707401734 0 0.35570509824370511 -0.10092296776191299 0 0.37929981636761578 -0.074738396429154419 0 0.35752174313318402 -0.083090576707401734 0 0.35752174313318402 -0.083090576707401734 0 0.35570509824370511 -0.10092296776191299 0 0.33831165873503971 -0.091633248060360731 0 0.35752174313318402 -0.083090576707401734 0 0.33847236570044159 -0.075039118924720608 0 0.33831165873503971 -0.091633248060360731 0 0.35752174313318402 -0.083090576707401734 0 0.35438067703073167 -0.066198965352399483 0 0.33847236570044159 -0.075039118924720608 0 0.37560964354980159 -0.1081781203541451 0 0.35242014803044769 -0.1217304135404752 0 0.36537957128349507 -0.13419004920824329 0 0.37560964354980159 -0.1081781203541451 0 0.35570509824370511 -0.10092296776191299 0 0.35242014803044769 -0.1217304135404752 0 0.37560964354980159 -0.1081781203541451 0 0.36537957128349507 -0.13419004920824329 0 0.3828801169731042 -0.13100368621167649 0 0.37560964354980159 -0.1081781203541451 0 0.3718663216507862 -0.091021132811580474 0 0.35570509824370511 -0.10092296776191299 0 0.35570509824370511 -0.10092296776191299 0 0.33733298936662232 -0.1099349853188375 0 0.33831165873503971 -0.091633248060360731 0 0.35570509824370511 -0.10092296776191299 0 0.35242014803044769 -0.1217304135404752 0 0.33733298936662232 -0.1099349853188375 0 0.35242014803044769 -0.1217304135404752 0 0.33733298936662232 -0.1099349853188375 0 0.33574754029321152 -0.12988225329870881 0 0.33733298936662232 -0.1099349853188375 0 0.32363751755953951 -0.1143303801237199 0 0.33574754029321152 -0.12988225329870881 0 0.33733298936662232 -0.1099349853188375 0 0.31977401377229508 -0.1000560562168392 0 0.33831165873503971 -0.091633248060360731 0 0.33733298936662232 -0.1099349853188375 0 0.31977401377229508 -0.1000560562168392 0 0.32363751755953951 -0.1143303801237199 0 0.32363751755953951 -0.1143303801237199 0 0.30775715073629989 -0.1165406791790415 0 0.32026213110087398 -0.12706399386165049 0 0.31977401377229508 -0.1000560562168392 0 0.32363751755953951 -0.1143303801237199 0 0.30775715073629989 -0.1165406791790415 0 0.32363751755953951 -0.1143303801237199 0 0.32026213110087398 -0.12706399386165049 0 0.33574754029321152 -0.12988225329870881 0 0.33029898872064212 -0.060455186400227283 0 0.33847236570044159 -0.075039118924720608 0 0.32231605911363143 -0.079336668994921852 0 0.33029898872064212 -0.060455186400227283 0 0.35438067703073167 -0.066198965352399483 0 0.33847236570044159 -0.075039118924720608 0 0.33847236570044159 -0.075039118924720608 0 0.33831165873503971 -0.091633248060360731 0 0.32231605911363143 -0.079336668994921852 0 0.31977401377229508 -0.1000560562168392 0 0.32231605911363143 -0.079336668994921852 0 0.31076250439004632 -0.089555364894191705 0 0.31977401377229508 -0.1000560562168392 0 0.33831165873503971 -0.091633248060360731 0 0.32231605911363143 -0.079336668994921852 0 0.33029898872064212 -0.060455186400227283 0 0.32231605911363143 -0.079336668994921852 0 0.31086858875945572 -0.06424293541753763 0 0.32231605911363143 -0.079336668994921852 0 0.31086858875945572 -0.06424293541753763 0 0.2995986509729478 -0.080103882953119362 0 0.31086858875945572 -0.06424293541753763 0 0.2995986509729478 -0.080103882953119362 0 0.29051092920570781 -0.062994479638042333 0 0.31076250439004632 -0.089555364894191705 0 0.2995986509729478 -0.080103882953119362 0 0.30136129370131109 -0.098724851411886444 0 0.32231605911363143 -0.079336668994921852 0 0.31076250439004632 -0.089555364894191705 0 0.2995986509729478 -0.080103882953119362 0 0.2995986509729478 -0.080103882953119362 0 0.28409355344916681 -0.091171118687567845 0 0.30136129370131109 -0.098724851411886444 0 0.28409355344916681 -0.091171118687567845 0 0.29051092920570781 -0.062994479638042333 0 0.28409355344916681 -0.091171118687567845 0 0.28802412730331622 -0.066307152377585693 0 0.29051092920570781 -0.062994479638042333 0 0.28409355344916681 -0.091171118687567845 0 0.28802412730331622 -0.066307152377585693 0 0.27622333101867708 -0.075734148495249731 0 0.2995986509729478 -0.080103882953119362 0 0.28409355344916681 -0.091171118687567845 0 0.29051092920570781 -0.062994479638042333 0 0.28802412730331622 -0.066307152377585693 0 0.27818529213122473 -0.066054173705297009 0 0.27994126965074251 -0.059632831404404382 0 0.28802412730331622 -0.066307152377585693 0 0.29051092920570781 -0.062994479638042333 0 0.30775715073629989 -0.1165406791790415 0 0.29295063947261801 -0.1103753144205331 0 0.29415124534651771 -0.12630703125603421 0 0.31977401377229508 -0.1000560562168392 0 0.30775715073629989 -0.1165406791790415 0 0.30136129370131109 -0.098724851411886444 0 0.31977401377229508 -0.1000560562168392 0 0.31076250439004632 -0.089555364894191705 0 0.30136129370131109 -0.098724851411886444 0 0.30775715073629989 -0.1165406791790415 0 0.30136129370131109 -0.098724851411886444 0 0.29295063947261801 -0.1103753144205331 0 0.28409355344916681 -0.091171118687567845 0 0.29295063947261801 -0.1103753144205331 0 0.27738995412979478 -0.1191328915681357 0 0.28409355344916681 -0.091171118687567845 0 0.30136129370131109 -0.098724851411886444 0 0.29295063947261801 -0.1103753144205331 0 0.29295063947261801 -0.1103753144205331 0 0.27738995412979478 -0.1191328915681357 0 0.29415124534651771 -0.12630703125603421 0 0.27738995412979478 -0.1191328915681357 0 0.25810122125785218 -0.1079251177022961 0 0.26334346789530799 -0.1211051133148047 0 0.27738995412979478 -0.1191328915681357 0 0.26999336615437708 -0.099732419849602669 0 0.25810122125785218 -0.1079251177022961 0 0.28409355344916681 -0.091171118687567845 0 0.27738995412979478 -0.1191328915681357 0 0.28409355344916681 -0.091171118687567845 0 0.27738995412979478 -0.1191328915681357 0 0.26999336615437708 -0.099732419849602669 0 0.26266842338430291 -0.094976719719736521 0 0.25810122125785218 -0.1079251177022961 0 0.25186079331036493 -0.087755820087010328 0 0.25810122125785218 -0.1079251177022961 0 0.25186079331036493 -0.087755820087010328 0 0.2475193132292289 -0.1145201719934841 0 0.26999336615437708 -0.099732419849602669 0 0.26266842338430291 -0.094976719719736521 0 0.25810122125785218 -0.1079251177022961 0 0.25810122125785218 -0.1079251177022961 0 0.25459694793568571 -0.13227166259153231 0 0.24858611665028441 -0.122788701752252 0 0.25810122125785218 -0.1079251177022961 0 0.25459694793568571 -0.13227166259153231 0 0.25810122125785218 -0.1079251177022961 0 0.26334346789530799 -0.1211051133148047 0 0.25459694793568571 -0.13227166259153231 0 0.25810122125785218 -0.1079251177022961 0 0.2475193132292289 -0.1145201719934841 0 0.24858611665028441 -0.122788701752252 0 0.26822478520906867 -0.075108329877679833 0 0.2714494997960073 -0.068208512230689675 0 0.27622333101867708 -0.075734148495249731 0 0.26822478520906867 -0.075108329877679833 0 0.2714494997960073 -0.068208512230689675 0 0.26484331646511089 -0.06561850823682161 0 0.2714494997960073 -0.068208512230689675 0 0.26484331646511089 -0.06561850823682161 0 0.27206975223466923 -0.060631576684221693 0 0.2714494997960073 -0.068208512230689675 0 0.27818529213122473 -0.066054173705297009 0 0.27622333101867708 -0.075734148495249731 0 0.28802412730331622 -0.066307152377585693 0 0.27818529213122473 -0.066054173705297009 0 0.27622333101867708 -0.075734148495249731 0 0.2714494997960073 -0.068208512230689675 0 0.27818529213122473 -0.066054173705297009 0 0.27206975223466923 -0.060631576684221693 0 0.28409355344916681 -0.091171118687567845 0 0.27622333101867708 -0.075734148495249731 0 0.267713678550769 -0.085456251570277184 0 0.28409355344916681 -0.091171118687567845 0 0.26999336615437708 -0.099732419849602669 0 0.267713678550769 -0.085456251570277184 0 0.26999336615437708 -0.099732419849602669 0 0.26266842338430291 -0.094976719719736521 0 0.267713678550769 -0.085456251570277184 0 0.26822478520906867 -0.075108329877679833 0 0.27622333101867708 -0.075734148495249731 0 0.267713678550769 -0.085456251570277184 0 0.26266842338430291 -0.094976719719736521 0 0.267713678550769 -0.085456251570277184 0 0.25186079331036493 -0.087755820087010328 0 0.267713678550769 -0.085456251570277184 0 0.25186079331036493 -0.087755820087010328 0 0.26082756626164388 -0.073295205620276249 0 0.25186079331036493 -0.087755820087010328 0 0.26082756626164388 -0.073295205620276249 0 0.25186079331036493 -0.087755820087010328 0 0.25561314187342649 -0.064623345552831793 0 0.24761009880932461 -0.074712366058891908 0 0.25186079331036493 -0.087755820087010328 0 0.25561314187342649 -0.064623345552831793 0 0.25186079331036493 -0.087755820087010328 0 0.26082756626164388 -0.073295205620276249 0 0.25561314187342649 -0.064623345552831793 0 0.26822478520906867 -0.075108329877679833 0 0.26082756626164388 -0.073295205620276249 0 0.26484331646511089 -0.06561850823682161 0 0.26822478520906867 -0.075108329877679833 0 0.267713678550769 -0.085456251570277184 0 0.26082756626164388 -0.073295205620276249 0 0.26082756626164388 -0.073295205620276249 0 0.26484331646511089 -0.06561850823682161 0 0.25561314187342649 -0.064623345552831793 0 0.25561314187342649 -0.064623345552831793 0 0.26472852707329492 -0.055954738710670367 0 0.25936549043648782 -0.041490871018653168 0 0.25561314187342649 -0.064623345552831793 0 0.25936549043648782 -0.041490871018653168 0 0.24882189454425699 -0.054658680225564547 0 0.25561314187342649 -0.064623345552831793 0 0.25936549043648782 -0.041490871018653168 0 0.25936549043648782 -0.041490871018653168 0 0.24882189454425699 -0.054658680225564547 0 0.24645897110593409 -0.044876357510744112 0 0.26472852707329492 -0.055954738710670367 0 0.27175093435677999 -0.047409392060823598 0 0.25936549043648782 -0.041490871018653168 0 0.26484331646511089 -0.06561850823682161 0 0.25561314187342649 -0.064623345552831793 0 0.26472852707329492 -0.055954738710670367 0 0.26484331646511089 -0.06561850823682161 0 0.26472852707329492 -0.055954738710670367 0 0.27206975223466923 -0.060631576684221693 0 0.26472852707329492 -0.055954738710670367 0 0.27206975223466923 -0.060631576684221693 0 0.27175093435677999 -0.047409392060823598 0 0.27175093435677999 -0.047409392060823598 0 0.27695683241200142 -0.054136338094843459 0 0.2844703441725005 -0.051034916160074058 0 0.27206975223466923 -0.060631576684221693 0 0.27175093435677999 -0.047409392060823598 0 0.27695683241200142 -0.054136338094843459 0 0.27818529213122473 -0.066054173705297009 0 0.27206975223466923 -0.060631576684221693 0 0.27994126965074251 -0.059632831404404382 0 0.27695683241200142 -0.054136338094843459 0 0.27994126965074251 -0.059632831404404382 0 0.2844703441725005 -0.051034916160074058 0 0.27206975223466923 -0.060631576684221693 0 0.27695683241200142 -0.054136338094843459 0 0.27994126965074251 -0.059632831404404382 0 0.2789931122885948 -0.03634238388975821 0 0.25936549043648782 -0.041490871018653168 0 0.26198506942325939 -0.02534169319485291 0 0.27175093435677999 -0.047409392060823598 0 0.2789931122885948 -0.03634238388975821 0 0.25936549043648782 -0.041490871018653168 0 0.2789931122885948 -0.03634238388975821 0 0.25936549043648782 -0.041490871018653168 0 0.27175093435677999 -0.047409392060823598 0 0.2789931122885948 -0.03634238388975821 0 0.2844703441725005 -0.051034916160074058 0 0.25936549043648782 -0.041490871018653168 0 0.26198506942325939 -0.02534169319485291 0 0.24767000983824561 -0.030595489642792899 0 0.25936549043648782 -0.041490871018653168 0 0.26198506942325939 -0.02534169319485291 0 0.25936549043648782 -0.041490871018653168 0 0.24645897110593409 -0.044876357510744112 0 0.25936549043648782 -0.041490871018653168 0 0.24645897110593409 -0.044876357510744112 0 0.24767000983824561 -0.030595489642792899 0 0.26198506942325939 -0.02534169319485291 0 0.24767000983824561 -0.030595489642792899 0 0.2494523415789337 -0.016965235921967602 0 0.26198506942325939 -0.02534169319485291 0 0.263246939525487 -0.011494223774683491 0 0.2494523415789337 -0.016965235921967602 0 0.2769053482131274 0.0040376669475161737 0 0.25322849713948081 0.001567162893323492 0 0.263246939525487 -0.011494223774683491 0 0.25322849713948081 0.001567162893323492 0 0.263246939525487 -0.011494223774683491 0 0.2498662373326794 -0.0068470548752739141 0 0.263246939525487 -0.011494223774683491 0 0.2494523415789337 -0.016965235921967602 0 0.2498662373326794 -0.0068470548752739141 0 0.25322849713948081 0.001567162893323492 0 0.263246939525487 -0.011494223774683491 0 0.2769053482131274 0.0040376669475161737 0 0.263246939525487 -0.011494223774683491 0 0.27545624823305992 -0.018211920072716999 0 0.2769053482131274 0.0040376669475161737 0 0.27545624823305992 -0.018211920072716999 0 0.29069928707564019 -0.018320099314614782 0 0.2789931122885948 -0.03634238388975821 0 0.26198506942325939 -0.02534169319485291 0 0.27545624823305992 -0.018211920072716999 0 0.26198506942325939 -0.02534169319485291 0 0.263246939525487 -0.011494223774683491 0 0.27545624823305992 -0.018211920072716999 0 0.2789931122885948 -0.03634238388975821 0 0.29069928707564019 -0.018320099314614782 0 0.29862073414070189 -0.03119389676086361 0 0.2789931122885948 -0.03634238388975821 0 0.27545624823305992 -0.018211920072716999 0 0.29069928707564019 -0.018320099314614782 0 0.2769053482131274 0.0040376669475161737 0 0.30101268001110632 -0.0060101362968981104 0 0.2769053482131274 0.0040376669475161737 0 0.29069928707564019 -0.018320099314614782 0 0.30101268001110632 -0.0060101362968981104 0 0.29069928707564019 -0.018320099314614782 0 0.30101268001110632 -0.0060101362968981104 0 0.30695724017370002 -0.019615242265703041 0 0.30882197995067601 0.0071273478196457437 0 0.31821351815778781 -0.003081467269495609 0 0.30101268001110632 -0.0060101362968981104 0 0.32552030396385578 -0.016358436261110099 0 0.30101268001110632 -0.0060101362968981104 0 0.30695724017370002 -0.019615242265703041 0 0.31824835599280882 -0.026045409631968369 0 0.29862073414070189 -0.03119389676086361 0 0.31824835599280882 -0.026045409631968369 0 0.30695724017370002 -0.019615242265703041 0 0.29862073414070189 -0.03119389676086361 0 0.29069928707564019 -0.018320099314614782 0 0.30695724017370002 -0.019615242265703041 0 0.29862073414070189 -0.03119389676086361 0 0.31824835599280882 -0.026045409631968369 0 0.29862073414070189 -0.03119389676086361 0 0.30313624164806219 -0.046176281004776727 0 0.31824835599280882 -0.026045409631968369 0 0.30313624164806219 -0.046176281004776727 0 0.29862073414070189 -0.03119389676086361 0 0.30313624164806219 -0.046176281004776727 0 0.29130510806246479 -0.041186869453868152 0 0.31906443933291179 -0.056176247345180307 0 0.31086858875945572 -0.06424293541753763 0 0.30313624164806219 -0.046176281004776727 0 0.31086858875945572 -0.06424293541753763 0 0.29051092920570781 -0.062994479638042333 0 0.30313624164806219 -0.046176281004776727 0 0.29051092920570781 -0.062994479638042333 0 0.30313624164806219 -0.046176281004776727 0 0.2844703441725005 -0.051034916160074058 0 0.29051092920570781 -0.062994479638042333 0 0.30313624164806219 -0.046176281004776727 0 0.28802412730331622 -0.066307152377585693 0 0.29051092920570781 -0.062994479638042333 0 0.2844703441725005 -0.051034916160074058 0 0.28802412730331622 -0.066307152377585693 0 0.27994126965074251 -0.059632831404404382 0 0.2844703441725005 -0.051034916160074058 0 0.2789931122885948 -0.03634238388975821 0 0.29862073414070189 -0.03119389676086361 0 0.29130510806246479 -0.041186869453868152 0 0.2789931122885948 -0.03634238388975821 0 0.2844703441725005 -0.051034916160074058 0 0.29130510806246479 -0.041186869453868152 0 0.30313624164806219 -0.046176281004776727 0 0.2844703441725005 -0.051034916160074058 0 0.29130510806246479 -0.041186869453868152 0 0.2789931122885948 -0.03634238388975821 0 0.29862073414070189 -0.03119389676086361 0 0.28758995270239363 -0.20468227010221021 0 0.30966480868234469 -0.21778386565717539 0 0.29311718456917518 -0.2216611084230144 0 0.28758995270239363 -0.20468227010221021 0 0.29311718456917518 -0.2216611084230144 0 0.28758995270239363 -0.20468227010221021 0 0.29311718456917518 -0.2216611084230144 0 0.27353340223470279 -0.22856840236464351 0 0.28758995270239363 -0.20468227010221021 0 0.28874912266440622 -0.20269494631984519 0 0.30210343805079742 -0.20347211068350521 0 0.28758995270239363 -0.20468227010221021 0 0.28874912266440622 -0.20269494631984519 0 0.28758995270239363 -0.20468227010221021 0 0.28874912266440622 -0.20269494631984519 0 0.28251371084305149 -0.18905513046186551 0 0.28758995270239363 -0.20468227010221021 0 0.28251371084305149 -0.18905513046186551 0 0.28874912266440622 -0.20269494631984519 0 0.28251371084305149 -0.18905513046186551 0 0.28871357064734399 -0.1887283694741515 0 0.28874912266440622 -0.20269494631984519 0 0.28871357064734399 -0.1887283694741515 0 0.30210343805079742 -0.20347211068350521 0 0.28871357064734399 -0.1887283694741515 0 0.31478344186266899 -0.1937340024963361 0 0.28871357064734399 -0.1887283694741515 0 0.30210343805079742 -0.20347211068350521 0 0.31478344186266899 -0.1937340024963361 0 0.30210343805079742 -0.20347211068350521 0 0.31580171156773401 -0.2068557588735179 0 0.31478344186266899 -0.1937340024963361 0 0.28758995270239363 -0.20468227010221021 0 0.30966480868234469 -0.21778386565717539 0 0.31159086487827092 -0.21091847716254161 0 0.30210343805079742 -0.20347211068350521 0 0.30966480868234469 -0.21778386565717539 0 0.31159086487827092 -0.21091847716254161 0 0.30210343805079742 -0.20347211068350521 0 0.31580171156773401 -0.2068557588735179 0 0.28758995270239363 -0.20468227010221021 0 0.30210343805079742 -0.20347211068350521 0 0.30966480868234469 -0.21778386565717539 0 0.30966480868234469 -0.21778386565717539 0 0.30458006583614328 -0.2228272020669769 0 0.31711594554138117 -0.23038109012425639 0 0.30966480868234469 -0.21778386565717539 0 0.30458006583614328 -0.2228272020669769 0 0.29311718456917518 -0.2216611084230144 0 0.30458006583614328 -0.2228272020669769 0 0.2986392538129925 -0.2386416256303415 0 0.30805988579611299 -0.23408337425047129 0 0.30458006583614328 -0.2228272020669769 0 0.2986392538129925 -0.2386416256303415 0 0.30458006583614328 -0.2228272020669769 0 0.2986392538129925 -0.2386416256303415 0 0.29311718456917518 -0.2216611084230144 0 0.30805988579611299 -0.23408337425047129 0 0.30458006583614328 -0.2228272020669769 0 0.31711594554138117 -0.23038109012425639 0 0.31190427799393577 -0.2444835791803108 0 0.2986392538129925 -0.2386416256303415 0 0.30542190355479071 -0.25949846308865188 0 0.2986392538129925 -0.2386416256303415 0 0.30542190355479071 -0.25949846308865188 0 0.30805988579611299 -0.23408337425047129 0 0.31190427799393577 -0.2444835791803108 0 0.2986392538129925 -0.2386416256303415 0 0.30805988579611299 -0.23408337425047129 0 0.31190427799393577 -0.2444835791803108 0 0.31711594554138117 -0.23038109012425639 0 0.2986392538129925 -0.2386416256303415 0 0.28775566876567132 -0.24773239159837401 0 0.29232037639619679 -0.25546245812339807 0 0.2986392538129925 -0.2386416256303415 0 0.29232037639619679 -0.25546245812339807 0 0.2986392538129925 -0.2386416256303415 0 0.28551665878708388 -0.23797685550695119 0 0.28775566876567132 -0.24773239159837401 0 0.28551665878708388 -0.23797685550695119 0 0.28775566876567132 -0.24773239159837401 0 0.27680877294631062 -0.24899911994685131 0 0.2986392538129925 -0.2386416256303415 0 0.29311718456917518 -0.2216611084230144 0 0.2986392538129925 -0.2386416256303415 0 0.28551665878708388 -0.23797685550695119 0 0.29311718456917518 -0.2216611084230144 0 0.28551665878708388 -0.23797685550695119 0 0.29311718456917518 -0.2216611084230144 0 0.27353340223470279 -0.22856840236464351 0 0.27353340223470279 -0.22856840236464351 0 0.25948394019375548 -0.25245870320507519 0 0.27353340223470279 -0.22856840236464351 0 0.27680877294631062 -0.24899911994685131 0 0.25948394019375548 -0.25245870320507519 0 0.28551665878708388 -0.23797685550695119 0 0.27353340223470279 -0.22856840236464351 0 0.27680877294631062 -0.24899911994685131 0 0.25948394019375548 -0.25245870320507519 0 0.24340103458885751 -0.24043508630388921 0 0.25604866627880962 -0.23764007105407861 0 0.25948394019375548 -0.25245870320507519 0 0.24340103458885751 -0.24043508630388921 0 0.27353340223470279 -0.22856840236464351 0 0.25604866627880962 -0.23764007105407861 0 0.25948394019375548 -0.25245870320507519 0 0.27353340223470279 -0.22856840236464351 0 0.25604866627880962 -0.23764007105407861 0 0.25547565355231122 -0.22703460401764641 0 0.27353340223470279 -0.22856840236464351 0 0.25547565355231122 -0.22703460401764641 0 0.25720104477585221 -0.21196902114597399 0 0.25604866627880962 -0.23764007105407861 0 0.25547565355231122 -0.22703460401764641 0 0.24859496721272961 -0.23300378089183149 0 0.25547565355231122 -0.22703460401764641 0 0.25720104477585221 -0.21196902114597399 0 0.2419152879183234 -0.22037968856361209 0 0.25720104477585221 -0.21196902114597399 0 0.27139648593834742 -0.20993138003271039 0 0.26089994960762752 -0.19988634795844959 0 0.28758995270239363 -0.20468227010221021 0 0.27353340223470279 -0.22856840236464351 0 0.27139648593834742 -0.20993138003271039 0 0.28758995270239363 -0.20468227010221021 0 0.27353340223470279 -0.22856840236464351 0 0.27353340223470279 -0.22856840236464351 0 0.25720104477585221 -0.21196902114597399 0 0.27139648593834742 -0.20993138003271039 0 0.28758995270239363 -0.20468227010221021 0 0.27139648593834742 -0.20993138003271039 0 0.2726289833889301 -0.19581696543736851 0 0.28758995270239363 -0.20468227010221021 0 0.28251371084305149 -0.18905513046186551 0 0.2726289833889301 -0.19581696543736851 0 0.28251371084305149 -0.18905513046186551 0 0.2726289833889301 -0.19581696543736851 0 0.26264369943201932 -0.1837227364519653 0 0.28758995270239363 -0.20468227010221021 0 0.2726289833889301 -0.19581696543736851 0 0.27139648593834742 -0.20993138003271039 0 0.2726289833889301 -0.19581696543736851 0 0.26089994960762752 -0.19988634795844959 0 0.2726289833889301 -0.19581696543736851 0 0.26089994960762752 -0.19988634795844959 0 0.25767171328458632 -0.1869454239680024 0 0.2726289833889301 -0.19581696543736851 0 0.25767171328458632 -0.1869454239680024 0 0.2726289833889301 -0.19581696543736851 0 0.25767171328458632 -0.1869454239680024 0 0.26264369943201932 -0.1837227364519653 0 0.25720104477585221 -0.21196902114597399 0 0.26089994960762752 -0.19988634795844959 0 0.24560152065042229 -0.19476894920819199 0 0.25767171328458632 -0.1869454239680024 0 0.24560152065042229 -0.19476894920819199 0 0.26089994960762752 -0.19988634795844959 0 0.25767171328458632 -0.1869454239680024 0 0.24560152065042229 -0.19476894920819199 0 0.25767171328458632 -0.1869454239680024 0 0.24758840129134971 -0.18096475237000409 0 0.24560152065042229 -0.19476894920819199 0 0.25767171328458632 -0.1869454239680024 0 0.24758840129134971 -0.18096475237000409 0 0.25767171328458632 -0.1869454239680024 0 0.25685166507621648 -0.1788833402810043 0 0.24758840129134971 -0.18096475237000409 0 0.25767171328458632 -0.1869454239680024 0 0.26264369943201932 -0.1837227364519653 0 0.25767171328458632 -0.1869454239680024 0 0.26264369943201932 -0.1837227364519653 0 0.25685166507621648 -0.1788833402810043 0 0.26264369943201932 -0.1837227364519653 0 0.26307713877213601 -0.17765755263543001 0 0.25685166507621648 -0.1788833402810043 0 0.26264369943201932 -0.1837227364519653 0 0.26307713877213601 -0.17765755263543001 0 0.26879063656731472 -0.17973848207546589 0 0.26307713877213601 -0.17765755263543001 0 0.25685166507621648 -0.1788833402810043 0 0.25868502051964781 -0.1687861294944959 0 0.26307713877213601 -0.17765755263543001 0 0.25868502051964781 -0.1687861294944959 0 0.26683704038469119 -0.17149066567921289 0 0.25685166507621648 -0.1788833402810043 0 0.25868502051964781 -0.1687861294944959 0 0.24758840129134971 -0.18096475237000409 0 0.25109267461351931 -0.15661820748076841 0 0.25868502051964781 -0.1687861294944959 0 0.24758840129134971 -0.18096475237000409 0 0.25109267461351931 -0.15661820748076841 0 0.25868502051964781 -0.1687861294944959 0 0.27033090709886021 -0.16151269902570059 0 0.25868502051964781 -0.1687861294944959 0 0.26683704038469119 -0.17149066567921289 0 0.27033090709886021 -0.16151269902570059 0 0.26683704038469119 -0.17149066567921289 0 0.27033090709886021 -0.16151269902570059 0 0.27447643375284841 -0.1726006398973908 0 0.27033090709886021 -0.16151269902570059 0 0.27447643375284841 -0.1726006398973908 0 0.28664953327531051 -0.16816371057238241 0 0.27033090709886021 -0.16151269902570059 0 0.28506474680253779 -0.1516719041072627 0 0.28664953327531051 -0.16816371057238241 0 0.28871357064734399 -0.1887283694741515 0 0.26264369943201932 -0.1837227364519653 0 0.27647329449374081 -0.18113868639892899 0 0.28871357064734399 -0.1887283694741515 0 0.26264369943201932 -0.1837227364519653 0 0.27447643375284841 -0.1726006398973908 0 0.28208158787870918 -0.17685479101361101 0 0.28664953327531051 -0.16816371057238241 0 0.28251371084305149 -0.18905513046186551 0 0.28871357064734399 -0.1887283694741515 0 0.26264369943201932 -0.1837227364519653 0 0.27447643375284841 -0.1726006398973908 0 0.27647329449374081 -0.18113868639892899 0 0.28208158787870918 -0.17685479101361101 0 0.27647329449374081 -0.18113868639892899 0 0.28376705290213011 -0.18154981308486159 0 0.28208158787870918 -0.17685479101361101 0 0.26264369943201932 -0.1837227364519653 0 0.27647329449374081 -0.18113868639892899 0 0.26879063656731472 -0.17973848207546589 0 0.26264369943201932 -0.1837227364519653 0 0.26879063656731472 -0.17973848207546589 0 0.26307713877213601 -0.17765755263543001 0 0.26683704038469119 -0.17149066567921289 0 0.26879063656731472 -0.17973848207546589 0 0.27447643375284841 -0.1726006398973908 0 0.27647329449374081 -0.18113868639892899 0 0.26879063656731472 -0.17973848207546589 0 0.26683704038469119 -0.17149066567921289 0 0.27447643375284841 -0.1726006398973908 0 0.26879063656731472 -0.17973848207546589 0 0.26334346789530799 -0.1211051133148047 0 0.25459694793568571 -0.13227166259153231 0 0.2706863548104228 -0.14709466444870339 0 0.25109267461351931 -0.15661820748076841 0 0.25459694793568571 -0.13227166259153231 0 0.2706863548104228 -0.14709466444870339 0 0.25109267461351931 -0.15661820748076841 0 0.25459694793568571 -0.13227166259153231 0 0.25109267461351931 -0.15661820748076841 0 0.27033090709886021 -0.16151269902570059 0 0.2706863548104228 -0.14709466444870339 0 0.27033090709886021 -0.16151269902570059 0 0.2706863548104228 -0.14709466444870339 0 0.28506474680253779 -0.1516719041072627 0 0.2706863548104228 -0.14709466444870339 0 0.28478614489763743 -0.13695205611771999 0 0.28506474680253779 -0.1516719041072627 0 0.27738995412979478 -0.1191328915681357 0 0.2706863548104228 -0.14709466444870339 0 0.28478614489763743 -0.13695205611771999 0 0.27738995412979478 -0.1191328915681357 0 0.26334346789530799 -0.1211051133148047 0 0.2706863548104228 -0.14709466444870339 0 0.27738995412979478 -0.1191328915681357 0 0.2706863548104228 -0.14709466444870339 0 0.27738995412979478 -0.1191328915681357 0 0.29415124534651771 -0.12630703125603421 0 0.28478614489763743 -0.13695205611771999 0 0.29415124534651771 -0.12630703125603421 0 0.28478614489763743 -0.13695205611771999 0 0.29663842339891378 -0.14055378920846401 0 0.29663842339891378 -0.14055378920846401 0 0.28506474680253779 -0.1516719041072627 0 0.3026896427656553 -0.15730046104832429 0 0.28478614489763743 -0.13695205611771999 0 0.29663842339891378 -0.14055378920846401 0 0.28506474680253779 -0.1516719041072627 0 0.29663842339891378 -0.14055378920846401 0 0.31030808429965367 -0.13670441398284769 0 0.3026896427656553 -0.15730046104832429 0 0.31030808429965367 -0.13670441398284769 0 0.3026896427656553 -0.15730046104832429 0 0.31982199701781322 -0.15622001218205289 0 0.30775715073629989 -0.1165406791790415 0 0.29415124534651771 -0.12630703125603421 0 0.31030808429965367 -0.13670441398284769 0 0.29415124534651771 -0.12630703125603421 0 0.29663842339891378 -0.14055378920846401 0 0.31030808429965367 -0.13670441398284769 0 0.2880833027237823 -0.17884593212009389 0 0.28664953327531051 -0.16816371057238241 0 0.29938295766749068 -0.17668095215261331 0 0.28871357064734399 -0.1887283694741515 0 0.2880833027237823 -0.17884593212009389 0 0.29938295766749068 -0.17668095215261331 0 0.28871357064734399 -0.1887283694741515 0 0.28376705290213011 -0.18154981308486159 0 0.2880833027237823 -0.17884593212009389 0 0.28871357064734399 -0.1887283694741515 0 0.27647329449374081 -0.18113868639892899 0 0.28376705290213011 -0.18154981308486159 0 0.28376705290213011 -0.18154981308486159 0 0.28208158787870918 -0.17685479101361101 0 0.2880833027237823 -0.17884593212009389 0 0.28208158787870918 -0.17685479101361101 0 0.2880833027237823 -0.17884593212009389 0 0.28664953327531051 -0.16816371057238241 0 0.28506474680253779 -0.1516719041072627 0 0.28664953327531051 -0.16816371057238241 0 0.3026896427656553 -0.15730046104832429 0 0.28664953327531051 -0.16816371057238241 0 0.3026896427656553 -0.15730046104832429 0 0.29938295766749068 -0.17668095215261331 0 0.3026896427656553 -0.15730046104832429 0 0.29938295766749068 -0.17668095215261331 0 0.31501485313626021 -0.17262531653432811 0 0.28871357064734399 -0.1887283694741515 0 0.29938295766749068 -0.17668095215261331 0 0.31478344186266899 -0.1937340024963361 0 0.29938295766749068 -0.17668095215261331 0 0.31501485313626021 -0.17262531653432811 0 0.31478344186266899 -0.1937340024963361 0 0.31501485313626021 -0.17262531653432811 0 0.32825101082281483 -0.1831010300051977 0 0.31478344186266899 -0.1937340024963361 0 0.31501485313626021 -0.17262531653432811 0 0.32516006868111869 -0.16871544132144439 0 0.32825101082281483 -0.1831010300051977 0 0.3026896427656553 -0.15730046104832429 0 0.31501485313626021 -0.17262531653432811 0 0.31982199701781322 -0.15622001218205289 0 0.31501485313626021 -0.17262531653432811 0 0.32516006868111869 -0.16871544132144439 0 0.31982199701781322 -0.15622001218205289 0 0.32516006868111869 -0.16871544132144439 0 0.33537128222289853 -0.15775055474841679 0 0.31982199701781322 -0.15622001218205289 0 0.32516006868111869 -0.16871544132144439 0 0.33537128222289853 -0.15775055474841679 0 0.33838535277360682 -0.1709152638560946 0 0.33537128222289853 -0.15775055474841679 0 0.33838535277360682 -0.1709152638560946 0 0.34687208359749372 -0.15991032689485821 0 0.33838535277360682 -0.1709152638560946 0 0.32825101082281483 -0.1831010300051977 0 0.3453043925797617 -0.18388135124819741 0 0.32516006868111869 -0.16871544132144439 0 0.33838535277360682 -0.1709152638560946 0 0.32825101082281483 -0.1831010300051977 0 0.30775715073629989 -0.1165406791790415 0 0.31030808429965367 -0.13670441398284769 0 0.32026213110087398 -0.12706399386165049 0 0.32026213110087398 -0.12706399386165049 0 0.32387698764230849 -0.14021543190993499 0 0.33574754029321152 -0.12988225329870881 0 0.31030808429965367 -0.13670441398284769 0 0.32026213110087398 -0.12706399386165049 0 0.32387698764230849 -0.14021543190993499 0 0.31030808429965367 -0.13670441398284769 0 0.32387698764230849 -0.14021543190993499 0 0.31982199701781322 -0.15622001218205289 0 0.32387698764230849 -0.14021543190993499 0 0.31982199701781322 -0.15622001218205289 0 0.33539853892825849 -0.1449582019314615 0 0.33537128222289853 -0.15775055474841679 0 0.31982199701781322 -0.15622001218205289 0 0.33539853892825849 -0.1449582019314615 0 0.33537128222289853 -0.15775055474841679 0 0.33539853892825849 -0.1449582019314615 0 0.34834664964393619 -0.14457556225562951 0 0.33537128222289853 -0.15775055474841679 0 0.34834664964393619 -0.14457556225562951 0 0.34687208359749372 -0.15991032689485821 0 0.32387698764230849 -0.14021543190993499 0 0.33539853892825849 -0.1449582019314615 0 0.33574754029321152 -0.12988225329870881 0 0.33539853892825849 -0.1449582019314615 0 0.33574754029321152 -0.12988225329870881 0 0.34834664964393619 -0.14457556225562951 0 0.35242014803044769 -0.1217304135404752 0 0.33574754029321152 -0.12988225329870881 0 0.34834664964393619 -0.14457556225562951 0 0.35242014803044769 -0.1217304135404752 0 0.34834664964393619 -0.14457556225562951 0 0.36537957128349507 -0.13419004920824329 0 0.34834664964393619 -0.14457556225562951 0 0.36399292602534189 -0.1481945620058597 0 0.35744675598624098 -0.15845826325662701 0 0.34834664964393619 -0.14457556225562951 0 0.36399292602534189 -0.1481945620058597 0 0.36537957128349507 -0.13419004920824329 0 0.34834664964393619 -0.14457556225562951 0 0.34687208359749372 -0.15991032689485821 0 0.35744675598624098 -0.15845826325662701 0 0.36399292602534189 -0.1481945620058597 0 0.35744675598624098 -0.15845826325662701 0 0.3657982569538813 -0.1573349678726072 0 0.37283666177674318 -0.1527402864107259 0 0.36399292602534189 -0.1481945620058597 0 0.3657982569538813 -0.1573349678726072 0 0.37283666177674318 -0.1527402864107259 0 0.37402975506368769 -0.1419079862981116 0 0.36399292602534189 -0.1481945620058597 0 0.37402975506368769 -0.1419079862981116 0 0.36399292602534189 -0.1481945620058597 0 0.36537957128349507 -0.13419004920824329 0 0.37402975506368769 -0.1419079862981116 0 0.36537957128349507 -0.13419004920824329 0 0.3828801169731042 -0.13100368621167649 0 0.35563102841080901 -0.1784152336954721 0 0.34957724431939152 -0.17043878188221451 0 0.35939760052508313 -0.17049099964061959 0 0.35563102841080901 -0.1784152336954721 0 0.35721901172797738 -0.18749369134679311 0 0.3453043925797617 -0.18388135124819741 0 0.35563102841080901 -0.1784152336954721 0 0.35721901172797738 -0.18749369134679311 0 0.363914260703042 -0.17829640447339151 0 0.35563102841080901 -0.1784152336954721 0 0.3453043925797617 -0.18388135124819741 0 0.34957724431939152 -0.17043878188221451 0 0.33838535277360682 -0.1709152638560946 0 0.3453043925797617 -0.18388135124819741 0 0.34957724431939152 -0.17043878188221451 0 0.33838535277360682 -0.1709152638560946 0 0.34957724431939152 -0.17043878188221451 0 0.34687208359749372 -0.15991032689485821 0 0.34957724431939152 -0.17043878188221451 0 0.34687208359749372 -0.15991032689485821 0 0.35744675598624098 -0.15845826325662701 0 0.34957724431939152 -0.17043878188221451 0 0.35744675598624098 -0.15845826325662701 0 0.35939760052508313 -0.17049099964061959 0 0.35744675598624098 -0.15845826325662701 0 0.35939760052508313 -0.17049099964061959 0 0.3639552842573448 -0.1638739262026736 0 0.37039729737839622 -0.1629123864995807 0 0.37104229256850002 -0.17279122317402851 0 0.38070889334978381 -0.1569599660865349 0 0.36673651044312228 -0.17017301374393359 0 0.3639552842573448 -0.1638739262026736 0 0.37039729737839622 -0.1629123864995807 0 0.35939760052508313 -0.17049099964061959 0 0.36673651044312228 -0.17017301374393359 0 0.3639552842573448 -0.1638739262026736 0 0.35744675598624098 -0.15845826325662701 0 0.3639552842573448 -0.1638739262026736 0 0.3657982569538813 -0.1573349678726072 0 0.3639552842573448 -0.1638739262026736 0 0.3657982569538813 -0.1573349678726072 0 0.37039729737839622 -0.1629123864995807 0 0.37283666177674318 -0.1527402864107259 0 0.3657982569538813 -0.1573349678726072 0 0.37039729737839622 -0.1629123864995807 0 0.37283666177674318 -0.1527402864107259 0 0.37039729737839622 -0.1629123864995807 0 0.38070889334978381 -0.1569599660865349 0 0.36673651044312228 -0.17017301374393359 0 0.37039729737839622 -0.1629123864995807 0 0.37104229256850002 -0.17279122317402851 0 0.37104229256850002 -0.17279122317402851 0 0.363914260703042 -0.17829640447339151 0 0.36821080054735777 -0.1842429095870792 0 0.36673651044312228 -0.17017301374393359 0 0.37104229256850002 -0.17279122317402851 0 0.363914260703042 -0.17829640447339151 0 0.35939760052508313 -0.17049099964061959 0 0.36673651044312228 -0.17017301374393359 0 0.363914260703042 -0.17829640447339151 0 0.35563102841080901 -0.1784152336954721 0 0.35939760052508313 -0.17049099964061959 0 0.363914260703042 -0.17829640447339151 0 0.35721901172797738 -0.18749369134679311 0 0.363914260703042 -0.17829640447339151 0 0.36821080054735777 -0.1842429095870792 0 0.37104229256850002 -0.17279122317402851 0 0.36821080054735777 -0.1842429095870792 0 0.37568561275684192 -0.1833380478456777 0 0.36821080054735777 -0.1842429095870792 0 0.36795750935340721 -0.19210457484997701 0 0.37568561275684192 -0.1833380478456777 0 0.36795750935340721 -0.19210457484997701 0 0.37066233216389999 -0.20971612960482031 0 0.37568561275684192 -0.1833380478456777 0 0.37066233216389999 -0.20971612960482031 0 0.37568561275684192 -0.1833380478456777 0 0.36795750935340721 -0.19210457484997701 0 0.37066233216389999 -0.20971612960482031 0 0.36692318429331922 -0.20374526854070529 0 0.36795750935340721 -0.19210457484997701 0 0.36692318429331922 -0.20374526854070529 0 0.35836697059564759 -0.19650334104691969 0 0.35721901172797738 -0.18749369134679311 0 0.36821080054735777 -0.1842429095870792 0 0.36795750935340721 -0.19210457484997701 0 0.35721901172797738 -0.18749369134679311 0 0.36795750935340721 -0.19210457484997701 0 0.35836697059564759 -0.19650334104691969 0 0.37066233216389999 -0.20971612960482031 0 0.37121704246297021 -0.22171167897753979 0 0.37541127820741271 -0.21550712447267811 0 0.36692318429331922 -0.20374526854070529 0 0.36244674196334697 -0.2125160979402885 0 0.35257114685756619 -0.20938165340440501 0 0.37066233216389999 -0.20971612960482031 0 0.36692318429331922 -0.20374526854070529 0 0.36244674196334697 -0.2125160979402885 0 0.35257114685756619 -0.20938165340440501 0 0.34092290810520359 -0.21702040400056499 0 0.35087958374404238 -0.2267618919220952 0 0.35257114685756619 -0.20938165340440501 0 0.34085331307799421 -0.19873963551852081 0 0.34092290810520359 -0.21702040400056499 0 0.36692318429331922 -0.20374526854070529 0 0.35257114685756619 -0.20938165340440501 0 0.34085331307799421 -0.19873963551852081 0 0.35836697059564759 -0.19650334104691969 0 0.35043592199534518 -0.1916545047901077 0 0.34085331307799421 -0.19873963551852081 0 0.36692318429331922 -0.20374526854070529 0 0.35836697059564759 -0.19650334104691969 0 0.34085331307799421 -0.19873963551852081 0 0.36692318429331922 -0.20374526854070529 0 0.34085331307799421 -0.19873963551852081 0 0.35721901172797738 -0.18749369134679311 0 0.35836697059564759 -0.19650334104691969 0 0.35043592199534518 -0.1916545047901077 0 0.3453043925797617 -0.18388135124819741 0 0.35043592199534518 -0.1916545047901077 0 0.34085331307799421 -0.19873963551852081 0 0.35721901172797738 -0.18749369134679311 0 0.3453043925797617 -0.18388135124819741 0 0.35043592199534518 -0.1916545047901077 0 0.32825101082281483 -0.1831010300051977 0 0.3453043925797617 -0.18388135124819741 0 0.34085331307799421 -0.19873963551852081 0 0.34085331307799421 -0.19873963551852081 0 0.34092290810520359 -0.21702040400056499 0 0.32778343331861098 -0.21239588467042159 0 0.32778343331861098 -0.21239588467042159 0 0.31580171156773401 -0.2068557588735179 0 0.31478344186266899 -0.1937340024963361 0 0.32778343331861098 -0.21239588467042159 0 0.31879350121220718 -0.21556217343596781 0 0.31580171156773401 -0.2068557588735179 0 0.31159086487827092 -0.21091847716254161 0 0.30966480868234469 -0.21778386565717539 0 0.31879350121220718 -0.21556217343596781 0 0.31159086487827092 -0.21091847716254161 0 0.31879350121220718 -0.21556217343596781 0 0.31580171156773401 -0.2068557588735179 0 0.34085331307799421 -0.19873963551852081 0 0.32778343331861098 -0.21239588467042159 0 0.31478344186266899 -0.1937340024963361 0 0.32825101082281483 -0.1831010300051977 0 0.34085331307799421 -0.19873963551852081 0 0.31478344186266899 -0.1937340024963361 0 0.34085331307799421 -0.19873963551852081 0 0.31478344186266899 -0.1937340024963361 0 0.32682050174518029 -0.24955349531325069 0 0.31711594554138117 -0.23038109012425639 0 0.33174336387141667 -0.2308792244076143 0 0.31190427799393577 -0.2444835791803108 0 0.32682050174518029 -0.24955349531325069 0 0.31711594554138117 -0.23038109012425639 0 0.31190427799393577 -0.2444835791803108 0 0.32682050174518029 -0.24955349531325069 0 0.31648922666598089 -0.25427677803669729 0 0.32778343331861098 -0.21239588467042159 0 0.31879350121220718 -0.21556217343596781 0 0.33174336387141667 -0.2308792244076143 0 0.30966480868234469 -0.21778386565717539 0 0.33174336387141667 -0.2308792244076143 0 0.30966480868234469 -0.21778386565717539 0 0.31711594554138117 -0.23038109012425639 0 0.33174336387141667 -0.2308792244076143 0 0.30966480868234469 -0.21778386565717539 0 0.31879350121220718 -0.21556217343596781 0 0.33174336387141667 -0.2308792244076143 0 0.34092290810520359 -0.21702040400056499 0 0.32778343331861098 -0.21239588467042159 0 0.33174336387141667 -0.2308792244076143 0 0.34092290810520359 -0.21702040400056499 0 0.33174336387141667 -0.2308792244076143 0 0.35087958374404238 -0.2267618919220952 0 0.33174336387141667 -0.2308792244076143 0 0.34098124289931692 -0.2473907441440355 0 0.35382191906048838 -0.24397458315805309 0 0.32682050174518029 -0.24955349531325069 0 0.33174336387141667 -0.2308792244076143 0 0.34098124289931692 -0.2473907441440355 0 0.33174336387141667 -0.2308792244076143 0 0.35382191906048838 -0.24397458315805309 0 0.34098124289931692 -0.2473907441440355 0 0.35382191906048838 -0.24397458315805309 0 0.3529780150046396 -0.25623695494404197 0 0.35799628222134039 -0.23667635335522341 0 0.35382191906048838 -0.24397458315805309 0 0.35087958374404238 -0.2267618919220952 0 0.35799628222134039 -0.23667635335522341 0 0.35382191906048838 -0.24397458315805309 0 0.36215192651987482 -0.2433968849943382 0 0.35257114685756619 -0.20938165340440501 0 0.35087958374404238 -0.2267618919220952 0 0.36563905157095822 -0.23609421136396291 0 0.35257114685756619 -0.20938165340440501 0 0.36563905157095822 -0.23609421136396291 0 0.33174336387141667 -0.2308792244076143 0 0.35382191906048838 -0.24397458315805309 0 0.35087958374404238 -0.2267618919220952 0 0.35799628222134039 -0.23667635335522341 0 0.35087958374404238 -0.2267618919220952 0 0.36563905157095822 -0.23609421136396291 0 0.37066233216389999 -0.20971612960482031 0 0.37121704246297021 -0.22171167897753979 0 0.36563905157095822 -0.23609421136396291 0 0.37066233216389999 -0.20971612960482031 0 0.36244674196334697 -0.2125160979402885 0 0.36563905157095822 -0.23609421136396291 0 0.36244674196334697 -0.2125160979402885 0 0.35257114685756619 -0.20938165340440501 0 0.36563905157095822 -0.23609421136396291 0 0.37066233216389999 -0.20971612960482031 0 0.36563905157095822 -0.23609421136396291 0 0.36965611802507092 -0.2286952871513262 0 0.37121704246297021 -0.22171167897753979 0 0.36563905157095822 -0.23609421136396291 0 0.37033948956462448 -0.233362587670676 0 0.36965611802507092 -0.2286952871513262 0 0.36563905157095822 -0.23609421136396291 0 0.37033948956462448 -0.233362587670676 0 0.36965611802507092 -0.2286952871513262 0 0.37515835703003009 -0.23291936168639049 0 0.37033948956462448 -0.233362587670676 0 0.37090443163243891 -0.23574149048102441 0 0.37515835703003009 -0.23291936168639049 0 0.36965611802507092 -0.2286952871513262 0 0.37515835703003009 -0.23291936168639049 0 0.37555415275616277 -0.22597922839895659 0 0.37121704246297021 -0.22171167897753979 0 0.37555415275616277 -0.22597922839895659 0 0.37541127820741271 -0.21550712447267811 0 0.36965611802507092 -0.2286952871513262 0 0.37121704246297021 -0.22171167897753979 0 0.37555415275616277 -0.22597922839895659 0 0.36563905157095822 -0.23609421136396291 0 0.37590047424956041 -0.25706994190849181 0 0.36563905157095822 -0.23609421136396291 0 0.36511129788161978 -0.23886553375149081 0 0.37590047424956041 -0.25706994190849181 0 0.36215192651987482 -0.2433968849943382 0 0.36511129788161978 -0.23886553375149081 0 0.37590047424956041 -0.25706994190849181 0 0.36563905157095822 -0.23609421136396291 0 0.37390568687916459 -0.2404100345648055 0 0.37590047424956041 -0.25706994190849181 0 0.35382191906048838 -0.24397458315805309 0 0.36215192651987482 -0.2433968849943382 0 0.37590047424956041 -0.25706994190849181 0 0.35799628222134039 -0.23667635335522341 0 0.36215192651987482 -0.2433968849943382 0 0.36511129788161978 -0.23886553375149081 0 0.35799628222134039 -0.23667635335522341 0 0.36563905157095822 -0.23609421136396291 0 0.36511129788161978 -0.23886553375149081 0 0.36563905157095822 -0.23609421136396291 0 0.36511129788161978 -0.23886553375149081 0 0.36563905157095822 -0.23609421136396291 0 0.37090443163243891 -0.23574149048102441 0 0.37390568687916459 -0.2404100345648055 0 0.37033948956462448 -0.233362587670676 0 0.36563905157095822 -0.23609421136396291 0 0.37090443163243891 -0.23574149048102441 0 0.37090443163243891 -0.23574149048102441 0 0.37390568687916459 -0.2404100345648055 0 0.37515835703003009 -0.23291936168639049 0 0.38192611991283532 -0.240225167384158 0 0.39168753075096008 -0.24847846598148179 0 0.37590047424956041 -0.25706994190849181 0 0.37390568687916459 -0.2404100345648055 0 0.38192611991283532 -0.240225167384158 0 0.37590047424956041 -0.25706994190849181 0 0.37390568687916459 -0.2404100345648055 0 0.38192611991283532 -0.240225167384158 0 0.37515835703003009 -0.23291936168639049 0 0.38192611991283532 -0.240225167384158 0 0.39168753075096008 -0.24847846598148179 0 0.39208966260862071 -0.23326808136267119 0 0.39168753075096008 -0.24847846598148179 0 0.40639732824300939 -0.2346753678507191 0 0.40368999320980448 -0.25885463682806681 0 0.39168753075096008 -0.24847846598148179 0 0.39208966260862071 -0.23326808136267119 0 0.40639732824300939 -0.2346753678507191 0 0.39504271919517719 -0.2101679797901394 0 0.40639732824300939 -0.2346753678507191 0 0.39504271919517719 -0.2101679797901394 0 0.40639732824300939 -0.2346753678507191 0 0.41385929787996278 -0.2204721391333255 0 0.39208966260862071 -0.23326808136267119 0 0.39504271919517719 -0.2101679797901394 0 0.40639732824300939 -0.2346753678507191 0 0.39208966260862071 -0.23326808136267119 0 0.38252642945538268 -0.2249830811971536 0 0.39504271919517719 -0.2101679797901394 0 0.38192611991283532 -0.240225167384158 0 0.39208966260862071 -0.23326808136267119 0 0.38252642945538268 -0.2249830811971536 0 0.38192611991283532 -0.240225167384158 0 0.37515835703003009 -0.23291936168639049 0 0.38252642945538268 -0.2249830811971536 0 0.37515835703003009 -0.23291936168639049 0 0.38252642945538268 -0.2249830811971536 0 0.37555415275616277 -0.22597922839895659 0 0.38252642945538268 -0.2249830811971536 0 0.37555415275616277 -0.22597922839895659 0 0.37541127820741271 -0.21550712447267811 0 0.37066233216389999 -0.20971612960482031 0 0.37541127820741271 -0.21550712447267811 0 0.382156311392021 -0.21296418185839819 0 0.38252642945538268 -0.2249830811971536 0 0.37541127820741271 -0.21550712447267811 0 0.382156311392021 -0.21296418185839819 0 0.37066233216389999 -0.20971612960482031 0 0.382156311392021 -0.21296418185839819 0 0.38152602574859129 -0.2004259826129911 0 0.382156311392021 -0.21296418185839819 0 0.38152602574859129 -0.2004259826129911 0 0.39504271919517719 -0.2101679797901394 0 0.38252642945538268 -0.2249830811971536 0 0.382156311392021 -0.21296418185839819 0 0.39504271919517719 -0.2101679797901394 0 0.38152602574859129 -0.2004259826129911 0 0.37568561275684192 -0.1833380478456777 0 0.383688110147345 -0.18566059172955959 0 0.37066233216389999 -0.20971612960482031 0 0.38152602574859129 -0.2004259826129911 0 0.37568561275684192 -0.1833380478456777 0 0.39504271919517719 -0.2101679797901394 0 0.383688110147345 -0.18566059172955959 0 0.38152602574859129 -0.2004259826129911 0 0.39504271919517719 -0.2101679797901394 0 0.383688110147345 -0.18566059172955959 0 0.39727105386538852 -0.1942514946822918 0 0.39504271919517719 -0.2101679797901394 0 0.383688110147345 -0.18566059172955959 0 0.39727105386538852 -0.1942514946822918 0 0.39504271919517719 -0.2101679797901394 0 0.40954743075393257 -0.19599752992738409 0 0.39727105386538852 -0.1942514946822918 0 0.383688110147345 -0.18566059172955959 0 0.39517686816993919 -0.1846759171661031 0 0.39727105386538852 -0.1942514946822918 0 0.40954743075393257 -0.19599752992738409 0 0.40445943718475258 -0.18699605300558811 0 0.39727105386538852 -0.1942514946822918 0 0.39517686816993919 -0.1846759171661031 0 0.40445943718475258 -0.18699605300558811 0 0.39504271919517719 -0.2101679797901394 0 0.41877722876786289 -0.20705734694769401 0 0.41385929787996278 -0.2204721391333255 0 0.39504271919517719 -0.2101679797901394 0 0.41877722876786289 -0.20705734694769401 0 0.40954743075393257 -0.19599752992738409 0 0.41877722876786289 -0.20705734694769401 0 0.42906575467141322 -0.21829916958449619 0 0.41385929787996278 -0.2204721391333255 0 0.40954743075393257 -0.19599752992738409 0 0.42552467899893631 -0.1944363554121869 0 0.41405325976252128 -0.18195238762165189 0 0.41877722876786289 -0.20705734694769401 0 0.40954743075393257 -0.19599752992738409 0 0.42552467899893631 -0.1944363554121869 0 0.40954743075393257 -0.19599752992738409 0 0.40445943718475258 -0.18699605300558811 0 0.41405325976252128 -0.18195238762165189 0 0.41877722876786289 -0.20705734694769401 0 0.42552467899893631 -0.1944363554121869 0 0.44067150520352422 -0.20206200720425249 0 0.42552467899893631 -0.1944363554121869 0 0.4356448622359379 -0.19319053377679229 0 0.44067150520352422 -0.20206200720425249 0 0.42552467899893631 -0.1944363554121869 0 0.4356448622359379 -0.19319053377679229 0 0.43485300510944702 -0.18302475084634701 0 0.42906575467141322 -0.21829916958449619 0 0.44241997121374282 -0.21668123066151451 0 0.44067150520352422 -0.20206200720425249 0 0.41877722876786289 -0.20705734694769401 0 0.42906575467141322 -0.21829916958449619 0 0.44067150520352422 -0.20206200720425249 0 0.42906575467141322 -0.21829916958449619 0 0.42317851995924288 -0.2299458703015422 0 0.43957573181623388 -0.23123162565754399 0 0.42906575467141322 -0.21829916958449619 0 0.43957573181623388 -0.23123162565754399 0 0.44241997121374282 -0.21668123066151451 0 0.42906575467141322 -0.21829916958449619 0 0.42317851995924288 -0.2299458703015422 0 0.41385929787996278 -0.2204721391333255 0 0.42317851995924288 -0.2299458703015422 0 0.42735745294670707 -0.24479703997061281 0 0.43957573181623388 -0.23123162565754399 0 0.42735745294670707 -0.24479703997061281 0 0.44471263750215001 -0.24382473634597601 0 0.43761246407711379 -0.25872720511164488 0 0.42735745294670707 -0.24479703997061281 0 0.44471263750215001 -0.24382473634597601 0 0.43957573181623388 -0.23123162565754399 0 0.42735745294670707 -0.24479703997061281 0 0.40639732824300939 -0.2346753678507191 0 0.41775193729084159 -0.2591827559112988 0 0.42317851995924288 -0.2299458703015422 0 0.42735745294670707 -0.24479703997061281 0 0.40639732824300939 -0.2346753678507191 0 0.40639732824300939 -0.2346753678507191 0 0.41775193729084159 -0.2591827559112988 0 0.42317851995924288 -0.2299458703015422 0 0.40639732824300939 -0.2346753678507191 0 0.41385929787996278 -0.2204721391333255 0 0.39596035370790128 -0.1218519766653101 0 0.40075495947777828 -0.13691137312776011 0 0.41868959145111351 -0.1277033120736947 0 0.39596035370790128 -0.1218519766653101 0 0.40075495947777828 -0.13691137312776011 0 0.3828801169731042 -0.13100368621167649 0 0.40075495947777828 -0.13691137312776011 0 0.3828801169731042 -0.13100368621167649 0 0.38505949925975441 -0.14341134765405289 0 0.37402975506368769 -0.1419079862981116 0 0.3828801169731042 -0.13100368621167649 0 0.38505949925975441 -0.14341134765405289 0 0.37283666177674318 -0.1527402864107259 0 0.38505949925975441 -0.14341134765405289 0 0.39549765446228319 -0.15285811419975051 0 0.37283666177674318 -0.1527402864107259 0 0.39549765446228319 -0.15285811419975051 0 0.37283666177674318 -0.1527402864107259 0 0.39549765446228319 -0.15285811419975051 0 0.38070889334978381 -0.1569599660865349 0 0.37283666177674318 -0.1527402864107259 0 0.37402975506368769 -0.1419079862981116 0 0.38505949925975441 -0.14341134765405289 0 0.40075495947777828 -0.13691137312776011 0 0.39549765446228319 -0.15285811419975051 0 0.41815864714782308 -0.15297594198877509 0 0.40075495947777828 -0.13691137312776011 0 0.38505949925975441 -0.14341134765405289 0 0.39549765446228319 -0.15285811419975051 0 0.39549765446228319 -0.15285811419975051 0 0.39509538447314518 -0.1665645562900426 0 0.40855382663282008 -0.16741128652175349 0 0.39509538447314518 -0.1665645562900426 0 0.40044666229533288 -0.17811184990318921 0 0.40855382663282008 -0.16741128652175349 0 0.39549765446228319 -0.15285811419975051 0 0.39509538447314518 -0.1665645562900426 0 0.38788304903993542 -0.16247481745599579 0 0.39549765446228319 -0.15285811419975051 0 0.38788304903993542 -0.16247481745599579 0 0.38070889334978381 -0.1569599660865349 0 0.38070889334978381 -0.1569599660865349 0 0.37568561275684192 -0.1833380478456777 0 0.38788304903993542 -0.16247481745599579 0 0.38070889334978381 -0.1569599660865349 0 0.38355556592164408 -0.17116941130362329 0 0.37104229256850002 -0.17279122317402851 0 0.38070889334978381 -0.1569599660865349 0 0.37568561275684192 -0.1833380478456777 0 0.38070889334978381 -0.1569599660865349 0 0.38355556592164408 -0.17116941130362329 0 0.37568561275684192 -0.1833380478456777 0 0.39509538447314518 -0.1665645562900426 0 0.38788304903993542 -0.16247481745599579 0 0.38355556592164408 -0.17116941130362329 0 0.38355556592164408 -0.17116941130362329 0 0.38961072212907272 -0.17836022392209661 0 0.38313500273872592 -0.17963206870023929 0 0.39509538447314518 -0.1665645562900426 0 0.38355556592164408 -0.17116941130362329 0 0.38961072212907272 -0.17836022392209661 0 0.38355556592164408 -0.17116941130362329 0 0.38313500273872592 -0.17963206870023929 0 0.37568561275684192 -0.1833380478456777 0 0.38313500273872592 -0.17963206870023929 0 0.37568561275684192 -0.1833380478456777 0 0.383688110147345 -0.18566059172955959 0 0.38961072212907272 -0.17836022392209661 0 0.383688110147345 -0.18566059172955959 0 0.39517686816993919 -0.1846759171661031 0 0.38961072212907272 -0.17836022392209661 0 0.38313500273872592 -0.17963206870023929 0 0.383688110147345 -0.18566059172955959 0 0.38961072212907272 -0.17836022392209661 0 0.39517686816993919 -0.1846759171661031 0 0.40044666229533288 -0.17811184990318921 0 0.39509538447314518 -0.1665645562900426 0 0.38961072212907272 -0.17836022392209661 0 0.40044666229533288 -0.17811184990318921 0 0.39517686816993919 -0.1846759171661031 0 0.40044666229533288 -0.17811184990318921 0 0.40445943718475258 -0.18699605300558811 0 0.41405325976252128 -0.18195238762165189 0 0.42527432189149911 -0.16965941914508281 0 0.40855382663282008 -0.16741128652175349 0 0.40044666229533288 -0.17811184990318921 0 0.40445943718475258 -0.18699605300558811 0 0.41405325976252128 -0.18195238762165189 0 0.40044666229533288 -0.17811184990318921 0 0.41405325976252128 -0.18195238762165189 0 0.40855382663282008 -0.16741128652175349 0 0.41405325976252128 -0.18195238762165189 0 0.42476373081772872 -0.18048872387514431 0 0.42527432189149911 -0.16965941914508281 0 0.42552467899893631 -0.1944363554121869 0 0.41405325976252128 -0.18195238762165189 0 0.42476373081772872 -0.18048872387514431 0 0.42552467899893631 -0.1944363554121869 0 0.42476373081772872 -0.18048872387514431 0 0.43485300510944702 -0.18302475084634701 0 0.43485300510944702 -0.18302475084634701 0 0.42527432189149911 -0.16965941914508281 0 0.44137328897058659 -0.17111167975530819 0 0.4356448622359379 -0.19319053377679229 0 0.43485300510944702 -0.18302475084634701 0 0.44127675436506492 -0.1852873544401332 0 0.42476373081772872 -0.18048872387514431 0 0.43485300510944702 -0.18302475084634701 0 0.42527432189149911 -0.16965941914508281 0 0.42527432189149911 -0.16965941914508281 0 0.41815864714782308 -0.15297594198877509 0 0.44081963983336298 -0.1530937697777997 0 0.42527432189149911 -0.16965941914508281 0 0.44081963983336298 -0.1530937697777997 0 0.44137328897058659 -0.17111167975530819 0 0.39549765446228319 -0.15285811419975051 0 0.40855382663282008 -0.16741128652175349 0 0.41815864714782308 -0.15297594198877509 0 0.42527432189149911 -0.16965941914508281 0 0.40855382663282008 -0.16741128652175349 0 0.41815864714782308 -0.15297594198877509 0 0.39549765446228319 -0.15285811419975051 0 0.41815864714782308 -0.15297594198877509 0 0.41815864714782308 -0.15297594198877509 0 0.44081963983336298 -0.1530937697777997 0 0.41815864714782308 -0.15297594198877509 0 0.43222488366033268 -0.13910757158626391 0 0.44081963983336298 -0.1530937697777997 0 0.41815864714782308 -0.15297594198877509 0 0.43222488366033268 -0.13910757158626391 0 0.41868959145111351 -0.1277033120736947 0 0.43920955177083948 -0.12120097587351911 0 0.43222488366033268 -0.13910757158626391 0 0.41868959145111351 -0.1277033120736947 0 0.40075495947777828 -0.13691137312776011 0 0.41815864714782308 -0.15297594198877509 0 0.41868959145111351 -0.1277033120736947 0 0.46879881881572261 -0.1200633858199617 0 0.46468778800432858 -0.12696320822467061 0 0.47140396831818809 -0.12823393266148669 0 0.46468778800432858 -0.12696320822467061 0 0.45769761380670959 -0.13220089177429381 0 0.46951208911267578 -0.13361012455839319 0 0.46468778800432858 -0.12696320822467061 0 0.46951208911267578 -0.13361012455839319 0 0.47140396831818809 -0.12823393266148669 0 0.46533399955153398 -0.1393767542761879 0 0.45769761380670959 -0.13220089177429381 0 0.46010163985006303 -0.14297442533279661 0 0.46533399955153398 -0.1393767542761879 0 0.45769761380670959 -0.13220089177429381 0 0.46951208911267578 -0.13361012455839319 0 0.46533399955153398 -0.1393767542761879 0 0.46972417685438322 -0.14247270453998651 0 0.4698260334063612 -0.1383622615287661 0 0.46533399955153398 -0.1393767542761879 0 0.4698260334063612 -0.1383622615287661 0 0.46951208911267578 -0.13361012455839319 0 0.45769761380670959 -0.13220089177429381 0 0.4482248805589798 -0.1412348000197865 0 0.46010163985006303 -0.14297442533279661 0 0.455816470721429 -0.1180729686294143 0 0.46468778800432858 -0.12696320822467061 0 0.45769761380670959 -0.13220089177429381 0 0.43920955177083948 -0.12120097587351911 0 0.43222488366033268 -0.13910757158626391 0 0.4482248805589798 -0.1412348000197865 0 0.43920955177083948 -0.12120097587351911 0 0.45769761380670959 -0.13220089177429381 0 0.4482248805589798 -0.1412348000197865 0 0.44081963983336298 -0.1530937697777997 0 0.46348063251890298 -0.15321159756682429 0 0.43222488366033268 -0.13910757158626391 0 0.44081963983336298 -0.1530937697777997 0 0.4482248805589798 -0.1412348000197865 0 0.44081963983336298 -0.1530937697777997 0 0.4482248805589798 -0.1412348000197865 0 0.46348063251890298 -0.15321159756682429 0 0.4482248805589798 -0.1412348000197865 0 0.46010163985006303 -0.14297442533279661 0 0.46348063251890298 -0.15321159756682429 0 0.46010163985006303 -0.14297442533279661 0 0.4651424442790113 -0.14664011792289119 0 0.46348063251890298 -0.15321159756682429 0 0.4651424442790113 -0.14664011792289119 0 0.4670107154081331 -0.1520335940316796 0 0.46972417685438322 -0.14247270453998651 0 0.46533399955153398 -0.1393767542761879 0 0.46010163985006303 -0.14297442533279661 0 0.4651424442790113 -0.14664011792289119 0 0.46533399955153398 -0.1393767542761879 0 0.4651424442790113 -0.14664011792289119 0 0.46972417685438322 -0.14247270453998651 0 0.4651424442790113 -0.14664011792289119 0 0.4670107154081331 -0.1520335940316796 0 0.46348063251890298 -0.15321159756682429 0 0.46369508476961591 -0.16622990682319541 0 0.46276303295791632 -0.18077844567855511 0 0.47147167673417673 -0.1538989165619741 0 0.4670107154081331 -0.1520335940316796 0 0.46369508476961591 -0.16622990682319541 0 0.45384111030582858 -0.1770478006179661 0 0.4670107154081331 -0.1520335940316796 0 0.46348063251890298 -0.15321159756682429 0 0.45384111030582858 -0.1770478006179661 0 0.4670107154081331 -0.1520335940316796 0 0.45384111030582858 -0.1770478006179661 0 0.46276303295791632 -0.18077844567855511 0 0.47147167673417673 -0.1538989165619741 0 0.46348063251890298 -0.15321159756682429 0 0.44992099580172062 -0.16361999891144649 0 0.45384111030582858 -0.1770478006179661 0 0.4670107154081331 -0.1520335940316796 0 0.46369508476961591 -0.16622990682319541 0 0.47147167673417673 -0.1538989165619741 0 0.44081963983336298 -0.1530937697777997 0 0.46348063251890298 -0.15321159756682429 0 0.44992099580172062 -0.16361999891144649 0 0.44081963983336298 -0.1530937697777997 0 0.44992099580172062 -0.16361999891144649 0 0.44137328897058659 -0.17111167975530819 0 0.44992099580172062 -0.16361999891144649 0 0.44137328897058659 -0.17111167975530819 0 0.45384111030582858 -0.1770478006179661 0 0.44137328897058659 -0.17111167975530819 0 0.44127675436506492 -0.1852873544401332 0 0.45384111030582858 -0.1770478006179661 0 0.43485300510944702 -0.18302475084634701 0 0.44137328897058659 -0.17111167975530819 0 0.44127675436506492 -0.1852873544401332 0 0.45384111030582858 -0.1770478006179661 0 0.46276303295791632 -0.18077844567855511 0 0.45267862225005567 -0.19236173045548741 0 0.46369508476961591 -0.16622990682319541 0 0.45384111030582858 -0.1770478006179661 0 0.46276303295791632 -0.18077844567855511 0 0.46276303295791632 -0.18077844567855511 0 0.48189239331197348 -0.1726113727645065 0 0.47727082468868298 -0.1863561745932231 0 0.46276303295791632 -0.18077844567855511 0 0.48189239331197348 -0.1726113727645065 0 0.47693875075127973 -0.1629256412334186 0 0.48189239331197348 -0.1726113727645065 0 0.47727082468868298 -0.1863561745932231 0 0.48873051335445888 -0.18410203389298441 0 0.48189239331197348 -0.1726113727645065 0 0.48873051335445888 -0.18410203389298441 0 0.5 -0.1714692297596391 0 0.48873051335445888 -0.18410203389298441 0 0.5 -0.1714692297596391 0 0.5 -0.20065495800786889 0 0.5 -0.1714692297596391 0 0.48770320969789149 -0.15676178679837979 0 0.5 -0.1422835015114092 0 0.48189239331197348 -0.1726113727645065 0 0.5 -0.1714692297596391 0 0.48770320969789149 -0.15676178679837979 0 0.46276303295791632 -0.18077844567855511 0 0.47693875075127973 -0.1629256412334186 0 0.47147167673417673 -0.1538989165619741 0 0.48189239331197348 -0.1726113727645065 0 0.48770320969789149 -0.15676178679837979 0 0.47693875075127973 -0.1629256412334186 0 0.48770320969789149 -0.15676178679837979 0 0.47693875075127973 -0.1629256412334186 0 0.48086344105444012 -0.15057768436367719 0 0.4670107154081331 -0.1520335940316796 0 0.47147167673417673 -0.1538989165619741 0 0.48018032051043741 -0.12701938744539309 0 0.47693875075127973 -0.1629256412334186 0 0.47147167673417673 -0.1538989165619741 0 0.48086344105444012 -0.15057768436367719 0 0.48086344105444012 -0.15057768436367719 0 0.48653673524915608 -0.14410579288088071 0 0.48076575518984849 -0.13913488097021301 0 0.47147167673417673 -0.1538989165619741 0 0.48086344105444012 -0.15057768436367719 0 0.48076575518984849 -0.13913488097021301 0 0.48770320969789149 -0.15676178679837979 0 0.48086344105444012 -0.15057768436367719 0 0.48653673524915608 -0.14410579288088071 0 0.5 -0.1422835015114092 0 0.48653673524915608 -0.14410579288088071 0 0.48746243928966349 -0.1354865923806006 0 0.48770320969789149 -0.15676178679837979 0 0.5 -0.1422835015114092 0 0.48653673524915608 -0.14410579288088071 0 0.48653673524915608 -0.14410579288088071 0 0.48746243928966349 -0.1354865923806006 0 0.48076575518984849 -0.13913488097021301 0 0.48881979703981299 -0.12377846436358041 0 0.5 -0.11309777326317939 0 0.5 -0.1422835015114092 0 0.48881979703981299 -0.12377846436358041 0 0.5 -0.1422835015114092 0 0.48746243928966349 -0.1354865923806006 0 0.48881979703981299 -0.12377846436358041 0 0.48746243928966349 -0.1354865923806006 0 0.48386479518821962 -0.13144282968446869 0 0.4670107154081331 -0.1520335940316796 0 0.48018032051043741 -0.12701938744539309 0 0.48881979703981299 -0.12377846436358041 0 0.48018032051043741 -0.12701938744539309 0 0.48386479518821962 -0.13144282968446869 0 0.47147167673417673 -0.1538989165619741 0 0.48018032051043741 -0.12701938744539309 0 0.48018032051043741 -0.12701938744539309 0 0.48386479518821962 -0.13144282968446869 0 0.48076575518984849 -0.13913488097021301 0 0.47147167673417673 -0.1538989165619741 0 0.48018032051043741 -0.12701938744539309 0 0.48076575518984849 -0.13913488097021301 0 0.4670107154081331 -0.1520335940316796 0 0.46972417685438322 -0.14247270453998651 0 0.48018032051043741 -0.12701938744539309 0 0.48088062779336899 -0.1248578648839309 0 0.48018032051043741 -0.12701938744539309 0 0.48018032051043741 -0.12701938744539309 0 0.47816997590974059 -0.12525114749112409 0 0.47583386314983839 -0.12768301320320999 0 0.48088062779336899 -0.1248578648839309 0 0.48018032051043741 -0.12701938744539309 0 0.47816997590974059 -0.12525114749112409 0 0.48746243928966349 -0.1354865923806006 0 0.48386479518821962 -0.13144282968446869 0 0.48076575518984849 -0.13913488097021301 0 0.46972417685438322 -0.14247270453998651 0 0.48018032051043741 -0.12701938744539309 0 0.47317168536557658 -0.13323517873982699 0 0.46972417685438322 -0.14247270453998651 0 0.47317168536557658 -0.13323517873982699 0 0.4698260334063612 -0.1383622615287661 0 0.47317168536557658 -0.13323517873982699 0 0.4698260334063612 -0.1383622615287661 0 0.46951208911267578 -0.13361012455839319 0 0.47317168536557658 -0.13323517873982699 0 0.46951208911267578 -0.13361012455839319 0 0.47140396831818809 -0.12823393266148669 0 0.47518100696125942 -0.1238297328025003 0 0.47140396831818809 -0.12823393266148669 0 0.47583386314983839 -0.12768301320320999 0 0.47518100696125942 -0.1238297328025003 0 0.47816997590974059 -0.12525114749112409 0 0.47583386314983839 -0.12768301320320999 0 0.47317168536557658 -0.13323517873982699 0 0.47140396831818809 -0.12823393266148669 0 0.47583386314983839 -0.12768301320320999 0 0.48018032051043741 -0.12701938744539309 0 0.47317168536557658 -0.13323517873982699 0 0.47583386314983839 -0.12768301320320999 0 0.46355185101601942 -0.2265046075174299 0 0.45629048123545252 -0.23608548230037699 0 0.45308170598668551 -0.22325127117735749 0 0.46355185101601942 -0.2265046075174299 0 0.45308170598668551 -0.22325127117735749 0 0.46288359036996979 -0.21754141440366559 0 0.46355185101601942 -0.2265046075174299 0 0.46288359036996979 -0.21754141440366559 0 0.47384338700536488 -0.22111779832343961 0 0.46355185101601942 -0.2265046075174299 0 0.45629048123545252 -0.23608548230037699 0 0.47137254166719872 -0.23347659252692871 0 0.4624395086198172 -0.24723184983432059 0 0.45629048123545252 -0.23608548230037699 0 0.47137254166719872 -0.23347659252692871 0 0.4624395086198172 -0.24723184983432059 0 0.45629048123545252 -0.23608548230037699 0 0.44471263750215001 -0.24382473634597601 0 0.4624395086198172 -0.24723184983432059 0 0.44471263750215001 -0.24382473634597601 0 0.43761246407711379 -0.25872720511164488 0 0.45629048123545252 -0.23608548230037699 0 0.44471263750215001 -0.24382473634597601 0 0.43957573181623388 -0.23123162565754399 0 0.45629048123545252 -0.23608548230037699 0 0.43957573181623388 -0.23123162565754399 0 0.45308170598668551 -0.22325127117735749 0 0.43957573181623388 -0.23123162565754399 0 0.45308170598668551 -0.22325127117735749 0 0.44241997121374282 -0.21668123066151451 0 0.44241997121374282 -0.21668123066151451 0 0.44067150520352422 -0.20206200720425249 0 0.45405438918165603 -0.20765797479513609 0 0.45308170598668551 -0.22325127117735749 0 0.44241997121374282 -0.21668123066151451 0 0.45405438918165603 -0.20765797479513609 0 0.45384111030582858 -0.1770478006179661 0 0.44067150520352422 -0.20206200720425249 0 0.45267862225005567 -0.19236173045548741 0 0.4356448622359379 -0.19319053377679229 0 0.44127675436506492 -0.1852873544401332 0 0.44067150520352422 -0.20206200720425249 0 0.44127675436506492 -0.1852873544401332 0 0.45384111030582858 -0.1770478006179661 0 0.44067150520352422 -0.20206200720425249 0 0.45384111030582858 -0.1770478006179661 0 0.44067150520352422 -0.20206200720425249 0 0.44067150520352422 -0.20206200720425249 0 0.45267862225005567 -0.19236173045548741 0 0.45405438918165603 -0.20765797479513609 0 0.46276303295791632 -0.18077844567855511 0 0.45267862225005567 -0.19236173045548741 0 0.45405438918165603 -0.20765797479513609 0 0.46276303295791632 -0.18077844567855511 0 0.46786305488544389 -0.1960324760103058 0 0.45405438918165603 -0.20765797479513609 0 0.46276303295791632 -0.18077844567855511 0 0.45405438918165603 -0.20765797479513609 0 0.45308170598668551 -0.22325127117735749 0 0.45405438918165603 -0.20765797479513609 0 0.46288359036996979 -0.21754141440366559 0 0.46786305488544389 -0.1960324760103058 0 0.45405438918165603 -0.20765797479513609 0 0.4690306085221142 -0.20720302979096031 0 0.45405438918165603 -0.20765797479513609 0 0.46288359036996979 -0.21754141440366559 0 0.4690306085221142 -0.20720302979096031 0 0.46288359036996979 -0.21754141440366559 0 0.4690306085221142 -0.20720302979096031 0 0.47384338700536488 -0.22111779832343961 0 0.4690306085221142 -0.20720302979096031 0 0.48171666966558779 -0.2070918136259754 0 0.47384338700536488 -0.22111779832343961 0 0.4690306085221142 -0.20720302979096031 0 0.48171666966558779 -0.2070918136259754 0 0.47619641907685001 -0.19816675519365429 0 0.48171666966558779 -0.2070918136259754 0 0.48616444218445259 -0.21589320653519631 0 0.47384338700536488 -0.22111779832343961 0 0.46276303295791632 -0.18077844567855511 0 0.47727082468868298 -0.1863561745932231 0 0.46786305488544389 -0.1960324760103058 0 0.47727082468868298 -0.1863561745932231 0 0.46786305488544389 -0.1960324760103058 0 0.47619641907685001 -0.19816675519365429 0 0.46786305488544389 -0.1960324760103058 0 0.4690306085221142 -0.20720302979096031 0 0.47619641907685001 -0.19816675519365429 0 0.48171666966558779 -0.2070918136259754 0 0.47619641907685001 -0.19816675519365429 0 0.48475620021298171 -0.19474199136064521 0 0.47727082468868298 -0.1863561745932231 0 0.48873051335445888 -0.18410203389298441 0 0.48475620021298171 -0.19474199136064521 0 0.47727082468868298 -0.1863561745932231 0 0.47619641907685001 -0.19816675519365429 0 0.48475620021298171 -0.19474199136064521 0 0.48171666966558779 -0.2070918136259754 0 0.5 -0.20065495800786889 0 0.48475620021298171 -0.19474199136064521 0 0.48873051335445888 -0.18410203389298441 0 0.5 -0.20065495800786889 0 0.48475620021298171 -0.19474199136064521 0 0.5 -0.20065495800786889 0 0.49303843580246931 -0.22416193675547941 0 0.49999999999999473 -0.2298406862560988 0 0.48171666966558779 -0.2070918136259754 0 0.5 -0.20065495800786889 0 0.48616444218445259 -0.21589320653519631 0 0.5 -0.20065495800786889 0 0.48616444218445259 -0.21589320653519631 0 0.49303843580246931 -0.22416193675547941 0 0.49999999999999473 -0.2298406862560988 0 0.48726655316251988 -0.235736494556995 0 0.49303843580246931 -0.22416193675547941 0 0.49999999999999473 -0.2298406862560988 0 0.48726655316251988 -0.235736494556995 0 0.49303843580246931 -0.22416193675547941 0 0.48726655316251988 -0.235736494556995 0 0.49303843580246931 -0.22416193675547941 0 0.48222371844884149 -0.2264395259632182 0 0.48726655316251988 -0.235736494556995 0 0.48616444218445259 -0.21589320653519631 0 0.49303843580246931 -0.22416193675547941 0 0.48222371844884149 -0.2264395259632182 0 0.48222371844884149 -0.2264395259632182 0 0.47137254166719872 -0.23347659252692871 0 0.48726655316251988 -0.235736494556995 0 0.48616444218445259 -0.21589320653519631 0 0.48222371844884149 -0.2264395259632182 0 0.47384338700536488 -0.22111779832343961 0 0.48222371844884149 -0.2264395259632182 0 0.47137254166719872 -0.23347659252692871 0 0.47384338700536488 -0.22111779832343961 0 0.46355185101601942 -0.2265046075174299 0 0.47137254166719872 -0.23347659252692871 0 0.47384338700536488 -0.22111779832343961 0 0.48726655316251988 -0.235736494556995 0 0.47506044079563292 -0.26021383790150387 0 0.4624395086198172 -0.24723184983432059 0 0.48726655316251988 -0.235736494556995 0 0.47506044079563292 -0.26021383790150387 0 0.4624395086198172 -0.24723184983432059 0 0.47137254166719872 -0.23347659252692871 0 0.48726655316251988 -0.235736494556995 0 0.4624395086198172 -0.24723184983432059 0 0.48726655316251988 -0.235736494556995 0 0.48726655316251988 -0.235736494556995 0 0.5 -0.25402997364129792 0 0.47506044079563292 -0.26021383790150387 0 0.49999999999999473 -0.2298406862560988 0 0.48726655316251988 -0.235736494556995 0 0.5 -0.25402997364129792 0 0.5 -0.25402997364129792 0 0.5 -0.27821926102649702 0 0.47506044079563292 -0.26021383790150387 0 0.5 -0.27821926102649702 0 0.47506044079563292 -0.26021383790150387 0 0.48225440661246632 -0.28620318980507448 0 0.47506044079563292 -0.26021383790150387 0 0.46285432842874841 -0.284691181246014 0 0.47506044079563292 -0.26021383790150387 0 0.46285432842874841 -0.284691181246014 0 0.48225440661246632 -0.28620318980507448 0 0.4624395086198172 -0.24723184983432059 0 0.45882956954995607 -0.26441914534918359 0 0.44723304008267922 -0.26596855547435599 0 0.4624395086198172 -0.24723184983432059 0 0.47506044079563292 -0.26021383790150387 0 0.45882956954995607 -0.26441914534918359 0 0.47506044079563292 -0.26021383790150387 0 0.46075908486980682 -0.27441517714456132 0 0.46285432842874841 -0.284691181246014 0 0.47506044079563292 -0.26021383790150387 0 0.45882956954995607 -0.26441914534918359 0 0.46075908486980682 -0.27441517714456132 0 0.46075908486980682 -0.27441517714456132 0 0.46110160210872431 -0.28271380694347592 0 0.46285432842874841 -0.284691181246014 0 0.4560580560817481 -0.2791553122911502 0 0.46075908486980682 -0.27441517714456132 0 0.45066470244157408 -0.27555363285817719 0 0.4560580560817481 -0.2791553122911502 0 0.46075908486980682 -0.27441517714456132 0 0.46110160210872431 -0.28271380694347592 0 0.45882956954995607 -0.26441914534918359 0 0.46075908486980682 -0.27441517714456132 0 0.45066470244157408 -0.27555363285817719 0 0.45882956954995607 -0.26441914534918359 0 0.44723304008267922 -0.26596855547435599 0 0.45066470244157408 -0.27555363285817719 0 0.4560580560817481 -0.2791553122911502 0 0.45066470244157408 -0.27555363285817719 0 0.4518058256551834 -0.28572346778401198 0 0.45066470244157408 -0.27555363285817719 0 0.4393785009755023 -0.2798770404906456 0 0.4518058256551834 -0.28572346778401198 0 0.44723304008267922 -0.26596855547435599 0 0.45066470244157408 -0.27555363285817719 0 0.4393785009755023 -0.2798770404906456 0 0.44723304008267922 -0.26596855547435599 0 0.4393785009755023 -0.2798770404906456 0 0.43240126055887201 -0.27073985538172518 0 0.4624395086198172 -0.24723184983432059 0 0.44723304008267922 -0.26596855547435599 0 0.43761246407711379 -0.25872720511164488 0 0.4624395086198172 -0.24723184983432059 0 0.43761246407711379 -0.25872720511164488 0 0.44723304008267922 -0.26596855547435599 0 0.43761246407711379 -0.25872720511164488 0 0.43240126055887201 -0.27073985538172518 0 0.45289113763652811 -0.30467071563811332 0 0.44109690071763852 -0.31217523256850738 0 0.44110185502317562 -0.29557244508411479 0 0.44109690071763852 -0.31217523256850738 0 0.44110185502317562 -0.29557244508411479 0 0.43194056969987549 -0.30161192810680532 0 0.4393785009755023 -0.2798770404906456 0 0.44110185502317562 -0.29557244508411479 0 0.4518058256551834 -0.28572346778401198 0 0.45289113763652811 -0.30467071563811332 0 0.44110185502317562 -0.29557244508411479 0 0.4518058256551834 -0.28572346778401198 0 0.45289113763652811 -0.30467071563811332 0 0.4518058256551834 -0.28572346778401198 0 0.46285432842874841 -0.284691181246014 0 0.45289113763652811 -0.30467071563811332 0 0.46285432842874841 -0.284691181246014 0 0.4560580560817481 -0.2791553122911502 0 0.4518058256551834 -0.28572346778401198 0 0.46110160210872431 -0.28271380694347592 0 0.4518058256551834 -0.28572346778401198 0 0.46110160210872431 -0.28271380694347592 0 0.46285432842874841 -0.284691181246014 0 0.46110160210872431 -0.28271380694347592 0 0.46285432842874841 -0.284691181246014 0 0.45289113763652811 -0.30467071563811332 0 0.47491991550557688 -0.30295135342308971 0 0.46474857266713709 -0.32942175175517668 0 0.45289113763652811 -0.30467071563811332 0 0.46285432842874841 -0.284691181246014 0 0.47491991550557688 -0.30295135342308971 0 0.47491991550557688 -0.30295135342308971 0 0.4814271642143737 -0.30564450852145469 0 0.48044865939259651 -0.32145804549817919 0 0.46285432842874841 -0.284691181246014 0 0.47491991550557688 -0.30295135342308971 0 0.4814271642143737 -0.30564450852145469 0 0.46285432842874841 -0.284691181246014 0 0.4814271642143737 -0.30564450852145469 0 0.48225440661246632 -0.28620318980507448 0 0.46285432842874841 -0.284691181246014 0 0.4814271642143737 -0.30564450852145469 0 0.5 -0.27821926102649702 0 0.48225440661246632 -0.28620318980507448 0 0.5 -0.30240854841169612 0 0.4814271642143737 -0.30564450852145469 0 0.48225440661246632 -0.28620318980507448 0 0.5 -0.30240854841169612 0 0.4814271642143737 -0.30564450852145469 0 0.5 -0.30240854841169612 0 0.49999999999999911 -0.32659783579689522 0 0.4814271642143737 -0.30564450852145469 0 0.49999999999999911 -0.32659783579689522 0 0.48044865939259651 -0.32145804549817919 0 0.4814271642143737 -0.30564450852145469 0 0.49999999999999911 -0.32659783579689522 0 0.49999999999999911 -0.32659783579689522 0 0.4807163679180429 -0.34190404095568377 0 0.50000000000000755 -0.34377784349705981 0 0.49999999999999911 -0.32659783579689522 0 0.4807163679180429 -0.34190404095568377 0 0.48044865939259651 -0.32145804549817919 0 0.4807163679180429 -0.34190404095568377 0 0.48044865939259651 -0.32145804549817919 0 0.46474857266713709 -0.32942175175517668 0 0.47491991550557688 -0.30295135342308971 0 0.46474857266713709 -0.32942175175517668 0 0.47491991550557688 -0.30295135342308971 0 0.48044865939259651 -0.32145804549817919 0 0.46474857266713709 -0.32942175175517668 0 0.49157151743417471 -0.36165972467692847 0 0.5 -0.37057925351654192 0 0.48365226820045532 -0.37453525975670438 0 0.49157151743417471 -0.36165972467692847 0 0.48226545404560778 -0.35726208952637523 0 0.48365226820045532 -0.37453525975670438 0 0.49157151743417471 -0.36165972467692847 0 0.50000000000000755 -0.34377784349705981 0 0.48226545404560778 -0.35726208952637523 0 0.4807163679180429 -0.34190404095568377 0 0.50000000000000755 -0.34377784349705981 0 0.48226545404560778 -0.35726208952637523 0 0.49157151743417471 -0.36165972467692847 0 0.5 -0.37057925351654192 0 0.50000000000000755 -0.34377784349705981 0 0.50000000000000755 -0.34377784349705981 0 0.48226545404560778 -0.35726208952637523 0 0.4807163679180429 -0.34190404095568377 0 0.48226545404560778 -0.35726208952637523 0 0.47717065111412149 -0.36113586088627819 0 0.4807163679180429 -0.34190404095568377 0 0.47717065111412149 -0.36113586088627819 0 0.4545772298286973 -0.35589215008726388 0 0.48226545404560778 -0.35726208952637523 0 0.47717065111412149 -0.36113586088627819 0 0.48226545404560778 -0.35726208952637523 0 0.48365226820045532 -0.37453525975670438 0 0.46881576421700272 -0.38245842010539371 0 0.48226545404560778 -0.35726208952637523 0 0.47717065111412149 -0.36113586088627819 0 0.46881576421700272 -0.38245842010539371 0 0.48226545404560778 -0.35726208952637523 0 0.46881576421700272 -0.38245842010539371 0 0.47717065111412149 -0.36113586088627819 0 0.46881576421700272 -0.38245842010539371 0 0.45434130222823271 -0.37849387827549319 0 0.47717065111412149 -0.36113586088627819 0 0.4545772298286973 -0.35589215008726388 0 0.45434130222823271 -0.37849387827549319 0 0.47717065111412149 -0.36113586088627819 0 0.45434130222823271 -0.37849387827549319 0 0.4545772298286973 -0.35589215008726388 0 0.43927648583631768 -0.34539082497613999 0 0.43862862893411592 -0.36433169744461241 0 0.4545772298286973 -0.35589215008726388 0 0.44440588699025751 -0.38236254841935108 0 0.4545772298286973 -0.35589215008726388 0 0.45434130222823271 -0.37849387827549319 0 0.44440588699025751 -0.38236254841935108 0 0.4545772298286973 -0.35589215008726388 0 0.43862862893411592 -0.36433169744461241 0 0.44440588699025751 -0.38236254841935108 0 0.44109690071763852 -0.31217523256850738 0 0.46474857266713709 -0.32942175175517668 0 0.43203973621525948 -0.32721829712795097 0 0.43927648583631768 -0.34539082497613999 0 0.46474857266713709 -0.32942175175517668 0 0.43203973621525948 -0.32721829712795097 0 0.4545772298286973 -0.35589215008726388 0 0.46474857266713709 -0.32942175175517668 0 0.4807163679180429 -0.34190404095568377 0 0.4545772298286973 -0.35589215008726388 0 0.46474857266713709 -0.32942175175517668 0 0.4545772298286973 -0.35589215008726388 0 0.43927648583631768 -0.34539082497613999 0 0.46474857266713709 -0.32942175175517668 0 0.45289113763652811 -0.30467071563811332 0 0.44109690071763852 -0.31217523256850738 0 0.46474857266713709 -0.32942175175517668 0 0.44109690071763852 -0.31217523256850738 0 0.43203973621525948 -0.32721829712795097 0 0.41812547490339741 -0.30837777272129319 0 0.43203973621525948 -0.32721829712795097 0 0.41647760654741989 -0.32187898972029522 0 0.41812547490339741 -0.30837777272129319 0 0.43927648583631768 -0.34539082497613999 0 0.43203973621525948 -0.32721829712795097 0 0.4241079981652669 -0.34627954603276789 0 0.43203973621525948 -0.32721829712795097 0 0.41431171329201172 -0.33558768991199461 0 0.4241079981652669 -0.34627954603276789 0 0.41431171329201172 -0.33558768991199461 0 0.40848679632886958 -0.35231732769359841 0 0.39827613194891731 -0.33338575719626851 0 0.43203973621525948 -0.32721829712795097 0 0.41431171329201172 -0.33558768991199461 0 0.41647760654741989 -0.32187898972029522 0 0.41431171329201172 -0.33558768991199461 0 0.41647760654741989 -0.32187898972029522 0 0.40431038010691911 -0.31514361733578122 0 0.41431171329201172 -0.33558768991199461 0 0.40431038010691911 -0.31514361733578122 0 0.41647760654741989 -0.32187898972029522 0 0.40431038010691911 -0.31514361733578122 0 0.41812547490339741 -0.30837777272129319 0 0.43862862893411592 -0.36433169744461241 0 0.42668069554884752 -0.36029404157114642 0 0.42820284646645967 -0.37771892216916009 0 0.42668069554884752 -0.36029404157114642 0 0.41348779338088859 -0.36978221760864988 0 0.42820284646645967 -0.37771892216916009 0 0.43862862893411592 -0.36433169744461241 0 0.44440588699025751 -0.38236254841935108 0 0.42820284646645967 -0.37771892216916009 0 0.43927648583631768 -0.34539082497613999 0 0.43862862893411592 -0.36433169744461241 0 0.42668069554884752 -0.36029404157114642 0 0.43927648583631768 -0.34539082497613999 0 0.42668069554884752 -0.36029404157114642 0 0.4241079981652669 -0.34627954603276789 0 0.42668069554884752 -0.36029404157114642 0 0.4241079981652669 -0.34627954603276789 0 0.40848679632886958 -0.35231732769359841 0 0.41431171329201172 -0.33558768991199461 0 0.4241079981652669 -0.34627954603276789 0 0.40848679632886958 -0.35231732769359841 0 0.42668069554884752 -0.36029404157114642 0 0.40848679632886958 -0.35231732769359841 0 0.41348779338088859 -0.36978221760864988 0 0.40848679632886958 -0.35231732769359841 0 0.41348779338088859 -0.36978221760864988 0 0.39788441811146041 -0.36920154917506182 0 0.40848679632886958 -0.35231732769359841 0 0.38250533653964802 -0.35028048554378111 0 0.39827613194891731 -0.33338575719626851 0 0.40848679632886958 -0.35231732769359841 0 0.39788441811146041 -0.36920154917506182 0 0.38250533653964802 -0.35028048554378111 0 0.39788441811146041 -0.36920154917506182 0 0.38250533653964802 -0.35028048554378111 0 0.37465772597566033 -0.37187421900005468 0 0.40431038010691911 -0.31514361733578122 0 0.38209817181566502 -0.32602188868007759 0 0.40431038010691911 -0.31514361733578122 0 0.39827613194891731 -0.33338575719626851 0 0.38209817181566502 -0.32602188868007759 0 0.41431171329201172 -0.33558768991199461 0 0.40431038010691911 -0.31514361733578122 0 0.39827613194891731 -0.33338575719626851 0 0.40431038010691911 -0.31514361733578122 0 0.38209817181566502 -0.32602188868007759 0 0.3874671855311137 -0.30978419530824908 0 0.38250533653964802 -0.35028048554378111 0 0.39827613194891731 -0.33338575719626851 0 0.38209817181566502 -0.32602188868007759 0 0.38209817181566502 -0.32602188868007759 0 0.3874671855311137 -0.30978419530824908 0 0.36848479897811182 -0.30995743041100132 0 0.38231122337452289 -0.29697998389811592 0 0.3874671855311137 -0.30978419530824908 0 0.36848479897811182 -0.30995743041100132 0 0.38231122337452289 -0.29697998389811592 0 0.3874671855311137 -0.30978419530824908 0 0.39613437754931258 -0.29843076650103761 0 0.40431038010691911 -0.31514361733578122 0 0.39613437754931258 -0.29843076650103761 0 0.40431038010691911 -0.31514361733578122 0 0.39613437754931258 -0.29843076650103761 0 0.40982097810749918 -0.2991187944648126 0 0.40431038010691911 -0.31514361733578122 0 0.3874671855311137 -0.30978419530824908 0 0.39613437754931258 -0.29843076650103761 0 0.39613437754931258 -0.29843076650103761 0 0.40559606521882369 -0.28520441147656778 0 0.38795837499170738 -0.28171791566629317 0 0.39613437754931258 -0.29843076650103761 0 0.38795837499170738 -0.28171791566629317 0 0.39613437754931258 -0.29843076650103761 0 0.40559606521882369 -0.28520441147656778 0 0.40982097810749918 -0.2991187944648126 0 0.38231122337452289 -0.29697998389811592 0 0.39613437754931258 -0.29843076650103761 0 0.38795837499170738 -0.28171791566629317 0 0.38795837499170738 -0.28171791566629317 0 0.37008981880000469 -0.28999136929316971 0 0.38795837499170738 -0.28171791566629317 0 0.36993463163677781 -0.27458809313055887 0 0.37008981880000469 -0.28999136929316971 0 0.38231122337452289 -0.29697998389811592 0 0.38795837499170738 -0.28171791566629317 0 0.37008981880000469 -0.28999136929316971 0 0.38795837499170738 -0.28171791566629317 0 0.37590047424956041 -0.25706994190849181 0 0.38952406763906838 -0.26515044542776289 0 0.38795837499170738 -0.28171791566629317 0 0.37590047424956041 -0.25706994190849181 0 0.38795837499170738 -0.28171791566629317 0 0.37590047424956041 -0.25706994190849181 0 0.36993463163677781 -0.27458809313055887 0 0.39168753075096008 -0.24847846598148179 0 0.37590047424956041 -0.25706994190849181 0 0.38952406763906838 -0.26515044542776289 0 0.37590047424956041 -0.25706994190849181 0 0.38952406763906838 -0.26515044542776289 0 0.39168753075096008 -0.24847846598148179 0 0.38952406763906838 -0.26515044542776289 0 0.40368999320980448 -0.25885463682806681 0 0.38795837499170738 -0.28171791566629317 0 0.40314766102857658 -0.27323094894703398 0 0.41278541953441061 -0.27022256038896902 0 0.40559606521882369 -0.28520441147656778 0 0.38795837499170738 -0.28171791566629317 0 0.41278541953441061 -0.27022256038896902 0 0.38795837499170738 -0.28171791566629317 0 0.41278541953441061 -0.27022256038896902 0 0.38795837499170738 -0.28171791566629317 0 0.38952406763906838 -0.26515044542776289 0 0.40314766102857658 -0.27323094894703398 0 0.38952406763906838 -0.26515044542776289 0 0.40314766102857658 -0.27323094894703398 0 0.38952406763906838 -0.26515044542776289 0 0.40368999320980448 -0.25885463682806681 0 0.40314766102857658 -0.27323094894703398 0 0.40559606521882369 -0.28520441147656778 0 0.41278541953441061 -0.27022256038896902 0 0.41533931262860069 -0.28044637536020128 0 0.40368999320980448 -0.25885463682806681 0 0.40314766102857658 -0.27323094894703398 0 0.41278541953441061 -0.27022256038896902 0 0.41278541953441061 -0.27022256038896902 0 0.41533931262860069 -0.28044637536020128 0 0.42499687812465409 -0.27890391544301052 0 0.40639732824300939 -0.2346753678507191 0 0.40368999320980448 -0.25885463682806681 0 0.41775193729084159 -0.2591827559112988 0 0.40368999320980448 -0.25885463682806681 0 0.41278541953441061 -0.27022256038896902 0 0.41775193729084159 -0.2591827559112988 0 0.43761246407711379 -0.25872720511164488 0 0.41278541953441061 -0.27022256038896902 0 0.42735745294670707 -0.24479703997061281 0 0.43761246407711379 -0.25872720511164488 0 0.41775193729084159 -0.2591827559112988 0 0.43761246407711379 -0.25872720511164488 0 0.41278541953441061 -0.27022256038896902 0 0.41775193729084159 -0.2591827559112988 0 0.41278541953441061 -0.27022256038896902 0 0.42499687812465409 -0.27890391544301052 0 0.43240126055887201 -0.27073985538172518 0 0.43761246407711379 -0.25872720511164488 0 0.41278541953441061 -0.27022256038896902 0 0.43240126055887201 -0.27073985538172518 0 0.4393785009755023 -0.2798770404906456 0 0.42499687812465409 -0.27890391544301052 0 0.43240126055887201 -0.27073985538172518 0 0.4393785009755023 -0.2798770404906456 0 0.44110185502317562 -0.29557244508411479 0 0.42949819545432599 -0.28937628591660591 0 0.4393785009755023 -0.2798770404906456 0 0.42499687812465409 -0.27890391544301052 0 0.42949819545432599 -0.28937628591660591 0 0.42499687812465409 -0.27890391544301052 0 0.42949819545432599 -0.28937628591660591 0 0.4172253487811704 -0.2890524580046494 0 0.42949819545432599 -0.28937628591660591 0 0.42147638520945557 -0.29779678024781292 0 0.4172253487811704 -0.2890524580046494 0 0.42949819545432599 -0.28937628591660591 0 0.43194056969987549 -0.30161192810680532 0 0.42147638520945557 -0.29779678024781292 0 0.44110185502317562 -0.29557244508411479 0 0.42949819545432599 -0.28937628591660591 0 0.43194056969987549 -0.30161192810680532 0 0.44109690071763852 -0.31217523256850738 0 0.43194056969987549 -0.30161192810680532 0 0.41812547490339741 -0.30837777272129319 0 0.43194056969987549 -0.30161192810680532 0 0.41812547490339741 -0.30837777272129319 0 0.43194056969987549 -0.30161192810680532 0 0.42147638520945557 -0.29779678024781292 0 0.41812547490339741 -0.30837777272129319 0 0.40431038010691911 -0.31514361733578122 0 0.41812547490339741 -0.30837777272129319 0 0.40982097810749918 -0.2991187944648126 0 0.42147638520945557 -0.29779678024781292 0 0.41812547490339741 -0.30837777272129319 0 0.40982097810749918 -0.2991187944648126 0 0.40431038010691911 -0.31514361733578122 0 0.41812547490339741 -0.30837777272129319 0 0.40559606521882369 -0.28520441147656778 0 0.40982097810749918 -0.2991187944648126 0 0.4172253487811704 -0.2890524580046494 0 0.40559606521882369 -0.28520441147656778 0 0.41533931262860069 -0.28044637536020128 0 0.4172253487811704 -0.2890524580046494 0 0.41533931262860069 -0.28044637536020128 0 0.42499687812465409 -0.27890391544301052 0 0.4172253487811704 -0.2890524580046494 0 0.42147638520945557 -0.29779678024781292 0 0.40982097810749918 -0.2991187944648126 0 0.4172253487811704 -0.2890524580046494 0 0.45731550696793988 -0.47852123997755569 0 0.45315719872670279 -0.50000000000000411 0 0.43280342109505548 -0.48294377384231862 0 0.45315719872670279 -0.50000000000000411 0 0.43280342109505548 -0.48294377384231862 0 0.4305794025978551 -0.5 0 0.45731550696793988 -0.47852123997755569 0 0.43890898620177032 -0.46669632336831668 0 0.43280342109505548 -0.48294377384231862 0 0.45315719872670279 -0.50000000000000411 0 0.47657859936335301 -0.48889244679723948 0 0.45731550696793988 -0.47852123997755569 0 0.45315719872670279 -0.50000000000000411 0 0.47657859936335301 -0.48889244679723948 0 0.45315719872670279 -0.50000000000000411 0 0.47657859936335301 -0.48889244679723948 0 0.5 -0.5 0 0.47657859936335301 -0.48889244679723948 0 0.5 -0.5 0 0.50000000000000133 -0.47778489359447079 0 0.47657859936335301 -0.48889244679723948 0 0.50000000000000133 -0.47778489359447079 0 0.48213225208450122 -0.46997549072365091 0 0.47657859936335301 -0.48889244679723948 0 0.50000000000000133 -0.47778489359447079 0 0.45731550696793988 -0.47852123997755569 0 0.47657859936335301 -0.48889244679723948 0 0.48213225208450122 -0.46997549072365091 0 0.45731550696793988 -0.47852123997755569 0 0.48213225208450122 -0.46997549072365091 0 0.46914777591802398 -0.45655365137618242 0 0.48213225208450122 -0.46997549072365091 0 0.46914777591802398 -0.45655365137618242 0 0.48244286556974358 -0.44521992976539171 0 0.50000000000000133 -0.47778489359447079 0 0.48213225208450122 -0.46997549072365091 0 0.5 -0.45098348357498869 0 0.48213225208450122 -0.46997549072365091 0 0.5 -0.45098348357498869 0 0.48244286556974358 -0.44521992976539171 0 0.5 -0.45098348357498869 0 0.48244286556974358 -0.44521992976539171 0 0.5 -0.42418207355550652 0 0.46914777591802398 -0.45655365137618242 0 0.48244286556974358 -0.44521992976539171 0 0.47212611536981669 -0.42988903979675258 0 0.46914777591802398 -0.45655365137618242 0 0.45091380869319242 -0.45054433795050158 0 0.47212611536981669 -0.42988903979675258 0 0.45731550696793988 -0.47852123997755569 0 0.46914777591802398 -0.45655365137618242 0 0.45091380869319242 -0.45054433795050158 0 0.43890898620177032 -0.46669632336831668 0 0.45091380869319242 -0.45054433795050158 0 0.43005526320462972 -0.45130757813270339 0 0.45731550696793988 -0.47852123997755569 0 0.43890898620177032 -0.46669632336831668 0 0.45091380869319242 -0.45054433795050158 0 0.45091380869319242 -0.45054433795050158 0 0.44117968957852099 -0.43188217644136478 0 0.43005526320462972 -0.45130757813270339 0 0.44117968957852099 -0.43188217644136478 0 0.4549977268977618 -0.40717029827337942 0 0.42874631258908669 -0.41590615553001398 0 0.44117968957852099 -0.43188217644136478 0 0.4549977268977618 -0.40717029827337942 0 0.4549977268977618 -0.40717029827337942 0 0.43151195334234388 -0.39585189566470819 0 0.42874631258908669 -0.41590615553001398 0 0.4549977268977618 -0.40717029827337942 0 0.47212611536981669 -0.42988903979675258 0 0.47781028758943611 -0.40370707611738332 0 0.45091380869319242 -0.45054433795050158 0 0.44117968957852099 -0.43188217644136478 0 0.47212611536981669 -0.42988903979675258 0 0.44117968957852099 -0.43188217644136478 0 0.4549977268977618 -0.40717029827337942 0 0.47212611536981669 -0.42988903979675258 0 0.48244286556974358 -0.44521992976539171 0 0.47212611536981669 -0.42988903979675258 0 0.5 -0.42418207355550652 0 0.5 -0.42418207355550652 0 0.47781028758943611 -0.40370707611738332 0 0.5 -0.39738066353602419 0 0.47212611536981669 -0.42988903979675258 0 0.5 -0.42418207355550652 0 0.47781028758943611 -0.40370707611738332 0 0.47781028758943611 -0.40370707611738332 0 0.4860556640013789 -0.38573213460640948 0 0.46881576421700272 -0.38245842010539371 0 0.47781028758943611 -0.40370707611738332 0 0.5 -0.39738066353602419 0 0.4860556640013789 -0.38573213460640948 0 0.5 -0.37057925351654192 0 0.48365226820045532 -0.37453525975670438 0 0.4860556640013789 -0.38573213460640948 0 0.5 -0.37057925351654192 0 0.5 -0.39738066353602419 0 0.4860556640013789 -0.38573213460640948 0 0.48365226820045532 -0.37453525975670438 0 0.4860556640013789 -0.38573213460640948 0 0.46881576421700272 -0.38245842010539371 0 0.4549977268977618 -0.40717029827337942 0 0.46881576421700272 -0.38245842010539371 0 0.45434130222823271 -0.37849387827549319 0 0.4549977268977618 -0.40717029827337942 0 0.46881576421700272 -0.38245842010539371 0 0.4549977268977618 -0.40717029827337942 0 0.47781028758943611 -0.40370707611738332 0 0.46881576421700272 -0.38245842010539371 0 0.4549977268977618 -0.40717029827337942 0 0.45434130222823271 -0.37849387827549319 0 0.43151195334234388 -0.39585189566470819 0 0.45434130222823271 -0.37849387827549319 0 0.44440588699025751 -0.38236254841935108 0 0.43151195334234388 -0.39585189566470819 0 0.45434130222823271 -0.37849387827549319 0 0.43151195334234388 -0.39585189566470819 0 0.44440588699025751 -0.38236254841935108 0 0.42820284646645967 -0.37771892216916009 0 0.43151195334234388 -0.39585189566470819 0 0.42820284646645967 -0.37771892216916009 0 0.43151195334234388 -0.39585189566470819 0 0.40618421044880582 -0.38937924743428293 0 0.43151195334234388 -0.39585189566470819 0 0.40868260445645521 -0.41320991305392307 0 0.43151195334234388 -0.39585189566470819 0 0.40618421044880582 -0.38937924743428293 0 0.40868260445645521 -0.41320991305392307 0 0.41348779338088859 -0.36978221760864988 0 0.42820284646645967 -0.37771892216916009 0 0.40618421044880582 -0.38937924743428293 0 0.39788441811146041 -0.36920154917506182 0 0.40618421044880582 -0.38937924743428293 0 0.38021023227619999 -0.3900160768396187 0 0.41348779338088859 -0.36978221760864988 0 0.39788441811146041 -0.36920154917506182 0 0.40618421044880582 -0.38937924743428293 0 0.39788441811146041 -0.36920154917506182 0 0.38021023227619999 -0.3900160768396187 0 0.39788441811146041 -0.36920154917506182 0 0.38021023227619999 -0.3900160768396187 0 0.37465772597566033 -0.37187421900005468 0 0.40618421044880582 -0.38937924743428293 0 0.38021023227619999 -0.3900160768396187 0 0.38384507872656148 -0.4103631619413427 0 0.38021023227619999 -0.3900160768396187 0 0.38384507872656148 -0.4103631619413427 0 0.36253604644093967 -0.41083060450417558 0 0.40618421044880582 -0.38937924743428293 0 0.38384507872656148 -0.4103631619413427 0 0.40868260445645521 -0.41320991305392307 0 0.38384507872656148 -0.4103631619413427 0 0.38585325557056638 -0.43056793044313801 0 0.40868260445645521 -0.41320991305392307 0 0.38384507872656148 -0.4103631619413427 0 0.38585325557056638 -0.43056793044313801 0 0.36446947836823762 -0.42855994706569028 0 0.38585325557056638 -0.43056793044313801 0 0.40868260445645521 -0.41320991305392307 0 0.38585325557056638 -0.43056793044313801 0 0.40868260445645521 -0.41320991305392307 0 0.41420993094759828 -0.44096592697840781 0 0.40868260445645521 -0.41320991305392307 0 0.42874631258908669 -0.41590615553001398 0 0.41420993094759828 -0.44096592697840781 0 0.43151195334234388 -0.39585189566470819 0 0.40868260445645521 -0.41320991305392307 0 0.42874631258908669 -0.41590615553001398 0 0.44117968957852099 -0.43188217644136478 0 0.42874631258908669 -0.41590615553001398 0 0.41420993094759828 -0.44096592697840781 0 0.44117968957852099 -0.43188217644136478 0 0.43005526320462972 -0.45130757813270339 0 0.41420993094759828 -0.44096592697840781 0 0.43890898620177032 -0.46669632336831668 0 0.43005526320462972 -0.45130757813270339 0 0.41763614763506501 -0.47107028576541499 0 0.43005526320462972 -0.45130757813270339 0 0.40868084905447499 -0.45867684129313352 0 0.41763614763506501 -0.47107028576541499 0 0.40868084905447499 -0.45867684129313352 0 0.39636330906835959 -0.47544424816251341 0 0.41763614763506501 -0.47107028576541499 0 0.43005526320462972 -0.45130757813270339 0 0.40868084905447499 -0.45867684129313352 0 0.41420993094759828 -0.44096592697840781 0 0.40868084905447499 -0.45867684129313352 0 0.41420993094759828 -0.44096592697840781 0 0.38938024648077002 -0.4562652455995978 0 0.38585325557056638 -0.43056793044313801 0 0.41420993094759828 -0.44096592697840781 0 0.38938024648077002 -0.4562652455995978 0 0.38585325557056638 -0.43056793044313801 0 0.38938024648077002 -0.4562652455995978 0 0.36302390668467771 -0.44792594783235301 0 0.38938024648077002 -0.4562652455995978 0 0.37509047050165412 -0.47981821055961099 0 0.38938024648077002 -0.4562652455995978 0 0.37509047050165412 -0.47981821055961099 0 0.36062609470649448 -0.46818434234892048 0 0.40868084905447499 -0.45867684129313352 0 0.38938024648077002 -0.4562652455995978 0 0.39636330906835959 -0.47544424816251341 0 0.39636330906835959 -0.47544424816251341 0 0.37509047050165412 -0.47981821055961099 0 0.38938024648077002 -0.4562652455995978 0 0.39636330906835959 -0.47544424816251341 0 0.37509047050165412 -0.47981821055961099 0 0.39636330906835959 -0.47544424816251341 0 0.37509047050165412 -0.47981821055961099 0 0.38542381034015982 -0.5 0 0.38542381034015982 -0.5 0 0.40800160646900752 -0.5 0 0.40928202520721563 -0.48435725552368109 0 0.39636330906835959 -0.47544424816251341 0 0.38542381034015982 -0.5 0 0.40928202520721563 -0.48435725552368109 0 0.40800160646900752 -0.5 0 0.40928202520721563 -0.48435725552368109 0 0.4305794025978551 -0.5 0 0.39636330906835959 -0.47544424816251341 0 0.40928202520721563 -0.48435725552368109 0 0.41763614763506501 -0.47107028576541499 0 0.40928202520721563 -0.48435725552368109 0 0.41763614763506501 -0.47107028576541499 0 0.43280342109505548 -0.48294377384231862 0 0.39636330906835959 -0.47544424816251341 0 0.41763614763506501 -0.47107028576541499 0 0.43890898620177032 -0.46669632336831668 0 0.41763614763506501 -0.47107028576541499 0 0.43890898620177032 -0.46669632336831668 0 0.41763614763506501 -0.47107028576541499 0 0.43280342109505548 -0.48294377384231862 0 0.40928202520721563 -0.48435725552368109 0 0.43280342109505548 -0.48294377384231862 0 0.4305794025978551 -0.5 0 0.33198143934072838 -0.48868196800702368 0 0.31042692376026548 -0.49311384673072972 0 0.31736520891290021 -0.48264198261078278 0 0.33198143934072838 -0.48868196800702368 0 0.31042692376026548 -0.49311384673072972 0 0.31730591142177889 -0.5 0 0.33198143934072838 -0.48868196800702368 0 0.31042692376026548 -0.49311384673072972 0 0.31736520891290021 -0.48264198261078278 0 0.34019455779878888 -0.46528396522156801 0 0.32356523260431669 -0.46841494879087159 0 0.31736520891290021 -0.48264198261078278 0 0.32356523260431669 -0.46841494879087159 0 0.30951348893515868 -0.47327418749784639 0 0.34117608673699529 -0.4787689767804521 0 0.33198143934072838 -0.48868196800702368 0 0.35353595492119128 -0.4842500892833177 0 0.31736520891290021 -0.48264198261078278 0 0.34019455779878888 -0.46528396522156801 0 0.31736520891290021 -0.48264198261078278 0 0.34117608673699529 -0.4787689767804521 0 0.34019455779878888 -0.46528396522156801 0 0.31736520891290021 -0.48264198261078278 0 0.34117608673699529 -0.4787689767804521 0 0.33198143934072838 -0.48868196800702368 0 0.33198143934072838 -0.48868196800702368 0 0.35353595492119128 -0.4842500892833177 0 0.33198143934072838 -0.48868196800702368 0 0.34007596281654562 -0.5 0 0.35353595492119128 -0.4842500892833177 0 0.31730591142177889 -0.5 0 0.33198143934072838 -0.48868196800702368 0 0.34007596281654562 -0.5 0 0.34007596281654562 -0.5 0 0.36284601421131218 -0.49999999999999889 0 0.35353595492119128 -0.4842500892833177 0 0.37509047050165412 -0.47981821055961099 0 0.36284601421131218 -0.49999999999999889 0 0.35353595492119128 -0.4842500892833177 0 0.37509047050165412 -0.47981821055961099 0 0.36284601421131218 -0.49999999999999889 0 0.37509047050165412 -0.47981821055961099 0 0.38542381034015982 -0.5 0 0.36284601421131218 -0.49999999999999889 0 0.37509047050165412 -0.47981821055961099 0 0.35353595492119128 -0.4842500892833177 0 0.37509047050165412 -0.47981821055961099 0 0.35353595492119128 -0.4842500892833177 0 0.36062609470649448 -0.46818434234892048 0 0.34117608673699529 -0.4787689767804521 0 0.36062609470649448 -0.46818434234892048 0 0.34019455779878888 -0.46528396522156801 0 0.34117608673699529 -0.4787689767804521 0 0.35353595492119128 -0.4842500892833177 0 0.36062609470649448 -0.46818434234892048 0 0.36302390668467771 -0.44792594783235301 0 0.34019455779878888 -0.46528396522156801 0 0.36302390668467771 -0.44792594783235301 0 0.34378092234536811 -0.44863835946795533 0 0.34019455779878888 -0.46528396522156801 0 0.36062609470649448 -0.46818434234892048 0 0.36302390668467771 -0.44792594783235301 0 0.34019455779878888 -0.46528396522156801 0 0.38938024648077002 -0.4562652455995978 0 0.36062609470649448 -0.46818434234892048 0 0.36302390668467771 -0.44792594783235301 0 0.38585325557056638 -0.43056793044313801 0 0.36302390668467771 -0.44792594783235301 0 0.36302390668467771 -0.44792594783235301 0 0.34378092234536811 -0.44863835946795533 0 0.34486186060567942 -0.43164513216873263 0 0.32718767477041899 -0.45245965983328951 0 0.34486186060567942 -0.43164513216873263 0 0.32718767477041899 -0.45245965983328951 0 0.32358775072391421 -0.43501140405236333 0 0.34486186060567942 -0.43164513216873263 0 0.34378092234536811 -0.44863835946795533 0 0.32718767477041899 -0.45245965983328951 0 0.34486186060567942 -0.43164513216873263 0 0.34378092234536811 -0.44863835946795533 0 0.34019455779878888 -0.46528396522156801 0 0.32718767477041899 -0.45245965983328951 0 0.34019455779878888 -0.46528396522156801 0 0.32356523260431669 -0.46841494879087159 0 0.32718767477041899 -0.45245965983328951 0 0.32356523260431669 -0.46841494879087159 0 0.32718767477041899 -0.45245965983328951 0 0.30951348893515868 -0.47327418749784639 0 0.32718767477041899 -0.45245965983328951 0 0.30892837937049289 -0.45778756183825609 0 0.30951348893515868 -0.47327418749784639 0 0.32718767477041899 -0.45245965983328951 0 0.30951348893515868 -0.47327418749784639 0 0.32718767477041899 -0.45245965983328951 0 0.31266236731819502 -0.44516920691713008 0 0.32358775072391421 -0.43501140405236333 0 0.32718767477041899 -0.45245965983328951 0 0.31266236731819502 -0.44516920691713008 0 0.30892837937049289 -0.45778756183825609 0 0.31266236731819502 -0.44516920691713008 0 0.32358775072391421 -0.43501140405236333 0 0.3051515168577465 -0.43024782506315168 0 0.32358775072391421 -0.43501140405236333 0 0.31781847195306528 -0.42389573735860669 0 0.3051515168577465 -0.43024782506315168 0 0.32358775072391421 -0.43501140405236333 0 0.31781847195306528 -0.42389573735860669 0 0.33263176384893872 -0.42417522209732822 0 0.33263176384893872 -0.42417522209732822 0 0.30990285638166198 -0.40614849822158372 0 0.31781847195306528 -0.42389573735860669 0 0.33263176384893872 -0.42417522209732822 0 0.30990285638166198 -0.40614849822158372 0 0.33263176384893872 -0.42417522209732822 0 0.33873736948317418 -0.40024863029332808 0 0.30990285638166198 -0.40614849822158372 0 0.33263176384893872 -0.42417522209732822 0 0.34653669793513681 -0.41515620084416011 0 0.33873736948317418 -0.40024863029332808 0 0.33263176384893872 -0.42417522209732822 0 0.34486186060567942 -0.43164513216873263 0 0.34653669793513681 -0.41515620084416011 0 0.32358775072391421 -0.43501140405236333 0 0.33263176384893872 -0.42417522209732822 0 0.34486186060567942 -0.43164513216873263 0 0.36302390668467771 -0.44792594783235301 0 0.34486186060567942 -0.43164513216873263 0 0.36446947836823762 -0.42855994706569028 0 0.34486186060567942 -0.43164513216873263 0 0.36446947836823762 -0.42855994706569028 0 0.36253604644093967 -0.41083060450417558 0 0.38585325557056638 -0.43056793044313801 0 0.36302390668467771 -0.44792594783235301 0 0.36446947836823762 -0.42855994706569028 0 0.38384507872656148 -0.4103631619413427 0 0.36446947836823762 -0.42855994706569028 0 0.36253604644093967 -0.41083060450417558 0 0.34486186060567942 -0.43164513216873263 0 0.36253604644093967 -0.41083060450417558 0 0.34653669793513681 -0.41515620084416011 0 0.34486186060567942 -0.43164513216873263 0 0.36253604644093967 -0.41083060450417558 0 0.36253604644093967 -0.41083060450417558 0 0.34653669793513681 -0.41515620084416011 0 0.33873736948317418 -0.40024863029332808 0 0.35663819380294992 -0.38799348889083229 0 0.32353657080915288 -0.37855730859827602 0 0.3552173760440005 -0.36466415590908391 0 0.36253604644093967 -0.41083060450417558 0 0.35663819380294992 -0.38799348889083229 0 0.33873736948317418 -0.40024863029332808 0 0.38021023227619999 -0.3900160768396187 0 0.36253604644093967 -0.41083060450417558 0 0.38021023227619999 -0.3900160768396187 0 0.36253604644093967 -0.41083060450417558 0 0.35663819380294992 -0.38799348889083229 0 0.38021023227619999 -0.3900160768396187 0 0.35663819380294992 -0.38799348889083229 0 0.37465772597566033 -0.37187421900005468 0 0.35663819380294992 -0.38799348889083229 0 0.33873736948317418 -0.40024863029332808 0 0.32353657080915288 -0.37855730859827602 0 0.33873736948317418 -0.40024863029332808 0 0.32353657080915288 -0.37855730859827602 0 0.33873736948317418 -0.40024863029332808 0 0.32353657080915288 -0.37855730859827602 0 0.30990285638166198 -0.40614849822158372 0 0.32353657080915288 -0.37855730859827602 0 0.30394866581306212 -0.37949493998803491 0 0.30990285638166198 -0.40614849822158372 0 0.30394866581306212 -0.37949493998803491 0 0.30990285638166198 -0.40614849822158372 0 0.28717394891438552 -0.38812177434583928 0 0.30990285638166198 -0.40614849822158372 0 0.28717394891438552 -0.38812177434583928 0 0.28717394891438552 -0.38812177434583928 0 0.27111540511143112 -0.39932607770234008 0 0.28948719121641248 -0.40854731236816672 0 0.30990285638166198 -0.40614849822158372 0 0.28717394891438552 -0.38812177434583928 0 0.28948719121641248 -0.40854731236816672 0 0.30394866581306212 -0.37949493998803491 0 0.28717394891438552 -0.38812177434583928 0 0.29079418082497832 -0.36778113187125128 0 0.28717394891438552 -0.38812177434583928 0 0.27111540511143112 -0.39932607770234008 0 0.26444504144710868 -0.37009505047009472 0 0.28717394891438552 -0.38812177434583928 0 0.29079418082497832 -0.36778113187125128 0 0.26444504144710868 -0.37009505047009472 0 0.28717394891438552 -0.38812177434583928 0 0.26444504144710868 -0.37009505047009472 0 0.2503833331626944 -0.38618581831787258 0 0.27111540511143112 -0.39932607770234008 0 0.26444504144710868 -0.37009505047009472 0 0.2503833331626944 -0.38618581831787258 0 0.26444504144710868 -0.37009505047009472 0 0.24379305351802169 -0.37000396015286457 0 0.25522202370378388 -0.40185075717210239 0 0.27111540511143112 -0.39932607770234008 0 0.259380058922695 -0.41739695677561622 0 0.2503833331626944 -0.38618581831787258 0 0.25522202370378388 -0.40185075717210239 0 0.27111540511143112 -0.39932607770234008 0 0.27111540511143112 -0.39932607770234008 0 0.27547465210648459 -0.41490708198920251 0 0.259380058922695 -0.41739695677561622 0 0.27111540511143112 -0.39932607770234008 0 0.27547465210648459 -0.41490708198920251 0 0.28948719121641248 -0.40854731236816672 0 0.27111540511143112 -0.39932607770234008 0 0.259380058922695 -0.41739695677561622 0 0.25522202370378388 -0.40185075717210239 0 0.259380058922695 -0.41739695677561622 0 0.23913230155988591 -0.40215803607824052 0 0.26587043635710073 -0.43557793954329471 0 0.25505899797809523 -0.43830851429729889 0 0.2498154835571571 -0.4344891791770028 0 0.259380058922695 -0.41739695677561622 0 0.2474806417739033 -0.43572048340022379 0 0.259380058922695 -0.41739695677561622 0 0.2498154835571571 -0.4344891791770028 0 0.2474806417739033 -0.43572048340022379 0 0.259380058922695 -0.41739695677561622 0 0.2474806417739033 -0.43572048340022379 0 0.24350160841347729 -0.41950468365168569 0 0.259380058922695 -0.41739695677561622 0 0.26587043635710073 -0.43557793954329471 0 0.2498154835571571 -0.4344891791770028 0 0.25505899797809523 -0.43830851429729889 0 0.2498154835571571 -0.4344891791770028 0 0.2474806417739033 -0.43572048340022379 0 0.259380058922695 -0.41739695677561622 0 0.28191595317540008 -0.4343579811106873 0 0.27547465210648459 -0.41490708198920251 0 0.259380058922695 -0.41739695677561622 0 0.28191595317540008 -0.4343579811106873 0 0.259380058922695 -0.41739695677561622 0 0.26587043635710073 -0.43557793954329471 0 0.28191595317540008 -0.4343579811106873 0 0.28191595317540008 -0.4343579811106873 0 0.28948719121641248 -0.40854731236816672 0 0.3051515168577465 -0.43024782506315168 0 0.27547465210648459 -0.41490708198920251 0 0.28191595317540008 -0.4343579811106873 0 0.28948719121641248 -0.40854731236816672 0 0.31781847195306528 -0.42389573735860669 0 0.30990285638166198 -0.40614849822158372 0 0.3051515168577465 -0.43024782506315168 0 0.30990285638166198 -0.40614849822158372 0 0.28948719121641248 -0.40854731236816672 0 0.3051515168577465 -0.43024782506315168 0 0.31266236731819502 -0.44516920691713008 0 0.3051515168577465 -0.43024782506315168 0 0.2984565148684023 -0.45033958379859018 0 0.31266236731819502 -0.44516920691713008 0 0.2984565148684023 -0.45033958379859018 0 0.30892837937049289 -0.45778756183825609 0 0.30892837937049289 -0.45778756183825609 0 0.29604367942272242 -0.46513386082400349 0 0.30951348893515868 -0.47327418749784639 0 0.2984565148684023 -0.45033958379859018 0 0.30892837937049289 -0.45778756183825609 0 0.29604367942272242 -0.46513386082400349 0 0.29604367942272242 -0.46513386082400349 0 0.2784324768626617 -0.4525429060133338 0 0.28070465946129669 -0.47105589650301261 0 0.2984565148684023 -0.45033958379859018 0 0.29604367942272242 -0.46513386082400349 0 0.2784324768626617 -0.4525429060133338 0 0.28191595317540008 -0.4343579811106873 0 0.2984565148684023 -0.45033958379859018 0 0.2784324768626617 -0.4525429060133338 0 0.28191595317540008 -0.4343579811106873 0 0.3051515168577465 -0.43024782506315168 0 0.2984565148684023 -0.45033958379859018 0 0.26587043635710073 -0.43557793954329471 0 0.2784324768626617 -0.4525429060133338 0 0.25706943022422041 -0.44744645506867492 0 0.26587043635710073 -0.43557793954329471 0 0.28191595317540008 -0.4343579811106873 0 0.2784324768626617 -0.4525429060133338 0 0.26587043635710073 -0.43557793954329471 0 0.25706943022422041 -0.44744645506867492 0 0.25505899797809523 -0.43830851429729889 0 0.25706943022422041 -0.44744645506867492 0 0.25505899797809523 -0.43830851429729889 0 0.2474806417739033 -0.43572048340022379 0 0.25706943022422041 -0.44744645506867492 0 0.26086434759934718 -0.46414511433971578 0 0.23356612997687909 -0.45714698893348321 0 0.2784324768626617 -0.4525429060133338 0 0.25706943022422041 -0.44744645506867492 0 0.26086434759934718 -0.46414511433971578 0 0.2784324768626617 -0.4525429060133338 0 0.26086434759934718 -0.46414511433971578 0 0.28070465946129669 -0.47105589650301261 0 0.28070465946129669 -0.47105589650301261 0 0.26507170382505268 -0.47941080353975368 0 0.27895064269479558 -0.48443961390920498 0 0.26086434759934718 -0.46414511433971578 0 0.28070465946129669 -0.47105589650301261 0 0.26507170382505268 -0.47941080353975368 0 0.26086434759934718 -0.46414511433971578 0 0.26507170382505268 -0.47941080353975368 0 0.24649380953866401 -0.47985080816168202 0 0.26507170382505268 -0.47941080353975368 0 0.26493627547895199 -0.5 0 0.24649380953866401 -0.47985080816168202 0 0.26493627547895199 -0.5 0 0.27895064269479558 -0.48443961390920498 0 0.29183930309989842 -0.49408871516240338 0 0.26507170382505268 -0.47941080353975368 0 0.26493627547895199 -0.5 0 0.27895064269479558 -0.48443961390920498 0 0.27895064269479558 -0.48443961390920498 0 0.29183930309989842 -0.49408871516240338 0 0.29266518036777261 -0.47781420665045859 0 0.26493627547895199 -0.5 0 0.29453586002701232 -0.49999999999999861 0 0.29183930309989842 -0.49408871516240338 0 0.29453586002701232 -0.49999999999999861 0 0.29183930309989842 -0.49408871516240338 0 0.30331346524374242 -0.48750122131775808 0 0.28070465946129669 -0.47105589650301261 0 0.27895064269479558 -0.48443961390920498 0 0.29266518036777261 -0.47781420665045859 0 0.29604367942272242 -0.46513386082400349 0 0.28070465946129669 -0.47105589650301261 0 0.29266518036777261 -0.47781420665045859 0 0.29183930309989842 -0.49408871516240338 0 0.30951348893515868 -0.47327418749784639 0 0.29604367942272242 -0.46513386082400349 0 0.29266518036777261 -0.47781420665045859 0 0.30951348893515868 -0.47327418749784639 0 0.29183930309989842 -0.49408871516240338 0 0.29266518036777261 -0.47781420665045859 0 0.30951348893515868 -0.47327418749784639 0 0.31736520891290021 -0.48264198261078278 0 0.30951348893515868 -0.47327418749784639 0 0.30331346524374242 -0.48750122131775808 0 0.31736520891290021 -0.48264198261078278 0 0.29453586002701232 -0.49999999999999861 0 0.31042692376026548 -0.49311384673072972 0 0.31730591142177889 -0.5 0 0.29453586002701232 -0.49999999999999861 0 0.31042692376026548 -0.49311384673072972 0 0.31736520891290021 -0.48264198261078278 0 0.29453586002701232 -0.49999999999999861 0 0.30331346524374242 -0.48750122131775808 0 0.29183930309989842 -0.49408871516240338 0 0.30951348893515868 -0.47327418749784639 0 0.30331346524374242 -0.48750122131775808 0 0.31736520891290021 -0.48264198261078278 0 0.29453586002701232 -0.49999999999999861 0 0.33572149126155759 -0.29162412791385822 0 0.3383818594162879 -0.27552626938303509 0 0.34513340473823112 -0.28645114783405962 0 0.33572149126155759 -0.29162412791385822 0 0.32851481118148668 -0.28013679430394989 0 0.3383818594162879 -0.27552626938303509 0 0.33572149126155759 -0.29162412791385822 0 0.32701127821344489 -0.29783692252434463 0 0.32553392832891109 -0.2893380645352574 0 0.33572149126155759 -0.29162412791385822 0 0.32553392832891109 -0.2893380645352574 0 0.32851481118148668 -0.28013679430394989 0 0.33856026078738122 -0.30619773050840959 0 0.32583531458512222 -0.30836961501777788 0 0.33034780608716607 -0.32268215766046371 0 0.33572149126155759 -0.29162412791385822 0 0.33856026078738122 -0.30619773050840959 0 0.35222126260830211 -0.29826482292004619 0 0.33856026078738122 -0.30619773050840959 0 0.32701127821344489 -0.29783692252434463 0 0.32583531458512222 -0.30836961501777788 0 0.33572149126155759 -0.29162412791385822 0 0.33856026078738122 -0.30619773050840959 0 0.32701127821344489 -0.29783692252434463 0 0.32701127821344489 -0.29783692252434463 0 0.3185207090113058 -0.30219620149774978 0 0.31779373776971731 -0.29239932911542099 0 0.32701127821344489 -0.29783692252434463 0 0.32583531458512222 -0.30836961501777788 0 0.3185207090113058 -0.30219620149774978 0 0.32583531458512222 -0.30836961501777788 0 0.3185207090113058 -0.30219620149774978 0 0.31333880780484868 -0.31450614417205403 0 0.3185207090113058 -0.30219620149774978 0 0.31333880780484868 -0.31450614417205403 0 0.30812807230273642 -0.303546463122017 0 0.3185207090113058 -0.30219620149774978 0 0.31779373776971731 -0.29239932911542099 0 0.30812807230273642 -0.303546463122017 0 0.31292606884822571 -0.29241216044165153 0 0.31779373776971731 -0.29239932911542099 0 0.31862832321834877 -0.28469314881871322 0 0.32701127821344489 -0.29783692252434463 0 0.31779373776971731 -0.29239932911542099 0 0.32553392832891109 -0.2893380645352574 0 0.32553392832891109 -0.2893380645352574 0 0.31862832321834877 -0.28469314881871322 0 0.32851481118148668 -0.28013679430394989 0 0.31779373776971731 -0.29239932911542099 0 0.32553392832891109 -0.2893380645352574 0 0.31862832321834877 -0.28469314881871322 0 0.31292606884822571 -0.29241216044165153 0 0.31862832321834877 -0.28469314881871322 0 0.31220455329658792 -0.28035530054696262 0 0.31862832321834877 -0.28469314881871322 0 0.31981608099414321 -0.27290026340809892 0 0.31220455329658792 -0.28035530054696262 0 0.31981608099414321 -0.27290026340809892 0 0.32181022337001702 -0.26357157456457619 0 0.333025539191243 -0.2659654604059043 0 0.31981608099414321 -0.27290026340809892 0 0.32851481118148668 -0.28013679430394989 0 0.333025539191243 -0.2659654604059043 0 0.31862832321834877 -0.28469314881871322 0 0.31981608099414321 -0.27290026340809892 0 0.32851481118148668 -0.28013679430394989 0 0.31981608099414321 -0.27290026340809892 0 0.32181022337001702 -0.26357157456457619 0 0.30542190355479071 -0.25949846308865188 0 0.31648922666598089 -0.25427677803669729 0 0.32181022337001702 -0.26357157456457619 0 0.30542190355479071 -0.25949846308865188 0 0.32682050174518029 -0.24955349531325069 0 0.32181022337001702 -0.26357157456457619 0 0.333025539191243 -0.2659654604059043 0 0.32682050174518029 -0.24955349531325069 0 0.31648922666598089 -0.25427677803669729 0 0.32181022337001702 -0.26357157456457619 0 0.32682050174518029 -0.24955349531325069 0 0.33954241481485947 -0.25630946289721762 0 0.333025539191243 -0.2659654604059043 0 0.32682050174518029 -0.24955349531325069 0 0.34098124289931692 -0.2473907441440355 0 0.33954241481485947 -0.25630946289721762 0 0.33954241481485947 -0.25630946289721762 0 0.333025539191243 -0.2659654604059043 0 0.34639338626667349 -0.26677725091944637 0 0.32851481118148668 -0.28013679430394989 0 0.333025539191243 -0.2659654604059043 0 0.3383818594162879 -0.27552626938303509 0 0.333025539191243 -0.2659654604059043 0 0.3383818594162879 -0.27552626938303509 0 0.34639338626667349 -0.26677725091944637 0 0.3383818594162879 -0.27552626938303509 0 0.3542090056667766 -0.28038937111929868 0 0.34513340473823112 -0.28645114783405962 0 0.3383818594162879 -0.27552626938303509 0 0.34639338626667349 -0.26677725091944637 0 0.3542090056667766 -0.28038937111929868 0 0.34639338626667349 -0.26677725091944637 0 0.3542090056667766 -0.28038937111929868 0 0.35938838699958131 -0.26659167462881589 0 0.34098124289931692 -0.2473907441440355 0 0.33954241481485947 -0.25630946289721762 0 0.3529780150046396 -0.25623695494404197 0 0.33954241481485947 -0.25630946289721762 0 0.34639338626667349 -0.26677725091944637 0 0.3529780150046396 -0.25623695494404197 0 0.34639338626667349 -0.26677725091944637 0 0.3529780150046396 -0.25623695494404197 0 0.35938838699958131 -0.26659167462881589 0 0.35382191906048838 -0.24397458315805309 0 0.37590047424956041 -0.25706994190849181 0 0.3529780150046396 -0.25623695494404197 0 0.35382191906048838 -0.24397458315805309 0 0.37590047424956041 -0.25706994190849181 0 0.37590047424956041 -0.25706994190849181 0 0.3529780150046396 -0.25623695494404197 0 0.35938838699958131 -0.26659167462881589 0 0.37590047424956041 -0.25706994190849181 0 0.36993463163677781 -0.27458809313055887 0 0.35938838699958131 -0.26659167462881589 0 0.3542090056667766 -0.28038937111929868 0 0.36993463163677781 -0.27458809313055887 0 0.35938838699958131 -0.26659167462881589 0 0.37008981880000469 -0.28999136929316971 0 0.35222126260830211 -0.29826482292004619 0 0.3542090056667766 -0.28038937111929868 0 0.36993463163677781 -0.27458809313055887 0 0.37008981880000469 -0.28999136929316971 0 0.33572149126155759 -0.29162412791385822 0 0.34513340473823112 -0.28645114783405962 0 0.35222126260830211 -0.29826482292004619 0 0.3542090056667766 -0.28038937111929868 0 0.37008981880000469 -0.28999136929316971 0 0.35222126260830211 -0.29826482292004619 0 0.3542090056667766 -0.28038937111929868 0 0.34513340473823112 -0.28645114783405962 0 0.35222126260830211 -0.29826482292004619 0 0.35222126260830211 -0.29826482292004619 0 0.36848479897811182 -0.30995743041100132 0 0.34946760383353298 -0.31821031331119137 0 0.33856026078738122 -0.30619773050840959 0 0.35222126260830211 -0.29826482292004619 0 0.34946760383353298 -0.31821031331119137 0 0.38231122337452289 -0.29697998389811592 0 0.37008981880000469 -0.28999136929316971 0 0.36848479897811182 -0.30995743041100132 0 0.37008981880000469 -0.28999136929316971 0 0.35222126260830211 -0.29826482292004619 0 0.36848479897811182 -0.30995743041100132 0 0.38209817181566502 -0.32602188868007759 0 0.36848479897811182 -0.30995743041100132 0 0.35988596352441088 -0.33690016002437401 0 0.38250533653964802 -0.35028048554378111 0 0.38209817181566502 -0.32602188868007759 0 0.35988596352441088 -0.33690016002437401 0 0.38209817181566502 -0.32602188868007759 0 0.35988596352441088 -0.33690016002437401 0 0.35988596352441088 -0.33690016002437401 0 0.33552772790480268 -0.3497128059896108 0 0.34305812361170601 -0.3340682725128219 0 0.35988596352441088 -0.33690016002437401 0 0.34946760383353298 -0.31821031331119137 0 0.34305812361170601 -0.3340682725128219 0 0.36848479897811182 -0.30995743041100132 0 0.35988596352441088 -0.33690016002437401 0 0.34946760383353298 -0.31821031331119137 0 0.38250533653964802 -0.35028048554378111 0 0.37465772597566033 -0.37187421900005468 0 0.3552173760440005 -0.36466415590908391 0 0.35663819380294992 -0.38799348889083229 0 0.37465772597566033 -0.37187421900005468 0 0.3552173760440005 -0.36466415590908391 0 0.38250533653964802 -0.35028048554378111 0 0.35988596352441088 -0.33690016002437401 0 0.3552173760440005 -0.36466415590908391 0 0.35988596352441088 -0.33690016002437401 0 0.3552173760440005 -0.36466415590908391 0 0.33552772790480268 -0.3497128059896108 0 0.32353657080915288 -0.37855730859827602 0 0.3552173760440005 -0.36466415590908391 0 0.33552772790480268 -0.3497128059896108 0 0.33552772790480268 -0.3497128059896108 0 0.31384469980284441 -0.33384772320132722 0 0.30833577213513153 -0.3568659869032238 0 0.32353657080915288 -0.37855730859827602 0 0.30833577213513153 -0.3568659869032238 0 0.32353657080915288 -0.37855730859827602 0 0.33552772790480268 -0.3497128059896108 0 0.30833577213513153 -0.3568659869032238 0 0.34946760383353298 -0.31821031331119137 0 0.33034780608716607 -0.32268215766046371 0 0.34305812361170601 -0.3340682725128219 0 0.33856026078738122 -0.30619773050840959 0 0.34946760383353298 -0.31821031331119137 0 0.33034780608716607 -0.32268215766046371 0 0.33552772790480268 -0.3497128059896108 0 0.33034780608716607 -0.32268215766046371 0 0.34305812361170601 -0.3340682725128219 0 0.33552772790480268 -0.3497128059896108 0 0.33034780608716607 -0.32268215766046371 0 0.31384469980284441 -0.33384772320132722 0 0.33034780608716607 -0.32268215766046371 0 0.31384469980284441 -0.33384772320132722 0 0.31333880780484868 -0.31450614417205403 0 0.32583531458512222 -0.30836961501777788 0 0.33034780608716607 -0.32268215766046371 0 0.31333880780484868 -0.31450614417205403 0 0.30366751248130602 -0.32407744723472459 0 0.29313497346111023 -0.33517466520817157 0 0.29435156885642089 -0.31278125635734599 0 0.31384469980284441 -0.33384772320132722 0 0.31333880780484868 -0.31450614417205403 0 0.30366751248130602 -0.32407744723472459 0 0.31333880780484868 -0.31450614417205403 0 0.30366751248130602 -0.32407744723472459 0 0.29435156885642089 -0.31278125635734599 0 0.31384469980284441 -0.33384772320132722 0 0.30366751248130602 -0.32407744723472459 0 0.29313497346111023 -0.33517466520817157 0 0.31384469980284441 -0.33384772320132722 0 0.29313497346111023 -0.33517466520817157 0 0.30833577213513153 -0.3568659869032238 0 0.29313497346111023 -0.33517466520817157 0 0.27882949929972561 -0.35062795730802088 0 0.27623467587529787 -0.33045421360180871 0 0.29313497346111023 -0.33517466520817157 0 0.27793417478708887 -0.31348334351311952 0 0.29313497346111023 -0.33517466520817157 0 0.29435156885642089 -0.31278125635734599 0 0.27793417478708887 -0.31348334351311952 0 0.29313497346111023 -0.33517466520817157 0 0.27793417478708887 -0.31348334351311952 0 0.27623467587529787 -0.33045421360180871 0 0.30394866581306212 -0.37949493998803491 0 0.30833577213513153 -0.3568659869032238 0 0.29079418082497832 -0.36778113187125128 0 0.32353657080915288 -0.37855730859827602 0 0.30394866581306212 -0.37949493998803491 0 0.30833577213513153 -0.3568659869032238 0 0.29313497346111023 -0.33517466520817157 0 0.30833577213513153 -0.3568659869032238 0 0.30833577213513153 -0.3568659869032238 0 0.29079418082497832 -0.36778113187125128 0 0.27882949929972561 -0.35062795730802088 0 0.29313497346111023 -0.33517466520817157 0 0.30833577213513153 -0.3568659869032238 0 0.27882949929972561 -0.35062795730802088 0 0.29079418082497832 -0.36778113187125128 0 0.27882949929972561 -0.35062795730802088 0 0.26444504144710868 -0.37009505047009472 0 0.27882949929972561 -0.35062795730802088 0 0.25933587548722281 -0.3545498044436321 0 0.26444504144710868 -0.37009505047009472 0 0.27882949929972561 -0.35062795730802088 0 0.25933587548722281 -0.3545498044436321 0 0.26239532114825681 -0.33512286431092558 0 0.25933587548722281 -0.3545498044436321 0 0.24379305351802169 -0.37000396015286457 0 0.2472164620230014 -0.34689918997625468 0 0.25933587548722281 -0.3545498044436321 0 0.26239532114825681 -0.33512286431092558 0 0.2472164620230014 -0.34689918997625468 0 0.25933587548722281 -0.3545498044436321 0 0.26444504144710868 -0.37009505047009472 0 0.24379305351802169 -0.37000396015286457 0 0.26887941068030807 -0.31786223766880572 0 0.27793417478708887 -0.31348334351311952 0 0.27623467587529787 -0.33045421360180871 0 0.26887941068030807 -0.31786223766880572 0 0.26239532114825681 -0.33512286431092558 0 0.26887941068030807 -0.31786223766880572 0 0.27623467587529787 -0.33045421360180871 0 0.26239532114825681 -0.33512286431092558 0 0.27882949929972561 -0.35062795730802088 0 0.27623467587529787 -0.33045421360180871 0 0.26239532114825681 -0.33512286431092558 0 0.26239532114825681 -0.33512286431092558 0 0.2490852268095699 -0.33392102409692193 0 0.2472164620230014 -0.34689918997625468 0 0.26239532114825681 -0.33512286431092558 0 0.25297120626349412 -0.32156299948985739 0 0.2490852268095699 -0.33392102409692193 0 0.26887941068030807 -0.31786223766880572 0 0.26239532114825681 -0.33512286431092558 0 0.25297120626349412 -0.32156299948985739 0 0.25297120626349412 -0.32156299948985739 0 0.26169942540802887 -0.31140300775984681 0 0.24958358447595319 -0.30558518285403802 0 0.26887941068030807 -0.31786223766880572 0 0.25297120626349412 -0.32156299948985739 0 0.26169942540802887 -0.31140300775984681 0 0.27536350021236028 -0.30060161102668598 0 0.24958358447595319 -0.30558518285403802 0 0.26169942540802887 -0.31140300775984681 0 0.27536350021236028 -0.30060161102668598 0 0.24958358447595319 -0.30558518285403802 0 0.25968318531186552 -0.2926802238331922 0 0.27536350021236028 -0.30060161102668598 0 0.24958358447595319 -0.30558518285403802 0 0.25981397367271958 -0.28075583335525389 0 0.2464982632334603 -0.27454009879829749 0 0.24905141047316459 -0.29080655171753161 0 0.25968318531186552 -0.2926802238331922 0 0.25981397367271958 -0.28075583335525389 0 0.24905141047316459 -0.29080655171753161 0 0.25968318531186552 -0.2926802238331922 0 0.24905141047316459 -0.29080655171753161 0 0.24958358447595319 -0.30558518285403802 0 0.25968318531186552 -0.2926802238331922 0 0.27045505752658472 -0.28290340404235642 0 0.25981397367271958 -0.28075583335525389 0 0.27045505752658472 -0.28290340404235642 0 0.27536350021236028 -0.30060161102668598 0 0.2860014989794033 -0.27228329061645562 0 0.25968318531186552 -0.2926802238331922 0 0.27045505752658472 -0.28290340404235642 0 0.27536350021236028 -0.30060161102668598 0 0.27536350021236028 -0.30060161102668598 0 0.2860014989794033 -0.27228329061645562 0 0.26887941068030807 -0.31786223766880572 0 0.27536350021236028 -0.30060161102668598 0 0.26887941068030807 -0.31786223766880572 0 0.27793417478708887 -0.31348334351311952 0 0.27536350021236028 -0.30060161102668598 0 0.26887941068030807 -0.31786223766880572 0 0.26169942540802887 -0.31140300775984681 0 0.27536350021236028 -0.30060161102668598 0 0.27793417478708887 -0.31348334351311952 0 0.27536350021236028 -0.30060161102668598 0 0.28605696571172717 -0.30584167024205128 0 0.27536350021236028 -0.30060161102668598 0 0.29657861899103882 -0.29650047007105368 0 0.29435156885642089 -0.31278125635734599 0 0.28605696571172717 -0.30584167024205128 0 0.29657861899103882 -0.29650047007105368 0 0.29435156885642089 -0.31278125635734599 0 0.27793417478708887 -0.31348334351311952 0 0.28605696571172717 -0.30584167024205128 0 0.27536350021236028 -0.30060161102668598 0 0.28605696571172717 -0.30584167024205128 0 0.29657861899103882 -0.29650047007105368 0 0.27536350021236028 -0.30060161102668598 0 0.29657861899103882 -0.29650047007105368 0 0.2860014989794033 -0.27228329061645562 0 0.29657861899103882 -0.29650047007105368 0 0.29946378391381462 -0.28234772552905341 0 0.2860014989794033 -0.27228329061645562 0 0.31292606884822571 -0.29241216044165153 0 0.29657861899103882 -0.29650047007105368 0 0.29946378391381462 -0.28234772552905341 0 0.31779373776971731 -0.29239932911542099 0 0.29657861899103882 -0.29650047007105368 0 0.31292606884822571 -0.29241216044165153 0 0.31779373776971731 -0.29239932911542099 0 0.29657861899103882 -0.29650047007105368 0 0.31292606884822571 -0.29241216044165153 0 0.29946378391381462 -0.28234772552905341 0 0.31220455329658792 -0.28035530054696262 0 0.31292606884822571 -0.29241216044165153 0 0.29946378391381462 -0.28234772552905341 0 0.31333880780484868 -0.31450614417205403 0 0.29435156885642089 -0.31278125635734599 0 0.30812807230273642 -0.303546463122017 0 0.31779373776971731 -0.29239932911542099 0 0.29657861899103882 -0.29650047007105368 0 0.30812807230273642 -0.303546463122017 0 0.29435156885642089 -0.31278125635734599 0 0.29657861899103882 -0.29650047007105368 0 0.30812807230273642 -0.303546463122017 0 0.2986392538129925 -0.2386416256303415 0 0.30542190355479071 -0.25949846308865188 0 0.29232037639619679 -0.25546245812339807 0 0.30542190355479071 -0.25949846308865188 0 0.29831610365437677 -0.26984701532435368 0 0.29232037639619679 -0.25546245812339807 0 0.31190427799393577 -0.2444835791803108 0 0.31648922666598089 -0.25427677803669729 0 0.30542190355479071 -0.25949846308865188 0 0.30542190355479071 -0.25949846308865188 0 0.31220455329658792 -0.28035530054696262 0 0.30542190355479071 -0.25949846308865188 0 0.31220455329658792 -0.28035530054696262 0 0.29831610365437677 -0.26984701532435368 0 0.31981608099414321 -0.27290026340809892 0 0.30542190355479071 -0.25949846308865188 0 0.31220455329658792 -0.28035530054696262 0 0.29946378391381462 -0.28234772552905341 0 0.31220455329658792 -0.28035530054696262 0 0.29831610365437677 -0.26984701532435368 0 0.29831610365437677 -0.26984701532435368 0 0.2860014989794033 -0.27228329061645562 0 0.29232037639619679 -0.25546245812339807 0 0.29946378391381462 -0.28234772552905341 0 0.29831610365437677 -0.26984701532435368 0 0.2860014989794033 -0.27228329061645562 0 0.29946378391381462 -0.28234772552905341 0 0.2860014989794033 -0.27228329061645562 0 0.2860014989794033 -0.27228329061645562 0 0.29232037639619679 -0.25546245812339807 0 0.28549328188577372 -0.25758189878432841 0 0.2860014989794033 -0.27228329061645562 0 0.28549328188577372 -0.25758189878432841 0 0.27338195181852248 -0.26284888838489318 0 0.2860014989794033 -0.27228329061645562 0 0.29232037639619679 -0.25546245812339807 0 0.28775566876567132 -0.24773239159837401 0 0.27680877294631062 -0.24899911994685131 0 0.28549328188577372 -0.25758189878432841 0 0.28775566876567132 -0.24773239159837401 0 0.29232037639619679 -0.25546245812339807 0 0.28549328188577372 -0.25758189878432841 0 0.27680877294631062 -0.24899911994685131 0 0.27338195181852248 -0.26284888838489318 0 0.25948394019375548 -0.25245870320507519 0 0.27680877294631062 -0.24899911994685131 0 0.28549328188577372 -0.25758189878432841 0 0.27338195181852248 -0.26284888838489318 0 0.28549328188577372 -0.25758189878432841 0 0.27338195181852248 -0.26284888838489318 0 0.27338195181852248 -0.26284888838489318 0 0.25948394019375548 -0.25245870320507519 0 0.27045505752658472 -0.28290340404235642 0 0.27338195181852248 -0.26284888838489318 0 0.25981397367271958 -0.28075583335525389 0 0.27045505752658472 -0.28290340404235642 0 0.2860014989794033 -0.27228329061645562 0 0.27338195181852248 -0.26284888838489318 0 0.2860014989794033 -0.27228329061645562 0 0.27338195181852248 -0.26284888838489318 0 0.27338195181852248 -0.26284888838489318 0 0.25981397367271958 -0.28075583335525389 0 0.2464982632334603 -0.27454009879829749 0 0.27338195181852248 -0.26284888838489318 0 0.2464982632334603 -0.27454009879829749 0 0.25948394019375548 -0.25245870320507519 0 0.2464982632334603 -0.27454009879829749 0 0.27338195181852248 -0.26284888838489318 0 0.25948394019375548 -0.25245870320507519 0 0.2464982632334603 -0.27454009879829749 0 0.23950280625400669 -0.25457042338899433 0 0.2464982632334603 -0.27454009879829749 0 0.22390014774157049 -0.26071666101880309 0 0.25948394019375548 -0.25245870320507519 0 0.23950280625400669 -0.25457042338899433 0 0.2464982632334603 -0.27454009879829749 0 0.2464982632334603 -0.27454009879829749 0 0.21890351387070089 -0.27301987452563298 0 0.2205103224151353 -0.28584176535929617 0 0.2464982632334603 -0.27454009879829749 0 0.2205103224151353 -0.28584176535929617 0 0.2464982632334603 -0.27454009879829749 0 0.21890351387070089 -0.27301987452563298 0 0.22390014774157049 -0.26071666101880309 0 0.22390014774157049 -0.26071666101880309 0 0.20866135617038001 -0.25253480068667589 0 0.22423064551238969 -0.24470156761890671 0 0.23950280625400669 -0.25457042338899433 0 0.22390014774157049 -0.26071666101880309 0 0.22423064551238969 -0.24470156761890671 0 0.22390014774157049 -0.26071666101880309 0 0.20866135617038001 -0.25253480068667589 0 0.20808120298041499 -0.26595869153389251 0 0.20866135617038001 -0.25253480068667589 0 0.20808120298041499 -0.26595869153389251 0 0.19672989175414121 -0.25641070296266899 0 0.21890351387070089 -0.27301987452563298 0 0.22390014774157049 -0.26071666101880309 0 0.20808120298041499 -0.26595869153389251 0 0.21890351387070089 -0.27301987452563298 0 0.20808120298041499 -0.26595869153389251 0 0.20061736623367149 -0.27877693998404768 0 0.21890351387070089 -0.27301987452563298 0 0.20061736623367149 -0.27877693998404768 0 0.2205103224151353 -0.28584176535929617 0 0.19884909592208469 -0.26823775882500261 0 0.20061736623367149 -0.27877693998404768 0 0.18996792272011109 -0.27180470081940128 0 0.20808120298041499 -0.26595869153389251 0 0.19884909592208469 -0.26823775882500261 0 0.20061736623367149 -0.27877693998404768 0 0.20061736623367149 -0.27877693998404768 0 0.18996792272011109 -0.27180470081940128 0 0.1918730383455389 -0.28671531901594388 0 0.18996792272011109 -0.27180470081940128 0 0.19672989175414121 -0.25641070296266899 0 0.20866135617038001 -0.25253480068667589 0 0.19672989175414121 -0.25641070296266899 0 0.19024478969452249 -0.2488102975229548 0 0.19884909592208469 -0.26823775882500261 0 0.18996792272011109 -0.27180470081940128 0 0.19672989175414121 -0.25641070296266899 0 0.18996792272011109 -0.27180470081940128 0 0.19672989175414121 -0.25641070296266899 0 0.18426646505336319 -0.26077244284745349 0 0.19672989175414121 -0.25641070296266899 0 0.18426646505336319 -0.26077244284745349 0 0.19024478969452249 -0.2488102975229548 0 0.20808120298041499 -0.26595869153389251 0 0.19884909592208469 -0.26823775882500261 0 0.19672989175414121 -0.25641070296266899 0 0.1930522039427375 -0.30157363275541788 0 0.18637598460299939 -0.32169160449341072 0 0.1930522039427375 -0.30157363275541788 0 0.18637598460299939 -0.32169160449341072 0 0.18477420179901091 -0.30880076886002722 0 0.20275662001492761 -0.30081718157691001 0 0.1930522039427375 -0.30157363275541788 0 0.19452238159680951 -0.29714343192029252 0 0.20275662001492761 -0.30081718157691001 0 0.1930522039427375 -0.30157363275541788 0 0.202780553809362 -0.31577643934552219 0 0.1930522039427375 -0.30157363275541788 0 0.202780553809362 -0.31577643934552219 0 0.1938495367075318 -0.31465584825337028 0 0.1930522039427375 -0.30157363275541788 0 0.202780553809362 -0.31577643934552219 0 0.1930522039427375 -0.30157363275541788 0 0.19105156749102289 -0.2986528236798448 0 0.18477420179901091 -0.30880076886002722 0 0.1930522039427375 -0.30157363275541788 0 0.19452238159680951 -0.29714343192029252 0 0.19105156749102289 -0.2986528236798448 0 0.1930522039427375 -0.30157363275541788 0 0.19452238159680951 -0.29714343192029252 0 0.1930522039427375 -0.30157363275541788 0 0.19105156749102289 -0.2986528236798448 0 0.19452238159680951 -0.29714343192029252 0 0.19105156749102289 -0.2986528236798448 0 0.19452238159680951 -0.29714343192029252 0 0.19105156749102289 -0.2986528236798448 0 0.1918730383455389 -0.28671531901594388 0 0.19105156749102289 -0.2986528236798448 0 0.1918730383455389 -0.28671531901594388 0 0.18320595368608239 -0.28719869867613401 0 0.20061736623367149 -0.27877693998404768 0 0.19452238159680951 -0.29714343192029252 0 0.20061736623367149 -0.27877693998404768 0 0.19452238159680951 -0.29714343192029252 0 0.1918730383455389 -0.28671531901594388 0 0.18996792272011109 -0.27180470081940128 0 0.1918730383455389 -0.28671531901594388 0 0.18320595368608239 -0.28719869867613401 0 0.20275662001492761 -0.30081718157691001 0 0.2093231554298102 -0.30284062497635122 0 0.2205103224151353 -0.28584176535929617 0 0.20275662001492761 -0.30081718157691001 0 0.19452238159680951 -0.29714343192029252 0 0.2205103224151353 -0.28584176535929617 0 0.2093231554298102 -0.30284062497635122 0 0.2198900931300079 -0.30169856419711683 0 0.2205103224151353 -0.28584176535929617 0 0.19452238159680951 -0.29714343192029252 0 0.2205103224151353 -0.28584176535929617 0 0.20061736623367149 -0.27877693998404768 0 0.19452238159680951 -0.29714343192029252 0 0.2205103224151353 -0.28584176535929617 0 0.2093231554298102 -0.30284062497635122 0 0.2134246587411654 -0.31161966103397298 0 0.202780553809362 -0.31577643934552219 0 0.20275662001492761 -0.30081718157691001 0 0.2093231554298102 -0.30284062497635122 0 0.202780553809362 -0.31577643934552219 0 0.2093231554298102 -0.30284062497635122 0 0.2134246587411654 -0.31161966103397298 0 0.2198900931300079 -0.30169856419711683 0 0.2134246587411654 -0.31161966103397298 0 0.22380366873954599 -0.31056875468138961 0 0.2198900931300079 -0.30169856419711683 0 0.22380366873954599 -0.31056875468138961 0 0.2198900931300079 -0.30169856419711683 0 0.23291131550071181 -0.29764392070212092 0 0.2464982632334603 -0.27454009879829749 0 0.23291131550071181 -0.29764392070212092 0 0.2205103224151353 -0.28584176535929617 0 0.2198900931300079 -0.30169856419711683 0 0.23291131550071181 -0.29764392070212092 0 0.2205103224151353 -0.28584176535929617 0 0.2464982632334603 -0.27454009879829749 0 0.23291131550071181 -0.29764392070212092 0 0.2464982632334603 -0.27454009879829749 0 0.23291131550071181 -0.29764392070212092 0 0.24905141047316459 -0.29080655171753161 0 0.22380366873954599 -0.31056875468138961 0 0.24958358447595319 -0.30558518285403802 0 0.23852308510292919 -0.31742082563375462 0 0.22380366873954599 -0.31056875468138961 0 0.23291131550071181 -0.29764392070212092 0 0.24958358447595319 -0.30558518285403802 0 0.23291131550071181 -0.29764392070212092 0 0.24905141047316459 -0.29080655171753161 0 0.24958358447595319 -0.30558518285403802 0 0.22380366873954599 -0.31056875468138961 0 0.24958358447595319 -0.30558518285403802 0 0.25297120626349412 -0.32156299948985739 0 0.24958358447595319 -0.30558518285403802 0 0.23852308510292919 -0.31742082563375462 0 0.23852308510292919 -0.31742082563375462 0 0.23789669984092701 -0.32823006333235177 0 0.22872040885968861 -0.3210996186689653 0 0.25297120626349412 -0.32156299948985739 0 0.2490852268095699 -0.33392102409692193 0 0.23789669984092701 -0.32823006333235177 0 0.25297120626349412 -0.32156299948985739 0 0.23852308510292919 -0.31742082563375462 0 0.23789669984092701 -0.32823006333235177 0 0.2490852268095699 -0.33392102409692193 0 0.23401987216786679 -0.34191735075573249 0 0.2472164620230014 -0.34689918997625468 0 0.2490852268095699 -0.33392102409692193 0 0.23789669984092701 -0.32823006333235177 0 0.23401987216786679 -0.34191735075573249 0 0.23401987216786679 -0.34191735075573249 0 0.21875170734238381 -0.32752515911479391 0 0.22031780444917409 -0.34532095262723139 0 0.23789669984092701 -0.32823006333235177 0 0.23401987216786679 -0.34191735075573249 0 0.21875170734238381 -0.32752515911479391 0 0.22380366873954599 -0.31056875468138961 0 0.21875170734238381 -0.32752515911479391 0 0.22872040885968861 -0.3210996186689653 0 0.23789669984092701 -0.32823006333235177 0 0.21875170734238381 -0.32752515911479391 0 0.22872040885968861 -0.3210996186689653 0 0.22380366873954599 -0.31056875468138961 0 0.23852308510292919 -0.31742082563375462 0 0.22872040885968861 -0.3210996186689653 0 0.24379305351802169 -0.37000396015286457 0 0.2472164620230014 -0.34689918997625468 0 0.23173751830323769 -0.35636591604961693 0 0.23401987216786679 -0.34191735075573249 0 0.2472164620230014 -0.34689918997625468 0 0.23173751830323769 -0.35636591604961693 0 0.23401987216786679 -0.34191735075573249 0 0.22031780444917409 -0.34532095262723139 0 0.23173751830323769 -0.35636591604961693 0 0.22031780444917409 -0.34532095262723139 0 0.23173751830323769 -0.35636591604961693 0 0.21721537099877761 -0.3586032213939504 0 0.24379305351802169 -0.37000396015286457 0 0.23173751830323769 -0.35636591604961693 0 0.2266708348301853 -0.36808277429824909 0 0.24379305351802169 -0.37000396015286457 0 0.2266708348301853 -0.36808277429824909 0 0.230226282611975 -0.37777609839327198 0 0.2266708348301853 -0.36808277429824909 0 0.216547133984206 -0.36964996239604397 0 0.21721537099877761 -0.3586032213939504 0 0.23173751830323769 -0.35636591604961693 0 0.2266708348301853 -0.36808277429824909 0 0.21721537099877761 -0.3586032213939504 0 0.2266708348301853 -0.36808277429824909 0 0.230226282611975 -0.37777609839327198 0 0.2205056495648938 -0.37609748740374699 0 0.2266708348301853 -0.36808277429824909 0 0.216547133984206 -0.36964996239604397 0 0.2205056495648938 -0.37609748740374699 0 0.20756646843363341 -0.36785366393516472 0 0.21277334250419561 -0.37469990959081001 0 0.20036291634117059 -0.37297931883822588 0 0.20756646843363341 -0.36785366393516472 0 0.21277334250419561 -0.37469990959081001 0 0.216547133984206 -0.36964996239604397 0 0.21277334250419561 -0.37469990959081001 0 0.216547133984206 -0.36964996239604397 0 0.2205056495648938 -0.37609748740374699 0 0.20756646843363341 -0.36785366393516472 0 0.216547133984206 -0.36964996239604397 0 0.21721537099877761 -0.3586032213939504 0 0.20756646843363341 -0.36785366393516472 0 0.20492640476973731 -0.35630407452246482 0 0.21721537099877761 -0.3586032213939504 0 0.20756646843363341 -0.36785366393516472 0 0.20492640476973731 -0.35630407452246482 0 0.20028596017530259 -0.36326589361972411 0 0.20492640476973731 -0.35630407452246482 0 0.21721537099877761 -0.3586032213939504 0 0.21191938639990501 -0.3499026846768275 0 0.22031780444917409 -0.34532095262723139 0 0.21721537099877761 -0.3586032213939504 0 0.21191938639990501 -0.3499026846768275 0 0.22031780444917409 -0.34532095262723139 0 0.21191938639990501 -0.3499026846768275 0 0.2095585357376803 -0.33976655207296508 0 0.21191938639990501 -0.3499026846768275 0 0.20452739605230369 -0.34794461909750601 0 0.2095585357376803 -0.33976655207296508 0 0.20492640476973731 -0.35630407452246482 0 0.21191938639990501 -0.3499026846768275 0 0.20452739605230369 -0.34794461909750601 0 0.20452739605230369 -0.34794461909750601 0 0.19747889377674521 -0.35151222435165891 0 0.19840382609214671 -0.34205705485558402 0 0.19747889377674521 -0.35151222435165891 0 0.19840382609214671 -0.34205705485558402 0 0.18577484442645101 -0.35362015578942391 0 0.19747889377674521 -0.35151222435165891 0 0.1959337702332889 -0.35905736895872847 0 0.18577484442645101 -0.35362015578942391 0 0.1959337702332889 -0.35905736895872847 0 0.19160189343289191 -0.36434256226650907 0 0.18577484442645101 -0.35362015578942391 0 0.20492640476973731 -0.35630407452246482 0 0.19747889377674521 -0.35151222435165891 0 0.1959337702332889 -0.35905736895872847 0 0.20492640476973731 -0.35630407452246482 0 0.20452739605230369 -0.34794461909750601 0 0.19747889377674521 -0.35151222435165891 0 0.19160189343289191 -0.36434256226650907 0 0.18894567826943001 -0.3703237545705822 0 0.18577484442645101 -0.35362015578942391 0 0.20756646843363341 -0.36785366393516472 0 0.20028596017530259 -0.36326589361972411 0 0.199271895301356 -0.36824581846746501 0 0.20492640476973731 -0.35630407452246482 0 0.1959337702332889 -0.35905736895872847 0 0.20028596017530259 -0.36326589361972411 0 0.20028596017530259 -0.36326589361972411 0 0.19624932982528481 -0.36481632734017733 0 0.199271895301356 -0.36824581846746501 0 0.1959337702332889 -0.35905736895872847 0 0.20028596017530259 -0.36326589361972411 0 0.19624932982528481 -0.36481632734017733 0 0.1959337702332889 -0.35905736895872847 0 0.19624932982528481 -0.36481632734017733 0 0.19160189343289191 -0.36434256226650907 0 0.19624932982528481 -0.36481632734017733 0 0.19160189343289191 -0.36434256226650907 0 0.1941531299835845 -0.36916999338845963 0 0.19160189343289191 -0.36434256226650907 0 0.1941531299835845 -0.36916999338845963 0 0.18894567826943001 -0.3703237545705822 0 0.1941531299835845 -0.36916999338845963 0 0.18894567826943001 -0.3703237545705822 0 0.19181129623362531 -0.37384931594988968 0 0.1941531299835845 -0.36916999338845963 0 0.19181129623362531 -0.37384931594988968 0 0.19667509046743459 -0.37212083102149479 0 0.19181129623362531 -0.37384931594988968 0 0.19667509046743459 -0.37212083102149479 0 0.19701375154248019 -0.37593977653985938 0 0.20756646843363341 -0.36785366393516472 0 0.199271895301356 -0.36824581846746501 0 0.20036291634117059 -0.37297931883822588 0 0.19667509046743459 -0.37212083102149479 0 0.199271895301356 -0.36824581846746501 0 0.20036291634117059 -0.37297931883822588 0 0.19667509046743459 -0.37212083102149479 0 0.20036291634117059 -0.37297931883822588 0 0.19701375154248019 -0.37593977653985938 0 0.19624932982528481 -0.36481632734017733 0 0.1941531299835845 -0.36916999338845963 0 0.199271895301356 -0.36824581846746501 0 0.1941531299835845 -0.36916999338845963 0 0.19667509046743459 -0.37212083102149479 0 0.199271895301356 -0.36824581846746501 0 0.2012704522608251 -0.37461887298380059 0 0.20036291634117059 -0.37297931883822588 0 0.19701375154248019 -0.37593977653985938 0 0.21875170734238381 -0.32752515911479391 0 0.20314014454565771 -0.33036599947557438 0 0.202780553809362 -0.31577643934552219 0 0.2134246587411654 -0.31161966103397298 0 0.21875170734238381 -0.32752515911479391 0 0.202780553809362 -0.31577643934552219 0 0.2134246587411654 -0.31161966103397298 0 0.22380366873954599 -0.31056875468138961 0 0.21875170734238381 -0.32752515911479391 0 0.21875170734238381 -0.32752515911479391 0 0.22031780444917409 -0.34532095262723139 0 0.2095585357376803 -0.33976655207296508 0 0.20452739605230369 -0.34794461909750601 0 0.2095585357376803 -0.33976655207296508 0 0.19840382609214671 -0.34205705485558402 0 0.2095585357376803 -0.33976655207296508 0 0.20314014454565771 -0.33036599947557438 0 0.19840382609214671 -0.34205705485558402 0 0.21875170734238381 -0.32752515911479391 0 0.2095585357376803 -0.33976655207296508 0 0.20314014454565771 -0.33036599947557438 0 0.20314014454565771 -0.33036599947557438 0 0.19446584751662721 -0.33542009705416742 0 0.19660152893677141 -0.32541532777062959 0 0.19446584751662721 -0.33542009705416742 0 0.18928085794770491 -0.32554808734979551 0 0.18577484442645101 -0.35362015578942391 0 0.19840382609214671 -0.34205705485558402 0 0.19446584751662721 -0.33542009705416742 0 0.18577484442645101 -0.35362015578942391 0 0.18928085794770491 -0.32554808734979551 0 0.18577484442645101 -0.35362015578942391 0 0.20314014454565771 -0.33036599947557438 0 0.19840382609214671 -0.34205705485558402 0 0.19446584751662721 -0.33542009705416742 0 0.19446584751662721 -0.33542009705416742 0 0.18928085794770491 -0.32554808734979551 0 0.19660152893677141 -0.32541532777062959 0 0.1930522039427375 -0.30157363275541788 0 0.1938495367075318 -0.31465584825337028 0 0.18637598460299939 -0.32169160449341072 0 0.18928085794770491 -0.32554808734979551 0 0.19334024086450519 -0.31996601562808852 0 0.18637598460299939 -0.32169160449341072 0 0.18928085794770491 -0.32554808734979551 0 0.19660152893677141 -0.32541532777062959 0 0.19334024086450519 -0.31996601562808852 0 0.20314014454565771 -0.33036599947557438 0 0.19660152893677141 -0.32541532777062959 0 0.202780553809362 -0.31577643934552219 0 0.19660152893677141 -0.32541532777062959 0 0.202780553809362 -0.31577643934552219 0 0.19334024086450519 -0.31996601562808852 0 0.202780553809362 -0.31577643934552219 0 0.1938495367075318 -0.31465584825337028 0 0.19334024086450519 -0.31996601562808852 0 0.1938495367075318 -0.31465584825337028 0 0.19334024086450519 -0.31996601562808852 0 0.18637598460299939 -0.32169160449341072 0 0.17547211895972939 -0.32672385018590799 0 0.17133996190345269 -0.33562389115774738 0 0.16906634714180599 -0.31938829785089839 0 0.17825732084295889 -0.31651067951893558 0 0.18637598460299939 -0.32169160449341072 0 0.18477420179901091 -0.30880076886002722 0 0.17825732084295889 -0.31651067951893558 0 0.16906634714180599 -0.31938829785089839 0 0.17513393211533559 -0.30557510385252651 0 0.17825732084295889 -0.31651067951893558 0 0.17547211895972939 -0.32672385018590799 0 0.16906634714180599 -0.31938829785089839 0 0.17547211895972939 -0.32672385018590799 0 0.16906634714180599 -0.31938829785089839 0 0.17825732084295889 -0.31651067951893558 0 0.17547211895972939 -0.32672385018590799 0 0.18637598460299939 -0.32169160449341072 0 0.18928085794770491 -0.32554808734979551 0 0.17969976526326031 -0.34180957623140312 0 0.18577484442645101 -0.35362015578942391 0 0.18637598460299939 -0.32169160449341072 0 0.17969976526326031 -0.34180957623140312 0 0.17547211895972939 -0.32672385018590799 0 0.18637598460299939 -0.32169160449341072 0 0.17969976526326031 -0.34180957623140312 0 0.18928085794770491 -0.32554808734979551 0 0.18637598460299939 -0.32169160449341072 0 0.17969976526326031 -0.34180957623140312 0 0.17969976526326031 -0.34180957623140312 0 0.17133996190345269 -0.33562389115774738 0 0.16773857209687709 -0.34900696165889489 0 0.17547211895972939 -0.32672385018590799 0 0.17969976526326031 -0.34180957623140312 0 0.17133996190345269 -0.33562389115774738 0 0.17133996190345269 -0.33562389115774738 0 0.1615531837809904 -0.33649243129067469 0 0.16906634714180599 -0.31938829785089839 0 0.17133996190345269 -0.33562389115774738 0 0.1615531837809904 -0.33649243129067469 0 0.16773857209687709 -0.34900696165889489 0 0.1615531837809904 -0.33649243129067469 0 0.15797880795062269 -0.32709608634605969 0 0.16906634714180599 -0.31938829785089839 0 0.15797880795062269 -0.32709608634605969 0 0.16906634714180599 -0.31938829785089839 0 0.14931346727939299 -0.32070037442583882 0 0.16906634714180599 -0.31938829785089839 0 0.14931346727939299 -0.32070037442583882 0 0.1532819108958493 -0.30131279321977639 0 0.1615531837809904 -0.33649243129067469 0 0.16906634714180599 -0.31938829785089839 0 0.17626302522926909 -0.37044695625026702 0 0.18577484442645101 -0.35362015578942391 0 0.1822688309051971 -0.38169222422905252 0 0.18894567826943001 -0.3703237545705822 0 0.18577484442645101 -0.35362015578942391 0 0.1822688309051971 -0.38169222422905252 0 0.17626302522926909 -0.37044695625026702 0 0.1730235459235212 -0.36192754796939552 0 0.18577484442645101 -0.35362015578942391 0 0.18577484442645101 -0.35362015578942391 0 0.1822688309051971 -0.38169222422905252 0 0.17969976526326031 -0.34180957623140312 0 0.1730235459235212 -0.36192754796939552 0 0.18577484442645101 -0.35362015578942391 0 0.17969976526326031 -0.34180957623140312 0 0.1730235459235212 -0.36192754796939552 0 0.17969976526326031 -0.34180957623140312 0 0.1730235459235212 -0.36192754796939552 0 0.16773857209687709 -0.34900696165889489 0 0.1615531837809904 -0.33649243129067469 0 0.15698190755890459 -0.35544584184228162 0 0.16773857209687709 -0.34900696165889489 0 0.1730235459235212 -0.36192754796939552 0 0.15698190755890459 -0.35544584184228162 0 0.16773857209687709 -0.34900696165889489 0 0.1730235459235212 -0.36192754796939552 0 0.15698190755890459 -0.35544584184228162 0 0.16600001649619711 -0.36999675338252419 0 0.15698190755890459 -0.35544584184228162 0 0.16600001649619711 -0.36999675338252419 0 0.15267423219131929 -0.37301627225399148 0 0.16600001649619711 -0.36999675338252419 0 0.15267423219131929 -0.37301627225399148 0 0.16499488795212669 -0.38064105547770027 0 0.17626302522926909 -0.37044695625026702 0 0.1730235459235212 -0.36192754796939552 0 0.16600001649619711 -0.36999675338252419 0 0.17626302522926909 -0.37044695625026702 0 0.16600001649619711 -0.36999675338252419 0 0.17206250012204169 -0.37850284650150973 0 0.15698190755890459 -0.35544584184228162 0 0.15267423219131929 -0.37301627225399148 0 0.1356281157265547 -0.35925516298748777 0 0.15267423219131929 -0.37301627225399148 0 0.1356281157265547 -0.35925516298748777 0 0.1356426948818536 -0.38133388883961578 0 0.15698190755890459 -0.35544584184228162 0 0.1356281157265547 -0.35925516298748777 0 0.14615224303971219 -0.33836588816798252 0 0.1356281157265547 -0.35925516298748777 0 0.1246181137787972 -0.34046254718180657 0 0.1156717521575945 -0.35804023452393008 0 0.1356281157265547 -0.35925516298748777 0 0.14615224303971219 -0.33836588816798252 0 0.1246181137787972 -0.34046254718180657 0 0.1356281157265547 -0.35925516298748777 0 0.1171431701103577 -0.37521137187224779 0 0.1356281157265547 -0.35925516298748777 0 0.1356426948818536 -0.38133388883961578 0 0.1171431701103577 -0.37521137187224779 0 0.15797880795062269 -0.32709608634605969 0 0.14931346727939299 -0.32070037442583882 0 0.14615224303971219 -0.33836588816798252 0 0.1615531837809904 -0.33649243129067469 0 0.15698190755890459 -0.35544584184228162 0 0.14615224303971219 -0.33836588816798252 0 0.14931346727939299 -0.32070037442583882 0 0.14615224303971219 -0.33836588816798252 0 0.1364302885432237 -0.32688798888550918 0 0.1615531837809904 -0.33649243129067469 0 0.15797880795062269 -0.32709608634605969 0 0.14615224303971219 -0.33836588816798252 0 0.14615224303971219 -0.33836588816798252 0 0.1364302885432237 -0.32688798888550918 0 0.1246181137787972 -0.34046254718180657 0 0.1364302885432237 -0.32688798888550918 0 0.1238801369892481 -0.32348842194350352 0 0.1246181137787972 -0.34046254718180657 0 0.1354264442208003 -0.31172632463215583 0 0.1164349939541254 -0.31194781102468899 0 0.1238801369892481 -0.32348842194350352 0 0.1364302885432237 -0.32688798888550918 0 0.1354264442208003 -0.31172632463215583 0 0.1238801369892481 -0.32348842194350352 0 0.14931346727939299 -0.32070037442583882 0 0.1364302885432237 -0.32688798888550918 0 0.1354264442208003 -0.31172632463215583 0 0.1354264442208003 -0.31172632463215583 0 0.1374974746498937 -0.28323728858865338 0 0.1236115179063096 -0.2966526690749946 0 0.1354264442208003 -0.31172632463215583 0 0.1236115179063096 -0.2966526690749946 0 0.1164349939541254 -0.31194781102468899 0 0.14931346727939299 -0.32070037442583882 0 0.1354264442208003 -0.31172632463215583 0 0.1532819108958493 -0.30131279321977639 0 0.1354264442208003 -0.31172632463215583 0 0.1532819108958493 -0.30131279321977639 0 0.1374974746498937 -0.28323728858865338 0 0.1532819108958493 -0.30131279321977639 0 0.15321066436891179 -0.28553279094625922 0 0.1374974746498937 -0.28323728858865338 0 0.1532819108958493 -0.30131279321977639 0 0.1374974746498937 -0.28323728858865338 0 0.15321066436891179 -0.28553279094625922 0 0.1374974746498937 -0.28323728858865338 0 0.14803951538896359 -0.27646589435567331 0 0.1374974746498937 -0.28323728858865338 0 0.1197064456482814 -0.28279498195656338 0 0.1236115179063096 -0.2966526690749946 0 0.1374974746498937 -0.28323728858865338 0 0.13923150778758339 -0.26841863334349642 0 0.1217130384039382 -0.26516178395753037 0 0.1374974746498937 -0.28323728858865338 0 0.1217130384039382 -0.26516178395753037 0 0.1197064456482814 -0.28279498195656338 0 0.1374974746498937 -0.28323728858865338 0 0.1217130384039382 -0.26516178395753037 0 0.13923150778758339 -0.26841863334349642 0 0.13222051793385631 -0.25841923799586047 0 0.1217130384039382 -0.26516178395753037 0 0.13222051793385631 -0.25841923799586047 0 0.1214835034677795 -0.25138887676200428 0 0.13404802496222681 -0.2474364514237731 0 0.13222051793385631 -0.25841923799586047 0 0.1217130384039382 -0.26516178395753037 0 0.1214835034677795 -0.25138887676200428 0 0.13923150778758339 -0.26841863334349642 0 0.13222051793385631 -0.25841923799586047 0 0.14462651504775359 -0.25969044449249801 0 0.13222051793385631 -0.25841923799586047 0 0.14462651504775359 -0.25969044449249801 0 0.13404802496222681 -0.2474364514237731 0 0.14462651504775359 -0.25969044449249801 0 0.13404802496222681 -0.2474364514237731 0 0.14462651504775359 -0.25969044449249801 0 0.1510432484773408 -0.26646399731883602 0 0.14981455690075429 -0.247027006673042 0 0.14462651504775359 -0.25969044449249801 0 0.14981455690075429 -0.247027006673042 0 0.13404802496222681 -0.2474364514237731 0 0.1626631121023743 -0.26938998122963842 0 0.14981455690075429 -0.247027006673042 0 0.1510432484773408 -0.26646399731883602 0 0.1626631121023743 -0.26938998122963842 0 0.14981455690075429 -0.247027006673042 0 0.1626631121023743 -0.26938998122963842 0 0.14981455690075429 -0.247027006673042 0 0.15525302585182479 -0.24638910269119599 0 0.13923150778758339 -0.26841863334349642 0 0.14462651504775359 -0.25969044449249801 0 0.1510432484773408 -0.26646399731883602 0 0.1374974746498937 -0.28323728858865338 0 0.13923150778758339 -0.26841863334349642 0 0.14803951538896359 -0.27646589435567331 0 0.13923150778758339 -0.26841863334349642 0 0.14803951538896359 -0.27646589435567331 0 0.1510432484773408 -0.26646399731883602 0 0.14803951538896359 -0.27646589435567331 0 0.1510432484773408 -0.26646399731883602 0 0.15589656537561711 -0.27732491262205528 0 0.15321066436891179 -0.28553279094625922 0 0.14803951538896359 -0.27646589435567331 0 0.15589656537561711 -0.27732491262205528 0 0.15589656537561711 -0.27732491262205528 0 0.1626631121023743 -0.26938998122963842 0 0.16452628654049489 -0.28877189925987001 0 0.1626631121023743 -0.26938998122963842 0 0.17551166730399431 -0.29175295578623472 0 0.1626631121023743 -0.26938998122963842 0 0.1726525557153511 -0.27878388409391758 0 0.17551166730399431 -0.29175295578623472 0 0.1510432484773408 -0.26646399731883602 0 0.15589656537561711 -0.27732491262205528 0 0.1626631121023743 -0.26938998122963842 0 0.1626631121023743 -0.26938998122963842 0 0.16922948976895469 -0.26679390068366421 0 0.1726525557153511 -0.27878388409391758 0 0.16922948976895469 -0.26679390068366421 0 0.15525302585182479 -0.24638910269119599 0 0.16922948976895469 -0.26679390068366421 0 0.16818785602001571 -0.25338210394609789 0 0.15525302585182479 -0.24638910269119599 0 0.1626631121023743 -0.26938998122963842 0 0.16922948976895469 -0.26679390068366421 0 0.15525302585182479 -0.24638910269119599 0 0.16922948976895469 -0.26679390068366421 0 0.17170812004980399 -0.25900971158308028 0 0.16818785602001571 -0.25338210394609789 0 0.17170812004980399 -0.25900971158308028 0 0.19024478969452249 -0.2488102975229548 0 0.17170812004980399 -0.25900971158308028 0 0.19024478969452249 -0.2488102975229548 0 0.17614033560167611 -0.2497454157236986 0 0.17170812004980399 -0.25900971158308028 0 0.18426646505336319 -0.26077244284745349 0 0.19024478969452249 -0.2488102975229548 0 0.17170812004980399 -0.25900971158308028 0 0.16818785602001571 -0.25338210394609789 0 0.17614033560167611 -0.2497454157236986 0 0.17170812004980399 -0.25900971158308028 0 0.1764059539245067 -0.26419656012181469 0 0.18426646505336319 -0.26077244284745349 0 0.16922948976895469 -0.26679390068366421 0 0.17170812004980399 -0.25900971158308028 0 0.1764059539245067 -0.26419656012181469 0 0.1764059539245067 -0.26419656012181469 0 0.18426646505336319 -0.26077244284745349 0 0.18041974082590501 -0.2702101853730608 0 0.16922948976895469 -0.26679390068366421 0 0.1726525557153511 -0.27878388409391758 0 0.18320595368608239 -0.28719869867613401 0 0.16922948976895469 -0.26679390068366421 0 0.18320595368608239 -0.28719869867613401 0 0.18996792272011109 -0.27180470081940128 0 0.18041974082590501 -0.2702101853730608 0 0.18320595368608239 -0.28719869867613401 0 0.16922948976895469 -0.26679390068366421 0 0.18041974082590501 -0.2702101853730608 0 0.18320595368608239 -0.28719869867613401 0 0.16922948976895469 -0.26679390068366421 0 0.1764059539245067 -0.26419656012181469 0 0.18041974082590501 -0.2702101853730608 0 0.18996792272011109 -0.27180470081940128 0 0.18426646505336319 -0.26077244284745349 0 0.18041974082590501 -0.2702101853730608 0 0.18996792272011109 -0.27180470081940128 0 0.18320595368608239 -0.28719869867613401 0 0.18320595368608239 -0.28719869867613401 0 0.17551166730399431 -0.29175295578623472 0 0.17513393211533559 -0.30557510385252651 0 0.18320595368608239 -0.28719869867613401 0 0.17513393211533559 -0.30557510385252651 0 0.1726525557153511 -0.27878388409391758 0 0.18320595368608239 -0.28719869867613401 0 0.17551166730399431 -0.29175295578623472 0 0.19105156749102289 -0.2986528236798448 0 0.18320595368608239 -0.28719869867613401 0 0.19105156749102289 -0.2986528236798448 0 0.18477420179901091 -0.30880076886002722 0 0.17513393211533559 -0.30557510385252651 0 0.19105156749102289 -0.2986528236798448 0 0.18320595368608239 -0.28719869867613401 0 0.17513393211533559 -0.30557510385252651 0 0.19105156749102289 -0.2986528236798448 0 0.17513393211533559 -0.30557510385252651 0 0.17825732084295889 -0.31651067951893558 0 0.18477420179901091 -0.30880076886002722 0 0.17513393211533559 -0.30557510385252651 0 0.16906634714180599 -0.31938829785089839 0 0.17513393211533559 -0.30557510385252651 0 0.17513393211533559 -0.30557510385252651 0 0.1706728864590682 -0.30751512868454339 0 0.17551166730399431 -0.29175295578623472 0 0.17513393211533559 -0.30557510385252651 0 0.16912925229080181 -0.29870744281448403 0 0.1532819108958493 -0.30131279321977639 0 0.16912925229080181 -0.29870744281448403 0 0.1706728864590682 -0.30751512868454339 0 0.16906634714180599 -0.31938829785089839 0 0.1532819108958493 -0.30131279321977639 0 0.17513393211533559 -0.30557510385252651 0 0.16912925229080181 -0.29870744281448403 0 0.1706728864590682 -0.30751512868454339 0 0.16906634714180599 -0.31938829785089839 0 0.1532819108958493 -0.30131279321977639 0 0.1706728864590682 -0.30751512868454339 0 0.16906634714180599 -0.31938829785089839 0 0.17513393211533559 -0.30557510385252651 0 0.1706728864590682 -0.30751512868454339 0 0.1532819108958493 -0.30131279321977639 0 0.16912925229080181 -0.29870744281448403 0 0.16452628654049489 -0.28877189925987001 0 0.1532819108958493 -0.30131279321977639 0 0.15321066436891179 -0.28553279094625922 0 0.16452628654049489 -0.28877189925987001 0 0.1626631121023743 -0.26938998122963842 0 0.17551166730399431 -0.29175295578623472 0 0.16452628654049489 -0.28877189925987001 0 0.15321066436891179 -0.28553279094625922 0 0.15589656537561711 -0.27732491262205528 0 0.16452628654049489 -0.28877189925987001 0 0.17551166730399431 -0.29175295578623472 0 0.16912925229080181 -0.29870744281448403 0 0.16452628654049489 -0.28877189925987001 0 0.19722847951372649 -0.49110790378253161 0 0.20362994823384059 -0.48005566376387432 0 0.20573710638283149 -0.50000000000000222 0 0.19722847951372649 -0.49110790378253161 0 0.18813072732706079 -0.48437595136625211 0 0.20362994823384059 -0.48005566376387432 0 0.19722847951372649 -0.49110790378253161 0 0.19141613611117331 -0.50000000000000089 0 0.20573710638283149 -0.50000000000000222 0 0.19141613611117331 -0.50000000000000089 0 0.18813072732706079 -0.48437595136625211 0 0.19722847951372649 -0.49110790378253161 0 0.19141613611117331 -0.50000000000000089 0 0.18813072732706079 -0.48437595136625211 0 0.18813072732706079 -0.48437595136625211 0 0.1970199929165129 -0.47101948921537778 0 0.18484531854294839 -0.46875190273250339 0 0.1970199929165129 -0.47101948921537778 0 0.20362994823384059 -0.48005566376387432 0 0.20770215978918691 -0.47238621910934142 0 0.18813072732706079 -0.48437595136625211 0 0.1970199929165129 -0.47101948921537778 0 0.20362994823384059 -0.48005566376387432 0 0.20362994823384059 -0.48005566376387432 0 0.20770215978918691 -0.47238621910934142 0 0.21965161817985579 -0.47857349446674302 0 0.21965161817985579 -0.47857349446674302 0 0.2196248411947061 -0.46016465345044172 0 0.2135542097162616 -0.46807969198566118 0 0.1970199929165129 -0.47101948921537778 0 0.20770215978918691 -0.47238621910934142 0 0.2059228906813316 -0.46412979962352319 0 0.20770215978918691 -0.47238621910934142 0 0.21965161817985579 -0.47857349446674302 0 0.2135542097162616 -0.46807969198566118 0 0.20573710638283149 -0.50000000000000222 0 0.21965161817985579 -0.47857349446674302 0 0.20362994823384059 -0.48005566376387432 0 0.20573710638283149 -0.50000000000000222 0 0.21965161817985579 -0.47857349446674302 0 0.20573710638283149 -0.50000000000000222 0 0.23533669093089171 -0.5 0 0.21965161817985579 -0.47857349446674302 0 0.23533669093089171 -0.5 0 0.24649380953866401 -0.47985080816168202 0 0.21965161817985579 -0.47857349446674302 0 0.26493627547895199 -0.5 0 0.23533669093089171 -0.5 0 0.24649380953866401 -0.47985080816168202 0 0.24649380953866401 -0.47985080816168202 0 0.21965161817985579 -0.47857349446674302 0 0.23356612997687909 -0.45714698893348321 0 0.21965161817985579 -0.47857349446674302 0 0.2196248411947061 -0.46016465345044172 0 0.23356612997687909 -0.45714698893348321 0 0.21965161817985579 -0.47857349446674302 0 0.23356612997687909 -0.45714698893348321 0 0.2196248411947061 -0.46016465345044172 0 0.23356612997687909 -0.45714698893348321 0 0.22564760477084311 -0.44723437306095282 0 0.26086434759934718 -0.46414511433971578 0 0.24649380953866401 -0.47985080816168202 0 0.23356612997687909 -0.45714698893348321 0 0.22564760477084311 -0.44723437306095282 0 0.2474806417739033 -0.43572048340022379 0 0.23356612997687909 -0.45714698893348321 0 0.2474806417739033 -0.43572048340022379 0 0.23356612997687909 -0.45714698893348321 0 0.22564760477084311 -0.44723437306095282 0 0.2474806417739033 -0.43572048340022379 0 0.25706943022422041 -0.44744645506867492 0 0.23356612997687909 -0.45714698893348321 0 0.2474806417739033 -0.43572048340022379 0 0.22564760477084311 -0.44723437306095282 0 0.20381456776778231 -0.45874826272168029 0 0.22564760477084311 -0.44723437306095282 0 0.20381456776778231 -0.45874826272168029 0 0.21258723060310719 -0.43531554283346457 0 0.20381456776778231 -0.45874826272168029 0 0.19568511818658249 -0.43799767815432528 0 0.21258723060310719 -0.43531554283346457 0 0.2196248411947061 -0.46016465345044172 0 0.22564760477084311 -0.44723437306095282 0 0.20381456776778231 -0.45874826272168029 0 0.2196248411947061 -0.46016465345044172 0 0.21134376029321841 -0.46270476348165818 0 0.20381456776778231 -0.45874826272168029 0 0.2196248411947061 -0.46016465345044172 0 0.21134376029321841 -0.46270476348165818 0 0.2135542097162616 -0.46807969198566118 0 0.20770215978918691 -0.47238621910934142 0 0.2135542097162616 -0.46807969198566118 0 0.2059228906813316 -0.46412979962352319 0 0.21134376029321841 -0.46270476348165818 0 0.2135542097162616 -0.46807969198566118 0 0.2059228906813316 -0.46412979962352319 0 0.21134376029321841 -0.46270476348165818 0 0.2059228906813316 -0.46412979962352319 0 0.20381456776778231 -0.45874826272168029 0 0.2059228906813316 -0.46412979962352319 0 0.20381456776778231 -0.45874826272168029 0 0.20381456776778231 -0.45874826272168029 0 0.1825802438231437 -0.45798014192378639 0 0.18484531854294839 -0.46875190273250339 0 0.20381456776778231 -0.45874826272168029 0 0.1899878842643925 -0.44854976836967192 0 0.1825802438231437 -0.45798014192378639 0 0.20381456776778231 -0.45874826272168029 0 0.18484531854294839 -0.46875190273250339 0 0.1970199929165129 -0.47101948921537778 0 0.20381456776778231 -0.45874826272168029 0 0.18484531854294839 -0.46875190273250339 0 0.1970199929165129 -0.47101948921537778 0 0.2059228906813316 -0.46412979962352319 0 0.20381456776778231 -0.45874826272168029 0 0.20381456776778231 -0.45874826272168029 0 0.1899878842643925 -0.44854976836967192 0 0.19568511818658249 -0.43799767815432528 0 0.20381456776778231 -0.45874826272168029 0 0.19568511818658249 -0.43799767815432528 0 0.1899878842643925 -0.44854976836967192 0 0.19568511818658249 -0.43799767815432528 0 0.18506795621426381 -0.43761361775537833 0 0.19568511818658249 -0.43799767815432528 0 0.187555668605383 -0.41724709358697021 0 0.19568511818658249 -0.43799767815432528 0 0.187555668605383 -0.41724709358697021 0 0.18506795621426381 -0.43761361775537833 0 0.19568511818658249 -0.43799767815432528 0 0.187555668605383 -0.41724709358697021 0 0.20519318851527901 -0.41758407580338253 0 0.18799311983422309 -0.41366574670118578 0 0.20519318851527901 -0.41758407580338253 0 0.2024649610639111 -0.40015558072894247 0 0.187555668605383 -0.41724709358697021 0 0.18799311983422309 -0.41366574670118578 0 0.20519318851527901 -0.41758407580338253 0 0.18799311983422309 -0.41366574670118578 0 0.2024649610639111 -0.40015558072894247 0 0.18604537793074791 -0.41339204607701691 0 0.2024649610639111 -0.40015558072894247 0 0.18604537793074791 -0.41339204607701691 0 0.187555668605383 -0.41724709358697021 0 0.18799311983422309 -0.41366574670118578 0 0.20519318851527901 -0.41758407580338253 0 0.22801343139742619 -0.4227432583526628 0 0.22040455626577429 -0.40560698412901752 0 0.20519318851527901 -0.41758407580338253 0 0.22040455626577429 -0.40560698412901752 0 0.2024649610639111 -0.40015558072894247 0 0.20519318851527901 -0.41758407580338253 0 0.21258723060310719 -0.43531554283346457 0 0.22801343139742619 -0.4227432583526628 0 0.19568511818658249 -0.43799767815432528 0 0.20519318851527901 -0.41758407580338253 0 0.21258723060310719 -0.43531554283346457 0 0.22564760477084311 -0.44723437306095282 0 0.21258723060310719 -0.43531554283346457 0 0.22801343139742619 -0.4227432583526628 0 0.22564760477084311 -0.44723437306095282 0 0.22801343139742619 -0.4227432583526628 0 0.2474806417739033 -0.43572048340022379 0 0.22801343139742619 -0.4227432583526628 0 0.2474806417739033 -0.43572048340022379 0 0.24350160841347729 -0.41950468365168569 0 0.2498154835571571 -0.4344891791770028 0 0.2474806417739033 -0.43572048340022379 0 0.22801343139742619 -0.4227432583526628 0 0.24350160841347729 -0.41950468365168569 0 0.23913230155988591 -0.40215803607824052 0 0.259380058922695 -0.41739695677561622 0 0.23913230155988591 -0.40215803607824052 0 0.259380058922695 -0.41739695677561622 0 0.24350160841347729 -0.41950468365168569 0 0.23913230155988591 -0.40215803607824052 0 0.22801343139742619 -0.4227432583526628 0 0.22040455626577429 -0.40560698412901752 0 0.23913230155988591 -0.40215803607824052 0 0.22040455626577429 -0.40560698412901752 0 0.23913230155988591 -0.40215803607824052 0 0.2188845441970742 -0.38691911538086809 0 0.23913230155988591 -0.40215803607824052 0 0.2188845441970742 -0.38691911538086809 0 0.2503833331626944 -0.38618581831787258 0 0.25522202370378388 -0.40185075717210239 0 0.23913230155988591 -0.40215803607824052 0 0.2503833331626944 -0.38618581831787258 0 0.23913230155988591 -0.40215803607824052 0 0.230226282611975 -0.37777609839327198 0 0.2503833331626944 -0.38618581831787258 0 0.24379305351802169 -0.37000396015286457 0 0.230226282611975 -0.37777609839327198 0 0.23913230155988591 -0.40215803607824052 0 0.230226282611975 -0.37777609839327198 0 0.2188845441970742 -0.38691911538086809 0 0.230226282611975 -0.37777609839327198 0 0.2188845441970742 -0.38691911538086809 0 0.2205056495648938 -0.37609748740374699 0 0.230226282611975 -0.37777609839327198 0 0.2188845441970742 -0.38691911538086809 0 0.21277334250419561 -0.37469990959081001 0 0.20036291634117059 -0.37297931883822588 0 0.2188845441970742 -0.38691911538086809 0 0.20036291634117059 -0.37297931883822588 0 0.2188845441970742 -0.38691911538086809 0 0.2012704522608251 -0.37461887298380059 0 0.20036291634117059 -0.37297931883822588 0 0.2188845441970742 -0.38691911538086809 0 0.2012704522608251 -0.37461887298380059 0 0.2188845441970742 -0.38691911538086809 0 0.20589184082672571 -0.38667148196686041 0 0.21277334250419561 -0.37469990959081001 0 0.2188845441970742 -0.38691911538086809 0 0.2205056495648938 -0.37609748740374699 0 0.2188845441970742 -0.38691911538086809 0 0.2024649610639111 -0.40015558072894247 0 0.22040455626577429 -0.40560698412901752 0 0.2188845441970742 -0.38691911538086809 0 0.2024649610639111 -0.40015558072894247 0 0.2188845441970742 -0.38691911538086809 0 0.20589184082672571 -0.38667148196686041 0 0.2024649610639111 -0.40015558072894247 0 0.2024649610639111 -0.40015558072894247 0 0.1898650241138313 -0.39683936933874892 0 0.18604537793074791 -0.41339204607701691 0 0.20589184082672571 -0.38667148196686041 0 0.2024649610639111 -0.40015558072894247 0 0.19765746771962819 -0.38935252489271299 0 0.2024649610639111 -0.40015558072894247 0 0.1898650241138313 -0.39683936933874892 0 0.19765746771962819 -0.38935252489271299 0 0.1898650241138313 -0.39683936933874892 0 0.19242603649636211 -0.38834332541508171 0 0.180911201891163 -0.39256253444506423 0 0.1898650241138313 -0.39683936933874892 0 0.19242603649636211 -0.38834332541508171 0 0.19765746771962819 -0.38935252489271299 0 0.2012704522608251 -0.37461887298380059 0 0.180911201891163 -0.39256253444506423 0 0.2012704522608251 -0.37461887298380059 0 0.19701375154248019 -0.37593977653985938 0 0.180911201891163 -0.39256253444506423 0 0.2012704522608251 -0.37461887298380059 0 0.19242603649636211 -0.38834332541508171 0 0.180911201891163 -0.39256253444506423 0 0.19181129623362531 -0.37384931594988968 0 0.19701375154248019 -0.37593977653985938 0 0.1822688309051971 -0.38169222422905252 0 0.19701375154248019 -0.37593977653985938 0 0.1822688309051971 -0.38169222422905252 0 0.18894567826943001 -0.3703237545705822 0 0.19181129623362531 -0.37384931594988968 0 0.1822688309051971 -0.38169222422905252 0 0.2012704522608251 -0.37461887298380059 0 0.19242603649636211 -0.38834332541508171 0 0.19765746771962819 -0.38935252489271299 0 0.2012704522608251 -0.37461887298380059 0 0.20589184082672571 -0.38667148196686041 0 0.19765746771962819 -0.38935252489271299 0 0.19701375154248019 -0.37593977653985938 0 0.1822688309051971 -0.38169222422905252 0 0.180911201891163 -0.39256253444506423 0 0.17477215227584961 -0.38461690946262428 0 0.180911201891163 -0.39256253444506423 0 0.17866172277068379 -0.39454511686186128 0 0.17477215227584961 -0.38461690946262428 0 0.17866172277068379 -0.39454511686186128 0 0.17477215227584961 -0.38461690946262428 0 0.1822688309051971 -0.38169222422905252 0 0.180911201891163 -0.39256253444506423 0 0.17477215227584961 -0.38461690946262428 0 0.1822688309051971 -0.38169222422905252 0 0.17477215227584961 -0.38461690946262428 0 0.1750993673169054 -0.38059314110709003 0 0.17206250012204169 -0.37850284650150973 0 0.17626302522926909 -0.37044695625026702 0 0.1764234308933533 -0.37780879202197981 0 0.1822688309051971 -0.38169222422905252 0 0.17626302522926909 -0.37044695625026702 0 0.17206250012204169 -0.37850284650150973 0 0.1764234308933533 -0.37780879202197981 0 0.1750993673169054 -0.38059314110709003 0 0.17206250012204169 -0.37850284650150973 0 0.1764234308933533 -0.37780879202197981 0 0.17477215227584961 -0.38461690946262428 0 0.1750993673169054 -0.38059314110709003 0 0.1822688309051971 -0.38169222422905252 0 0.1750993673169054 -0.38059314110709003 0 0.1764234308933533 -0.37780879202197981 0 0.1822688309051971 -0.38169222422905252 0 0.1822688309051971 -0.38169222422905252 0 0.180911201891163 -0.39256253444506423 0 0.1898650241138313 -0.39683936933874892 0 0.18017967767252269 -0.39841972746684629 0 0.18604537793074791 -0.41339204607701691 0 0.1898650241138313 -0.39683936933874892 0 0.18017967767252269 -0.39841972746684629 0 0.180911201891163 -0.39256253444506423 0 0.17477215227584961 -0.38461690946262428 0 0.17866172277068379 -0.39454511686186128 0 0.16468483451047861 -0.40686367214603408 0 0.18017967767252269 -0.39841972746684629 0 0.180911201891163 -0.39256253444506423 0 0.17866172277068379 -0.39454511686186128 0 0.18017967767252269 -0.39841972746684629 0 0.180911201891163 -0.39256253444506423 0 0.180911201891163 -0.39256253444506423 0 0.17866172277068379 -0.39454511686186128 0 0.18017967767252269 -0.39841972746684629 0 0.18604537793074791 -0.41339204607701691 0 0.18017967767252269 -0.39841972746684629 0 0.17866172277068379 -0.39454511686186128 0 0.16468483451047861 -0.40686367214603408 0 0.18017967767252269 -0.39841972746684629 0 0.16468483451047861 -0.40686367214603408 0 0.1728161934971012 -0.41153350553153639 0 0.18017967767252269 -0.39841972746684629 0 0.17866172277068379 -0.39454511686186128 0 0.17477215227584961 -0.38461690946262428 0 0.1491800362189617 -0.39460118218232543 0 0.16468483451047861 -0.40686367214603408 0 0.17866172277068379 -0.39454511686186128 0 0.16468483451047861 -0.40686367214603408 0 0.17477215227584961 -0.38461690946262428 0 0.1491800362189617 -0.39460118218232543 0 0.17477215227584961 -0.38461690946262428 0 0.16499488795212669 -0.38064105547770027 0 0.1491800362189617 -0.39460118218232543 0 0.17477215227584961 -0.38461690946262428 0 0.17206250012204169 -0.37850284650150973 0 0.16499488795212669 -0.38064105547770027 0 0.16600001649619711 -0.36999675338252419 0 0.17206250012204169 -0.37850284650150973 0 0.16499488795212669 -0.38064105547770027 0 0.15267423219131929 -0.37301627225399148 0 0.16499488795212669 -0.38064105547770027 0 0.1491800362189617 -0.39460118218232543 0 0.15267423219131929 -0.37301627225399148 0 0.1356426948818536 -0.38133388883961578 0 0.1491800362189617 -0.39460118218232543 0 0.1356426948818536 -0.38133388883961578 0 0.12358792016207421 -0.40458545490202757 0 0.1171431701103577 -0.37521137187224779 0 0.1491800362189617 -0.39460118218232543 0 0.12358792016207421 -0.40458545490202757 0 0.1491800362189617 -0.39460118218232543 0 0.1371479332061746 -0.41188384116611593 0 0.12358792016207421 -0.40458545490202757 0 0.1356426948818536 -0.38133388883961578 0 0.1491800362189617 -0.39460118218232543 0 0.12358792016207421 -0.40458545490202757 0 0.1491800362189617 -0.39460118218232543 0 0.15070794625027351 -0.41918222743020711 0 0.16468483451047861 -0.40686367214603408 0 0.1491800362189617 -0.39460118218232543 0 0.15070794625027351 -0.41918222743020711 0 0.1371479332061746 -0.41188384116611593 0 0.15070794625027351 -0.41918222743020711 0 0.1371479332061746 -0.41188384116611593 0 0.1371479332061746 -0.41188384116611593 0 0.1224449820624047 -0.42036304067560409 0 0.12358792016207421 -0.40458545490202757 0 0.1371479332061746 -0.41188384116611593 0 0.12358792016207421 -0.40458545490202757 0 0.15070794625027351 -0.41918222743020711 0 0.1371479332061746 -0.41188384116611593 0 0.13284642771833149 -0.43492450850155939 0 0.1371479332061746 -0.41188384116611593 0 0.13284642771833149 -0.43492450850155939 0 0.1224449820624047 -0.42036304067560409 0 0.15070794625027351 -0.41918222743020711 0 0.1554256013019594 -0.42736447709636433 0 0.1486905060015544 -0.43771801457556819 0 0.15070794625027351 -0.41918222743020711 0 0.13284642771833149 -0.43492450850155939 0 0.1486905060015544 -0.43771801457556819 0 0.15070794625027351 -0.41918222743020711 0 0.13284642771833149 -0.43492450850155939 0 0.1554256013019594 -0.42736447709636433 0 0.15896006438870661 -0.43440747823930631 0 0.1486905060015544 -0.43771801457556819 0 0.15070794625027351 -0.41918222743020711 0 0.16485332324388691 -0.42679567328861251 0 0.1689565544388669 -0.42052443484231689 0 0.1554256013019594 -0.42736447709636433 0 0.15896006438870661 -0.43440747823930631 0 0.16083655581673151 -0.42992228961425571 0 0.15896006438870661 -0.43440747823930631 0 0.16083655581673151 -0.42992228961425571 0 0.1641072343323734 -0.43112152983273999 0 0.15896006438870661 -0.43440747823930631 0 0.16496952881556831 -0.43681019420363759 0 0.1641072343323734 -0.43112152983273999 0 0.16496952881556831 -0.43681019420363759 0 0.1676894146384442 -0.43300040938918483 0 0.1641072343323734 -0.43112152983273999 0 0.16496952881556831 -0.43681019420363759 0 0.1676894146384442 -0.43300040938918483 0 0.17028268357798751 -0.4380856126748286 0 0.1676894146384442 -0.43300040938918483 0 0.1641072343323734 -0.43112152983273999 0 0.16752609103373839 -0.42832116439234241 0 0.1676894146384442 -0.43300040938918483 0 0.17123131760000401 -0.43127900682370912 0 0.16752609103373839 -0.42832116439234241 0 0.1676894146384442 -0.43300040938918483 0 0.17123131760000401 -0.43127900682370912 0 0.17028268357798751 -0.4380856126748286 0 0.16752609103373839 -0.42832116439234241 0 0.1689565544388669 -0.42052443484231689 0 0.17744370736653819 -0.42032618767094859 0 0.17123131760000401 -0.43127900682370912 0 0.16752609103373839 -0.42832116439234241 0 0.17400493810031531 -0.42682104480317862 0 0.1641072343323734 -0.43112152983273999 0 0.16485332324388691 -0.42679567328861251 0 0.16752609103373839 -0.42832116439234241 0 0.16485332324388691 -0.42679567328861251 0 0.16752609103373839 -0.42832116439234241 0 0.1689565544388669 -0.42052443484231689 0 0.15070794625027351 -0.41918222743020711 0 0.1554256013019594 -0.42736447709636433 0 0.16485332324388691 -0.42679567328861251 0 0.1554256013019594 -0.42736447709636433 0 0.16083655581673151 -0.42992228961425571 0 0.16485332324388691 -0.42679567328861251 0 0.15070794625027351 -0.41918222743020711 0 0.16485332324388691 -0.42679567328861251 0 0.16083655581673151 -0.42992228961425571 0 0.1641072343323734 -0.43112152983273999 0 0.16485332324388691 -0.42679567328861251 0 0.15070794625027351 -0.41918222743020711 0 0.16468483451047861 -0.40686367214603408 0 0.1689565544388669 -0.42052443484231689 0 0.15070794625027351 -0.41918222743020711 0 0.16468483451047861 -0.40686367214603408 0 0.16468483451047861 -0.40686367214603408 0 0.1689565544388669 -0.42052443484231689 0 0.1728161934971012 -0.41153350553153639 0 0.18017967767252269 -0.39841972746684629 0 0.17744370736653819 -0.42032618767094859 0 0.18017967767252269 -0.39841972746684629 0 0.17744370736653819 -0.42032618767094859 0 0.18604537793074791 -0.41339204607701691 0 0.1689565544388669 -0.42052443484231689 0 0.17744370736653819 -0.42032618767094859 0 0.1728161934971012 -0.41153350553153639 0 0.18017967767252269 -0.39841972746684629 0 0.17744370736653819 -0.42032618767094859 0 0.1728161934971012 -0.41153350553153639 0 0.187555668605383 -0.41724709358697021 0 0.17744370736653819 -0.42032618767094859 0 0.17702380516863581 -0.42368827488652372 0 0.17744370736653819 -0.42032618767094859 0 0.18604537793074791 -0.41339204607701691 0 0.187555668605383 -0.41724709358697021 0 0.17744370736653819 -0.42032618767094859 0 0.18604537793074791 -0.41339204607701691 0 0.187555668605383 -0.41724709358697021 0 0.18799311983422309 -0.41366574670118578 0 0.18604537793074791 -0.41339204607701691 0 0.187555668605383 -0.41724709358697021 0 0.18604537793074791 -0.41339204607701691 0 0.187555668605383 -0.41724709358697021 0 0.18506795621426381 -0.43761361775537833 0 0.187555668605383 -0.41724709358697021 0 0.1767997693326612 -0.43049059024236952 0 0.17702380516863581 -0.42368827488652372 0 0.187555668605383 -0.41724709358697021 0 0.1767997693326612 -0.43049059024236952 0 0.18506795621426381 -0.43761361775537833 0 0.17123131760000401 -0.43127900682370912 0 0.1767997693326612 -0.43049059024236952 0 0.17028268357798751 -0.4380856126748286 0 0.17123131760000401 -0.43127900682370912 0 0.1767997693326612 -0.43049059024236952 0 0.17400493810031531 -0.42682104480317862 0 0.16752609103373839 -0.42832116439234241 0 0.17744370736653819 -0.42032618767094859 0 0.17400493810031531 -0.42682104480317862 0 0.16752609103373839 -0.42832116439234241 0 0.17744370736653819 -0.42032618767094859 0 0.17744370736653819 -0.42032618767094859 0 0.17400493810031531 -0.42682104480317862 0 0.17702380516863581 -0.42368827488652372 0 0.17744370736653819 -0.42032618767094859 0 0.17702380516863581 -0.42368827488652372 0 0.1767997693326612 -0.43049059024236952 0 0.17400493810031531 -0.42682104480317862 0 0.17702380516863581 -0.42368827488652372 0 0.1767997693326612 -0.43049059024236952 0 0.1825802438231437 -0.45798014192378639 0 0.17138466941092359 -0.44932448598768909 0 0.1767997693326612 -0.43049059024236952 0 0.17138466941092359 -0.44932448598768909 0 0.17028268357798751 -0.4380856126748286 0 0.1899878842643925 -0.44854976836967192 0 0.18506795621426381 -0.43761361775537833 0 0.1825802438231437 -0.45798014192378639 0 0.18506795621426381 -0.43761361775537833 0 0.1825802438231437 -0.45798014192378639 0 0.1767997693326612 -0.43049059024236952 0 0.18506795621426381 -0.43761361775537833 0 0.1825802438231437 -0.45798014192378639 0 0.1767997693326612 -0.43049059024236952 0 0.1825802438231437 -0.45798014192378639 0 0.1825802438231437 -0.45798014192378639 0 0.17707700976616611 -0.46664328161557828 0 0.18101796271624129 -0.47077030047876511 0 0.1825802438231437 -0.45798014192378639 0 0.18101796271624129 -0.47077030047876511 0 0.18484531854294839 -0.46875190273250339 0 0.1825802438231437 -0.45798014192378639 0 0.18101796271624129 -0.47077030047876511 0 0.1825802438231437 -0.45798014192378639 0 0.18484531854294839 -0.46875190273250339 0 0.1825802438231437 -0.45798014192378639 0 0.17707700976616611 -0.46664328161557828 0 0.17404171350733649 -0.46199764052298897 0 0.17707700976616611 -0.46664328161557828 0 0.17404171350733649 -0.46199764052298897 0 0.17066280287027241 -0.46962252377642522 0 0.1825802438231437 -0.45798014192378639 0 0.17404171350733649 -0.46199764052298897 0 0.17138466941092359 -0.44932448598768909 0 0.17404171350733649 -0.46199764052298897 0 0.16650586470509809 -0.46062187071828542 0 0.17138466941092359 -0.44932448598768909 0 0.16650586470509809 -0.46062187071828542 0 0.1627400288332487 -0.45133580833004261 0 0.17138466941092359 -0.44932448598768909 0 0.17404171350733649 -0.46199764052298897 0 0.16650586470509809 -0.46062187071828542 0 0.17066280287027241 -0.46962252377642522 0 0.16650586470509809 -0.46062187071828542 0 0.16037234410162321 -0.46670807026283778 0 0.17066280287027241 -0.46962252377642522 0 0.16650586470509809 -0.46062187071828542 0 0.16037234410162321 -0.46670807026283778 0 0.1571905389145023 -0.45868319925399231 0 0.16650586470509809 -0.46062187071828542 0 0.1571905389145023 -0.45868319925399231 0 0.1627400288332487 -0.45133580833004261 0 0.1571905389145023 -0.45868319925399231 0 0.1627400288332487 -0.45133580833004261 0 0.15354206244681309 -0.45062933172459613 0 0.1627400288332487 -0.45133580833004261 0 0.16665713390588599 -0.4444149556375413 0 0.1602185873345271 -0.44337623470070692 0 0.1627400288332487 -0.45133580833004261 0 0.1602185873345271 -0.44337623470070692 0 0.15354206244681309 -0.45062933172459613 0 0.1627400288332487 -0.45133580833004261 0 0.17138466941092359 -0.44932448598768909 0 0.16665713390588599 -0.4444149556375413 0 0.17138466941092359 -0.44932448598768909 0 0.17028268357798751 -0.4380856126748286 0 0.16665713390588599 -0.4444149556375413 0 0.16496952881556831 -0.43681019420363759 0 0.17028268357798751 -0.4380856126748286 0 0.16665713390588599 -0.4444149556375413 0 0.15896006438870661 -0.43440747823930631 0 0.16496952881556831 -0.43681019420363759 0 0.1602185873345271 -0.44337623470070692 0 0.16496952881556831 -0.43681019420363759 0 0.16665713390588599 -0.4444149556375413 0 0.1602185873345271 -0.44337623470070692 0 0.13284642771833149 -0.43492450850155939 0 0.1486905060015544 -0.43771801457556819 0 0.14335678085329839 -0.44875548120986469 0 0.1602185873345271 -0.44337623470070692 0 0.1486905060015544 -0.43771801457556819 0 0.15354206244681309 -0.45062933172459613 0 0.15896006438870661 -0.43440747823930631 0 0.1602185873345271 -0.44337623470070692 0 0.1486905060015544 -0.43771801457556819 0 0.1486905060015544 -0.43771801457556819 0 0.15354206244681309 -0.45062933172459613 0 0.14335678085329839 -0.44875548120986469 0 0.13284642771833149 -0.43492450850155939 0 0.14335678085329839 -0.44875548120986469 0 0.13281207886001681 -0.45820717758584367 0 0.13284642771833149 -0.43492450850155939 0 0.13281207886001681 -0.45820717758584367 0 0.11498490918638921 -0.45066678957291129 0 0.13281207886001681 -0.45820717758584367 0 0.14889282923977629 -0.46229837366175641 0 0.1431674636550801 -0.47927789046100122 0 0.14335678085329839 -0.44875548120986469 0 0.13281207886001681 -0.45820717758584367 0 0.14889282923977629 -0.46229837366175641 0 0.1571905389145023 -0.45868319925399231 0 0.15354206244681309 -0.45062933172459613 0 0.14889282923977629 -0.46229837366175641 0 0.15354206244681309 -0.45062933172459613 0 0.14335678085329839 -0.44875548120986469 0 0.14889282923977629 -0.46229837366175641 0 0.16037234410162321 -0.46670807026283778 0 0.1571905389145023 -0.45868319925399231 0 0.14889282923977629 -0.46229837366175641 0 0.16037234410162321 -0.46670807026283778 0 0.14889282923977629 -0.46229837366175641 0 0.15600362979325971 -0.47393924182711877 0 0.1431674636550801 -0.47927789046100122 0 0.1661895001553966 -0.4857123003693678 0 0.15600362979325971 -0.47393924182711877 0 0.1431674636550801 -0.47927789046100122 0 0.1661895001553966 -0.4857123003693678 0 0.14889282923977629 -0.46229837366175641 0 0.15600362979325971 -0.47393924182711877 0 0.1431674636550801 -0.47927789046100122 0 0.1431674636550801 -0.47927789046100122 0 0.1201454271547636 -0.4728434805526347 0 0.1431674636550801 -0.47927789046100122 0 0.12913510363594949 -0.48670898174074367 0 0.1201454271547636 -0.4728434805526347 0 0.13281207886001681 -0.45820717758584367 0 0.1431674636550801 -0.47927789046100122 0 0.1201454271547636 -0.4728434805526347 0 0.1431674636550801 -0.47927789046100122 0 0.1367066184920491 -0.5 0 0.12913510363594949 -0.48670898174074367 0 0.1367066184920491 -0.5 0 0.12913510363594949 -0.48670898174074367 0 0.1093518596824872 -0.5 0 0.1431674636550801 -0.47927789046100122 0 0.1367066184920491 -0.5 0 0.15231593047540379 -0.49094820083217039 0 0.1431674636550801 -0.47927789046100122 0 0.15231593047540379 -0.49094820083217039 0 0.1661895001553966 -0.4857123003693678 0 0.1367066184920491 -0.5 0 0.15231593047540379 -0.49094820083217039 0 0.16406137730161119 -0.5 0 0.15231593047540379 -0.49094820083217039 0 0.16406137730161119 -0.5 0 0.1661895001553966 -0.4857123003693678 0 0.16406137730161119 -0.5 0 0.1661895001553966 -0.4857123003693678 0 0.17862045554525641 -0.49039832818650292 0 0.15600362979325971 -0.47393924182711877 0 0.1661895001553966 -0.4857123003693678 0 0.16456078635923829 -0.47446685029826807 0 0.16037234410162321 -0.46670807026283778 0 0.15600362979325971 -0.47393924182711877 0 0.16456078635923829 -0.47446685029826807 0 0.16037234410162321 -0.46670807026283778 0 0.16456078635923829 -0.47446685029826807 0 0.17066280287027241 -0.46962252377642522 0 0.16456078635923829 -0.47446685029826807 0 0.17067078463067931 -0.47636631704937932 0 0.17066280287027241 -0.46962252377642522 0 0.1661895001553966 -0.4857123003693678 0 0.17067078463067931 -0.47636631704937932 0 0.17485850785465221 -0.47918410942690931 0 0.1661895001553966 -0.4857123003693678 0 0.16456078635923829 -0.47446685029826807 0 0.17067078463067931 -0.47636631704937932 0 0.17485850785465221 -0.47918410942690931 0 0.18101796271624129 -0.47077030047876511 0 0.17862045554525641 -0.49039832818650292 0 0.18813072732706079 -0.48437595136625211 0 0.18101796271624129 -0.47077030047876511 0 0.17862045554525641 -0.49039832818650292 0 0.18101796271624129 -0.47077030047876511 0 0.17862045554525641 -0.49039832818650292 0 0.17485850785465221 -0.47918410942690931 0 0.17708232591383721 -0.47284580137592569 0 0.18101796271624129 -0.47077030047876511 0 0.17707700976616611 -0.46664328161557828 0 0.17066280287027241 -0.46962252377642522 0 0.17708232591383721 -0.47284580137592569 0 0.17067078463067931 -0.47636631704937932 0 0.17485850785465221 -0.47918410942690931 0 0.17708232591383721 -0.47284580137592569 0 0.17067078463067931 -0.47636631704937932 0 0.17066280287027241 -0.46962252377642522 0 0.17708232591383721 -0.47284580137592569 0 0.17708232591383721 -0.47284580137592569 0 0.18101796271624129 -0.47077030047876511 0 0.17707700976616611 -0.46664328161557828 0 0.17708232591383721 -0.47284580137592569 0 0.18101796271624129 -0.47077030047876511 0 0.18813072732706079 -0.48437595136625211 0 0.18101796271624129 -0.47077030047876511 0 0.18484531854294839 -0.46875190273250339 0 0.18101796271624129 -0.47077030047876511 0 0.18484531854294839 -0.46875190273250339 0 0.18813072732706079 -0.48437595136625211 0 0.18484531854294839 -0.46875190273250339 0 0.19141613611117331 -0.50000000000000089 0 0.16406137730161119 -0.5 0 0.17862045554525641 -0.49039832818650292 0 0.19141613611117331 -0.50000000000000089 0 0.18813072732706079 -0.48437595136625211 0 0.17862045554525641 -0.49039832818650292 0 0.1661895001553966 -0.4857123003693678 0 0.17485850785465221 -0.47918410942690931 0 0.17862045554525641 -0.49039832818650292 0 0.063154638564730595 -0.48831380469709462 0 0.081997100872925111 -0.5 0 0.054642342063363047 -0.5 0 0.075019843314600071 -0.48589007133720702 0 0.063154638564730595 -0.48831380469709462 0 0.081997100872925111 -0.5 0 0.075019843314600071 -0.48589007133720702 0 0.063154638564730595 -0.48831380469709462 0 0.065640694750522199 -0.47778957157684709 0 0.065640694750522199 -0.47778957157684709 0 0.075281294642892099 -0.47037197212892617 0 0.064572340689487071 -0.4639771576836686 0 0.075019843314600071 -0.48589007133720702 0 0.065640694750522199 -0.47778957157684709 0 0.075281294642892099 -0.47037197212892617 0 0.075019843314600071 -0.48589007133720702 0 0.092897687566239881 -0.48582967280511491 0 0.095203621830543025 -0.46810106230577231 0 0.075019843314600071 -0.48589007133720702 0 0.095203621830543025 -0.46810106230577231 0 0.075019843314600071 -0.48589007133720702 0 0.075281294642892099 -0.47037197212892617 0 0.095203621830543025 -0.46810106230577231 0 0.075019843314600071 -0.48589007133720702 0 0.092897687566239881 -0.48582967280511491 0 0.081997100872925111 -0.5 0 0.092897687566239881 -0.48582967280511491 0 0.081997100872925111 -0.5 0 0.1093518596824872 -0.5 0 0.092897687566239881 -0.48582967280511491 0 0.1093518596824872 -0.5 0 0.10556214857500409 -0.48776228557024359 0 0.092897687566239881 -0.48582967280511491 0 0.10556214857500409 -0.48776228557024359 0 0.102608065069847 -0.48081192295638048 0 0.1093518596824872 -0.5 0 0.10556214857500409 -0.48776228557024359 0 0.116768802307603 -0.48155467114438832 0 0.12913510363594949 -0.48670898174074367 0 0.1093518596824872 -0.5 0 0.116768802307603 -0.48155467114438832 0 0.1201454271547636 -0.4728434805526347 0 0.116768802307603 -0.48155467114438832 0 0.097123390654448 -0.46640907064426462 0 0.12913510363594949 -0.48670898174074367 0 0.1201454271547636 -0.4728434805526347 0 0.116768802307603 -0.48155467114438832 0 0.1201454271547636 -0.4728434805526347 0 0.097123390654448 -0.46640907064426462 0 0.092897687566239881 -0.48582967280511491 0 0.102608065069847 -0.48081192295638048 0 0.095203621830543025 -0.46810106230577231 0 0.116768802307603 -0.48155467114438832 0 0.095203621830543025 -0.46810106230577231 0 0.116768802307603 -0.48155467114438832 0 0.102608065069847 -0.48081192295638048 0 0.095203621830543025 -0.46810106230577231 0 0.116768802307603 -0.48155467114438832 0 0.095203621830543025 -0.46810106230577231 0 0.097123390654448 -0.46640907064426462 0 0.10556214857500409 -0.48776228557024359 0 0.116768802307603 -0.48155467114438832 0 0.102608065069847 -0.48081192295638048 0 0.097123390654448 -0.46640907064426462 0 0.11498490918638921 -0.45066678957291129 0 0.097123390654448 -0.46640907064426462 0 0.097223364902141549 -0.45448395705060662 0 0.11498490918638921 -0.45066678957291129 0 0.097123390654448 -0.46640907064426462 0 0.097223364902141549 -0.45448395705060662 0 0.091162361480444223 -0.46474302753897029 0 0.095203621830543025 -0.46810106230577231 0 0.097123390654448 -0.46640907064426462 0 0.091162361480444223 -0.46474302753897029 0 0.097123390654448 -0.46640907064426462 0 0.091162361480444223 -0.46474302753897029 0 0.095203621830543025 -0.46810106230577231 0 0.097123390654448 -0.46640907064426462 0 0.13281207886001681 -0.45820717758584367 0 0.1201454271547636 -0.4728434805526347 0 0.11498490918638921 -0.45066678957291129 0 0.1201454271547636 -0.4728434805526347 0 0.097123390654448 -0.46640907064426462 0 0.11498490918638921 -0.45066678957291129 0 0.13284642771833149 -0.43492450850155939 0 0.11498490918638921 -0.45066678957291129 0 0.13284642771833149 -0.43492450850155939 0 0.11498490918638921 -0.45066678957291129 0 0.108324045513836 -0.43012060301593402 0 0.11498490918638921 -0.45066678957291129 0 0.094266019661986902 -0.4414984662041011 0 0.108324045513836 -0.43012060301593402 0 0.097223364902141549 -0.45448395705060662 0 0.11498490918638921 -0.45066678957291129 0 0.094266019661986902 -0.4414984662041011 0 0.094266019661986902 -0.4414984662041011 0 0.086985912254948283 -0.45156655356586639 0 0.076307842600858489 -0.44100531929452208 0 0.086985912254948283 -0.45156655356586639 0 0.075969972629310184 -0.45610199774113241 0 0.076307842600858489 -0.44100531929452208 0 0.097223364902141549 -0.45448395705060662 0 0.094266019661986902 -0.4414984662041011 0 0.086985912254948283 -0.45156655356586639 0 0.095203621830543025 -0.46810106230577231 0 0.075969972629310184 -0.45610199774113241 0 0.075281294642892099 -0.47037197212892617 0 0.095203621830543025 -0.46810106230577231 0 0.075969972629310184 -0.45610199774113241 0 0.095203621830543025 -0.46810106230577231 0 0.091162361480444223 -0.46474302753897029 0 0.075969972629310184 -0.45610199774113241 0 0.097223364902141549 -0.45448395705060662 0 0.086985912254948283 -0.45156655356586639 0 0.091162361480444223 -0.46474302753897029 0 0.086985912254948283 -0.45156655356586639 0 0.091162361480444223 -0.46474302753897029 0 0.075969972629310184 -0.45610199774113241 0 0.075969972629310184 -0.45610199774113241 0 0.064572340689487071 -0.4639771576836686 0 0.056736323428076559 -0.44410293317649341 0 0.075281294642892099 -0.47037197212892617 0 0.075969972629310184 -0.45610199774113241 0 0.064572340689487071 -0.4639771576836686 0 0.075969972629310184 -0.45610199774113241 0 0.056736323428076559 -0.44410293317649341 0 0.075969972629310184 -0.45610199774113241 0 0.076307842600858489 -0.44100531929452208 0 0.056736323428076559 -0.44410293317649341 0 0.076307842600858489 -0.44100531929452208 0 0.061814014291829283 -0.42868535823939902 0 0.056736323428076559 -0.44410293317649341 0 0.076307842600858489 -0.44100531929452208 0 0.082405316248577928 -0.4206520571269427 0 0.061814014291829283 -0.42868535823939902 0 0.06444332441074424 -0.4207018895960789 0 0.082405316248577928 -0.4206520571269427 0 0.061814014291829283 -0.42868535823939902 0 0.082405316248577928 -0.4206520571269427 0 0.061814014291829283 -0.42868535823939902 0 0.06444332441074424 -0.4207018895960789 0 0.061814014291829283 -0.42868535823939902 0 0.06444332441074424 -0.4207018895960789 0 0.081550774452452346 -0.40593473517654333 0 0.06444332441074424 -0.4207018895960789 0 0.081550774452452346 -0.40593473517654333 0 0.071150399643690035 -0.40033695644293488 0 0.06444332441074424 -0.4207018895960789 0 0.071150399643690035 -0.40033695644293488 0 0.06444332441074424 -0.4207018895960789 0 0.082405316248577928 -0.4206520571269427 0 0.081550774452452346 -0.40593473517654333 0 0.06444332441074424 -0.4207018895960789 0 0.071150399643690035 -0.40033695644293488 0 0.052963272060411327 -0.41235951763294199 0 0.082405316248577928 -0.4206520571269427 0 0.1029966182053262 -0.4126187560144855 0 0.081550774452452346 -0.40593473517654333 0 0.082405316248577928 -0.4206520571269427 0 0.1029966182053262 -0.4126187560144855 0 0.094266019661986902 -0.4414984662041011 0 0.076307842600858489 -0.44100531929452208 0 0.082405316248577928 -0.4206520571269427 0 0.094266019661986902 -0.4414984662041011 0 0.082405316248577928 -0.4206520571269427 0 0.108324045513836 -0.43012060301593402 0 0.13284642771833149 -0.43492450850155939 0 0.108324045513836 -0.43012060301593402 0 0.1224449820624047 -0.42036304067560409 0 0.1224449820624047 -0.42036304067560409 0 0.1029966182053262 -0.4126187560144855 0 0.12358792016207421 -0.40458545490202757 0 0.1029966182053262 -0.4126187560144855 0 0.12358792016207421 -0.40458545490202757 0 0.108324045513836 -0.43012060301593402 0 0.1224449820624047 -0.42036304067560409 0 0.1029966182053262 -0.4126187560144855 0 0.082405316248577928 -0.4206520571269427 0 0.108324045513836 -0.43012060301593402 0 0.1029966182053262 -0.4126187560144855 0 0.1029966182053262 -0.4126187560144855 0 0.098658224494159341 -0.39116758075700642 0 0.12358792016207421 -0.40458545490202757 0 0.1029966182053262 -0.4126187560144855 0 0.098658224494159341 -0.39116758075700642 0 0.081550774452452346 -0.40593473517654333 0 0.098658224494159341 -0.39116758075700642 0 0.12358792016207421 -0.40458545490202757 0 0.098658224494159341 -0.39116758075700642 0 0.12358792016207421 -0.40458545490202757 0 0.1171431701103577 -0.37521137187224779 0 0.098658224494159341 -0.39116758075700642 0 0.1171431701103577 -0.37521137187224779 0 0.098658224494159341 -0.39116758075700642 0 0.1171431701103577 -0.37521137187224779 0 0.099651691991377467 -0.36852128995083072 0 0.098658224494159341 -0.39116758075700642 0 0.077857474876635246 -0.37997202328979057 0 0.099651691991377467 -0.36852128995083072 0 0.098658224494159341 -0.39116758075700642 0 0.082084689891247217 -0.39307530241008132 0 0.077857474876635246 -0.37997202328979057 0 0.098658224494159341 -0.39116758075700642 0 0.077857474876635246 -0.37997202328979057 0 0.098658224494159341 -0.39116758075700642 0 0.081550774452452346 -0.40593473517654333 0 0.098658224494159341 -0.39116758075700642 0 0.081550774452452346 -0.40593473517654333 0 0.082084689891247217 -0.39307530241008132 0 0.081550774452452346 -0.40593473517654333 0 0.082084689891247217 -0.39307530241008132 0 0.071150399643690035 -0.40033695644293488 0 0.082084689891247217 -0.39307530241008132 0 0.071150399643690035 -0.40033695644293488 0 0.077857474876635246 -0.37997202328979057 0 0.071150399643690035 -0.40033695644293488 0 0.077857474876635246 -0.37997202328979057 0 0.060343556588021693 -0.38607107016637421 0 0.071150399643690035 -0.40033695644293488 0 0.077857474876635246 -0.37997202328979057 0 0.077857474876635246 -0.37997202328979057 0 0.060343556588021693 -0.38607107016637421 0 0.056783653520459741 -0.36862949081452268 0 0.060343556588021693 -0.38607107016637421 0 0.041265710123743721 -0.3824003486609231 0 0.056783653520459741 -0.36862949081452268 0 0.060343556588021693 -0.38607107016637421 0 0.051842438513727808 -0.39701560595057828 0 0.041265710123743721 -0.3824003486609231 0 0.071150399643690035 -0.40033695644293488 0 0.051842438513727808 -0.39701560595057828 0 0.052963272060411327 -0.41235951763294199 0 0.051842438513727808 -0.39701560595057828 0 0.037167823314602312 -0.40220389597469253 0 0.052963272060411327 -0.41235951763294199 0 0.071150399643690035 -0.40033695644293488 0 0.060343556588021693 -0.38607107016637421 0 0.051842438513727808 -0.39701560595057828 0 0.051842438513727808 -0.39701560595057828 0 0.037167823314602312 -0.40220389597469253 0 0.041265710123743721 -0.3824003486609231 0 0.037167823314602312 -0.40220389597469253 0 0.041265710123743721 -0.3824003486609231 0 0.02726867161108398 -0.39058213541243569 0 0.041265710123743721 -0.3824003486609231 0 0.02726867161108398 -0.39058213541243569 0 0.020675697698226539 -0.37591950497384252 0 0.02726867161108398 -0.39058213541243569 0 0.020675697698226539 -0.37591950497384252 0 0.011816130738178349 -0.39064470650498051 0 0.020675697698226539 -0.37591950497384252 0 0.0085179344395218178 -0.38027014241010848 0 0.011816130738178349 -0.39064470650498051 0 -0.003825397388248677 -0.38769609681974632 0 0.0085179344395218178 -0.38027014241010848 0 0.0054053067099310639 -0.3668202613418648 0 -0.003825397388248677 -0.38769609681974632 0 0.0054053067099310639 -0.3668202613418648 0 -0.003825397388248677 -0.38769609681974632 0 0.0085179344395218178 -0.38027014241010848 0 0.011816130738178349 -0.39064470650498051 0 0.0029304367515351668 -0.39652668871224012 0 0.01844998904718391 -0.40269598066375711 0 0.001511885519548556 -0.40876938373709409 0 -0.003825397388248677 -0.38769609681974632 0 0.0029304367515351668 -0.39652668871224012 0 0.011816130738178349 -0.39064470650498051 0 0.0029304367515351668 -0.39652668871224012 0 0.011816130738178349 -0.39064470650498051 0 0.01844998904718391 -0.40269598066375711 0 0.037167823314602312 -0.40220389597469253 0 0.02726867161108398 -0.39058213541243569 0 0.01844998904718391 -0.40269598066375711 0 0.037167823314602312 -0.40220389597469253 0 0.01844998904718391 -0.40269598066375711 0 0.02929144551033917 -0.4128259452707177 0 0.02726867161108398 -0.39058213541243569 0 0.011816130738178349 -0.39064470650498051 0 0.01844998904718391 -0.40269598066375711 0 0.02929144551033917 -0.4128259452707177 0 0.01809986535507023 -0.41465159979036331 0 0.02492181150019613 -0.42425519764168179 0 0.02929144551033917 -0.4128259452707177 0 0.02492181150019613 -0.42425519764168179 0 0.039093236335726381 -0.41754773823149482 0 0.01809986535507023 -0.41465159979036331 0 0.016324195198083421 -0.42471149163856559 0 0.02492181150019613 -0.42425519764168179 0 0.01844998904718391 -0.40269598066375711 0 0.02929144551033917 -0.4128259452707177 0 0.01809986535507023 -0.41465159979036331 0 0.001511885519548556 -0.40876938373709409 0 0.0035557924323105358 -0.42172266948248099 0 0.016324195198083421 -0.42471149163856559 0 0.01844998904718391 -0.40269598066375711 0 0.01809986535507023 -0.41465159979036331 0 0.001511885519548556 -0.40876938373709409 0 0.01809986535507023 -0.41465159979036331 0 0.001511885519548556 -0.40876938373709409 0 0.016324195198083421 -0.42471149163856559 0 0.001511885519548556 -0.40876938373709409 0 0.016324195198083421 -0.42471149163856559 0 -0.005429102141262133 -0.43229093911168959 0 0.0035557924323105358 -0.42172266948248099 0 0.0075323634135754207 -0.43535433874537321 0 0.0035557924323105358 -0.42172266948248099 0 0.0075323634135754207 -0.43535433874537321 0 0.016324195198083421 -0.42471149163856559 0 0.0075323634135754207 -0.43535433874537321 0 0.016324195198083421 -0.42471149163856559 0 0.01519409046605482 -0.43781602405183517 0 0.016324195198083421 -0.42471149163856559 0 0.03113650487661844 -0.44065359954003708 0 0.01519409046605482 -0.43781602405183517 0 0.016324195198083421 -0.42471149163856559 0 0.02492181150019613 -0.42425519764168179 0 0.03113650487661844 -0.44065359954003708 0 0.016324195198083421 -0.42471149163856559 0 0.03113650487661844 -0.44065359954003708 0 0.02492181150019613 -0.42425519764168179 0 0.043485080151908849 -0.43583603998481529 0 0.045210294366699308 -0.42498798774063751 0 0.02492181150019613 -0.42425519764168179 0 0.045210294366699308 -0.42498798774063751 0 0.039093236335726381 -0.41754773823149482 0 0.02492181150019613 -0.42425519764168179 0 0.043485080151908849 -0.43583603998481529 0 0.03113650487661844 -0.44065359954003708 0 0.02492181150019613 -0.42425519764168179 0 0.043485080151908849 -0.43583603998481529 0 0.043485080151908849 -0.43583603998481529 0 0.045210294366699308 -0.42498798774063751 0 0.049735770545739001 -0.43339745313878208 0 0.045473576986079102 -0.43707657950232509 0 0.043485080151908849 -0.43583603998481529 0 0.049735770545739001 -0.43339745313878208 0 0.043485080151908849 -0.43583603998481529 0 0.049735770545739001 -0.43339745313878208 0 0.045473576986079102 -0.43707657950232509 0 0.043485080151908849 -0.43583603998481529 0 0.037167823314602312 -0.40220389597469253 0 0.039093236335726381 -0.41754773823149482 0 0.052963272060411327 -0.41235951763294199 0 0.037167823314602312 -0.40220389597469253 0 0.02929144551033917 -0.4128259452707177 0 0.039093236335726381 -0.41754773823149482 0 0.045210294366699308 -0.42498798774063751 0 0.039093236335726381 -0.41754773823149482 0 0.052963272060411327 -0.41235951763294199 0 0.06444332441074424 -0.4207018895960789 0 0.045210294366699308 -0.42498798774063751 0 0.052963272060411327 -0.41235951763294199 0 0.06444332441074424 -0.4207018895960789 0 0.045210294366699308 -0.42498798774063751 0 0.049735770545739001 -0.43339745313878208 0 0.06444332441074424 -0.4207018895960789 0 0.061814014291829283 -0.42868535823939902 0 0.049735770545739001 -0.43339745313878208 0 0.06444332441074424 -0.4207018895960789 0 0.049735770545739001 -0.43339745313878208 0 0.061814014291829283 -0.42868535823939902 0 0.049735770545739001 -0.43339745313878208 0 0.061814014291829283 -0.42868535823939902 0 0.056736323428076559 -0.44410293317649341 0 0.061814014291829283 -0.42868535823939902 0 0.049735770545739001 -0.43339745313878208 0 0.056736323428076559 -0.44410293317649341 0 0.045473576986079102 -0.43707657950232509 0 0.049735770545739001 -0.43339745313878208 0 0.047189653769099643 -0.44715350713183483 0 0.056736323428076559 -0.44410293317649341 0 0.050875546042254922 -0.46189822181459161 0 0.056736323428076559 -0.44410293317649341 0 0.050875546042254922 -0.46189822181459161 0 0.045473576986079102 -0.43707657950232509 0 0.056736323428076559 -0.44410293317649341 0 0.045473576986079102 -0.43707657950232509 0 0.047189653769099643 -0.44715350713183483 0 0.056736323428076559 -0.44410293317649341 0 0.045473576986079102 -0.43707657950232509 0 0.049735770545739001 -0.43339745313878208 0 0.056736323428076559 -0.44410293317649341 0 0.065640694750522199 -0.47778957157684709 0 0.064572340689487071 -0.4639771576836686 0 0.050875546042254922 -0.46189822181459161 0 0.064572340689487071 -0.4639771576836686 0 0.056736323428076559 -0.44410293317649341 0 0.050875546042254922 -0.46189822181459161 0 0.050875546042254922 -0.46189822181459161 0 0.049179316473215412 -0.46704854450907718 0 0.055614628981316722 -0.47517059881083101 0 0.050875546042254922 -0.46189822181459161 0 0.049179316473215412 -0.46704854450907718 0 0.050875546042254922 -0.46189822181459161 0 0.037558883350572191 -0.46383895552439319 0 0.035673168619983139 -0.44553629403393807 0 0.050875546042254922 -0.46189822181459161 0 0.035673168619983139 -0.44553629403393807 0 0.049179316473215412 -0.46704854450907718 0 0.037558883350572191 -0.46383895552439319 0 0.043898620525501107 -0.47414857950829492 0 0.050875546042254922 -0.46189822181459161 0 0.049179316473215412 -0.46704854450907718 0 0.037558883350572191 -0.46383895552439319 0 0.047189653769099643 -0.44715350713183483 0 0.050875546042254922 -0.46189822181459161 0 0.035673168619983139 -0.44553629403393807 0 0.045473576986079102 -0.43707657950232509 0 0.047189653769099643 -0.44715350713183483 0 0.035673168619983139 -0.44553629403393807 0 0.045473576986079102 -0.43707657950232509 0 0.035673168619983139 -0.44553629403393807 0 0.045473576986079102 -0.43707657950232509 0 0.043485080151908849 -0.43583603998481529 0 0.035673168619983139 -0.44553629403393807 0 0.043485080151908849 -0.43583603998481529 0 0.03113650487661844 -0.44065359954003708 0 0.043485080151908849 -0.43583603998481529 0 0.035673168619983139 -0.44553629403393807 0 0.03113650487661844 -0.44065359954003708 0 0.035673168619983139 -0.44553629403393807 0 0.03113650487661844 -0.44065359954003708 0 0.03113650487661844 -0.44065359954003708 0 0.01519409046605482 -0.43781602405183517 0 0.0057832983759422141 -0.45054466628336548 0 0.03113650487661844 -0.44065359954003708 0 0.0057832983759422141 -0.45054466628336548 0 0.035673168619983139 -0.44553629403393807 0 0.03113650487661844 -0.44065359954003708 0 0.014641467624880181 -0.46369086268928889 0 0.03113650487661844 -0.44065359954003708 0 0.0057832983759422141 -0.45054466628336548 0 0.014641467624880181 -0.46369086268928889 0 -0.005429102141262133 -0.43229093911168959 0 0.0075323634135754207 -0.43535433874537321 0 0.0057832983759422141 -0.45054466628336548 0 0.0075323634135754207 -0.43535433874537321 0 0.01519409046605482 -0.43781602405183517 0 0.0057832983759422141 -0.45054466628336548 0 -0.0021773900229133808 -0.46546624057839919 0 0.0057832983759422141 -0.45054466628336548 0 0.014641467624880181 -0.46369086268928889 0 0.037558883350572191 -0.46383895552439319 0 0.014641467624880181 -0.46369086268928889 0 0.03078043662604537 -0.47845587781325638 0 0.037558883350572191 -0.46383895552439319 0 0.035673168619983139 -0.44553629403393807 0 0.014641467624880181 -0.46369086268928889 0 0.035673168619983139 -0.44553629403393807 0 0.014641467624880181 -0.46369086268928889 0 0.014641467624880181 -0.46369086268928889 0 0.03078043662604537 -0.47845587781325638 0 0.01325041571574853 -0.48479843436943709 0 -0.0063902333702228614 -0.48184543134464008 0 0.014641467624880181 -0.46369086268928889 0 0.01325041571574853 -0.48479843436943709 0 -0.0021773900229133808 -0.46546624057839919 0 -0.0063902333702228614 -0.48184543134464008 0 0.014641467624880181 -0.46369086268928889 0 -0.0063902333702228614 -0.48184543134464008 0 0.014641467624880181 -0.46369086268928889 0 -6.7175555761023187e-05 -0.5 0 -0.0063902333702228614 -0.48184543134464008 0 0.01325041571574853 -0.48479843436943709 0 -6.7175555761023187e-05 -0.5 0 0.01325041571574853 -0.48479843436943709 0 0.027287583253800981 -0.5 0 0.03078043662604537 -0.47845587781325638 0 0.01325041571574853 -0.48479843436943709 0 0.027287583253800981 -0.5 0 0.03078043662604537 -0.47845587781325638 0 0.027287583253800981 -0.5 0 0.046359837196355842 -0.48622892088391662 0 0.027287583253800981 -0.5 0 0.046359837196355842 -0.48622892088391662 0 0.054642342063363047 -0.5 0 0.037558883350572191 -0.46383895552439319 0 0.03078043662604537 -0.47845587781325638 0 0.043898620525501107 -0.47414857950829492 0 0.03078043662604537 -0.47845587781325638 0 0.046359837196355842 -0.48622892088391662 0 0.043898620525501107 -0.47414857950829492 0 0.063154638564730595 -0.48831380469709462 0 0.046359837196355842 -0.48622892088391662 0 0.055614628981316722 -0.47517059881083101 0 0.065640694750522199 -0.47778957157684709 0 0.050875546042254922 -0.46189822181459161 0 0.055614628981316722 -0.47517059881083101 0 0.046359837196355842 -0.48622892088391662 0 0.043898620525501107 -0.47414857950829492 0 0.055614628981316722 -0.47517059881083101 0 0.065640694750522199 -0.47778957157684709 0 0.050875546042254922 -0.46189822181459161 0 0.049179316473215412 -0.46704854450907718 0 0.043898620525501107 -0.47414857950829492 0 0.055614628981316722 -0.47517059881083101 0 0.063154638564730595 -0.48831380469709462 0 0.065640694750522199 -0.47778957157684709 0 0.055614628981316722 -0.47517059881083101 0 0.063154638564730595 -0.48831380469709462 0 0.046359837196355842 -0.48622892088391662 0 0.054642342063363047 -0.5 0 0.082448419839266637 -0.28340767202475398 0 0.1005090960890118 -0.30317902128797092 0 0.082448419839266637 -0.28340767202475398 0 0.097814252250374559 -0.28592829586209889 0 0.1005090960890118 -0.30317902128797092 0 0.082448419839266637 -0.28340767202475398 0 0.081986428377154127 -0.30576875991484631 0 0.070902350248932433 -0.28497599242188892 0 0.082448419839266637 -0.28340767202475398 0 0.081986428377154127 -0.30576875991484631 0 0.1005090960890118 -0.30317902128797092 0 0.081986428377154127 -0.30576875991484631 0 0.066286625101520627 -0.29961169556423511 0 0.065729884217371609 -0.31300186128168911 0 0.081986428377154127 -0.30576875991484631 0 0.066286625101520627 -0.29961169556423511 0 0.070902350248932433 -0.28497599242188892 0 0.081986428377154127 -0.30576875991484631 0 0.070902350248932433 -0.28497599242188892 0 0.066286625101520627 -0.29961169556423511 0 0.070902350248932433 -0.28497599242188892 0 0.056579629440355828 -0.29179929709994379 0 0.082448419839266637 -0.28340767202475398 0 0.064387743589521484 -0.26363632276153698 0 0.070902350248932433 -0.28497599242188892 0 0.05981827212071069 -0.26418322492893143 0 0.082448419839266637 -0.28340767202475398 0 0.070902350248932433 -0.28497599242188892 0 0.064387743589521484 -0.26363632276153698 0 0.070902350248932433 -0.28497599242188892 0 0.064387743589521484 -0.26363632276153698 0 0.05981827212071069 -0.26418322492893143 0 0.082448419839266637 -0.28340767202475398 0 0.064387743589521484 -0.26363632276153698 0 0.079943730752757486 -0.26829031715298479 0 0.068275928897393895 -0.25169716410140819 0 0.064387743589521484 -0.26363632276153698 0 0.060176099792708958 -0.2482977263614497 0 0.068275928897393895 -0.25169716410140819 0 0.064387743589521484 -0.26363632276153698 0 0.075674457176584747 -0.25915742653700452 0 0.064387743589521484 -0.26363632276153698 0 0.075674457176584747 -0.25915742653700452 0 0.079943730752757486 -0.26829031715298479 0 0.068275928897393895 -0.25169716410140819 0 0.075674457176584747 -0.25915742653700452 0 0.075233646240314797 -0.24684660800888331 0 0.084746238824919037 -0.252453491772479 0 0.08509647618192609 -0.26291622109036211 0 0.1011788931590009 -0.25255459535975172 0 0.08509647618192609 -0.26291622109036211 0 0.092111556976488485 -0.27233394335126682 0 0.1011788931590009 -0.25255459535975172 0 0.075674457176584747 -0.25915742653700452 0 0.084746238824919037 -0.252453491772479 0 0.075233646240314797 -0.24684660800888331 0 0.075674457176584747 -0.25915742653700452 0 0.084746238824919037 -0.252453491772479 0 0.08509647618192609 -0.26291622109036211 0 0.075674457176584747 -0.25915742653700452 0 0.08509647618192609 -0.26291622109036211 0 0.079943730752757486 -0.26829031715298479 0 0.082448419839266637 -0.28340767202475398 0 0.079943730752757486 -0.26829031715298479 0 0.092111556976488485 -0.27233394335126682 0 0.08509647618192609 -0.26291622109036211 0 0.079943730752757486 -0.26829031715298479 0 0.092111556976488485 -0.27233394335126682 0 0.082448419839266637 -0.28340767202475398 0 0.092111556976488485 -0.27233394335126682 0 0.097814252250374559 -0.28592829586209889 0 0.092111556976488485 -0.27233394335126682 0 0.1063282859744733 -0.27610707814185448 0 0.097814252250374559 -0.28592829586209889 0 0.092111556976488485 -0.27233394335126682 0 0.1063282859744733 -0.27610707814185448 0 0.1011788931590009 -0.25255459535975172 0 0.1011788931590009 -0.25255459535975172 0 0.1217130384039382 -0.26516178395753037 0 0.1214835034677795 -0.25138887676200428 0 0.1063282859744733 -0.27610707814185448 0 0.1011788931590009 -0.25255459535975172 0 0.1217130384039382 -0.26516178395753037 0 0.1063282859744733 -0.27610707814185448 0 0.1217130384039382 -0.26516178395753037 0 0.1197064456482814 -0.28279498195656338 0 0.1063282859744733 -0.27610707814185448 0 0.1197064456482814 -0.28279498195656338 0 0.1101013626810485 -0.29282789622505978 0 0.1197064456482814 -0.28279498195656338 0 0.1236115179063096 -0.2966526690749946 0 0.1101013626810485 -0.29282789622505978 0 0.1101013626810485 -0.29282789622505978 0 0.097814252250374559 -0.28592829586209889 0 0.1005090960890118 -0.30317902128797092 0 0.1063282859744733 -0.27610707814185448 0 0.1101013626810485 -0.29282789622505978 0 0.097814252250374559 -0.28592829586209889 0 0.1101013626810485 -0.29282789622505978 0 0.1005090960890118 -0.30317902128797092 0 0.1164349939541254 -0.31194781102468899 0 0.1005090960890118 -0.30317902128797092 0 0.1164349939541254 -0.31194781102468899 0 0.1045676081915221 -0.31734459908669749 0 0.081986428377154127 -0.30576875991484631 0 0.1005090960890118 -0.30317902128797092 0 0.1045676081915221 -0.31734459908669749 0 0.1236115179063096 -0.2966526690749946 0 0.1101013626810485 -0.29282789622505978 0 0.1164349939541254 -0.31194781102468899 0 0.1164349939541254 -0.31194781102468899 0 0.1100341295230052 -0.32995156701435568 0 0.1045676081915221 -0.31734459908669749 0 0.1164349939541254 -0.31194781102468899 0 0.1238801369892481 -0.32348842194350352 0 0.1100341295230052 -0.32995156701435568 0 0.1238801369892481 -0.32348842194350352 0 0.1100341295230052 -0.32995156701435568 0 0.1246181137787972 -0.34046254718180657 0 0.1100341295230052 -0.32995156701435568 0 0.1246181137787972 -0.34046254718180657 0 0.1041545846335975 -0.34735429490076097 0 0.1100341295230052 -0.32995156701435568 0 0.1041545846335975 -0.34735429490076097 0 0.09307050650537578 -0.32656152740780359 0 0.1041545846335975 -0.34735429490076097 0 0.09307050650537578 -0.32656152740780359 0 0.09139175705131572 -0.33887739676625489 0 0.1041545846335975 -0.34735429490076097 0 0.09307050650537578 -0.32656152740780359 0 0.1100341295230052 -0.32995156701435568 0 0.1045676081915221 -0.31734459908669749 0 0.09307050650537578 -0.32656152740780359 0 0.1171431701103577 -0.37521137187224779 0 0.1156717521575945 -0.35804023452393008 0 0.099651691991377467 -0.36852128995083072 0 0.1356281157265547 -0.35925516298748777 0 0.1171431701103577 -0.37521137187224779 0 0.1156717521575945 -0.35804023452393008 0 0.1246181137787972 -0.34046254718180657 0 0.1156717521575945 -0.35804023452393008 0 0.1041545846335975 -0.34735429490076097 0 0.1156717521575945 -0.35804023452393008 0 0.1041545846335975 -0.34735429490076097 0 0.099651691991377467 -0.36852128995083072 0 0.1041545846335975 -0.34735429490076097 0 0.099651691991377467 -0.36852128995083072 0 0.084624615963975622 -0.35942471002802279 0 0.077857474876635246 -0.37997202328979057 0 0.099651691991377467 -0.36852128995083072 0 0.084624615963975622 -0.35942471002802279 0 0.077857474876635246 -0.37997202328979057 0 0.084624615963975622 -0.35942471002802279 0 0.084624615963975622 -0.35942471002802279 0 0.074614767104180718 -0.34481190270715167 0 0.09139175705131572 -0.33887739676625489 0 0.1041545846335975 -0.34735429490076097 0 0.084624615963975622 -0.35942471002802279 0 0.09139175705131572 -0.33887739676625489 0 0.084624615963975622 -0.35942471002802279 0 0.09139175705131572 -0.33887739676625489 0 0.074614767104180718 -0.34481190270715167 0 0.069900171188394034 -0.36010328438032391 0 0.057171483935214103 -0.34938563834189751 0 0.084624615963975622 -0.35942471002802279 0 0.074614767104180718 -0.34481190270715167 0 0.069900171188394034 -0.36010328438032391 0 0.077857474876635246 -0.37997202328979057 0 0.069900171188394034 -0.36010328438032391 0 0.056783653520459741 -0.36862949081452268 0 0.077857474876635246 -0.37997202328979057 0 0.084624615963975622 -0.35942471002802279 0 0.069900171188394034 -0.36010328438032391 0 0.077857474876635246 -0.37997202328979057 0 0.056783653520459741 -0.36862949081452268 0 0.081986428377154127 -0.30576875991484631 0 0.09307050650537578 -0.32656152740780359 0 0.077915145848469328 -0.32128975286220979 0 0.081986428377154127 -0.30576875991484631 0 0.1045676081915221 -0.31734459908669749 0 0.09307050650537578 -0.32656152740780359 0 0.081986428377154127 -0.30576875991484631 0 0.09307050650537578 -0.32656152740780359 0 0.09307050650537578 -0.32656152740780359 0 0.08015691125105659 -0.33228948864363139 0 0.077915145848469328 -0.32128975286220979 0 0.09307050650537578 -0.32656152740780359 0 0.09139175705131572 -0.33887739676625489 0 0.08015691125105659 -0.33228948864363139 0 0.074614767104180718 -0.34481190270715167 0 0.09139175705131572 -0.33887739676625489 0 0.08015691125105659 -0.33228948864363139 0 0.074614767104180718 -0.34481190270715167 0 0.08015691125105659 -0.33228948864363139 0 0.063792379745941416 -0.32990686347473691 0 0.074614767104180718 -0.34481190270715167 0 0.063792379745941416 -0.32990686347473691 0 0.057171483935214103 -0.34938563834189751 0 0.08015691125105659 -0.33228948864363139 0 0.063792379745941416 -0.32990686347473691 0 0.077915145848469328 -0.32128975286220979 0 0.063792379745941416 -0.32990686347473691 0 0.077915145848469328 -0.32128975286220979 0 0.065729884217371609 -0.31300186128168911 0 0.081986428377154127 -0.30576875991484631 0 0.077915145848469328 -0.32128975286220979 0 0.065729884217371609 -0.31300186128168911 0 0.063792379745941416 -0.32990686347473691 0 0.065729884217371609 -0.31300186128168911 0 0.047714734876335638 -0.31890305949728082 0 0.063792379745941416 -0.32990686347473691 0 0.047714734876335638 -0.31890305949728082 0 0.043003669617270833 -0.33642900197528058 0 0.063792379745941416 -0.32990686347473691 0 0.043003669617270833 -0.33642900197528058 0 0.057171483935214103 -0.34938563834189751 0 0.043003669617270833 -0.33642900197528058 0 0.022788791485998779 -0.327506384051723 0 0.0288229574181606 -0.34119600702335878 0 0.047714734876335638 -0.31890305949728082 0 0.022788791485998779 -0.327506384051723 0 0.0309415721638868 -0.30906834223946261 0 0.047714734876335638 -0.31890305949728082 0 0.043003669617270833 -0.33642900197528058 0 0.022788791485998779 -0.327506384051723 0 0.069900171188394034 -0.36010328438032391 0 0.056783653520459741 -0.36862949081452268 0 0.057171483935214103 -0.34938563834189751 0 0.056783653520459741 -0.36862949081452268 0 0.057171483935214103 -0.34938563834189751 0 0.035709832164285138 -0.35728695833925322 0 0.043003669617270833 -0.33642900197528058 0 0.035709832164285138 -0.35728695833925322 0 0.0288229574181606 -0.34119600702335878 0 0.043003669617270833 -0.33642900197528058 0 0.057171483935214103 -0.34938563834189751 0 0.035709832164285138 -0.35728695833925322 0 0.041265710123743721 -0.3824003486609231 0 0.020675697698226539 -0.37591950497384252 0 0.035709832164285138 -0.35728695833925322 0 0.041265710123743721 -0.3824003486609231 0 0.056783653520459741 -0.36862949081452268 0 0.035709832164285138 -0.35728695833925322 0 0.056783653520459741 -0.36862949081452268 0 0.035709832164285138 -0.35728695833925322 0 0.020675697698226539 -0.37591950497384252 0 0.035709832164285138 -0.35728695833925322 0 0.02024426400979195 -0.36105767251490212 0 0.035709832164285138 -0.35728695833925322 0 0.014636010808110739 -0.34594442586398327 0 0.035709832164285138 -0.35728695833925322 0 0.014636010808110739 -0.34594442586398327 0 0.0288229574181606 -0.34119600702335878 0 0.035709832164285138 -0.35728695833925322 0 0.02024426400979195 -0.36105767251490212 0 0.014636010808110739 -0.34594442586398327 0 -0.0028658714993471009 -0.34779572035617068 0 0.014636010808110739 -0.34594442586398327 0 0.0054053067099310639 -0.3668202613418648 0 0.014636010808110739 -0.34594442586398327 0 0.0054053067099310639 -0.3668202613418648 0 0.02024426400979195 -0.36105767251490212 0 0.014636010808110739 -0.34594442586398327 0 0.0054053067099310639 -0.3668202613418648 0 0.020675697698226539 -0.37591950497384252 0 0.02024426400979195 -0.36105767251490212 0 0.0054053067099310639 -0.3668202613418648 0 0.020675697698226539 -0.37591950497384252 0 0.0085179344395218178 -0.38027014241010848 0 0.0054053067099310639 -0.3668202613418648 0 0.022788791485998779 -0.327506384051723 0 0.0309415721638868 -0.30906834223946261 0 0.022788791485998779 -0.327506384051723 0 0.012331423384818 -0.30914909983539668 0 0.0309415721638868 -0.30906834223946261 0 0.014636010808110739 -0.34594442586398327 0 0.022788791485998779 -0.327506384051723 0 0.014636010808110739 -0.34594442586398327 0 0.022788791485998779 -0.327506384051723 0 0.0288229574181606 -0.34119600702335878 0 -0.0083032927095371828 -0.33359783761539591 0 0.014636010808110739 -0.34594442586398327 0 0.014636010808110739 -0.34594442586398327 0 0.001169888875712684 -0.33178113742189169 0 0.0080578801923537405 -0.32522436319465148 0 -0.0083032927095371828 -0.33359783761539591 0 0.014636010808110739 -0.34594442586398327 0 0.001169888875712684 -0.33178113742189169 0 0.014636010808110739 -0.34594442586398327 0 0.022788791485998779 -0.327506384051723 0 0.0080578801923537405 -0.32522436319465148 0 -0.0083032927095371828 -0.33359783761539591 0 -0.0028658714993471009 -0.34779572035617068 0 0.014636010808110739 -0.34594442586398327 0 0.0080578801923537405 -0.32522436319465148 0 0.0018218712204055871 -0.31650540371877861 0 0.012331423384818 -0.30914909983539668 0 0.022788791485998779 -0.327506384051723 0 0.0080578801923537405 -0.32522436319465148 0 0.012331423384818 -0.30914909983539668 0 -0.0028984470069264899 -0.32374095362905292 0 0.0080578801923537405 -0.32522436319465148 0 0.0018218712204055871 -0.31650540371877861 0 -0.0028984470069264899 -0.32374095362905292 0 0.001169888875712684 -0.33178113742189169 0 0.0080578801923537405 -0.32522436319465148 0 -0.002020478746885553 -0.289586447709826 0 0.012331423384818 -0.30914909983539668 0 0.02045869830000778 -0.29251185638818922 0 -0.0067298388885113653 -0.30830308727990929 0 0.0018218712204055871 -0.31650540371877861 0 0.012331423384818 -0.30914909983539668 0 -0.0067298388885113653 -0.30830308727990929 0 -0.002020478746885553 -0.289586447709826 0 0.012331423384818 -0.30914909983539668 0 -0.002020478746885553 -0.289586447709826 0 0.02045869830000778 -0.29251185638818922 0 0.01121479050741375 -0.2790937470855086 0 0.02045869830000778 -0.29251185638818922 0 0.039094352841774829 -0.29063030042720223 0 0.029532811428705692 -0.27590112547683909 0 0.02045869830000778 -0.29251185638818922 0 0.029532811428705692 -0.27590112547683909 0 0.01121479050741375 -0.2790937470855086 0 0.02045869830000778 -0.29251185638818922 0 0.0309415721638868 -0.30906834223946261 0 0.039094352841774829 -0.29063030042720223 0 0.012331423384818 -0.30914909983539668 0 0.02045869830000778 -0.29251185638818922 0 0.0309415721638868 -0.30906834223946261 0 0.0309415721638868 -0.30906834223946261 0 0.039094352841774829 -0.29063030042720223 0 0.052402006280434787 -0.30363813227034342 0 0.0309415721638868 -0.30906834223946261 0 0.039094352841774829 -0.29063030042720223 0 0.047714734876335638 -0.31890305949728082 0 0.0309415721638868 -0.30906834223946261 0 0.052402006280434787 -0.30363813227034342 0 0.039094352841774829 -0.29063030042720223 0 0.042416386578767402 -0.27870798858527163 0 0.029532811428705692 -0.27590112547683909 0 0.039094352841774829 -0.29063030042720223 0 0.054212812729116468 -0.28014036481604948 0 0.042416386578767402 -0.27870798858527163 0 0.070902350248932433 -0.28497599242188892 0 0.056579629440355828 -0.29179929709994379 0 0.054212812729116468 -0.28014036481604948 0 0.039094352841774829 -0.29063030042720223 0 0.056579629440355828 -0.29179929709994379 0 0.052402006280434787 -0.30363813227034342 0 0.039094352841774829 -0.29063030042720223 0 0.056579629440355828 -0.29179929709994379 0 0.054212812729116468 -0.28014036481604948 0 0.066286625101520627 -0.29961169556423511 0 0.056579629440355828 -0.29179929709994379 0 0.052402006280434787 -0.30363813227034342 0 0.065729884217371609 -0.31300186128168911 0 0.047714734876335638 -0.31890305949728082 0 0.052402006280434787 -0.30363813227034342 0 0.066286625101520627 -0.29961169556423511 0 0.065729884217371609 -0.31300186128168911 0 0.052402006280434787 -0.30363813227034342 0 0.064387743589521484 -0.26363632276153698 0 0.049668745340723568 -0.25628428588149271 0 0.046327067339776429 -0.2438649734983202 0 0.064387743589521484 -0.26363632276153698 0 0.046327067339776429 -0.2438649734983202 0 0.064387743589521484 -0.26363632276153698 0 0.046327067339776429 -0.2438649734983202 0 0.060176099792708958 -0.2482977263614497 0 0.051676398694862978 -0.26391100648792548 0 0.049668745340723568 -0.25628428588149271 0 0.05981827212071069 -0.26418322492893143 0 0.051676398694862978 -0.26391100648792548 0 0.049668745340723568 -0.25628428588149271 0 0.043096928307984783 -0.26735950931439773 0 0.064387743589521484 -0.26363632276153698 0 0.049668745340723568 -0.25628428588149271 0 0.05981827212071069 -0.26418322492893143 0 0.05981827212071069 -0.26418322492893143 0 0.054212812729116468 -0.28014036481604948 0 0.050295432756967462 -0.2708934887834164 0 0.070902350248932433 -0.28497599242188892 0 0.05981827212071069 -0.26418322492893143 0 0.054212812729116468 -0.28014036481604948 0 0.054212812729116468 -0.28014036481604948 0 0.050295432756967462 -0.2708934887834164 0 0.042416386578767402 -0.27870798858527163 0 0.051676398694862978 -0.26391100648792548 0 0.05981827212071069 -0.26418322492893143 0 0.050295432756967462 -0.2708934887834164 0 0.051676398694862978 -0.26391100648792548 0 0.050295432756967462 -0.2708934887834164 0 0.043096928307984783 -0.26735950931439773 0 0.050295432756967462 -0.2708934887834164 0 0.043096928307984783 -0.26735950931439773 0 0.042416386578767402 -0.27870798858527163 0 0.043096928307984783 -0.26735950931439773 0 0.031631028735141398 -0.25666252238192999 0 0.029532811428705692 -0.27590112547683909 0 0.043096928307984783 -0.26735950931439773 0 0.042416386578767402 -0.27870798858527163 0 0.029532811428705692 -0.27590112547683909 0 0.049668745340723568 -0.25628428588149271 0 0.043096928307984783 -0.26735950931439773 0 0.031631028735141398 -0.25666252238192999 0 0.049668745340723568 -0.25628428588149271 0 0.031631028735141398 -0.25666252238192999 0 0.046327067339776429 -0.2438649734983202 0 0.031631028735141398 -0.25666252238192999 0 0.01407926232528886 -0.25139663685460989 0 0.01473338443965239 -0.26518988219414807 0 0.031631028735141398 -0.25666252238192999 0 0.029532811428705692 -0.27590112547683909 0 0.01473338443965239 -0.26518988219414807 0 0.029532811428705692 -0.27590112547683909 0 0.01121479050741375 -0.2790937470855086 0 0.01473338443965239 -0.26518988219414807 0 -0.0029899779201155471 -0.27247833955681849 0 0.01121479050741375 -0.2790937470855086 0 0.01473338443965239 -0.26518988219414807 0 -0.002020478746885553 -0.289586447709826 0 -0.0029899779201155471 -0.27247833955681849 0 0.01121479050741375 -0.2790937470855086 0 -0.0029899779201155471 -0.27247833955681849 0 0.01473338443965239 -0.26518988219414807 0 0.001840154003947637 -0.2560556707182301 0 0.01407926232528886 -0.25139663685460989 0 0.01473338443965239 -0.26518988219414807 0 0.001840154003947637 -0.2560556707182301 0 0.01407926232528886 -0.25139663685460989 0 0.001840154003947637 -0.2560556707182301 0 0.0057835552839677062 -0.24329957035541641 0 0.0057835552839677062 -0.24329957035541641 0 0.00042157157782213121 -0.2314360536204994 0 0.016408189163735178 -0.23577553862332479 0 0.01407926232528886 -0.25139663685460989 0 0.0057835552839677062 -0.24329957035541641 0 0.016408189163735178 -0.23577553862332479 0 0.01401641117159547 -0.21976999817375861 0 0.016408189163735178 -0.23577553862332479 0 0.0011853495923289639 -0.21488855486471969 0 0.00042157157782213121 -0.2314360536204994 0 0.016408189163735178 -0.23577553862332479 0 0.0011853495923289639 -0.21488855486471969 0 0.016408189163735178 -0.23577553862332479 0 0.0011853495923289639 -0.21488855486471969 0 0.01401641117159547 -0.21976999817375861 0 0.02826639109003139 -0.2240936242351034 0 0.016408189163735178 -0.23577553862332479 0 0.02826639109003139 -0.2240936242351034 0 0.030904457582776639 -0.23985827357003789 0 0.016408189163735178 -0.23577553862332479 0 0.031631028735141398 -0.25666252238192999 0 0.030904457582776639 -0.23985827357003789 0 0.016408189163735178 -0.23577553862332479 0 0.031631028735141398 -0.25666252238192999 0 0.01407926232528886 -0.25139663685460989 0 0.016408189163735178 -0.23577553862332479 0 0.031631028735141398 -0.25666252238192999 0 0.016408189163735178 -0.23577553862332479 0 -0.0023529401560947009 -0.2001885541209486 0 0.0044186653515912253 -0.19265510766796501 0 0.01020571484028635 -0.20432227497188671 0 0.0044186653515912253 -0.19265510766796501 0 0.01020571484028635 -0.20432227497188671 0 0.019870860168843721 -0.19279235987578111 0 -0.0023529401560947009 -0.2001885541209486 0 0.01020571484028635 -0.20432227497188671 0 0.0011853495923289639 -0.21488855486471969 0 0.01401641117159547 -0.21976999817375861 0 0.01020571484028635 -0.20432227497188671 0 0.0011853495923289639 -0.21488855486471969 0 0.02826639109003139 -0.2240936242351034 0 0.01020571484028635 -0.20432227497188671 0 0.025663690966001081 -0.2072697725520958 0 0.01401641117159547 -0.21976999817375861 0 0.02826639109003139 -0.2240936242351034 0 0.01020571484028635 -0.20432227497188671 0 0.02826639109003139 -0.2240936242351034 0 0.025663690966001081 -0.2072697725520958 0 0.039452523663963707 -0.21094075285928621 0 0.02826639109003139 -0.2240936242351034 0 0.01020571484028635 -0.20432227497188671 0 0.019870860168843721 -0.19279235987578111 0 0.033467489980448663 -0.2012078567378062 0 0.036351642036688669 -0.17737224065806431 0 0.01020571484028635 -0.20432227497188671 0 0.025663690966001081 -0.2072697725520958 0 0.019870860168843721 -0.19279235987578111 0 0.025663690966001081 -0.2072697725520958 0 0.019870860168843721 -0.19279235987578111 0 0.033467489980448663 -0.2012078567378062 0 0.033467489980448663 -0.2012078567378062 0 0.048337262933769012 -0.1965626703272248 0 0.036351642036688669 -0.17737224065806431 0 0.033467489980448663 -0.2012078567378062 0 0.039452523663963707 -0.21094075285928621 0 0.048337262933769012 -0.1965626703272248 0 0.039452523663963707 -0.21094075285928621 0 0.055666413814584662 -0.21155515346228301 0 0.045313893198947491 -0.22495543984120411 0 0.025663690966001081 -0.2072697725520958 0 0.033467489980448663 -0.2012078567378062 0 0.039452523663963707 -0.21094075285928621 0 0.039452523663963707 -0.21094075285928621 0 0.055666413814584662 -0.21155515346228301 0 0.048337262933769012 -0.1965626703272248 0 0.048337262933769012 -0.1965626703272248 0 0.066204318537055537 -0.19688113721820591 0 0.060440846055315071 -0.1814113105338867 0 0.055666413814584662 -0.21155515346228301 0 0.048337262933769012 -0.1965626703272248 0 0.066204318537055537 -0.19688113721820591 0 0.02826639109003139 -0.2240936242351034 0 0.030904457582776639 -0.23985827357003789 0 0.046327067339776429 -0.2438649734983202 0 0.031631028735141398 -0.25666252238192999 0 0.030904457582776639 -0.23985827357003789 0 0.046327067339776429 -0.2438649734983202 0 0.02826639109003139 -0.2240936242351034 0 0.039452523663963707 -0.21094075285928621 0 0.045313893198947491 -0.22495543984120411 0 0.02826639109003139 -0.2240936242351034 0 0.046327067339776429 -0.2438649734983202 0 0.045313893198947491 -0.22495543984120411 0 0.02826639109003139 -0.2240936242351034 0 0.046327067339776429 -0.2438649734983202 0 0.055666413814584662 -0.21155515346228301 0 0.059801594999949678 -0.23133070107041229 0 0.067270607737369995 -0.22071182764122591 0 0.055666413814584662 -0.21155515346228301 0 0.045313893198947491 -0.22495543984120411 0 0.059801594999949678 -0.23133070107041229 0 0.046327067339776429 -0.2438649734983202 0 0.045313893198947491 -0.22495543984120411 0 0.059801594999949678 -0.23133070107041229 0 0.059801594999949678 -0.23133070107041229 0 0.060176099792708958 -0.2482977263614497 0 0.067061111862492834 -0.2411250341974151 0 0.046327067339776429 -0.2438649734983202 0 0.059801594999949678 -0.23133070107041229 0 0.060176099792708958 -0.2482977263614497 0 0.067061111862492834 -0.2411250341974151 0 0.075233646240314797 -0.24684660800888331 0 0.077354677420432991 -0.2302239987693159 0 0.068275928897393895 -0.25169716410140819 0 0.067061111862492834 -0.2411250341974151 0 0.075233646240314797 -0.24684660800888331 0 0.068275928897393895 -0.25169716410140819 0 0.060176099792708958 -0.2482977263614497 0 0.067061111862492834 -0.2411250341974151 0 0.075233646240314797 -0.24684660800888331 0 0.086547721366768721 -0.24079260786639339 0 0.077354677420432991 -0.2302239987693159 0 0.086547721366768721 -0.24079260786639339 0 0.077354677420432991 -0.2302239987693159 0 0.09787979839298333 -0.23251391612252389 0 0.084746238824919037 -0.252453491772479 0 0.1011788931590009 -0.25255459535975172 0 0.086547721366768721 -0.24079260786639339 0 0.084746238824919037 -0.252453491772479 0 0.075233646240314797 -0.24684660800888331 0 0.086547721366768721 -0.24079260786639339 0 0.077354677420432991 -0.2302239987693159 0 0.090053054989862838 -0.21828529157448859 0 0.09787979839298333 -0.23251391612252389 0 0.077354677420432991 -0.2302239987693159 0 0.07515275210996869 -0.2099171429154145 0 0.090053054989862838 -0.21828529157448859 0 0.059801594999949678 -0.23133070107041229 0 0.067270607737369995 -0.22071182764122591 0 0.077354677420432991 -0.2302239987693159 0 0.059801594999949678 -0.23133070107041229 0 0.067061111862492834 -0.2411250341974151 0 0.077354677420432991 -0.2302239987693159 0 0.067270607737369995 -0.22071182764122591 0 0.077354677420432991 -0.2302239987693159 0 0.07515275210996869 -0.2099171429154145 0 0.055666413814584662 -0.21155515346228301 0 0.067270607737369995 -0.22071182764122591 0 0.07515275210996869 -0.2099171429154145 0 0.055666413814584662 -0.21155515346228301 0 0.07515275210996869 -0.2099171429154145 0 0.066204318537055537 -0.19688113721820591 0 0.066204318537055537 -0.19688113721820591 0 0.077759844863257099 -0.18498873336534841 0 0.060440846055315071 -0.1814113105338867 0 0.07515275210996869 -0.2099171429154145 0 0.066204318537055537 -0.19688113721820591 0 0.081242510425093853 -0.1986404633153043 0 0.066204318537055537 -0.19688113721820591 0 0.081242510425093853 -0.1986404633153043 0 0.077759844863257099 -0.18498873336534841 0 0.081242510425093853 -0.1986404633153043 0 0.089478161274653079 -0.1915822356482122 0 0.077759844863257099 -0.18498873336534841 0 0.081242510425093853 -0.1986404633153043 0 0.089478161274653079 -0.1915822356482122 0 0.093880282213569921 -0.2009066312652418 0 0.081242510425093853 -0.1986404633153043 0 0.086950491000081384 -0.2074973673581246 0 0.093880282213569921 -0.2009066312652418 0 0.07515275210996869 -0.2099171429154145 0 0.086950491000081384 -0.2074973673581246 0 0.090053054989862838 -0.21828529157448859 0 0.07515275210996869 -0.2099171429154145 0 0.081242510425093853 -0.1986404633153043 0 0.086950491000081384 -0.2074973673581246 0 0.086950491000081384 -0.2074973673581246 0 0.094889684187162288 -0.21118345875200001 0 0.093880282213569921 -0.2009066312652418 0 0.086950491000081384 -0.2074973673581246 0 0.090053054989862838 -0.21828529157448859 0 0.094889684187162288 -0.21118345875200001 0 0.10867490854513499 -0.21804454481014501 0 0.1041542898133621 -0.2023988011161213 0 0.1114310417356166 -0.2088349049020132 0 0.094889684187162288 -0.21118345875200001 0 0.10867490854513499 -0.21804454481014501 0 0.093880282213569921 -0.2009066312652418 0 0.10867490854513499 -0.21804454481014501 0 0.093880282213569921 -0.2009066312652418 0 0.090053054989862838 -0.21828529157448859 0 0.094889684187162288 -0.21118345875200001 0 0.10867490854513499 -0.21804454481014501 0 0.10867490854513499 -0.21804454481014501 0 0.093880282213569921 -0.2009066312652418 0 0.1041542898133621 -0.2023988011161213 0 0.089478161274653079 -0.1915822356482122 0 0.099687758224612816 -0.1930269337146282 0 0.096906982528270541 -0.184933029347219 0 0.089478161274653079 -0.1915822356482122 0 0.099687758224612816 -0.1930269337146282 0 0.093880282213569921 -0.2009066312652418 0 0.099687758224612816 -0.1930269337146282 0 0.10489269357662 -0.18608740453609571 0 0.096906982528270541 -0.184933029347219 0 0.099687758224612816 -0.1930269337146282 0 0.093880282213569921 -0.2009066312652418 0 0.1041542898133621 -0.2023988011161213 0 0.099687758224612816 -0.1930269337146282 0 0.1041542898133621 -0.2023988011161213 0 0.1145349613482467 -0.20224562961323631 0 0.099687758224612816 -0.1930269337146282 0 0.1104243407857603 -0.19176609479546461 0 0.1145349613482467 -0.20224562961323631 0 0.099687758224612816 -0.1930269337146282 0 0.1145349613482467 -0.20224562961323631 0 0.099687758224612816 -0.1930269337146282 0 0.1104243407857603 -0.19176609479546461 0 0.10489269357662 -0.18608740453609571 0 0.1104243407857603 -0.19176609479546461 0 0.1177219084381233 -0.1943324136291974 0 0.1155501804955814 -0.1824576228203206 0 0.1104243407857603 -0.19176609479546461 0 0.1145349613482467 -0.20224562961323631 0 0.1177219084381233 -0.1943324136291974 0 0.12305219956652159 -0.2004469899514324 0 0.1177219084381233 -0.1943324136291974 0 0.12540384151168529 -0.1918981918704544 0 0.1145349613482467 -0.20224562961323631 0 0.12305219956652159 -0.2004469899514324 0 0.1177219084381233 -0.1943324136291974 0 0.1177219084381233 -0.1943324136291974 0 0.1155501804955814 -0.1824576228203206 0 0.12540384151168529 -0.1918981918704544 0 0.10867490854513499 -0.21804454481014501 0 0.11836000723572281 -0.21265064406855039 0 0.12337052336571459 -0.2204012009724067 0 0.10867490854513499 -0.21804454481014501 0 0.1114310417356166 -0.2088349049020132 0 0.11836000723572281 -0.21265064406855039 0 0.1041542898133621 -0.2023988011161213 0 0.1145349613482467 -0.20224562961323631 0 0.1114310417356166 -0.2088349049020132 0 0.1145349613482467 -0.20224562961323631 0 0.1114310417356166 -0.2088349049020132 0 0.11836000723572281 -0.21265064406855039 0 0.1145349613482467 -0.20224562961323631 0 0.12305219956652159 -0.2004469899514324 0 0.12938216447188089 -0.21146432551184369 0 0.1145349613482467 -0.20224562961323631 0 0.11836000723572281 -0.21265064406855039 0 0.12938216447188089 -0.21146432551184369 0 0.1145349613482467 -0.20224562961323631 0 0.12938216447188089 -0.21146432551184369 0 0.11836000723572281 -0.21265064406855039 0 0.12337052336571459 -0.2204012009724067 0 0.12938216447188089 -0.21146432551184369 0 0.10867490854513499 -0.21804454481014501 0 0.12346953487669959 -0.23518245835504881 0 0.10867490854513499 -0.21804454481014501 0 0.12346953487669959 -0.23518245835504881 0 0.09787979839298333 -0.23251391612252389 0 0.10867490854513499 -0.21804454481014501 0 0.12337052336571459 -0.2204012009724067 0 0.12346953487669959 -0.23518245835504881 0 0.1011788931590009 -0.25255459535975172 0 0.12346953487669959 -0.23518245835504881 0 0.1011788931590009 -0.25255459535975172 0 0.1214835034677795 -0.25138887676200428 0 0.12346953487669959 -0.23518245835504881 0 0.1011788931590009 -0.25255459535975172 0 0.12346953487669959 -0.23518245835504881 0 0.09787979839298333 -0.23251391612252389 0 0.1011788931590009 -0.25255459535975172 0 0.086547721366768721 -0.24079260786639339 0 0.09787979839298333 -0.23251391612252389 0 0.090053054989862838 -0.21828529157448859 0 0.10867490854513499 -0.21804454481014501 0 0.09787979839298333 -0.23251391612252389 0 0.099729873848121653 -0.149636783917695 0 0.1149710544322682 -0.1441943985075925 0 0.1079235720433845 -0.16384093271566549 0 0.099729873848121653 -0.149636783917695 0 0.1017763069872072 -0.1365791735143409 0 0.1149710544322682 -0.1441943985075925 0 0.099729873848121653 -0.149636783917695 0 0.1017763069872072 -0.1365791735143409 0 0.092069659405274312 -0.1389212058770031 0 0.1017763069872072 -0.1365791735143409 0 0.1149710544322682 -0.1441943985075925 0 0.1075156781444525 -0.123302660396377 0 0.094595269105919227 -0.1268408188730368 0 0.1017763069872072 -0.1365791735143409 0 0.092069659405274312 -0.1389212058770031 0 0.094595269105919227 -0.1268408188730368 0 0.1017763069872072 -0.1365791735143409 0 0.1075156781444525 -0.123302660396377 0 0.1149710544322682 -0.1441943985075925 0 0.1075156781444525 -0.123302660396377 0 0.1253488407732804 -0.12588577564558709 0 0.1149710544322682 -0.1441943985075925 0 0.1293274381167043 -0.15084733639196721 0 0.1253488407732804 -0.12588577564558709 0 0.1149710544322682 -0.1441943985075925 0 0.1075156781444525 -0.123302660396377 0 0.1149710544322682 -0.1441943985075925 0 0.1224264307200839 -0.165086136618808 0 0.1149710544322682 -0.1441943985075925 0 0.1224264307200839 -0.165086136618808 0 0.1293274381167043 -0.15084733639196721 0 0.1224264307200839 -0.165086136618808 0 0.1155501804955814 -0.1824576228203206 0 0.1079235720433845 -0.16384093271566549 0 0.1149710544322682 -0.1441943985075925 0 0.1224264307200839 -0.165086136618808 0 0.1079235720433845 -0.16384093271566549 0 0.1155501804955814 -0.1824576228203206 0 0.12540384151168529 -0.1918981918704544 0 0.1333395139721657 -0.18469604605268439 0 0.1224264307200839 -0.165086136618808 0 0.1155501804955814 -0.1824576228203206 0 0.1333395139721657 -0.18469604605268439 0 0.1104243407857603 -0.19176609479546461 0 0.1155501804955814 -0.1824576228203206 0 0.10489269357662 -0.18608740453609571 0 0.1155501804955814 -0.1824576228203206 0 0.10129713208493921 -0.17672501708635879 0 0.1079235720433845 -0.16384093271566549 0 0.1155501804955814 -0.1824576228203206 0 0.10489269357662 -0.18608740453609571 0 0.10129713208493921 -0.17672501708635879 0 0.10129713208493921 -0.17672501708635879 0 0.096906982528270541 -0.184933029347219 0 0.089179167480527677 -0.17724355575080011 0 0.10129713208493921 -0.17672501708635879 0 0.09356676067931266 -0.16494563734321849 0 0.089179167480527677 -0.17724355575080011 0 0.10489269357662 -0.18608740453609571 0 0.10129713208493921 -0.17672501708635879 0 0.096906982528270541 -0.184933029347219 0 0.10129713208493921 -0.17672501708635879 0 0.1079235720433845 -0.16384093271566549 0 0.09356676067931266 -0.16494563734321849 0 0.099729873848121653 -0.149636783917695 0 0.1079235720433845 -0.16384093271566549 0 0.09356676067931266 -0.16494563734321849 0 0.09356676067931266 -0.16494563734321849 0 0.075269821585793331 -0.16443741595784439 0 0.086260301722552848 -0.15075192820170669 0 0.09356676067931266 -0.16494563734321849 0 0.089179167480527677 -0.17724355575080011 0 0.075269821585793331 -0.16443741595784439 0 0.089179167480527677 -0.17724355575080011 0 0.077759844863257099 -0.18498873336534841 0 0.075269821585793331 -0.16443741595784439 0 0.089478161274653079 -0.1915822356482122 0 0.096906982528270541 -0.184933029347219 0 0.089179167480527677 -0.17724355575080011 0 0.089478161274653079 -0.1915822356482122 0 0.089179167480527677 -0.17724355575080011 0 0.077759844863257099 -0.18498873336534841 0 0.077759844863257099 -0.18498873336534841 0 0.075269821585793331 -0.16443741595784439 0 0.060440846055315071 -0.1814113105338867 0 0.075269821585793331 -0.16443741595784439 0 0.064359482462310325 -0.15143579492799231 0 0.056792452920332123 -0.16174327533072369 0 0.075269821585793331 -0.16443741595784439 0 0.060440846055315071 -0.1814113105338867 0 0.056792452920332123 -0.16174327533072369 0 0.075269821585793331 -0.16443741595784439 0 0.064359482462310325 -0.15143579492799231 0 0.073577519128607424 -0.14504940301582739 0 0.064359482462310325 -0.15143579492799231 0 0.073577519128607424 -0.14504940301582739 0 0.062936060197687063 -0.1391652069652248 0 0.075269821585793331 -0.16443741595784439 0 0.073577519128607424 -0.14504940301582739 0 0.086260301722552848 -0.15075192820170669 0 0.073577519128607424 -0.14504940301582739 0 0.086260301722552848 -0.15075192820170669 0 0.081803857081671982 -0.13958444012427779 0 0.086260301722552848 -0.15075192820170669 0 0.092069659405274312 -0.1389212058770031 0 0.081803857081671982 -0.13958444012427779 0 0.099729873848121653 -0.149636783917695 0 0.086260301722552848 -0.15075192820170669 0 0.092069659405274312 -0.1389212058770031 0 0.099729873848121653 -0.149636783917695 0 0.09356676067931266 -0.16494563734321849 0 0.086260301722552848 -0.15075192820170669 0 0.094595269105919227 -0.1268408188730368 0 0.084381822792610958 -0.13007650766011819 0 0.085093516983548126 -0.119528056799975 0 0.094595269105919227 -0.1268408188730368 0 0.092069659405274312 -0.1389212058770031 0 0.084381822792610958 -0.13007650766011819 0 0.092069659405274312 -0.1389212058770031 0 0.081803857081671982 -0.13958444012427779 0 0.084381822792610958 -0.13007650766011819 0 0.081803857081671982 -0.13958444012427779 0 0.084381822792610958 -0.13007650766011819 0 0.072729982359314382 -0.13312315586673351 0 0.084381822792610958 -0.13007650766011819 0 0.072729982359314382 -0.13312315586673351 0 0.076547827249970724 -0.1245735230966675 0 0.072729982359314382 -0.13312315586673351 0 0.076547827249970724 -0.1245735230966675 0 0.068529610069044539 -0.1249991224001942 0 0.073577519128607424 -0.14504940301582739 0 0.081803857081671982 -0.13958444012427779 0 0.072729982359314382 -0.13312315586673351 0 0.073577519128607424 -0.14504940301582739 0 0.072729982359314382 -0.13312315586673351 0 0.062936060197687063 -0.1391652069652248 0 0.072729982359314382 -0.13312315586673351 0 0.062936060197687063 -0.1391652069652248 0 0.062570959081723457 -0.12991807670149921 0 0.072729982359314382 -0.13312315586673351 0 0.062570959081723457 -0.12991807670149921 0 0.068529610069044539 -0.1249991224001942 0 0.062570959081723457 -0.12991807670149921 0 0.062409390770199677 -0.1228996143683221 0 0.068529610069044539 -0.1249991224001942 0 0.062570959081723457 -0.12991807670149921 0 0.053225246242895888 -0.13292336066551319 0 0.056666670094609857 -0.1246071579846834 0 0.062570959081723457 -0.12991807670149921 0 0.062409390770199677 -0.1228996143683221 0 0.056666670094609857 -0.1246071579846834 0 0.053225246242895888 -0.13292336066551319 0 0.056666670094609857 -0.1246071579846834 0 0.048823109675047577 -0.122758901630187 0 0.053225246242895888 -0.13292336066551319 0 0.043456237830010708 -0.1292695817769548 0 0.048823109675047577 -0.122758901630187 0 0.053225246242895888 -0.13292336066551319 0 0.053221558479131688 -0.14678367337034101 0 0.042549369004458777 -0.14086127630345999 0 0.062936060197687063 -0.1391652069652248 0 0.062570959081723457 -0.12991807670149921 0 0.053225246242895888 -0.13292336066551319 0 0.062936060197687063 -0.1391652069652248 0 0.053225246242895888 -0.13292336066551319 0 0.053221558479131688 -0.14678367337034101 0 0.064359482462310325 -0.15143579492799231 0 0.062936060197687063 -0.1391652069652248 0 0.053221558479131688 -0.14678367337034101 0 0.053221558479131688 -0.14678367337034101 0 0.039653917741376422 -0.1555068066043262 0 0.056792452920332123 -0.16174327533072369 0 0.064359482462310325 -0.15143579492799231 0 0.053221558479131688 -0.14678367337034101 0 0.056792452920332123 -0.16174327533072369 0 0.053221558479131688 -0.14678367337034101 0 0.042549369004458777 -0.14086127630345999 0 0.039653917741376422 -0.1555068066043262 0 0.042549369004458777 -0.14086127630345999 0 0.039653917741376422 -0.1555068066043262 0 0.02980044791785319 -0.14379839624436619 0 0.042549369004458777 -0.14086127630345999 0 0.032207157422846383 -0.13051914919494731 0 0.02980044791785319 -0.14379839624436619 0 0.032207157422846383 -0.13051914919494731 0 0.043456237830010708 -0.1292695817769548 0 0.039390650764236021 -0.1216027475171349 0 0.053225246242895888 -0.13292336066551319 0 0.042549369004458777 -0.14086127630345999 0 0.043456237830010708 -0.1292695817769548 0 0.042549369004458777 -0.14086127630345999 0 0.032207157422846383 -0.13051914919494731 0 0.043456237830010708 -0.1292695817769548 0 0.048337262933769012 -0.1965626703272248 0 0.060440846055315071 -0.1814113105338867 0 0.036351642036688669 -0.17737224065806431 0 0.060440846055315071 -0.1814113105338867 0 0.036351642036688669 -0.17737224065806431 0 0.060440846055315071 -0.1814113105338867 0 0.056792452920332123 -0.16174327533072369 0 0.036351642036688669 -0.17737224065806431 0 0.039653917741376422 -0.1555068066043262 0 0.056792452920332123 -0.16174327533072369 0 0.036351642036688669 -0.17737224065806431 0 0.039653917741376422 -0.1555068066043262 0 0.036351642036688669 -0.17737224065806431 0 0.020657058462298102 -0.15544951855536929 0 0.036351642036688669 -0.17737224065806431 0 0.01226243801806232 -0.17333317078224189 0 0.019870860168843721 -0.19279235987578111 0 0.036351642036688669 -0.17737224065806431 0 0.01226243801806232 -0.17333317078224189 0 0.036351642036688669 -0.17737224065806431 0 0.01226243801806232 -0.17333317078224189 0 0.020657058462298102 -0.15544951855536929 0 -0.011826766000563999 -0.16929410090641939 0 0.003253507526787863 -0.15916651108139721 0 0.01226243801806232 -0.17333317078224189 0 -0.011826766000563999 -0.16929410090641939 0 0.01226243801806232 -0.17333317078224189 0 0.003253507526787863 -0.15916651108139721 0 0.01226243801806232 -0.17333317078224189 0 0.020657058462298102 -0.15544951855536929 0 0.0044186653515912253 -0.19265510766796501 0 0.019870860168843721 -0.19279235987578111 0 0.01226243801806232 -0.17333317078224189 0 -0.0073496516976400902 -0.1879476253505408 0 0.0044186653515912253 -0.19265510766796501 0 0.01226243801806232 -0.17333317078224189 0 0.032207157422846383 -0.13051914919494731 0 0.017775723179817439 -0.13614294610193051 0 0.020821036396241391 -0.1209524824801277 0 0.032207157422846383 -0.13051914919494731 0 0.017775723179817439 -0.13614294610193051 0 0.02980044791785319 -0.14379839624436619 0 0.017775723179817439 -0.13614294610193051 0 0.020657058462298102 -0.15544951855536929 0 0.02980044791785319 -0.14379839624436619 0 0.039653917741376422 -0.1555068066043262 0 0.020657058462298102 -0.15544951855536929 0 0.02980044791785319 -0.14379839624436619 0 0.003253507526787863 -0.15916651108139721 0 0.020657058462298102 -0.15544951855536929 0 0.0044573213681997279 -0.14481560900336229 0 0.017775723179817439 -0.13614294610193051 0 0.020657058462298102 -0.15544951855536929 0 0.0044573213681997279 -0.14481560900336229 0 0.017775723179817439 -0.13614294610193051 0 0.0044573213681997279 -0.14481560900336229 0 0.0014901394318084279 -0.1258828848393905 0 0.017775723179817439 -0.13614294610193051 0 0.0014901394318084279 -0.1258828848393905 0 0.020821036396241391 -0.1209524824801277 0 0.0014901394318084279 -0.1258828848393905 0 0.020821036396241391 -0.1209524824801277 0 0.0063943027615388642 -0.1089532330096224 0 0.020821036396241391 -0.1209524824801277 0 0.023336797683105232 -0.1057691684941722 0 0.0063943027615388642 -0.1089532330096224 0 0.023336797683105232 -0.1057691684941722 0 0.031288434722481363 -0.1209106198632296 0 0.035053740272523108 -0.1120171361637706 0 0.020821036396241391 -0.1209524824801277 0 0.023336797683105232 -0.1057691684941722 0 0.031288434722481363 -0.1209106198632296 0 0.032207157422846383 -0.13051914919494731 0 0.020821036396241391 -0.1209524824801277 0 0.031288434722481363 -0.1209106198632296 0 0.023336797683105232 -0.1057691684941722 0 0.035053740272523108 -0.1120171361637706 0 0.034766835341045181 -0.095528894820965896 0 0.023336797683105232 -0.1057691684941722 0 0.01291569936008388 -0.081093895312462139 0 0.034766835341045181 -0.095528894820965896 0 0.023336797683105232 -0.1057691684941722 0 0.0063523588477986384 -0.095620452193090053 0 0.01291569936008388 -0.081093895312462139 0 0.023336797683105232 -0.1057691684941722 0 0.0063943027615388642 -0.1089532330096224 0 0.0063523588477986384 -0.095620452193090053 0 -0.0044022810807993768 -0.098106953359871227 0 0.0063943027615388642 -0.1089532330096224 0 0.0063523588477986384 -0.095620452193090053 0 -0.0047705499955654831 -0.084559886398344164 0 0.0063523588477986384 -0.095620452193090053 0 0.01291569936008388 -0.081093895312462139 0 -0.0089354366208773475 -0.066658895803958451 0 0.01291569936008388 -0.081093895312462139 0 0.0034114887364035638 -0.071759414747529227 0 -0.0089354366208773475 -0.066658895803958451 0 0.01291569936008388 -0.081093895312462139 0 0.01291569936008388 -0.081093895312462139 0 0.0034114887364035638 -0.071759414747529227 0 0.017622220528164489 -0.070059985557272886 0 0.0034114887364035638 -0.071759414747529227 0 0.017622220528164489 -0.070059985557272886 0 0.01211512814862655 -0.059214208703483602 0 0.017622220528164489 -0.070059985557272886 0 0.01211512814862655 -0.059214208703483602 0 0.026121219714140349 -0.061849804441463367 0 0.01291569936008388 -0.081093895312462139 0 0.017622220528164489 -0.070059985557272886 0 0.028362437863770681 -0.076062115684514917 0 0.028362437863770681 -0.076062115684514917 0 0.039076354237699569 -0.06460920426678475 0 0.026121219714140349 -0.061849804441463367 0 0.017622220528164489 -0.070059985557272886 0 0.028362437863770681 -0.076062115684514917 0 0.026121219714140349 -0.061849804441463367 0 0.01291569936008388 -0.081093895312462139 0 0.028362437863770681 -0.076062115684514917 0 0.034766835341045181 -0.095528894820965896 0 0.01291569936008388 -0.081093895312462139 0 0.034766835341045181 -0.095528894820965896 0 0.028362437863770681 -0.076062115684514917 0 0.041583784211245672 -0.077786729164659063 0 0.034766835341045181 -0.095528894820965896 0 0.041583784211245672 -0.077786729164659063 0 0.05415552390151078 -0.086592913699283902 0 0.034766835341045181 -0.095528894820965896 0 0.039076354237699569 -0.06460920426678475 0 0.05066315322947923 -0.071608797350001349 0 0.050012136668314472 -0.055952194771218322 0 0.028362437863770681 -0.076062115684514917 0 0.041583784211245672 -0.077786729164659063 0 0.039076354237699569 -0.06460920426678475 0 0.041583784211245672 -0.077786729164659063 0 0.039076354237699569 -0.06460920426678475 0 0.05066315322947923 -0.071608797350001349 0 0.050012136668314472 -0.055952194771218322 0 0.068487967128625621 -0.073102944848060708 0 0.05066315322947923 -0.071608797350001349 0 0.05415552390151078 -0.086592913699283902 0 0.068487967128625621 -0.073102944848060708 0 0.05066315322947923 -0.071608797350001349 0 0.050012136668314472 -0.055952194771218322 0 0.068487967128625621 -0.073102944848060708 0 0.041583784211245672 -0.077786729164659063 0 0.05066315322947923 -0.071608797350001349 0 0.05415552390151078 -0.086592913699283902 0 0.05415552390151078 -0.086592913699283902 0 0.056617971322004482 -0.10996389432947271 0 0.034766835341045181 -0.095528894820965896 0 0.05415552390151078 -0.086592913699283902 0 0.056617971322004482 -0.10996389432947271 0 0.071790884455470771 -0.10010879462718771 0 0.056617971322004482 -0.10996389432947271 0 0.05235323351051388 -0.1127339237870114 0 0.034766835341045181 -0.095528894820965896 0 0.061813081350474447 -0.1129455429451324 0 0.056617971322004482 -0.10996389432947271 0 0.057631299945216721 -0.11276735398007121 0 0.061813081350474447 -0.1129455429451324 0 0.056617971322004482 -0.10996389432947271 0 0.068650050284940478 -0.1074089270573698 0 0.061813081350474447 -0.1129455429451324 0 0.059032652798071447 -0.1148639071164414 0 0.061838969978667988 -0.1175795655085449 0 0.059032652798071447 -0.1148639071164414 0 0.061838969978667988 -0.1175795655085449 0 0.057419870053528117 -0.1173429141692767 0 0.061813081350474447 -0.1129455429451324 0 0.059032652798071447 -0.1148639071164414 0 0.057631299945216721 -0.11276735398007121 0 0.059032652798071447 -0.1148639071164414 0 0.055965733519857952 -0.1147876008785947 0 0.057631299945216721 -0.11276735398007121 0 0.059032652798071447 -0.1148639071164414 0 0.055965733519857952 -0.1147876008785947 0 0.057419870053528117 -0.1173429141692767 0 0.055965733519857952 -0.1147876008785947 0 0.057419870053528117 -0.1173429141692767 0 0.054161788834120393 -0.11857555253978069 0 0.055965733519857952 -0.1147876008785947 0 0.055195555977697167 -0.1124419536789867 0 0.057631299945216721 -0.11276735398007121 0 0.055195555977697167 -0.1124419536789867 0 0.056617971322004482 -0.10996389432947271 0 0.05235323351051388 -0.1127339237870114 0 0.055195555977697167 -0.1124419536789867 0 0.056617971322004482 -0.10996389432947271 0 0.057631299945216721 -0.11276735398007121 0 0.062409390770199677 -0.1228996143683221 0 0.058671916177080147 -0.1200537221087723 0 0.056666670094609857 -0.1246071579846834 0 0.061838969978667988 -0.1175795655085449 0 0.058671916177080147 -0.1200537221087723 0 0.057419870053528117 -0.1173429141692767 0 0.062409390770199677 -0.1228996143683221 0 0.061838969978667988 -0.1175795655085449 0 0.058671916177080147 -0.1200537221087723 0 0.058671916177080147 -0.1200537221087723 0 0.057419870053528117 -0.1173429141692767 0 0.054161788834120393 -0.11857555253978069 0 0.058671916177080147 -0.1200537221087723 0 0.056666670094609857 -0.1246071579846834 0 0.054161788834120393 -0.11857555253978069 0 0.056666670094609857 -0.1246071579846834 0 0.054161788834120393 -0.11857555253978069 0 0.048823109675047577 -0.122758901630187 0 0.048823109675047577 -0.122758901630187 0 0.049610510141669839 -0.11679142552991389 0 0.043394380308310228 -0.11358817058773529 0 0.054161788834120393 -0.11857555253978069 0 0.048823109675047577 -0.122758901630187 0 0.049610510141669839 -0.11679142552991389 0 0.05235323351051388 -0.1127339237870114 0 0.049610510141669839 -0.11679142552991389 0 0.043394380308310228 -0.11358817058773529 0 0.056617971322004482 -0.10996389432947271 0 0.05235323351051388 -0.1127339237870114 0 0.055965733519857952 -0.1147876008785947 0 0.054161788834120393 -0.11857555253978069 0 0.05235323351051388 -0.1127339237870114 0 0.055965733519857952 -0.1147876008785947 0 0.055195555977697167 -0.1124419536789867 0 0.05235323351051388 -0.1127339237870114 0 0.054161788834120393 -0.11857555253978069 0 0.05235323351051388 -0.1127339237870114 0 0.049610510141669839 -0.11679142552991389 0 0.043394380308310228 -0.11358817058773529 0 0.039390650764236021 -0.1216027475171349 0 0.035053740272523108 -0.1120171361637706 0 0.043456237830010708 -0.1292695817769548 0 0.048823109675047577 -0.122758901630187 0 0.039390650764236021 -0.1216027475171349 0 0.048823109675047577 -0.122758901630187 0 0.043394380308310228 -0.11358817058773529 0 0.039390650764236021 -0.1216027475171349 0 0.032207157422846383 -0.13051914919494731 0 0.039390650764236021 -0.1216027475171349 0 0.031288434722481363 -0.1209106198632296 0 0.039390650764236021 -0.1216027475171349 0 0.031288434722481363 -0.1209106198632296 0 0.035053740272523108 -0.1120171361637706 0 0.056617971322004482 -0.10996389432947271 0 0.034766835341045181 -0.095528894820965896 0 0.05235323351051388 -0.1127339237870114 0 0.043394380308310228 -0.11358817058773529 0 0.034766835341045181 -0.095528894820965896 0 0.043394380308310228 -0.11358817058773529 0 0.035053740272523108 -0.1120171361637706 0 0.034766835341045181 -0.095528894820965896 0 0.01683772057632647 -0.0051461828340893922 0 0.029305942242231351 -0.02184216175533097 0 0.039472356190468447 -0.0096960632835737613 0 0.02667547484309345 0.011050727408482451 0 0.01683772057632647 -0.0051461828340893922 0 0.039472356190468447 -0.0096960632835737613 0 -0.0054153547126200878 -0.004499944540692094 0 0.01683772057632647 -0.0051461828340893922 0 0.01306047574769207 -0.021650694617533491 0 -0.0054153547126200878 -0.004499944540692094 0 0.01306047574769207 -0.021650694617533491 0 -0.0024730735629462492 -0.026919767942971181 0 -0.0054153547126200878 -0.004499944540692094 0 0.01306047574769207 -0.021650694617533491 0 -0.0024730735629462492 -0.026919767942971181 0 0.01306047574769207 -0.021650694617533491 0 0.013473592710032621 -0.039959751981741898 0 0.01306047574769207 -0.021650694617533491 0 0.029305942242231351 -0.02184216175533097 0 0.031536306208003288 -0.038801444694375922 0 0.01306047574769207 -0.021650694617533491 0 0.031536306208003288 -0.038801444694375922 0 0.01683772057632647 -0.0051461828340893922 0 0.01306047574769207 -0.021650694617533491 0 0.029305942242231351 -0.02184216175533097 0 0.01306047574769207 -0.021650694617533491 0 0.013473592710032621 -0.039959751981741898 0 0.031536306208003288 -0.038801444694375922 0 0.013473592710032621 -0.039959751981741898 0 0.022940254696444101 -0.050509426723364607 0 0.031536306208003288 -0.038801444694375922 0 -0.0024730735629462492 -0.026919767942971181 0 0.013473592710032621 -0.039959751981741898 0 0.00046920758672865749 -0.049339591345250212 0 0.013473592710032621 -0.039959751981741898 0 0.00046920758672865749 -0.049339591345250212 0 0.01211512814862655 -0.059214208703483602 0 0.0034114887364035638 -0.071759414747529227 0 0.00046920758672865749 -0.049339591345250212 0 0.01211512814862655 -0.059214208703483602 0 0.0034114887364035638 -0.071759414747529227 0 0.00046920758672865749 -0.049339591345250212 0 0.013473592710032621 -0.039959751981741898 0 0.01211512814862655 -0.059214208703483602 0 0.022940254696444101 -0.050509426723364607 0 0.01211512814862655 -0.059214208703483602 0 0.022940254696444101 -0.050509426723364607 0 0.026121219714140349 -0.061849804441463367 0 0.022940254696444101 -0.050509426723364607 0 0.033992695687681138 -0.053845611142188401 0 0.031536306208003288 -0.038801444694375922 0 0.022940254696444101 -0.050509426723364607 0 0.026121219714140349 -0.061849804441463367 0 0.033992695687681138 -0.053845611142188401 0 0.039076354237699569 -0.06460920426678475 0 0.033992695687681138 -0.053845611142188401 0 0.050012136668314472 -0.055952194771218322 0 0.050012136668314472 -0.055952194771218322 0 0.031536306208003288 -0.038801444694375922 0 0.033992695687681138 -0.053845611142188401 0 0.050012136668314472 -0.055952194771218322 0 0.031536306208003288 -0.038801444694375922 0 0.039076354237699569 -0.06460920426678475 0 0.026121219714140349 -0.061849804441463367 0 0.033992695687681138 -0.053845611142188401 0 0.050012136668314472 -0.055952194771218322 0 0.062911181844558198 -0.052205795478050578 0 0.068487967128625621 -0.073102944848060708 0 0.050012136668314472 -0.055952194771218322 0 0.050803621126729093 -0.048421129950008572 0 0.044563810021461099 -0.042179974916358033 0 0.050012136668314472 -0.055952194771218322 0 0.050803621126729093 -0.048421129950008572 0 0.062911181844558198 -0.052205795478050578 0 0.050803621126729093 -0.048421129950008572 0 0.048265386946859473 -0.029399829132579752 0 0.071874838552010156 -0.031011292754462839 0 0.050803621126729093 -0.048421129950008572 0 0.071874838552010156 -0.031011292754462839 0 0.050803621126729093 -0.048421129950008572 0 0.044563810021461099 -0.042179974916358033 0 0.048265386946859473 -0.029399829132579752 0 0.050803621126729093 -0.048421129950008572 0 0.071874838552010156 -0.031011292754462839 0 0.062911181844558198 -0.052205795478050578 0 0.050012136668314472 -0.055952194771218322 0 0.044563810021461099 -0.042179974916358033 0 0.031536306208003288 -0.038801444694375922 0 0.044563810021461099 -0.042179974916358033 0 0.031536306208003288 -0.038801444694375922 0 0.048265386946859473 -0.029399829132579752 0 0.029305942242231351 -0.02184216175533097 0 0.031536306208003288 -0.038801444694375922 0 0.048265386946859473 -0.029399829132579752 0 0.029305942242231351 -0.02184216175533097 0 0.048265386946859473 -0.029399829132579752 0 0.039472356190468447 -0.0096960632835737613 0 0.048265386946859473 -0.029399829132579752 0 0.064926373704095028 -0.013206676997548371 0 0.071874838552010156 -0.031011292754462839 0 0.048265386946859473 -0.029399829132579752 0 0.039472356190468447 -0.0096960632835737613 0 0.064926373704095028 -0.013206676997548371 0 0.059776520656627981 0.003056059375832032 0 0.039472356190468447 -0.0096960632835737613 0 0.064926373704095028 -0.013206676997548371 0 0.077223083901312925 0.0014125193684112081 0 0.08996039967402443 0.00097647457745585003 0 0.09294605597729122 -0.013601455558917119 0 0.077223083901312925 0.0014125193684112081 0 0.09294605597729122 -0.013601455558917119 0 0.064926373704095028 -0.013206676997548371 0 0.059776520656627981 0.003056059375832032 0 0.077223083901312925 0.0014125193684112081 0 0.064926373704095028 -0.013206676997548371 0 0.09294605597729122 -0.013601455558917119 0 0.064926373704095028 -0.013206676997548371 0 0.071874838552010156 -0.031011292754462839 0 0.09294605597729122 -0.013601455558917119 0 0.071874838552010156 -0.031011292754462839 0 0.09294605597729122 -0.013601455558917119 0 0.071874838552010156 -0.031011292754462839 0 0.088152826427652792 -0.041353762316242507 0 0.071874838552010156 -0.031011292754462839 0 0.073377345747111605 -0.052541415066502478 0 0.062911181844558198 -0.052205795478050578 0 0.071874838552010156 -0.031011292754462839 0 0.088152826427652792 -0.041353762316242507 0 0.073377345747111605 -0.052541415066502478 0 0.073377345747111605 -0.052541415066502478 0 0.085314164021081967 -0.061088735728893478 0 0.068487967128625621 -0.073102944848060708 0 0.073377345747111605 -0.052541415066502478 0 0.062911181844558198 -0.052205795478050578 0 0.068487967128625621 -0.073102944848060708 0 0.088152826427652792 -0.041353762316242507 0 0.073377345747111605 -0.052541415066502478 0 0.085314164021081967 -0.061088735728893478 0 0.088152826427652792 -0.041353762316242507 0 0.085314164021081967 -0.061088735728893478 0 0.10234957031069609 -0.054667628073517133 0 0.085314164021081967 -0.061088735728893478 0 0.10234957031069609 -0.054667628073517133 0 0.099552615910110109 -0.069301486047037397 0 0.1181275519099142 -0.04985928313427402 0 0.1166693121216771 -0.07095939034062379 0 0.13926473981159099 -0.056283224284630708 0 0.10234957031069609 -0.054667628073517133 0 0.1181275519099142 -0.04985928313427402 0 0.1166693121216771 -0.07095939034062379 0 0.1181275519099142 -0.04985928313427402 0 0.1062809514737407 -0.035443110874031639 0 0.1292991533478812 -0.032174126257436507 0 0.10234957031069609 -0.054667628073517133 0 0.1181275519099142 -0.04985928313427402 0 0.1062809514737407 -0.035443110874031639 0 0.088152826427652792 -0.041353762316242507 0 0.10234957031069609 -0.054667628073517133 0 0.1062809514737407 -0.035443110874031639 0 0.09294605597729122 -0.013601455558917119 0 0.1062809514737407 -0.035443110874031639 0 0.11791075037842021 -0.015802016959090118 0 0.09294605597729122 -0.013601455558917119 0 0.088152826427652792 -0.041353762316242507 0 0.1062809514737407 -0.035443110874031639 0 0.1062809514737407 -0.035443110874031639 0 0.11791075037842021 -0.015802016959090118 0 0.1292991533478812 -0.032174126257436507 0 0.1140172734025723 0.0038083816366286049 0 0.11791075037842021 -0.015802016959090118 0 0.12816907747161399 -0.0043459578003969294 0 0.1140172734025723 0.0038083816366286049 0 0.099565667544075837 0.0050497816632932577 0 0.09294605597729122 -0.013601455558917119 0 0.1140172734025723 0.0038083816366286049 0 0.09294605597729122 -0.013601455558917119 0 0.11791075037842021 -0.015802016959090118 0 0.08996039967402443 0.00097647457745585003 0 0.099565667544075837 0.0050497816632932577 0 0.09294605597729122 -0.013601455558917119 0 0.1140172734025723 0.0038083816366286049 0 0.09294605597729122 -0.013601455558917119 0 0.087309605645986513 -0.1063638937648389 0 0.071790884455470771 -0.10010879462718771 0 0.086963797588937103 -0.090253694924902858 0 0.087309605645986513 -0.1063638937648389 0 0.086963797588937103 -0.090253694924902858 0 0.1000603018566361 -0.1024109222851616 0 0.087309605645986513 -0.1063638937648389 0 0.077856588549526484 -0.1112535994571829 0 0.071790884455470771 -0.10010879462718771 0 0.071790884455470771 -0.10010879462718771 0 0.086963797588937103 -0.090253694924902858 0 0.086963797588937103 -0.090253694924902858 0 0.1000603018566361 -0.1024109222851616 0 0.087309605645986513 -0.1063638937648389 0 0.085093516983548126 -0.119528056799975 0 0.094913483215312899 -0.1156732195974343 0 0.094595269105919227 -0.1268408188730368 0 0.085093516983548126 -0.119528056799975 0 0.094913483215312899 -0.1156732195974343 0 0.084381822792610958 -0.13007650766011819 0 0.085093516983548126 -0.119528056799975 0 0.076547827249970724 -0.1245735230966675 0 0.085093516983548126 -0.119528056799975 0 0.076547827249970724 -0.1245735230966675 0 0.07680192419423526 -0.1181319330016781 0 0.087309605645986513 -0.1063638937648389 0 0.085093516983548126 -0.119528056799975 0 0.077856588549526484 -0.1112535994571829 0 0.085093516983548126 -0.119528056799975 0 0.077856588549526484 -0.1112535994571829 0 0.07680192419423526 -0.1181319330016781 0 0.077856588549526484 -0.1112535994571829 0 0.072801866570802024 -0.1147362655535055 0 0.068650050284940478 -0.1074089270573698 0 0.077856588549526484 -0.1112535994571829 0 0.072801866570802024 -0.1147362655535055 0 0.07680192419423526 -0.1181319330016781 0 0.072801866570802024 -0.1147362655535055 0 0.071321286551282642 -0.11973961942847661 0 0.067068272003571308 -0.11575683101257581 0 0.076547827249970724 -0.1245735230966675 0 0.071321286551282642 -0.11973961942847661 0 0.068529610069044539 -0.1249991224001942 0 0.076547827249970724 -0.1245735230966675 0 0.07680192419423526 -0.1181319330016781 0 0.071321286551282642 -0.11973961942847661 0 0.072801866570802024 -0.1147362655535055 0 0.07680192419423526 -0.1181319330016781 0 0.071321286551282642 -0.11973961942847661 0 0.071321286551282642 -0.11973961942847661 0 0.068529610069044539 -0.1249991224001942 0 0.066300068971814924 -0.1203449357429557 0 0.071321286551282642 -0.11973961942847661 0 0.066300068971814924 -0.1203449357429557 0 0.067068272003571308 -0.11575683101257581 0 0.062409390770199677 -0.1228996143683221 0 0.061838969978667988 -0.1175795655085449 0 0.066300068971814924 -0.1203449357429557 0 0.061838969978667988 -0.1175795655085449 0 0.066300068971814924 -0.1203449357429557 0 0.067068272003571308 -0.11575683101257581 0 0.062409390770199677 -0.1228996143683221 0 0.068529610069044539 -0.1249991224001942 0 0.066300068971814924 -0.1203449357429557 0 0.072801866570802024 -0.1147362655535055 0 0.067068272003571308 -0.11575683101257581 0 0.068650050284940478 -0.1074089270573698 0 0.061813081350474447 -0.1129455429451324 0 0.067068272003571308 -0.11575683101257581 0 0.068650050284940478 -0.1074089270573698 0 0.061813081350474447 -0.1129455429451324 0 0.061838969978667988 -0.1175795655085449 0 0.067068272003571308 -0.11575683101257581 0 0.056617971322004482 -0.10996389432947271 0 0.068650050284940478 -0.1074089270573698 0 0.071790884455470771 -0.10010879462718771 0 0.056617971322004482 -0.10996389432947271 0 0.071790884455470771 -0.10010879462718771 0 0.077856588549526484 -0.1112535994571829 0 0.068650050284940478 -0.1074089270573698 0 0.071790884455470771 -0.10010879462718771 0 0.071790884455470771 -0.10010879462718771 0 0.068487967128625621 -0.073102944848060708 0 0.086963797588937103 -0.090253694924902858 0 0.05415552390151078 -0.086592913699283902 0 0.071790884455470771 -0.10010879462718771 0 0.068487967128625621 -0.073102944848060708 0 0.068487967128625621 -0.073102944848060708 0 0.086963797588937103 -0.090253694924902858 0 0.085314164021081967 -0.061088735728893478 0 0.094073884431762567 -0.085635556396615686 0 0.085314164021081967 -0.061088735728893478 0 0.082857884305686982 -0.076149815449755034 0 0.094073884431762567 -0.085635556396615686 0 0.085314164021081967 -0.061088735728893478 0 0.094073884431762567 -0.085635556396615686 0 0.099552615910110109 -0.069301486047037397 0 0.085314164021081967 -0.061088735728893478 0 0.068487967128625621 -0.073102944848060708 0 0.082857884305686982 -0.076149815449755034 0 0.068487967128625621 -0.073102944848060708 0 0.082857884305686982 -0.076149815449755034 0 0.086963797588937103 -0.090253694924902858 0 0.086963797588937103 -0.090253694924902858 0 0.094073884431762567 -0.085635556396615686 0 0.1000603018566361 -0.1024109222851616 0 0.082857884305686982 -0.076149815449755034 0 0.086963797588937103 -0.090253694924902858 0 0.094073884431762567 -0.085635556396615686 0 0.086963797588937103 -0.090253694924902858 0 0.094073884431762567 -0.085635556396615686 0 0.094073884431762567 -0.085635556396615686 0 0.10476850274626059 -0.091438500690643354 0 0.1166693121216771 -0.07095939034062379 0 0.094073884431762567 -0.085635556396615686 0 0.1166693121216771 -0.07095939034062379 0 0.094073884431762567 -0.085635556396615686 0 0.10476850274626059 -0.091438500690643354 0 0.1000603018566361 -0.1024109222851616 0 0.094073884431762567 -0.085635556396615686 0 0.099552615910110109 -0.069301486047037397 0 0.1166693121216771 -0.07095939034062379 0 0.10234957031069609 -0.054667628073517133 0 0.099552615910110109 -0.069301486047037397 0 0.1166693121216771 -0.07095939034062379 0 0.10476850274626059 -0.091438500690643354 0 0.1166693121216771 -0.07095939034062379 0 0.1150150208867229 -0.095036938340698526 0 0.1166693121216771 -0.07095939034062379 0 0.1150150208867229 -0.095036938340698526 0 0.13144058641839601 -0.092169874084926162 0 0.1087723131079322 -0.1104981110022608 0 0.13144058641839601 -0.092169874084926162 0 0.1150150208867229 -0.095036938340698526 0 0.1087723131079322 -0.1104981110022608 0 0.13144058641839601 -0.092169874084926162 0 0.1087723131079322 -0.1104981110022608 0 0.13440445992828839 -0.1109582473275824 0 0.13144058641839601 -0.092169874084926162 0 0.1150150208867229 -0.095036938340698526 0 0.10715403464938809 -0.099846118079691029 0 0.1087723131079322 -0.1104981110022608 0 0.10476850274626059 -0.091438500690643354 0 0.10715403464938809 -0.099846118079691029 0 0.1000603018566361 -0.1024109222851616 0 0.10476850274626059 -0.091438500690643354 0 0.1150150208867229 -0.095036938340698526 0 0.10715403464938809 -0.099846118079691029 0 0.094073884431762567 -0.085635556396615686 0 0.1000603018566361 -0.1024109222851616 0 0.1000603018566361 -0.1024109222851616 0 0.1087723131079322 -0.1104981110022608 0 0.10715403464938809 -0.099846118079691029 0 0.1000603018566361 -0.1024109222851616 0 0.1087723131079322 -0.1104981110022608 0 0.087309605645986513 -0.1063638937648389 0 0.1000603018566361 -0.1024109222851616 0 0.094913483215312899 -0.1156732195974343 0 0.1000603018566361 -0.1024109222851616 0 0.1087723131079322 -0.1104981110022608 0 0.1075156781444525 -0.123302660396377 0 0.1000603018566361 -0.1024109222851616 0 0.094913483215312899 -0.1156732195974343 0 0.1075156781444525 -0.123302660396377 0 0.1000603018566361 -0.1024109222851616 0 0.1075156781444525 -0.123302660396377 0 0.094595269105919227 -0.1268408188730368 0 0.094913483215312899 -0.1156732195974343 0 0.1075156781444525 -0.123302660396377 0 0.1087723131079322 -0.1104981110022608 0 0.1075156781444525 -0.123302660396377 0 0.1253488407732804 -0.12588577564558709 0 0.1087723131079322 -0.1104981110022608 0 0.1253488407732804 -0.12588577564558709 0 0.1087723131079322 -0.1104981110022608 0 0.13440445992828839 -0.1109582473275824 0 0.1253488407732804 -0.12588577564558709 0 0.13440445992828839 -0.1109582473275824 0 0.1418428030632109 -0.1240008276412093 0 0.1253488407732804 -0.12588577564558709 0 0.13440445992828839 -0.1109582473275824 0 0.1418428030632109 -0.1240008276412093 0 0.15138652023686039 -0.11385291959638751 0 0.1418428030632109 -0.1240008276412093 0 0.15138652023686039 -0.11385291959638751 0 0.15614882593899751 -0.12803375534757541 0 0.13440445992828839 -0.1109582473275824 0 0.15138652023686039 -0.11385291959638751 0 0.14909003581607619 -0.097036169534306521 0 0.15138652023686039 -0.11385291959638751 0 0.14909003581607619 -0.097036169534306521 0 0.16498038306581239 -0.1026993665958558 0 0.13440445992828839 -0.1109582473275824 0 0.14909003581607619 -0.097036169534306521 0 0.13144058641839601 -0.092169874084926162 0 0.13144058641839601 -0.092169874084926162 0 0.13537087452012969 -0.073313531469441445 0 0.15410885972885471 -0.073841637167585114 0 0.1166693121216771 -0.07095939034062379 0 0.13144058641839601 -0.092169874084926162 0 0.13537087452012969 -0.073313531469441445 0 0.1166693121216771 -0.07095939034062379 0 0.13537087452012969 -0.073313531469441445 0 0.13926473981159099 -0.056283224284630708 0 0.1166693121216771 -0.07095939034062379 0 0.13926473981159099 -0.056283224284630708 0 0.13537087452012969 -0.073313531469441445 0 0.15410885972885471 -0.073841637167585114 0 0.13926473981159099 -0.056283224284630708 0 0.14909003581607619 -0.097036169534306521 0 0.13144058641839601 -0.092169874084926162 0 0.15410885972885471 -0.073841637167585114 0 0.14909003581607619 -0.097036169534306521 0 0.15410885972885471 -0.073841637167585114 0 0.16313137291861751 -0.08824003259777019 0 0.13144058641839601 -0.092169874084926162 0 0.15410885972885471 -0.073841637167585114 0 0.15410885972885471 -0.073841637167585114 0 0.16313137291861751 -0.08824003259777019 0 0.1743016410198987 -0.074610959237739444 0 0.16313137291861751 -0.08824003259777019 0 0.1743016410198987 -0.074610959237739444 0 0.17612313033984989 -0.08895919051658932 0 0.16313137291861751 -0.08824003259777019 0 0.17612313033984989 -0.08895919051658932 0 0.16498038306581239 -0.1026993665958558 0 0.15410885972885471 -0.073841637167585114 0 0.17677713303931339 -0.055513400250244052 0 0.15410885972885471 -0.073841637167585114 0 0.1743016410198987 -0.074610959237739444 0 0.17677713303931339 -0.055513400250244052 0 0.1743016410198987 -0.074610959237739444 0 0.17677713303931339 -0.055513400250244052 0 0.18780953101496731 -0.063906318834406048 0 0.1743016410198987 -0.074610959237739444 0 0.18780953101496731 -0.063906318834406048 0 0.18921744639884561 -0.07619516430556357 0 0.17612313033984989 -0.08895919051658932 0 0.18849157621313309 -0.093549482972702519 0 0.18921744639884561 -0.07619516430556357 0 0.1743016410198987 -0.074610959237739444 0 0.17612313033984989 -0.08895919051658932 0 0.18921744639884561 -0.07619516430556357 0 0.17612313033984989 -0.08895919051658932 0 0.17848295472684331 -0.105495006483702 0 0.16498038306581239 -0.1026993665958558 0 0.17612313033984989 -0.08895919051658932 0 0.17848295472684331 -0.105495006483702 0 0.18849157621313309 -0.093549482972702519 0 0.17848295472684331 -0.105495006483702 0 0.1844309288768495 -0.1122704053909353 0 0.19166501640360339 -0.10620470845595829 0 0.17848295472684331 -0.105495006483702 0 0.19166501640360339 -0.10620470845595829 0 0.18849157621313309 -0.093549482972702519 0 0.17848295472684331 -0.105495006483702 0 0.1844309288768495 -0.1122704053909353 0 0.17776402821430659 -0.1191254602475568 0 0.1844309288768495 -0.1122704053909353 0 0.17776402821430659 -0.1191254602475568 0 0.18981171616264481 -0.1182564463765243 0 0.17776402821430659 -0.1191254602475568 0 0.18981171616264481 -0.1182564463765243 0 0.18329299340404501 -0.12831423985793741 0 0.17848295472684331 -0.105495006483702 0 0.17776402821430659 -0.1191254602475568 0 0.16671564335307529 -0.11615912693540981 0 0.16671564335307529 -0.11615912693540981 0 0.15614882593899751 -0.12803375534757541 0 0.17089376790506569 -0.12867608951182941 0 0.17776402821430659 -0.1191254602475568 0 0.16671564335307529 -0.11615912693540981 0 0.17089376790506569 -0.12867608951182941 0 0.15138652023686039 -0.11385291959638751 0 0.16671564335307529 -0.11615912693540981 0 0.15614882593899751 -0.12803375534757541 0 0.15138652023686039 -0.11385291959638751 0 0.16671564335307529 -0.11615912693540981 0 0.16498038306581239 -0.1026993665958558 0 0.14909003581607619 -0.097036169534306521 0 0.16313137291861751 -0.08824003259777019 0 0.16498038306581239 -0.1026993665958558 0 0.17848295472684331 -0.105495006483702 0 0.16671564335307529 -0.11615912693540981 0 0.16498038306581239 -0.1026993665958558 0 0.16552949457093361 0.00641810954893853 0 0.15143987796377409 0.0024651481115419878 0 0.1474143239594074 -0.012878008354249 0 0.16552949457093361 0.00641810954893853 0 0.15449651012454671 -0.0066700862330673419 0 0.1474143239594074 -0.012878008354249 0 0.15449651012454671 -0.0066700862330673419 0 0.1474143239594074 -0.012878008354249 0 0.15705225573752221 -0.019957556618870682 0 0.1474143239594074 -0.012878008354249 0 0.1417083298287195 -0.0020673357250960401 0 0.13290032699720841 -0.013453489019253719 0 0.15143987796377409 0.0024651481115419878 0 0.1474143239594074 -0.012878008354249 0 0.1417083298287195 -0.0020673357250960401 0 0.1417083298287195 -0.0020673357250960401 0 0.12816907747161399 -0.0043459578003969294 0 0.13290032699720841 -0.013453489019253719 0 0.11791075037842021 -0.015802016959090118 0 0.12816907747161399 -0.0043459578003969294 0 0.13290032699720841 -0.013453489019253719 0 0.1474143239594074 -0.012878008354249 0 0.1292991533478812 -0.032174126257436507 0 0.11791075037842021 -0.015802016959090118 0 0.13290032699720841 -0.013453489019253719 0 0.1292991533478812 -0.032174126257436507 0 0.1474143239594074 -0.012878008354249 0 0.13290032699720841 -0.013453489019253719 0 0.1292991533478812 -0.032174126257436507 0 0.14669339118356819 -0.031752633219142887 0 0.16186016750150481 -0.041607058228637632 0 0.15705225573752221 -0.019957556618870682 0 0.1474143239594074 -0.012878008354249 0 0.14669339118356819 -0.031752633219142887 0 0.1292991533478812 -0.032174126257436507 0 0.1474143239594074 -0.012878008354249 0 0.14669339118356819 -0.031752633219142887 0 0.15705225573752221 -0.019957556618870682 0 0.14669339118356819 -0.031752633219142887 0 0.13926473981159099 -0.056283224284630708 0 0.16186016750150481 -0.041607058228637632 0 0.1181275519099142 -0.04985928313427402 0 0.1292991533478812 -0.032174126257436507 0 0.13926473981159099 -0.056283224284630708 0 0.14669339118356819 -0.031752633219142887 0 0.1292991533478812 -0.032174126257436507 0 0.13926473981159099 -0.056283224284630708 0 0.13926473981159099 -0.056283224284630708 0 0.15741520040151591 -0.056932163924526748 0 0.16186016750150481 -0.041607058228637632 0 0.15410885972885471 -0.073841637167585114 0 0.13926473981159099 -0.056283224284630708 0 0.15741520040151591 -0.056932163924526748 0 0.13926473981159099 -0.056283224284630708 0 0.16186016750150481 -0.041607058228637632 0 0.15410885972885471 -0.073841637167585114 0 0.15741520040151591 -0.056932163924526748 0 0.17677713303931339 -0.055513400250244052 0 0.15741520040151591 -0.056932163924526748 0 0.17677713303931339 -0.055513400250244052 0 0.16186016750150481 -0.041607058228637632 0 0.17677713303931339 -0.055513400250244052 0 0.1950786148628445 -0.054267050556037907 0 0.18780953101496731 -0.063906318834406048 0 0.17677713303931339 -0.055513400250244052 0 0.18445559519141849 -0.02693089217264456 0 0.19944540634977201 -0.03718516333290299 0 0.16186016750150481 -0.041607058228637632 0 0.18445559519141849 -0.02693089217264456 0 0.17677713303931339 -0.055513400250244052 0 0.16186016750150481 -0.041607058228637632 0 0.18445559519141849 -0.02693089217264456 0 0.16186016750150481 -0.041607058228637632 0 0.15705225573752221 -0.019957556618870682 0 0.16977406718625429 -0.018372367978110451 0 0.15705225573752221 -0.019957556618870682 0 0.16977406718625429 -0.018372367978110451 0 0.16297206149453081 -0.01248902974527934 0 0.16186016750150481 -0.041607058228637632 0 0.16977406718625429 -0.018372367978110451 0 0.18445559519141849 -0.02693089217264456 0 0.16977406718625429 -0.018372367978110451 0 0.18445559519141849 -0.02693089217264456 0 0.178333235061373 -0.010324610706806559 0 0.18445559519141849 -0.02693089217264456 0 0.178333235061373 -0.010324610706806559 0 0.19129573766686511 -0.0045631708181214118 0 0.17557536233252691 0.0031994855859125062 0 0.178333235061373 -0.010324610706806559 0 0.19129573766686511 -0.0045631708181214118 0 0.16977406718625429 -0.018372367978110451 0 0.178333235061373 -0.010324610706806559 0 0.16889743743697591 -0.0077955464827841334 0 0.17557536233252691 0.0031994855859125062 0 0.178333235061373 -0.010324610706806559 0 0.16889743743697591 -0.0077955464827841334 0 0.16552949457093361 0.00641810954893853 0 0.1474143239594074 -0.012878008354249 0 0.17557536233252691 0.0031994855859125062 0 0.15449651012454671 -0.0066700862330673419 0 0.17557536233252691 0.0031994855859125062 0 0.15449651012454671 -0.0066700862330673419 0 0.16889743743697591 -0.0077955464827841334 0 0.16977406718625429 -0.018372367978110451 0 0.16889743743697591 -0.0077955464827841334 0 0.16297206149453081 -0.01248902974527934 0 0.15449651012454671 -0.0066700862330673419 0 0.15705225573752221 -0.019957556618870682 0 0.16297206149453081 -0.01248902974527934 0 0.15449651012454671 -0.0066700862330673419 0 0.16889743743697591 -0.0077955464827841334 0 0.16297206149453081 -0.01248902974527934 0 0.22275708432177749 0.0049055413070795148 0 0.20951141291401651 0.0048084935125456618 0 0.20705102288133251 -0.01225472611665138 0 0.20951141291401651 0.0048084935125456618 0 0.20005301305848669 0.0012175524953399069 0 0.20705102288133251 -0.01225472611665138 0 0.20005301305848669 0.0012175524953399069 0 0.20705102288133251 -0.01225472611665138 0 0.19129573766686511 -0.0045631708181214118 0 0.18445559519141849 -0.02693089217264456 0 0.20705102288133251 -0.01225472611665138 0 0.19129573766686511 -0.0045631708181214118 0 0.18445559519141849 -0.02693089217264456 0 0.20705102288133251 -0.01225472611665138 0 0.18445559519141849 -0.02693089217264456 0 0.20705102288133251 -0.01225472611665138 0 0.19944540634977201 -0.03718516333290299 0 0.20705102288133251 -0.01225472611665138 0 0.2180824015863396 -0.030072447270698601 0 0.19944540634977201 -0.03718516333290299 0 0.20705102288133251 -0.01225472611665138 0 0.2180824015863396 -0.030072447270698601 0 0.2264802987392984 -0.0095882431059441386 0 0.2180824015863396 -0.030072447270698601 0 0.20832412105119291 -0.048802626233417461 0 0.2224620330031081 -0.047404707667272963 0 0.2180824015863396 -0.030072447270698601 0 0.19944540634977201 -0.03718516333290299 0 0.20832412105119291 -0.048802626233417461 0 0.17677713303931339 -0.055513400250244052 0 0.19944540634977201 -0.03718516333290299 0 0.19944540634977201 -0.03718516333290299 0 0.1950786148628445 -0.054267050556037907 0 0.20832412105119291 -0.048802626233417461 0 0.17677713303931339 -0.055513400250244052 0 0.19944540634977201 -0.03718516333290299 0 0.1950786148628445 -0.054267050556037907 0 0.1950786148628445 -0.054267050556037907 0 0.20832412105119291 -0.048802626233417461 0 0.2030368828589772 -0.065927744129218993 0 0.1950786148628445 -0.054267050556037907 0 0.18780953101496731 -0.063906318834406048 0 0.2030368828589772 -0.065927744129218993 0 0.20832412105119291 -0.048802626233417461 0 0.21545912035385931 -0.059390337890756158 0 0.2030368828589772 -0.065927744129218993 0 0.20832412105119291 -0.048802626233417461 0 0.21545912035385931 -0.059390337890756158 0 0.2224620330031081 -0.047404707667272963 0 0.21545912035385931 -0.059390337890756158 0 0.2224620330031081 -0.047404707667272963 0 0.22680003674714461 -0.06039530043979259 0 0.2224620330031081 -0.047404707667272963 0 0.22680003674714461 -0.06039530043979259 0 0.23448021959203039 -0.047901621522021751 0 0.22680003674714461 -0.06039530043979259 0 0.23760686727191269 -0.057827802722429968 0 0.2347586774332994 -0.068003452665442943 0 0.22680003674714461 -0.06039530043979259 0 0.23760686727191269 -0.057827802722429968 0 0.23448021959203039 -0.047901621522021751 0 0.23760686727191269 -0.057827802722429968 0 0.24882189454425699 -0.054658680225564547 0 0.2450650020335238 -0.064475024323163696 0 0.25561314187342649 -0.064623345552831793 0 0.24882189454425699 -0.054658680225564547 0 0.2450650020335238 -0.064475024323163696 0 0.23760686727191269 -0.057827802722429968 0 0.24882189454425699 -0.054658680225564547 0 0.24645897110593409 -0.044876357510744112 0 0.23760686727191269 -0.057827802722429968 0 0.23448021959203039 -0.047901621522021751 0 0.24645897110593409 -0.044876357510744112 0 0.23448021959203039 -0.047901621522021751 0 0.24645897110593409 -0.044876357510744112 0 0.23331939865473489 -0.035858199585755313 0 0.24645897110593409 -0.044876357510744112 0 0.23331939865473489 -0.035858199585755313 0 0.24767000983824561 -0.030595489642792899 0 0.2180824015863396 -0.030072447270698601 0 0.2224620330031081 -0.047404707667272963 0 0.23331939865473489 -0.035858199585755313 0 0.2224620330031081 -0.047404707667272963 0 0.23448021959203039 -0.047901621522021751 0 0.23331939865473489 -0.035858199585755313 0 0.2180824015863396 -0.030072447270698601 0 0.23331939865473489 -0.035858199585755313 0 0.2354106973268571 -0.020579119646683391 0 0.2180824015863396 -0.030072447270698601 0 0.2354106973268571 -0.020579119646683391 0 0.2264802987392984 -0.0095882431059441386 0 0.23331939865473489 -0.035858199585755313 0 0.24767000983824561 -0.030595489642792899 0 0.2354106973268571 -0.020579119646683391 0 0.24767000983824561 -0.030595489642792899 0 0.2494523415789337 -0.016965235921967602 0 0.2354106973268571 -0.020579119646683391 0 0.2494523415789337 -0.016965235921967602 0 0.2354106973268571 -0.020579119646683391 0 0.23981551645585431 -0.0074162248697482143 0 0.2494523415789337 -0.016965235921967602 0 0.2498662373326794 -0.0068470548752739141 0 0.23981551645585431 -0.0074162248697482143 0 0.24358789196364111 7.324729670624437e-05 0 0.2498662373326794 -0.0068470548752739141 0 0.23981551645585431 -0.0074162248697482143 0 0.24358789196364111 7.324729670624437e-05 0 0.25322849713948081 0.001567162893323492 0 0.2498662373326794 -0.0068470548752739141 0 0.23453834131703649 0.0026377026814196061 0 0.24358789196364111 7.324729670624437e-05 0 0.23981551645585431 -0.0074162248697482143 0 0.23453834131703649 0.0026377026814196061 0 0.23981551645585431 -0.0074162248697482143 0 0.2264802987392984 -0.0095882431059441386 0 0.23453834131703649 0.0026377026814196061 0 0.22275708432177749 0.0049055413070795148 0 0.2264802987392984 -0.0095882431059441386 0 0.22275708432177749 0.0049055413070795148 0 0.20705102288133251 -0.01225472611665138 0 0.2264802987392984 -0.0095882431059441386 0 0.2354106973268571 -0.020579119646683391 0 0.23981551645585431 -0.0074162248697482143 0 0.2264802987392984 -0.0095882431059441386 0 0.21292684948080839 -0.1004141944299307 0 0.2109982320862534 -0.1085317216939945 0 0.2021954405175887 -0.1005904369496764 0 0.2109982320862534 -0.1085317216939945 0 0.20076012809082491 -0.1130632207655911 0 0.2021954405175887 -0.1005904369496764 0 0.20815495743160761 -0.093854496321531866 0 0.2021954405175887 -0.1005904369496764 0 0.20071256286466951 -0.089343411277188062 0 0.20815495743160761 -0.093854496321531866 0 0.21292684948080839 -0.1004141944299307 0 0.2021954405175887 -0.1005904369496764 0 0.20815495743160761 -0.093854496321531866 0 0.21292684948080839 -0.1004141944299307 0 0.21681732100599779 -0.093016294393371571 0 0.21292684948080839 -0.1004141944299307 0 0.21681732100599779 -0.093016294393371571 0 0.22028381178509329 -0.100096612895794 0 0.2109982320862534 -0.1085317216939945 0 0.21829793590622659 -0.11212999763167419 0 0.2191113340583096 -0.10639560432521621 0 0.21292684948080839 -0.1004141944299307 0 0.2109982320862534 -0.1085317216939945 0 0.2191113340583096 -0.10639560432521621 0 0.21292684948080839 -0.1004141944299307 0 0.2191113340583096 -0.10639560432521621 0 0.22028381178509329 -0.100096612895794 0 0.21829793590622659 -0.11212999763167419 0 0.21526298253329809 -0.11708976725990521 0 0.2218600993959815 -0.11863051693110691 0 0.21829793590622659 -0.11212999763167419 0 0.21526298253329809 -0.11708976725990521 0 0.21345812326452451 -0.1133025823468234 0 0.21526298253329809 -0.11708976725990521 0 0.21345812326452451 -0.1133025823468234 0 0.2092733425323198 -0.1154588428017197 0 0.2109982320862534 -0.1085317216939945 0 0.21345812326452451 -0.1133025823468234 0 0.2092733425323198 -0.1154588428017197 0 0.2109982320862534 -0.1085317216939945 0 0.21829793590622659 -0.11212999763167419 0 0.21345812326452451 -0.1133025823468234 0 0.21507933186833181 -0.1245723879521987 0 0.2172261149116641 -0.1210849851474535 0 0.21978881528833441 -0.1239271476869364 0 0.21526298253329809 -0.11708976725990521 0 0.2172261149116641 -0.1210849851474535 0 0.2218600993959815 -0.11863051693110691 0 0.21526298253329809 -0.11708976725990521 0 0.2172261149116641 -0.1210849851474535 0 0.21114908512138 -0.121410714346043 0 0.21526298253329809 -0.11708976725990521 0 0.21114908512138 -0.121410714346043 0 0.2092733425323198 -0.1154588428017197 0 0.21507933186833181 -0.1245723879521987 0 0.21114908512138 -0.121410714346043 0 0.21096410660204501 -0.12667559165534109 0 0.21507933186833181 -0.1245723879521987 0 0.2172261149116641 -0.1210849851474535 0 0.21114908512138 -0.121410714346043 0 0.21114908512138 -0.121410714346043 0 0.2041392102343339 -0.1204784297618388 0 0.20637194226126021 -0.12573996516047481 0 0.21114908512138 -0.121410714346043 0 0.21096410660204501 -0.12667559165534109 0 0.20637194226126021 -0.12573996516047481 0 0.21114908512138 -0.121410714346043 0 0.2041392102343339 -0.1204784297618388 0 0.2092733425323198 -0.1154588428017197 0 0.2041392102343339 -0.1204784297618388 0 0.20637194226126021 -0.12573996516047481 0 0.2010111561322695 -0.12717612834153219 0 0.2109982320862534 -0.1085317216939945 0 0.2092733425323198 -0.1154588428017197 0 0.20076012809082491 -0.1130632207655911 0 0.2041392102343339 -0.1204784297618388 0 0.2092733425323198 -0.1154588428017197 0 0.20076012809082491 -0.1130632207655911 0 0.20076012809082491 -0.1130632207655911 0 0.19760528661722679 -0.1217576149986698 0 0.18981171616264481 -0.1182564463765243 0 0.2041392102343339 -0.1204784297618388 0 0.20076012809082491 -0.1130632207655911 0 0.19760528661722679 -0.1217576149986698 0 0.2041392102343339 -0.1204784297618388 0 0.19760528661722679 -0.1217576149986698 0 0.2010111561322695 -0.12717612834153219 0 0.19760528661722679 -0.1217576149986698 0 0.18981171616264481 -0.1182564463765243 0 0.19406749247340299 -0.12902499700823539 0 0.20076012809082491 -0.1130632207655911 0 0.18981171616264481 -0.1182564463765243 0 0.19166501640360339 -0.10620470845595829 0 0.1844309288768495 -0.1122704053909353 0 0.18981171616264481 -0.1182564463765243 0 0.19166501640360339 -0.10620470845595829 0 0.20076012809082491 -0.1130632207655911 0 0.19166501640360339 -0.10620470845595829 0 0.2021954405175887 -0.1005904369496764 0 0.2021954405175887 -0.1005904369496764 0 0.18849157621313309 -0.093549482972702519 0 0.20071256286466951 -0.089343411277188062 0 0.19166501640360339 -0.10620470845595829 0 0.2021954405175887 -0.1005904369496764 0 0.18849157621313309 -0.093549482972702519 0 0.18849157621313309 -0.093549482972702519 0 0.20071256286466951 -0.089343411277188062 0 0.18921744639884561 -0.07619516430556357 0 0.20112395987969781 -0.078320885145518021 0 0.20071256286466951 -0.089343411277188062 0 0.18921744639884561 -0.07619516430556357 0 0.18780953101496731 -0.063906318834406048 0 0.18921744639884561 -0.07619516430556357 0 0.2030368828589772 -0.065927744129218993 0 0.20112395987969781 -0.078320885145518021 0 0.18921744639884561 -0.07619516430556357 0 0.2030368828589772 -0.065927744129218993 0 0.20112395987969781 -0.078320885145518021 0 0.2030368828589772 -0.065927744129218993 0 0.21133972684620589 -0.077739058475658124 0 0.2030368828589772 -0.065927744129218993 0 0.21133972684620589 -0.077739058475658124 0 0.21746703722170679 -0.069735615016953106 0 0.21133972684620589 -0.077739058475658124 0 0.21746703722170679 -0.069735615016953106 0 0.2217762076341149 -0.082882087405861241 0 0.21545912035385931 -0.059390337890756158 0 0.2030368828589772 -0.065927744129218993 0 0.21746703722170679 -0.069735615016953106 0 0.20815495743160761 -0.093854496321531866 0 0.20071256286466951 -0.089343411277188062 0 0.21088342843891189 -0.086181693751211652 0 0.20112395987969781 -0.078320885145518021 0 0.21133972684620589 -0.077739058475658124 0 0.21088342843891189 -0.086181693751211652 0 0.20112395987969781 -0.078320885145518021 0 0.20071256286466951 -0.089343411277188062 0 0.21088342843891189 -0.086181693751211652 0 0.21133972684620589 -0.077739058475658124 0 0.21088342843891189 -0.086181693751211652 0 0.2217762076341149 -0.082882087405861241 0 0.21088342843891189 -0.086181693751211652 0 0.21681732100599779 -0.093016294393371571 0 0.2217762076341149 -0.082882087405861241 0 0.20815495743160761 -0.093854496321531866 0 0.21088342843891189 -0.086181693751211652 0 0.21681732100599779 -0.093016294393371571 0 0.2217762076341149 -0.082882087405861241 0 0.2321089205155378 -0.088200227973449855 0 0.22544258337698189 -0.09456935103874671 0 0.21681732100599779 -0.093016294393371571 0 0.2217762076341149 -0.082882087405861241 0 0.22544258337698189 -0.09456935103874671 0 0.2217762076341149 -0.082882087405861241 0 0.23237263490649601 -0.078486315950248839 0 0.2321089205155378 -0.088200227973449855 0 0.23237263490649601 -0.078486315950248839 0 0.2321089205155378 -0.088200227973449855 0 0.23823127853352949 -0.083827867863122435 0 0.2321089205155378 -0.088200227973449855 0 0.23421207058686799 -0.097735659522970322 0 0.22544258337698189 -0.09456935103874671 0 0.21545912035385931 -0.059390337890756158 0 0.22680003674714461 -0.06039530043979259 0 0.21746703722170679 -0.069735615016953106 0 0.22680003674714461 -0.06039530043979259 0 0.21746703722170679 -0.069735615016953106 0 0.226390248889939 -0.072079161760431582 0 0.21746703722170679 -0.069735615016953106 0 0.2217762076341149 -0.082882087405861241 0 0.226390248889939 -0.072079161760431582 0 0.2217762076341149 -0.082882087405861241 0 0.23237263490649601 -0.078486315950248839 0 0.226390248889939 -0.072079161760431582 0 0.23237263490649601 -0.078486315950248839 0 0.226390248889939 -0.072079161760431582 0 0.2347586774332994 -0.068003452665442943 0 0.22680003674714461 -0.06039530043979259 0 0.226390248889939 -0.072079161760431582 0 0.2347586774332994 -0.068003452665442943 0 0.23760686727191269 -0.057827802722429968 0 0.2347586774332994 -0.068003452665442943 0 0.2450650020335238 -0.064475024323163696 0 0.2347586774332994 -0.068003452665442943 0 0.24101006252481971 -0.074853982221861848 0 0.2450650020335238 -0.064475024323163696 0 0.23237263490649601 -0.078486315950248839 0 0.2347586774332994 -0.068003452665442943 0 0.24101006252481971 -0.074853982221861848 0 0.24101006252481971 -0.074853982221861848 0 0.24761009880932461 -0.074712366058891908 0 0.2450650020335238 -0.064475024323163696 0 0.24101006252481971 -0.074853982221861848 0 0.24761009880932461 -0.074712366058891908 0 0.2445014943044882 -0.081853658109591956 0 0.25561314187342649 -0.064623345552831793 0 0.24761009880932461 -0.074712366058891908 0 0.2450650020335238 -0.064475024323163696 0 0.2321089205155378 -0.088200227973449855 0 0.24135329365917449 -0.090603799166108459 0 0.23421207058686799 -0.097735659522970322 0 0.2321089205155378 -0.088200227973449855 0 0.24135329365917449 -0.090603799166108459 0 0.23823127853352949 -0.083827867863122435 0 0.24101006252481971 -0.074853982221861848 0 0.23823127853352949 -0.083827867863122435 0 0.2445014943044882 -0.081853658109591956 0 0.23237263490649601 -0.078486315950248839 0 0.24101006252481971 -0.074853982221861848 0 0.23823127853352949 -0.083827867863122435 0 0.24135329365917449 -0.090603799166108459 0 0.23823127853352949 -0.083827867863122435 0 0.2445014943044882 -0.081853658109591956 0 0.25186079331036493 -0.087755820087010328 0 0.24761009880932461 -0.074712366058891908 0 0.2445014943044882 -0.081853658109591956 0 0.25186079331036493 -0.087755820087010328 0 0.24135329365917449 -0.090603799166108459 0 0.2435884284392891 -0.1010965704080851 0 0.25186079331036493 -0.087755820087010328 0 0.24135329365917449 -0.090603799166108459 0 0.2445014943044882 -0.081853658109591956 0 0.25186079331036493 -0.087755820087010328 0 0.2435884284392891 -0.1010965704080851 0 0.25186079331036493 -0.087755820087010328 0 0.24881791926133759 -0.094741362691803457 0 0.2475193132292289 -0.1145201719934841 0 0.25186079331036493 -0.087755820087010328 0 0.2475193132292289 -0.1145201719934841 0 0.25186079331036493 -0.087755820087010328 0 0.24881791926133759 -0.094741362691803457 0 0.2435884284392891 -0.1010965704080851 0 0.24881791926133759 -0.094741362691803457 0 0.2435884284392891 -0.1010965704080851 0 0.2475193132292289 -0.1145201719934841 0 0.24881791926133759 -0.094741362691803457 0 0.2435884284392891 -0.1010965704080851 0 0.2435884284392891 -0.1010965704080851 0 0.23426686724038701 -0.1039665066494676 0 0.23180980120111169 -0.11154857262578161 0 0.2435884284392891 -0.1010965704080851 0 0.23421207058686799 -0.097735659522970322 0 0.23426686724038701 -0.1039665066494676 0 0.24135329365917449 -0.090603799166108459 0 0.2435884284392891 -0.1010965704080851 0 0.23421207058686799 -0.097735659522970322 0 0.23421207058686799 -0.097735659522970322 0 0.22745716873427921 -0.1054852240410334 0 0.22544258337698189 -0.09456935103874671 0 0.23421207058686799 -0.097735659522970322 0 0.23426686724038701 -0.1039665066494676 0 0.22745716873427921 -0.1054852240410334 0 0.23426686724038701 -0.1039665066494676 0 0.22745716873427921 -0.1054852240410334 0 0.23180980120111169 -0.11154857262578161 0 0.22745716873427921 -0.1054852240410334 0 0.2191113340583096 -0.10639560432521621 0 0.22349907910609701 -0.11221723706198911 0 0.22745716873427921 -0.1054852240410334 0 0.2191113340583096 -0.10639560432521621 0 0.22028381178509329 -0.100096612895794 0 0.22745716873427921 -0.1054852240410334 0 0.22028381178509329 -0.100096612895794 0 0.22544258337698189 -0.09456935103874671 0 0.21681732100599779 -0.093016294393371571 0 0.22028381178509329 -0.100096612895794 0 0.22544258337698189 -0.09456935103874671 0 0.2435884284392891 -0.1010965704080851 0 0.2292240723219123 -0.12426180688779551 0 0.22669169873146469 -0.12163054411090859 0 0.2435884284392891 -0.1010965704080851 0 0.23180980120111169 -0.11154857262578161 0 0.22669169873146469 -0.12163054411090859 0 0.21978881528833441 -0.1239271476869364 0 0.22669169873146469 -0.12163054411090859 0 0.2165325001142272 -0.12674127613462641 0 0.22504816652539081 -0.1164974266700389 0 0.2272556417191976 -0.1134859745231505 0 0.22669169873146469 -0.12163054411090859 0 0.2218600993959815 -0.11863051693110691 0 0.22504816652539081 -0.1164974266700389 0 0.22669169873146469 -0.12163054411090859 0 0.21978881528833441 -0.1239271476869364 0 0.2218600993959815 -0.11863051693110691 0 0.22669169873146469 -0.12163054411090859 0 0.2172261149116641 -0.1210849851474535 0 0.21978881528833441 -0.1239271476869364 0 0.2218600993959815 -0.11863051693110691 0 0.22745716873427921 -0.1054852240410334 0 0.22349907910609701 -0.11221723706198911 0 0.2272556417191976 -0.1134859745231505 0 0.21829793590622659 -0.11212999763167419 0 0.2218600993959815 -0.11863051693110691 0 0.22349907910609701 -0.11221723706198911 0 0.21829793590622659 -0.11212999763167419 0 0.2191113340583096 -0.10639560432521621 0 0.22349907910609701 -0.11221723706198911 0 0.2218600993959815 -0.11863051693110691 0 0.22349907910609701 -0.11221723706198911 0 0.22504816652539081 -0.1164974266700389 0 0.22349907910609701 -0.11221723706198911 0 0.22504816652539081 -0.1164974266700389 0 0.2272556417191976 -0.1134859745231505 0 0.2272556417191976 -0.1134859745231505 0 0.23180980120111169 -0.11154857262578161 0 0.22669169873146469 -0.12163054411090859 0 0.22745716873427921 -0.1054852240410334 0 0.2272556417191976 -0.1134859745231505 0 0.23180980120111169 -0.11154857262578161 0 0.2292240723219123 -0.12426180688779551 0 0.23727071259440641 -0.1185965405743373 0 0.23464646348269011 -0.12854091820183691 0 0.23727071259440641 -0.1185965405743373 0 0.2416238861337339 -0.1204868667996316 0 0.23464646348269011 -0.12854091820183691 0 0.2435884284392891 -0.1010965704080851 0 0.23727071259440641 -0.1185965405743373 0 0.2416238861337339 -0.1204868667996316 0 0.2435884284392891 -0.1010965704080851 0 0.22669169873146469 -0.12163054411090859 0 0.2435884284392891 -0.1010965704080851 0 0.2292240723219123 -0.12426180688779551 0 0.23727071259440641 -0.1185965405743373 0 0.2435884284392891 -0.1010965704080851 0 0.2416238861337339 -0.1204868667996316 0 0.2475193132292289 -0.1145201719934841 0 0.2435884284392891 -0.1010965704080851 0 0.2292240723219123 -0.12426180688779551 0 0.2416238861337339 -0.1204868667996316 0 0.24858611665028441 -0.122788701752252 0 0.24094451286043109 -0.13115183011996731 0 0.2416238861337339 -0.1204868667996316 0 0.2475193132292289 -0.1145201719934841 0 0.24858611665028441 -0.122788701752252 0 0.25459694793568571 -0.13227166259153231 0 0.24858611665028441 -0.122788701752252 0 0.24094451286043109 -0.13115183011996731 0 0.25459694793568571 -0.13227166259153231 0 0.24094451286043109 -0.13115183011996731 0 0.2378228597482854 -0.14429944980135401 0 0.24094451286043109 -0.13115183011996731 0 0.2378228597482854 -0.14429944980135401 0 0.23347969691582859 -0.13524573350049771 0 0.23464646348269011 -0.12854091820183691 0 0.24094451286043109 -0.13115183011996731 0 0.23347969691582859 -0.13524573350049771 0 0.2416238861337339 -0.1204868667996316 0 0.23464646348269011 -0.12854091820183691 0 0.24094451286043109 -0.13115183011996731 0 0.25109267461351931 -0.15661820748076841 0 0.25459694793568571 -0.13227166259153231 0 0.2378228597482854 -0.14429944980135401 0 0.25109267461351931 -0.15661820748076841 0 0.2378228597482854 -0.14429944980135401 0 0.23772462461049429 -0.1597309977091598 0 0.2378228597482854 -0.14429944980135401 0 0.2250060870451141 -0.1541547000350148 0 0.23772462461049429 -0.1597309977091598 0 0.2378228597482854 -0.14429944980135401 0 0.2280989789452994 -0.1424340245865349 0 0.2250060870451141 -0.1541547000350148 0 0.2378228597482854 -0.14429944980135401 0 0.2280989789452994 -0.1424340245865349 0 0.23347969691582859 -0.13524573350049771 0 0.2280989789452994 -0.1424340245865349 0 0.22806178557405329 -0.13558190530883421 0 0.21485971620453581 -0.14742704336750601 0 0.2280989789452994 -0.1424340245865349 0 0.2250060870451141 -0.1541547000350148 0 0.21485971620453581 -0.14742704336750601 0 0.2292240723219123 -0.12426180688779551 0 0.21485971620453581 -0.14742704336750601 0 0.2292240723219123 -0.12426180688779551 0 0.22806178557405329 -0.13558190530883421 0 0.21485971620453581 -0.14742704336750601 0 0.2292240723219123 -0.12426180688779551 0 0.22669169873146469 -0.12163054411090859 0 0.20979496902363989 -0.14216451781373199 0 0.2292240723219123 -0.12426180688779551 0 0.23464646348269011 -0.12854091820183691 0 0.22806178557405329 -0.13558190530883421 0 0.23464646348269011 -0.12854091820183691 0 0.23347969691582859 -0.13524573350049771 0 0.22806178557405329 -0.13558190530883421 0 0.2280989789452994 -0.1424340245865349 0 0.23347969691582859 -0.13524573350049771 0 0.22806178557405329 -0.13558190530883421 0 0.22669169873146469 -0.12163054411090859 0 0.2165325001142272 -0.12674127613462641 0 0.2152478581245616 -0.13282676729139101 0 0.21507933186833181 -0.1245723879521987 0 0.21978881528833441 -0.1239271476869364 0 0.2165325001142272 -0.12674127613462641 0 0.22669169873146469 -0.12163054411090859 0 0.2152478581245616 -0.13282676729139101 0 0.20979496902363989 -0.14216451781373199 0 0.22669169873146469 -0.12163054411090859 0 0.20979496902363989 -0.14216451781373199 0 0.2292240723219123 -0.12426180688779551 0 0.21485971620453581 -0.14742704336750601 0 0.20979496902363989 -0.14216451781373199 0 0.2165325001142272 -0.12674127613462641 0 0.21399335184247589 -0.13060880684802989 0 0.21417390253859139 -0.1283841760977516 0 0.21507933186833181 -0.1245723879521987 0 0.2165325001142272 -0.12674127613462641 0 0.21417390253859139 -0.1283841760977516 0 0.2165325001142272 -0.12674127613462641 0 0.21399335184247589 -0.13060880684802989 0 0.2152478581245616 -0.13282676729139101 0 0.21399335184247589 -0.13060880684802989 0 0.2122728828570947 -0.13243961177266969 0 0.2152478581245616 -0.13282676729139101 0 0.21399335184247589 -0.13060880684802989 0 0.21140895330920559 -0.13055180253668669 0 0.21417390253859139 -0.1283841760977516 0 0.21399335184247589 -0.13060880684802989 0 0.21140895330920559 -0.13055180253668669 0 0.2122728828570947 -0.13243961177266969 0 0.21140895330920559 -0.13055180253668669 0 0.2122728828570947 -0.13243961177266969 0 0.20958769607404851 -0.13303056956164769 0 0.21507933186833181 -0.1245723879521987 0 0.21417390253859139 -0.1283841760977516 0 0.21096410660204501 -0.12667559165534109 0 0.21140895330920559 -0.13055180253668669 0 0.21417390253859139 -0.1283841760977516 0 0.21096410660204501 -0.12667559165534109 0 0.21096410660204501 -0.12667559165534109 0 0.2077405303062109 -0.13017907209752891 0 0.20637194226126021 -0.12573996516047481 0 0.21140895330920559 -0.13055180253668669 0 0.21096410660204501 -0.12667559165534109 0 0.2077405303062109 -0.13017907209752891 0 0.21140895330920559 -0.13055180253668669 0 0.2077405303062109 -0.13017907209752891 0 0.20958769607404851 -0.13303056956164769 0 0.2077405303062109 -0.13017907209752891 0 0.20600176966178191 -0.133486138072065 0 0.20958769607404851 -0.13303056956164769 0 0.20426050345996999 -0.13014000722078931 0 0.20600176966178191 -0.133486138072065 0 0.2015752877106145 -0.1335931097113357 0 0.2077405303062109 -0.13017907209752891 0 0.20426050345996999 -0.13014000722078931 0 0.20600176966178191 -0.133486138072065 0 0.2077405303062109 -0.13017907209752891 0 0.20426050345996999 -0.13014000722078931 0 0.20637194226126021 -0.12573996516047481 0 0.20426050345996999 -0.13014000722078931 0 0.20637194226126021 -0.12573996516047481 0 0.2010111561322695 -0.12717612834153219 0 0.20537112975218921 -0.13733911534980781 0 0.205765171937068 -0.1401962046105602 0 0.20170873210283211 -0.1430379875046878 0 0.20537112975218921 -0.13733911534980781 0 0.205765171937068 -0.1401962046105602 0 0.2079696130711938 -0.13895036095621319 0 0.20537112975218921 -0.13733911534980781 0 0.20600176966178191 -0.133486138072065 0 0.2015752877106145 -0.1335931097113357 0 0.20537112975218921 -0.13733911534980781 0 0.20600176966178191 -0.133486138072065 0 0.20829594851305089 -0.13602274312744689 0 0.20600176966178191 -0.133486138072065 0 0.20829594851305089 -0.13602274312744689 0 0.20958769607404851 -0.13303056956164769 0 0.20829594851305089 -0.13602274312744689 0 0.20958769607404851 -0.13303056956164769 0 0.21130270098692991 -0.13488040319337 0 0.20829594851305089 -0.13602274312744689 0 0.21023137505701811 -0.1381777895798057 0 0.21130270098692991 -0.13488040319337 0 0.21023137505701811 -0.1381777895798057 0 0.20979496902363989 -0.14216451781373199 0 0.20801121282205681 -0.14145735463153211 0 0.20829594851305089 -0.13602274312744689 0 0.21023137505701811 -0.1381777895798057 0 0.2079696130711938 -0.13895036095621319 0 0.20537112975218921 -0.13733911534980781 0 0.20829594851305089 -0.13602274312744689 0 0.2079696130711938 -0.13895036095621319 0 0.205765171937068 -0.1401962046105602 0 0.2079696130711938 -0.13895036095621319 0 0.20801121282205681 -0.14145735463153211 0 0.21023137505701811 -0.1381777895798057 0 0.2079696130711938 -0.13895036095621319 0 0.20801121282205681 -0.14145735463153211 0 0.21023137505701811 -0.1381777895798057 0 0.2152478581245616 -0.13282676729139101 0 0.20979496902363989 -0.14216451781373199 0 0.21023137505701811 -0.1381777895798057 0 0.21130270098692991 -0.13488040319337 0 0.2152478581245616 -0.13282676729139101 0 0.2122728828570947 -0.13243961177266969 0 0.21130270098692991 -0.13488040319337 0 0.2152478581245616 -0.13282676729139101 0 0.2122728828570947 -0.13243961177266969 0 0.20958769607404851 -0.13303056956164769 0 0.21130270098692991 -0.13488040319337 0 0.2250060870451141 -0.1541547000350148 0 0.21485971620453581 -0.14742704336750601 0 0.2058344328326415 -0.15619940012938729 0 0.21485971620453581 -0.14742704336750601 0 0.2058344328326415 -0.15619940012938729 0 0.20584683934415809 -0.1521223632067952 0 0.21485971620453581 -0.14742704336750601 0 0.20584683934415809 -0.1521223632067952 0 0.20979496902363989 -0.14216451781373199 0 0.205765171937068 -0.1401962046105602 0 0.20801121282205681 -0.14145735463153211 0 0.20170873210283211 -0.1430379875046878 0 0.20170873210283211 -0.1430379875046878 0 0.1963375365905016 -0.14397170545774041 0 0.20013844092624861 -0.13902823051658669 0 0.20170873210283211 -0.1430379875046878 0 0.1963375365905016 -0.14397170545774041 0 0.19154481829568901 -0.15675306210355069 0 0.20584683934415809 -0.1521223632067952 0 0.20979496902363989 -0.14216451781373199 0 0.1928982393158151 -0.16269849151655549 0 0.20979496902363989 -0.14216451781373199 0 0.19154481829568901 -0.15675306210355069 0 0.1928982393158151 -0.16269849151655549 0 0.20801121282205681 -0.14145735463153211 0 0.20170873210283211 -0.1430379875046878 0 0.19154481829568901 -0.15675306210355069 0 0.20979496902363989 -0.14216451781373199 0 0.20801121282205681 -0.14145735463153211 0 0.19154481829568901 -0.15675306210355069 0 0.20979496902363989 -0.14216451781373199 0 0.1928982393158151 -0.16269849151655549 0 0.20801121282205681 -0.14145735463153211 0 0.19154481829568901 -0.15675306210355069 0 0.1963375365905016 -0.14397170545774041 0 0.1896041135725795 -0.14864945034782581 0 0.19154481829568901 -0.15675306210355069 0 0.1896041135725795 -0.14864945034782581 0 0.19154481829568901 -0.15675306210355069 0 0.18320614771459701 -0.15390305606022339 0 0.1963375365905016 -0.14397170545774041 0 0.1925711616135424 -0.14183651434178421 0 0.1956995184751055 -0.13719923455936189 0 0.1963375365905016 -0.14397170545774041 0 0.1896041135725795 -0.14864945034782581 0 0.1925711616135424 -0.14183651434178421 0 0.1896041135725795 -0.14864945034782581 0 0.1925711616135424 -0.14183651434178421 0 0.1882336332681645 -0.14406660289328579 0 0.1925711616135424 -0.14183651434178421 0 0.1882336332681645 -0.14406660289328579 0 0.18707782768342479 -0.1378114341423263 0 0.19406749247340299 -0.12902499700823539 0 0.1956995184751055 -0.13719923455936189 0 0.18707782768342479 -0.1378114341423263 0 0.1925711616135424 -0.14183651434178421 0 0.1956995184751055 -0.13719923455936189 0 0.18707782768342479 -0.1378114341423263 0 0.18981171616264481 -0.1182564463765243 0 0.19406749247340299 -0.12902499700823539 0 0.18329299340404501 -0.12831423985793741 0 0.19406749247340299 -0.12902499700823539 0 0.18707782768342479 -0.1378114341423263 0 0.18329299340404501 -0.12831423985793741 0 0.19406749247340299 -0.12902499700823539 0 0.2010111561322695 -0.12717612834153219 0 0.2015752877106145 -0.1335931097113357 0 0.19760528661722679 -0.1217576149986698 0 0.19406749247340299 -0.12902499700823539 0 0.2010111561322695 -0.12717612834153219 0 0.20426050345996999 -0.13014000722078931 0 0.2010111561322695 -0.12717612834153219 0 0.2015752877106145 -0.1335931097113357 0 0.20537112975218921 -0.13733911534980781 0 0.2015752877106145 -0.1335931097113357 0 0.20013844092624861 -0.13902823051658669 0 0.19406749247340299 -0.12902499700823539 0 0.2015752877106145 -0.1335931097113357 0 0.1956995184751055 -0.13719923455936189 0 0.20537112975218921 -0.13733911534980781 0 0.20170873210283211 -0.1430379875046878 0 0.20013844092624861 -0.13902823051658669 0 0.1963375365905016 -0.14397170545774041 0 0.20013844092624861 -0.13902823051658669 0 0.1956995184751055 -0.13719923455936189 0 0.2015752877106145 -0.1335931097113357 0 0.20013844092624861 -0.13902823051658669 0 0.1956995184751055 -0.13719923455936189 0 0.19800556510440059 -0.17517061446675239 0 0.2030707456918735 -0.18089382102536961 0 0.207403557778787 -0.17180055807493311 0 0.19800556510440059 -0.17517061446675239 0 0.2030707456918735 -0.18089382102536961 0 0.19625505638079629 -0.18278853284529051 0 0.19800556510440059 -0.17517061446675239 0 0.19625505638079629 -0.18278853284529051 0 0.19236034517559389 -0.17781925456238301 0 0.2030707456918735 -0.18089382102536961 0 0.19625505638079629 -0.18278853284529051 0 0.20148352400995531 -0.18939778106444519 0 0.19625505638079629 -0.18278853284529051 0 0.20148352400995531 -0.18939778106444519 0 0.19137488709914799 -0.18931645152829649 0 0.19625505638079629 -0.18278853284529051 0 0.18779445388249461 -0.1827180575380189 0 0.19236034517559389 -0.17781925456238301 0 0.19625505638079629 -0.18278853284529051 0 0.18779445388249461 -0.1827180575380189 0 0.19137488709914799 -0.18931645152829649 0 0.18779445388249461 -0.1827180575380189 0 0.19236034517559389 -0.17781925456238301 0 0.18521986219136549 -0.17766900312502551 0 0.19236034517559389 -0.17781925456238301 0 0.18862242310579719 -0.17450749833128901 0 0.18521986219136549 -0.17766900312502551 0 0.19800556510440059 -0.17517061446675239 0 0.19236034517559389 -0.17781925456238301 0 0.194097994128481 -0.17031111948590061 0 0.19236034517559389 -0.17781925456238301 0 0.18862242310579719 -0.17450749833128901 0 0.194097994128481 -0.17031111948590061 0 0.19080612308337541 -0.16595374651042449 0 0.19154481829568901 -0.15675306210355069 0 0.1863962765283293 -0.1700371446372633 0 0.18862242310579719 -0.17450749833128901 0 0.194097994128481 -0.17031111948590061 0 0.1863962765283293 -0.1700371446372633 0 0.19080612308337541 -0.16595374651042449 0 0.194097994128481 -0.17031111948590061 0 0.1863962765283293 -0.1700371446372633 0 0.19080612308337541 -0.16595374651042449 0 0.194097994128481 -0.17031111948590061 0 0.1928982393158151 -0.16269849151655549 0 0.19080612308337541 -0.16595374651042449 0 0.19154481829568901 -0.15675306210355069 0 0.1928982393158151 -0.16269849151655549 0 0.2058344328326415 -0.15619940012938729 0 0.20584683934415809 -0.1521223632067952 0 0.1928982393158151 -0.16269849151655549 0 0.2058344328326415 -0.15619940012938729 0 0.1928982393158151 -0.16269849151655549 0 0.19964795783202499 -0.1672360367347058 0 0.19800556510440059 -0.17517061446675239 0 0.19964795783202499 -0.1672360367347058 0 0.207403557778787 -0.17180055807493311 0 0.19800556510440059 -0.17517061446675239 0 0.194097994128481 -0.17031111948590061 0 0.19964795783202499 -0.1672360367347058 0 0.194097994128481 -0.17031111948590061 0 0.1928982393158151 -0.16269849151655549 0 0.19964795783202499 -0.1672360367347058 0 0.2058344328326415 -0.15619940012938729 0 0.207403557778787 -0.17180055807493311 0 0.2267114170619953 -0.16858207624969621 0 0.2058344328326415 -0.15619940012938729 0 0.19964795783202499 -0.1672360367347058 0 0.207403557778787 -0.17180055807493311 0 0.2058344328326415 -0.15619940012938729 0 0.2267114170619953 -0.16858207624969621 0 0.207403557778787 -0.17180055807493311 0 0.2119043573741414 -0.18255491751567479 0 0.2267114170619953 -0.16858207624969621 0 0.2030707456918735 -0.18089382102536961 0 0.207403557778787 -0.17180055807493311 0 0.2119043573741414 -0.18255491751567479 0 0.2030707456918735 -0.18089382102536961 0 0.2119043573741414 -0.18255491751567479 0 0.20148352400995531 -0.18939778106444519 0 0.23402692731350941 -0.18648483751512901 0 0.2267114170619953 -0.16858207624969621 0 0.22243382684091079 -0.1889847780584504 0 0.2119043573741414 -0.18255491751567479 0 0.2267114170619953 -0.16858207624969621 0 0.22243382684091079 -0.1889847780584504 0 0.2250060870451141 -0.1541547000350148 0 0.2058344328326415 -0.15619940012938729 0 0.2267114170619953 -0.16858207624969621 0 0.2250060870451141 -0.1541547000350148 0 0.2267114170619953 -0.16858207624969621 0 0.23772462461049429 -0.1597309977091598 0 0.2267114170619953 -0.16858207624969621 0 0.23772462461049429 -0.1597309977091598 0 0.24758840129134971 -0.18096475237000409 0 0.25109267461351931 -0.15661820748076841 0 0.23772462461049429 -0.1597309977091598 0 0.24758840129134971 -0.18096475237000409 0 0.25109267461351931 -0.15661820748076841 0 0.24758840129134971 -0.18096475237000409 0 0.23402692731350941 -0.18648483751512901 0 0.2267114170619953 -0.16858207624969621 0 0.24758840129134971 -0.18096475237000409 0 0.2267114170619953 -0.16858207624969621 0 0.24758840129134971 -0.18096475237000409 0 0.23402692731350941 -0.18648483751512901 0 0.24758840129134971 -0.18096475237000409 0 0.24560152065042229 -0.19476894920819199 0 0.24758840129134971 -0.18096475237000409 0 0.24560152065042229 -0.19476894920819199 0 0.24560152065042229 -0.19476894920819199 0 0.23651912251107371 -0.20824882497002989 0 0.2419152879183234 -0.22037968856361209 0 0.24560152065042229 -0.19476894920819199 0 0.2419152879183234 -0.22037968856361209 0 0.25720104477585221 -0.21196902114597399 0 0.24560152065042229 -0.19476894920819199 0 0.2419152879183234 -0.22037968856361209 0 0.25720104477585221 -0.21196902114597399 0 0.2419152879183234 -0.22037968856361209 0 0.23651912251107371 -0.20824882497002989 0 0.2293596877667419 -0.21772653698304051 0 0.2419152879183234 -0.22037968856361209 0 0.24560152065042229 -0.19476894920819199 0 0.23651912251107371 -0.20824882497002989 0 0.22074860110565309 -0.21087784235050741 0 0.23651912251107371 -0.20824882497002989 0 0.2293596877667419 -0.21772653698304051 0 0.22074860110565309 -0.21087784235050741 0 0.2293596877667419 -0.21772653698304051 0 0.22074860110565309 -0.21087784235050741 0 0.21908580281539361 -0.22225696358838809 0 0.24560152065042229 -0.19476894920819199 0 0.22074860110565309 -0.21087784235050741 0 0.23402692731350941 -0.18648483751512901 0 0.24560152065042229 -0.19476894920819199 0 0.22319963246283389 -0.1968529132641221 0 0.24560152065042229 -0.19476894920819199 0 0.22074860110565309 -0.21087784235050741 0 0.22319963246283389 -0.1968529132641221 0 0.23402692731350941 -0.18648483751512901 0 0.22319963246283389 -0.1968529132641221 0 0.22243382684091079 -0.1889847780584504 0 0.24340103458885751 -0.24043508630388921 0 0.22731812898395901 -0.22841146940270371 0 0.23950280625400669 -0.25457042338899433 0 0.24340103458885751 -0.24043508630388921 0 0.22423064551238969 -0.24470156761890671 0 0.25948394019375548 -0.25245870320507519 0 0.23950280625400669 -0.25457042338899433 0 0.24340103458885751 -0.24043508630388921 0 0.25604866627880962 -0.23764007105407861 0 0.24340103458885751 -0.24043508630388921 0 0.24859496721272961 -0.23300378089183149 0 0.24340103458885751 -0.24043508630388921 0 0.24023126600249889 -0.2320797220366751 0 0.24859496721272961 -0.23300378089183149 0 0.24340103458885751 -0.24043508630388921 0 0.24023126600249889 -0.2320797220366751 0 0.22731812898395901 -0.22841146940270371 0 0.24023126600249889 -0.2320797220366751 0 0.2419152879183234 -0.22037968856361209 0 0.22731812898395901 -0.22841146940270371 0 0.24023126600249889 -0.2320797220366751 0 0.24859496721272961 -0.23300378089183149 0 0.2419152879183234 -0.22037968856361209 0 0.25547565355231122 -0.22703460401764641 0 0.24859496721272961 -0.23300378089183149 0 0.2419152879183234 -0.22037968856361209 0 0.24023126600249889 -0.2320797220366751 0 0.2419152879183234 -0.22037968856361209 0 0.2419152879183234 -0.22037968856361209 0 0.22731812898395901 -0.22841146940270371 0 0.2293596877667419 -0.21772653698304051 0 0.2419152879183234 -0.22037968856361209 0 0.22731812898395901 -0.22841146940270371 0 0.2293596877667419 -0.21772653698304051 0 0.21908580281539361 -0.22225696358838809 0 0.22731812898395901 -0.22841146940270371 0 0.21908580281539361 -0.22225696358838809 0 0.22731812898395901 -0.22841146940270371 0 0.24340103458885751 -0.24043508630388921 0 0.22731812898395901 -0.22841146940270371 0 0.22423064551238969 -0.24470156761890671 0 0.22731812898395901 -0.22841146940270371 0 0.22423064551238969 -0.24470156761890671 0 0.2087814593392408 -0.23861088346282941 0 0.20866135617038001 -0.25253480068667589 0 0.22423064551238969 -0.24470156761890671 0 0.2087814593392408 -0.23861088346282941 0 0.21908580281539361 -0.22225696358838809 0 0.2087814593392408 -0.23861088346282941 0 0.21112788620529269 -0.2246831062236368 0 0.22074860110565309 -0.21087784235050741 0 0.19589568156088341 -0.22698673549282219 0 0.22074860110565309 -0.21087784235050741 0 0.21112788620529269 -0.2246831062236368 0 0.19589568156088341 -0.22698673549282219 0 0.21908580281539361 -0.22225696358838809 0 0.22731812898395901 -0.22841146940270371 0 0.2087814593392408 -0.23861088346282941 0 0.22731812898395901 -0.22841146940270371 0 0.2087814593392408 -0.23861088346282941 0 0.2087814593392408 -0.23861088346282941 0 0.21112788620529269 -0.2246831062236368 0 0.19589568156088341 -0.22698673549282219 0 0.22074860110565309 -0.21087784235050741 0 0.21908580281539361 -0.22225696358838809 0 0.21112788620529269 -0.2246831062236368 0 0.2087814593392408 -0.23861088346282941 0 0.19589568156088341 -0.22698673549282219 0 0.1912003672000506 -0.23737373814562771 0 0.19589568156088341 -0.22698673549282219 0 0.18633760666215199 -0.21740859167562071 0 0.18082723441078871 -0.22941072003592139 0 0.19589568156088341 -0.22698673549282219 0 0.20012406532050431 -0.2135671223457529 0 0.18633760666215199 -0.21740859167562071 0 0.19589568156088341 -0.22698673549282219 0 0.1912003672000506 -0.23737373814562771 0 0.18082723441078871 -0.22941072003592139 0 0.2087814593392408 -0.23861088346282941 0 0.1912003672000506 -0.23737373814562771 0 0.19024478969452249 -0.2488102975229548 0 0.2087814593392408 -0.23861088346282941 0 0.19024478969452249 -0.2488102975229548 0 0.20866135617038001 -0.25253480068667589 0 0.2087814593392408 -0.23861088346282941 0 0.19024478969452249 -0.2488102975229548 0 0.22319963246283389 -0.1968529132641221 0 0.21054585026575859 -0.1948036003969211 0 0.2058410686007506 -0.2051974720555329 0 0.2031848211547832 -0.19655842695533551 0 0.21054585026575859 -0.1948036003969211 0 0.2058410686007506 -0.2051974720555329 0 0.2119043573741414 -0.18255491751567479 0 0.21054585026575859 -0.1948036003969211 0 0.20148352400995531 -0.18939778106444519 0 0.2031848211547832 -0.19655842695533551 0 0.21054585026575859 -0.1948036003969211 0 0.20148352400995531 -0.18939778106444519 0 0.22319963246283389 -0.1968529132641221 0 0.22243382684091079 -0.1889847780584504 0 0.21054585026575859 -0.1948036003969211 0 0.2119043573741414 -0.18255491751567479 0 0.22243382684091079 -0.1889847780584504 0 0.21054585026575859 -0.1948036003969211 0 0.22074860110565309 -0.21087784235050741 0 0.2058410686007506 -0.2051974720555329 0 0.20012406532050431 -0.2135671223457529 0 0.22074860110565309 -0.21087784235050741 0 0.22319963246283389 -0.1968529132641221 0 0.2058410686007506 -0.2051974720555329 0 0.22074860110565309 -0.21087784235050741 0 0.19589568156088341 -0.22698673549282219 0 0.20012406532050431 -0.2135671223457529 0 0.2058410686007506 -0.2051974720555329 0 0.20012406532050431 -0.2135671223457529 0 0.19149312784272421 -0.2064013702565502 0 0.20012406532050431 -0.2135671223457529 0 0.19149312784272421 -0.2064013702565502 0 0.18633760666215199 -0.21740859167562071 0 0.19149312784272421 -0.2064013702565502 0 0.1948688417426683 -0.19683485430444281 0 0.185144232128655 -0.1973029918844352 0 0.2058410686007506 -0.2051974720555329 0 0.19149312784272421 -0.2064013702565502 0 0.1948688417426683 -0.19683485430444281 0 0.2031848211547832 -0.19655842695533551 0 0.2058410686007506 -0.2051974720555329 0 0.1948688417426683 -0.19683485430444281 0 0.2031848211547832 -0.19655842695533551 0 0.1948688417426683 -0.19683485430444281 0 0.20148352400995531 -0.18939778106444519 0 0.1948688417426683 -0.19683485430444281 0 0.20148352400995531 -0.18939778106444519 0 0.19137488709914799 -0.18931645152829649 0 0.1948688417426683 -0.19683485430444281 0 0.19137488709914799 -0.18931645152829649 0 0.185144232128655 -0.1973029918844352 0 0.1821222113019563 -0.18761604091729361 0 0.17241868208976829 -0.1970341043319512 0 0.185144232128655 -0.1973029918844352 0 0.19137488709914799 -0.18931645152829649 0 0.1821222113019563 -0.18761604091729361 0 0.185144232128655 -0.1973029918844352 0 0.1821222113019563 -0.18761604091729361 0 0.17241868208976829 -0.1970341043319512 0 0.1744105673908723 -0.18301303470093219 0 0.17241868208976829 -0.1970341043319512 0 0.185144232128655 -0.1973029918844352 0 0.17724760157949071 -0.20763184177820251 0 0.18633760666215199 -0.21740859167562071 0 0.17724760157949071 -0.20763184177820251 0 0.17036771014948671 -0.2191578322000465 0 0.19149312784272421 -0.2064013702565502 0 0.18633760666215199 -0.21740859167562071 0 0.17724760157949071 -0.20763184177820251 0 0.19149312784272421 -0.2064013702565502 0 0.185144232128655 -0.1973029918844352 0 0.17724760157949071 -0.20763184177820251 0 0.17724760157949071 -0.20763184177820251 0 0.15772425060415779 -0.20848616032061121 0 0.17036771014948671 -0.2191578322000465 0 0.17241868208976829 -0.1970341043319512 0 0.17724760157949071 -0.20763184177820251 0 0.15772425060415779 -0.20848616032061121 0 0.15772425060415779 -0.20848616032061121 0 0.17036771014948671 -0.2191578322000465 0 0.15819075623221859 -0.21976908602284209 0 0.17241868208976829 -0.1970341043319512 0 0.15772425060415779 -0.20848616032061121 0 0.15960201887068889 -0.1974753671502715 0 0.17241868208976829 -0.1970341043319512 0 0.1744105673908723 -0.18301303470093219 0 0.16049014356917879 -0.1855998882557337 0 0.17241868208976829 -0.1970341043319512 0 0.15960201887068889 -0.1974753671502715 0 0.16049014356917879 -0.1855998882557337 0 0.17241868208976829 -0.1970341043319512 0 0.15772425060415779 -0.20848616032061121 0 0.1802526709948177 -0.24305005421361051 0 0.18082723441078871 -0.22941072003592139 0 0.16164124505668279 -0.23149413526143961 0 0.17614033560167611 -0.2497454157236986 0 0.1802526709948177 -0.24305005421361051 0 0.1686083088278188 -0.24497238904885071 0 0.1912003672000506 -0.23737373814562771 0 0.19024478969452249 -0.2488102975229548 0 0.1802526709948177 -0.24305005421361051 0 0.19024478969452249 -0.2488102975229548 0 0.17614033560167611 -0.2497454157236986 0 0.1802526709948177 -0.24305005421361051 0 0.1912003672000506 -0.23737373814562771 0 0.1802526709948177 -0.24305005421361051 0 0.18082723441078871 -0.22941072003592139 0 0.18633760666215199 -0.21740859167562071 0 0.18082723441078871 -0.22941072003592139 0 0.17036771014948671 -0.2191578322000465 0 0.18082723441078871 -0.22941072003592139 0 0.17036771014948671 -0.2191578322000465 0 0.16164124505668279 -0.23149413526143961 0 0.17036771014948671 -0.2191578322000465 0 0.15819075623221859 -0.21976908602284209 0 0.16164124505668279 -0.23149413526143961 0 0.1802526709948177 -0.24305005421361051 0 0.16164124505668279 -0.23149413526143961 0 0.1686083088278188 -0.24497238904885071 0 0.1802526709948177 -0.24305005421361051 0 0.16164124505668279 -0.23149413526143961 0 0.16164124505668279 -0.23149413526143961 0 0.1686083088278188 -0.24497238904885071 0 0.15525302585182479 -0.24638910269119599 0 0.16818785602001571 -0.25338210394609789 0 0.1686083088278188 -0.24497238904885071 0 0.15525302585182479 -0.24638910269119599 0 0.16818785602001571 -0.25338210394609789 0 0.17614033560167611 -0.2497454157236986 0 0.1686083088278188 -0.24497238904885071 0 0.14981455690075429 -0.247027006673042 0 0.13696600169913431 -0.22466403211644581 0 0.14981455690075429 -0.247027006673042 0 0.139604309680291 -0.2400274027477679 0 0.13404802496222681 -0.2474364514237731 0 0.16164124505668279 -0.23149413526143961 0 0.15525302585182479 -0.24638910269119599 0 0.1412765619346949 -0.22598430469872749 0 0.14981455690075429 -0.247027006673042 0 0.13696600169913431 -0.22466403211644581 0 0.139604309680291 -0.2400274027477679 0 0.15525302585182479 -0.24638910269119599 0 0.1412765619346949 -0.22598430469872749 0 0.14981455690075429 -0.247027006673042 0 0.15525302585182479 -0.24638910269119599 0 0.1412765619346949 -0.22598430469872749 0 0.14981455690075429 -0.247027006673042 0 0.1412765619346949 -0.22598430469872749 0 0.13696600169913431 -0.22466403211644581 0 0.16164124505668279 -0.23149413526143961 0 0.1412765619346949 -0.22598430469872749 0 0.14302981911854681 -0.21993821630927049 0 0.15819075623221859 -0.21976908602284209 0 0.16164124505668279 -0.23149413526143961 0 0.14302981911854681 -0.21993821630927049 0 0.16164124505668279 -0.23149413526143961 0 0.14302981911854681 -0.21993821630927049 0 0.14302981911854681 -0.21993821630927049 0 0.13696600169913431 -0.22466403211644581 0 0.1412765619346949 -0.22598430469872749 0 0.14302981911854681 -0.21993821630927049 0 0.13696600169913431 -0.22466403211644581 0 0.12337052336571459 -0.2204012009724067 0 0.13696600169913431 -0.22466403211644581 0 0.12938216447188089 -0.21146432551184369 0 0.12337052336571459 -0.2204012009724067 0 0.12346953487669959 -0.23518245835504881 0 0.13696600169913431 -0.22466403211644581 0 0.12346953487669959 -0.23518245835504881 0 0.13696600169913431 -0.22466403211644581 0 0.13407152014978541 -0.23738900975765781 0 0.12346953487669959 -0.23518245835504881 0 0.13696600169913431 -0.22466403211644581 0 0.13696600169913431 -0.22466403211644581 0 0.13407152014978541 -0.23738900975765781 0 0.139604309680291 -0.2400274027477679 0 0.1214835034677795 -0.25138887676200428 0 0.12346953487669959 -0.23518245835504881 0 0.13404802496222681 -0.2474364514237731 0 0.13407152014978541 -0.23738900975765781 0 0.139604309680291 -0.2400274027477679 0 0.13404802496222681 -0.2474364514237731 0 0.12346953487669959 -0.23518245835504881 0 0.13404802496222681 -0.2474364514237731 0 0.12346953487669959 -0.23518245835504881 0 0.13407152014978541 -0.23738900975765781 0 0.13404802496222681 -0.2474364514237731 0 0.14590186336903641 -0.19915100693589821 0 0.1333395139721657 -0.18469604605268439 0 0.14744414674437301 -0.18421017708626641 0 0.15960201887068889 -0.1974753671502715 0 0.14590186336903641 -0.19915100693589821 0 0.16049014356917879 -0.1855998882557337 0 0.14590186336903641 -0.19915100693589821 0 0.16049014356917879 -0.1855998882557337 0 0.14590186336903641 -0.19915100693589821 0 0.14744414674437301 -0.18421017708626641 0 0.16049014356917879 -0.1855998882557337 0 0.15772425060415779 -0.20848616032061121 0 0.15960201887068889 -0.1974753671502715 0 0.14590186336903641 -0.19915100693589821 0 0.15772425060415779 -0.20848616032061121 0 0.14302981911854681 -0.21993821630927049 0 0.14118012601757721 -0.20842062612571119 0 0.15772425060415779 -0.20848616032061121 0 0.14590186336903641 -0.19915100693589821 0 0.14118012601757721 -0.20842062612571119 0 0.15772425060415779 -0.20848616032061121 0 0.14302981911854681 -0.21993821630927049 0 0.15772425060415779 -0.20848616032061121 0 0.15819075623221859 -0.21976908602284209 0 0.14302981911854681 -0.21993821630927049 0 0.14118012601757721 -0.20842062612571119 0 0.12938216447188089 -0.21146432551184369 0 0.13294012689151649 -0.19956772029724809 0 0.13696600169913431 -0.22466403211644581 0 0.12938216447188089 -0.21146432551184369 0 0.14302981911854681 -0.21993821630927049 0 0.14118012601757721 -0.20842062612571119 0 0.12938216447188089 -0.21146432551184369 0 0.14302981911854681 -0.21993821630927049 0 0.12938216447188089 -0.21146432551184369 0 0.14302981911854681 -0.21993821630927049 0 0.13696600169913431 -0.22466403211644581 0 0.12938216447188089 -0.21146432551184369 0 0.12305219956652159 -0.2004469899514324 0 0.12938216447188089 -0.21146432551184369 0 0.13294012689151649 -0.19956772029724809 0 0.12305219956652159 -0.2004469899514324 0 0.12938216447188089 -0.21146432551184369 0 0.12305219956652159 -0.2004469899514324 0 0.13294012689151649 -0.19956772029724809 0 0.12540384151168529 -0.1918981918704544 0 0.14590186336903641 -0.19915100693589821 0 0.14118012601757721 -0.20842062612571119 0 0.13294012689151649 -0.19956772029724809 0 0.14590186336903641 -0.19915100693589821 0 0.13294012689151649 -0.19956772029724809 0 0.1333395139721657 -0.18469604605268439 0 0.13294012689151649 -0.19956772029724809 0 0.12540384151168529 -0.1918981918704544 0 0.1333395139721657 -0.18469604605268439 0 0.1224264307200839 -0.165086136618808 0 0.1333395139721657 -0.18469604605268439 0 0.14163540447930509 -0.16592028776977791 0 0.14744414674437301 -0.18421017708626641 0 0.14163540447930509 -0.16592028776977791 0 0.15909998515288051 -0.17197212025754929 0 0.1333395139721657 -0.18469604605268439 0 0.14744414674437301 -0.18421017708626641 0 0.14163540447930509 -0.16592028776977791 0 0.14744414674437301 -0.18421017708626641 0 0.16049014356917879 -0.1855998882557337 0 0.15909998515288051 -0.17197212025754929 0 0.14163540447930509 -0.16592028776977791 0 0.15909998515288051 -0.17197212025754929 0 0.15850189610397489 -0.15666110493224111 0 0.1224264307200839 -0.165086136618808 0 0.14163540447930509 -0.16592028776977791 0 0.1293274381167043 -0.15084733639196721 0 0.14163540447930509 -0.16592028776977791 0 0.1293274381167043 -0.15084733639196721 0 0.1419253684386276 -0.14127344028891409 0 0.1418428030632109 -0.1240008276412093 0 0.1253488407732804 -0.12588577564558709 0 0.1419253684386276 -0.14127344028891409 0 0.1293274381167043 -0.15084733639196721 0 0.1253488407732804 -0.12588577564558709 0 0.1419253684386276 -0.14127344028891409 0 0.1253488407732804 -0.12588577564558709 0 0.1419253684386276 -0.14127344028891409 0 0.15614882593899751 -0.12803375534757541 0 0.1419253684386276 -0.14127344028891409 0 0.1638367015466862 -0.14273061265327791 0 0.1418428030632109 -0.1240008276412093 0 0.15614882593899751 -0.12803375534757541 0 0.1419253684386276 -0.14127344028891409 0 0.1419253684386276 -0.14127344028891409 0 0.15850189610397489 -0.15666110493224111 0 0.1419253684386276 -0.14127344028891409 0 0.1638367015466862 -0.14273061265327791 0 0.15850189610397489 -0.15666110493224111 0 0.14163540447930509 -0.16592028776977791 0 0.1419253684386276 -0.14127344028891409 0 0.15850189610397489 -0.15666110493224111 0 0.1638367015466862 -0.14273061265327791 0 0.17436472087306201 -0.15385153369801091 0 0.15850189610397489 -0.15666110493224111 0 0.1638367015466862 -0.14273061265327791 0 0.17436472087306201 -0.15385153369801091 0 0.17451991689556781 -0.1451953261625317 0 0.15614882593899751 -0.12803375534757541 0 0.1638367015466862 -0.14273061265327791 0 0.17089376790506569 -0.12867608951182941 0 0.1638367015466862 -0.14273061265327791 0 0.17089376790506569 -0.12867608951182941 0 0.17760441497328411 -0.13769334202921929 0 0.17089376790506569 -0.12867608951182941 0 0.17760441497328411 -0.13769334202921929 0 0.18329299340404501 -0.12831423985793741 0 0.17776402821430659 -0.1191254602475568 0 0.17089376790506569 -0.12867608951182941 0 0.18329299340404501 -0.12831423985793741 0 0.17760441497328411 -0.13769334202921929 0 0.18707782768342479 -0.1378114341423263 0 0.18329299340404501 -0.12831423985793741 0 0.17436472087306201 -0.15385153369801091 0 0.17451991689556781 -0.1451953261625317 0 0.18227383018923901 -0.14650581626961881 0 0.1638367015466862 -0.14273061265327791 0 0.17760441497328411 -0.13769334202921929 0 0.17451991689556781 -0.1451953261625317 0 0.17760441497328411 -0.13769334202921929 0 0.17451991689556781 -0.1451953261625317 0 0.18227383018923901 -0.14650581626961881 0 0.1882336332681645 -0.14406660289328579 0 0.18707782768342479 -0.1378114341423263 0 0.18227383018923901 -0.14650581626961881 0 0.17760441497328411 -0.13769334202921929 0 0.18707782768342479 -0.1378114341423263 0 0.18227383018923901 -0.14650581626961881 0 0.1896041135725795 -0.14864945034782581 0 0.1882336332681645 -0.14406660289328579 0 0.18227383018923901 -0.14650581626961881 0 0.1896041135725795 -0.14864945034782581 0 0.18227383018923901 -0.14650581626961881 0 0.18320614771459701 -0.15390305606022339 0 0.17436472087306201 -0.15385153369801091 0 0.18227383018923901 -0.14650581626961881 0 0.18320614771459701 -0.15390305606022339 0 0.19154481829568901 -0.15675306210355069 0 0.18320614771459701 -0.15390305606022339 0 0.1773738401877796 -0.1611472992044618 0 0.19154481829568901 -0.15675306210355069 0 0.17507842376932109 -0.17204876957556919 0 0.19154481829568901 -0.15675306210355069 0 0.1773738401877796 -0.1611472992044618 0 0.17507842376932109 -0.17204876957556919 0 0.19154481829568901 -0.15675306210355069 0 0.1863962765283293 -0.1700371446372633 0 0.17507842376932109 -0.17204876957556919 0 0.17436472087306201 -0.15385153369801091 0 0.18320614771459701 -0.15390305606022339 0 0.1773738401877796 -0.1611472992044618 0 0.18862242310579719 -0.17450749833128901 0 0.18521986219136549 -0.17766900312502551 0 0.18236242336013331 -0.17366002852015769 0 0.1863962765283293 -0.1700371446372633 0 0.18236242336013331 -0.17366002852015769 0 0.17507842376932109 -0.17204876957556919 0 0.18862242310579719 -0.17450749833128901 0 0.1863962765283293 -0.1700371446372633 0 0.18236242336013331 -0.17366002852015769 0 0.18521986219136549 -0.17766900312502551 0 0.18115907222888719 -0.17670895664542069 0 0.18236242336013331 -0.17366002852015769 0 0.18521986219136549 -0.17766900312502551 0 0.18115907222888719 -0.17670895664542069 0 0.17943436114610781 -0.18109906224982439 0 0.18115907222888719 -0.17670895664542069 0 0.18236242336013331 -0.17366002852015769 0 0.17761964221794241 -0.17440773268667539 0 0.18779445388249461 -0.1827180575380189 0 0.1821222113019563 -0.18761604091729361 0 0.17943436114610781 -0.18109906224982439 0 0.18779445388249461 -0.1827180575380189 0 0.19137488709914799 -0.18931645152829649 0 0.1821222113019563 -0.18761604091729361 0 0.18779445388249461 -0.1827180575380189 0 0.18521986219136549 -0.17766900312502551 0 0.17943436114610781 -0.18109906224982439 0 0.1821222113019563 -0.18761604091729361 0 0.17943436114610781 -0.18109906224982439 0 0.1744105673908723 -0.18301303470093219 0 0.17943436114610781 -0.18109906224982439 0 0.1744105673908723 -0.18301303470093219 0 0.17761964221794241 -0.17440773268667539 0 0.1744105673908723 -0.18301303470093219 0 0.17761964221794241 -0.17440773268667539 0 0.17507842376932109 -0.17204876957556919 0 0.18236242336013331 -0.17366002852015769 0 0.17761964221794241 -0.17440773268667539 0 0.17507842376932109 -0.17204876957556919 0 0.17761964221794241 -0.17440773268667539 0 0.17507842376932109 -0.17204876957556919 0 0.18115907222888719 -0.17670895664542069 0 0.17943436114610781 -0.18109906224982439 0 0.17761964221794241 -0.17440773268667539 0 0.17507842376932109 -0.17204876957556919 0 0.16049014356917879 -0.1855998882557337 0 0.17507842376932109 -0.17204876957556919 0 0.16049014356917879 -0.1855998882557337 0 0.15909998515288051 -0.17197212025754929 0 0.1744105673908723 -0.18301303470093219 0 0.17507842376932109 -0.17204876957556919 0 0.16049014356917879 -0.1855998882557337 0 0.17507842376932109 -0.17204876957556919 0 0.15909998515288051 -0.17197212025754929 0 0.15850189610397489 -0.15666110493224111 0 0.1773738401877796 -0.1611472992044618 0 0.17507842376932109 -0.17204876957556919 0 0.15850189610397489 -0.15666110493224111 0 0.17436472087306201 -0.15385153369801091 0 0.1773738401877796 -0.1611472992044618 0 0.15850189610397489 -0.15666110493224111 0 0.17507842376932109 -0.17204876957556919 0 0.15850189610397489 -0.15666110493224111 0 
</DataArray>
</Points>
<Cells>
<DataArray type="UInt32" Name="connectivity" format="ascii">
0 1 2 3 4 5 6 7 8 9 10 11 12 13 14 15 16 17 18 19 20 21 22 23 24 25 26 27 28 29 30 31 32 33 34 35 36 37 38 39 40 41 42 43 44 45 46 47 48 49 50 51 52 53 54 55 56 57 58 59 60 61 62 63 64 65 66 67 68 69 70 71 72 73 74 75 76 77 78 79 80 81 82 83 84 85 86 87 88 89 90 91 92 93 94 95 96 97 98 99 100 101 102 103 104 105 106 107 108 109 110 111 112 113 114 115 116 117 118 119 120 121 122 123 124 125 126 127 128 129 130 131 132 133 134 135 136 137 138 139 140 141 142 143 144 145 146 147 148 149 150 151 152 153 154 155 156 157 158 159 160 161 162 163 164 165 166 167 168 169 170 171 172 173 174 175 176 177 178 179 180 181 182 183 184 185 186 187 188 189 190 191 192 193 194 195 196 197 198 199 200 201 202 203 204 205 206 207 208 209 210 211 212 213 214 215 216 217 218 219 220 221 222 223 224 225 226 227 228 229 230 231 232 233 234 235 236 237 238 239 240 241 242 243 244 245 246 247 248 249 250 251 252 253 254 255 256 257 258 259 260 261 262 263 264 265 266 267 268 269 270 271 272 273 274 275 276 277 278 279 280 281 282 283 284 285 286 287 288 289 290 291 292 293 294 295 296 297 298 299 300 301 302 303 304 305 306 307 308 309 310 311 312 313 314 315 316 317 318 319 320 321 322 323 324 325 326 327 328 329 330 331 332 333 334 335 336 337 338 339 340 341 342 343 344 345 346 347 348 349 350 351 352 353 354 355 356 357 358 359 360 361 362 363 364 365 366 367 368 369 370 371 372 373 374 375 376 377 378 379 380 381 382 383 384 385 386 387 388 389 390 391 392 393 394 395 396 397 398 399 400 401 402 403 404 405 406 407 408 409 410 411 412 413 414 415 416 417 418 419 420 421 422 423 424 425 426 427 428 429 430 431 432 433 434 435 436 437 438 439 440 441 442 443 444 445 446 447 448 449 450 451 452 453 454 455 456 457 458 459 460 461 462 463 464 465 466 467 468 469 470 471 472 473 474 475 476 477 478 479 480 481 482 483 484 485 486 487 488 489 490 491 492 493 494 495 496 497 498 499 500 501 502 503 504 505 506 507 508 509 510 511 512 513 514 515 516 517 518 519 520 521 522 523 524 525 526 527 528 529 530 531 532 533 534 535 536 537 538 539 540 541 542 543 544 545 546 547 548 549 550 551 552 553 554 555 556 557 558 559 560 561 562 563 564 565 566 567 568 569 570 571 572 573 574 575 576 577 578 579 580 581 582 583 584 585 586 587 588 589 590 591 592 593 594 595 596 597 598 599 600 601 602 603 604 605 606 607 608 609 610 611 612 613 614 615 616 617 618 619 620 621 622 623 624 625 626 627 628 629 630 631 632 633 634 635 636 637 638 639 640 641 642 643 644 645 646 647 648 649 650 651 652 653 654 655 656 657 658 659 660 661 662 663 664 665 666 667 668 669 670 671 672 673 674 675 676 677 678 679 680 681 682 683 684 685 686 687 688 689 690 691 692 693 694 695 696 697 698 699 700 701 702 703 704 705 706 707 708 709 710 711 712 713 714 715 716 717 718 719 720 721 722 723 724 725 726 727 728 729 730 731 732 733 734 735 736 737 738 739 740 741 742 743 744 745 746 747 748 749 750 751 752 753 754 755 756 757 758 759 760 761 762 763 764 765 766 767 768 769 770 771 772 773 774 775 776 777 778 779 780 781 782 783 784 785 786 787 788 789 790 791 792 793 794 795 796 797 798 799 800 801 802 803 804 805 806 807 808 809 810 811 812 813 814 815 816 817 818 819 820 821 822 823 824 825 826 827 828 829 830 831 832 833 834 835 836 837 838 839 840 841 842 843 844 845 846 847 848 849 850 851 852 853 854 855 856 857 858 859 860 861 862 863 864 865 866 867 868 869 870 871 872 873 874 875 876 877 878 879 880 881 882 883 884 885 886 887 888 889 890 891 892 893 894 895 896 897 898 899 900 901 902 903 904 905 906 907 908 909 910 911 912 913 914 915 916 917 918 919 920 921 922 923 924 925 926 927 928 929 930 931 932 933 934 935 936 937 938 939 940 941 942 943 944 945 946 947 948 949 950 951 952 953 954 955 956 957 958 959 960 961 962 963 964 965 966 967 968 969 970 971 972 973 974 975 976 977 978 979 980 981 982 983 984 985 986 987 988 989 990 991 992 993 994 995 996 997 998 999 1000 1001 1002 1003 1004 1005 1006 1007 1008 1009 1010 1011 1012 1013 1014 1015 1016 1017 1018 1019 1020 1021 1022 1023 1024 1025 1026 1027 1028 1029 1030 1031 1032 1033 1034 1035 1036 1037 1038 1039 1040 1041 1042 1043 1044 1045 1046 1047 1048 1049 1050 1051 1052 1053 1054 1055 1056 1057 1058 1059 1060 1061 1062 1063 1064 1065 1066 1067 1068 1069 1070 1071 1072 1073 1074 1075 1076 1077 1078 1079 1080 1081 1082 1083 1084 1085 1086 1087 1088 1089 1090 1091 1092 1093 1094 1095 1096 1097 1098 1099 1100 1101 1102 1103 1104 1105 1106 1107 1108 1109 1110 1111 1112 1113 1114 1115 1116 1117 1118 1119 1120 1121 1122 1123 1124 1125 1126 1127 1128 1129 1130 1131 1132 1133 1134 1135 1136 1137 1138 1139 1140 1141 1142 1143 1144 1145 1146 1147 1148 1149 1150 1151 1152 1153 1154 1155 1156 1157 1158 1159 1160 1161 1162 1163 1164 1165 1166 1167 1168 1169 1170 1171 1172 1173 1174 1175 1176 1177 1178 1179 1180 1181 1182 1183 1184 1185 1186 1187 1188 1189 1190 1191 1192 1193 1194 1195 1196 1197 1198 1199 1200 1201 1202 1203 1204 1205 1206 1207 1208 1209 1210 1211 1212 1213 1214 1215 1216 1217 1218 1219 1220 1221 1222 1223 1224 1225 1226 1227 1228 1229 1230 1231 1232 1233 1234 1235 1236 1237 1238 1239 1240 1241 1242 1243 1244 1245 1246 1247 1248 1249 1250 1251 1252 1253 1254 1255 1256 1257 1258 1259 1260 1261 1262 1263 1264 1265 1266 1267 1268 1269 1270 1271 1272 1273 1274 1275 1276 1277 1278 1279 1280 1281 1282 1283 1284 1285 1286 1287 1288 1289 1290 1291 1292 1293 1294 1295 1296 1297 1298 1299 1300 1301 1302 1303 1304 1305 1306 1307 1308 1309 1310 1311 1312 1313 1314 1315 1316 1317 1318 1319 1320 1321 1322 1323 1324 1325 1326 1327 1328 1329 1330 1331 1332 1333 1334 1335 1336 1337 1338 1339 1340 1341 1342 1343 1344 1345 1346 1347 1348 1349 1350 1351 1352 1353 1354 1355 1356 1357 1358 1359 1360 1361 1362 1363 1364 1365 1366 1367 1368 1369 1370 1371 1372 1373 1374 1375 1376 1377 1378 1379 1380 1381 1382 1383 1384 1385 1386 1387 1388 1389 1390 1391 1392 1393 1394 1395 1396 1397 1398 1399 1400 1401 1402 1403 1404 1405 1406 1407 1408 1409 1410 1411 1412 1413 1414 1415 1416 1417 1418 1419 1420 1421 1422 1423 1424 1425 1426 1427 1428 1429 1430 1431 1432 1433 1434 1435 1436 1437 1438 1439 1440 1441 1442 1443 1444 1445 1446 1447 1448 1449 1450 1451 1452 1453 1454 1455 1456 1457 1458 1459 1460 1461 1462 1463 1464 1465 1466 1467 1468 1469 1470 1471 1472 1473 1474 1475 1476 1477 1478 1479 1480 1481 1482 1483 1484 1485 1486 1487 1488 1489 1490 1491 1492 1493 1494 1495 1496 1497 1498 1499 1500 1501 1502 1503 1504 1505 1506 1507 1508 1509 1510 1511 1512 1513 1514 1515 1516 1517 1518 1519 1520 1521 1522 1523 1524 1525 1526 1527 1528 1529 1530 1531 1532 1533 1534 1535 1536 1537 1538 1539 1540 1541 1542 1543 1544 1545 1546 1547 1548 1549 1550 1551 1552 1553 1554 1555 1556 1557 1558 1559 1560 1561 1562 1563 1564 1565 1566 1567 1568 1569 1570 1571 1572 1573 1574 1575 1576 1577 1578 1579 1580 1581 1582 1583 1584 1585 1586 1587 1588 1589 1590 1591 1592 1593 1594 1595 1596 1597 1598 1599 1600 1601 1602 1603 1604 1605 1606 1607 1608 1609 1610 1611 1612 1613 1614 1615 1616 1617 1618 1619 1620 1621 1622 1623 1624 1625 1626 1627 1628 1629 1630 1631 1632 1633 1634 1635 1636 1637 1638 1639 1640 1641 1642 1643 1644 1645 1646 1647 1648 1649 1650 1651 1652 1653 1654 1655 1656 1657 1658 1659 1660 1661 1662 1663 1664 1665 1666 1667 1668 1669 1670 1671 1672 1673 1674 1675 1676 1677 1678 1679 1680 1681 1682 1683 1684 1685 1686 1687 1688 1689 1690 1691 1692 1693 1694 1695 1696 1697 1698 1699 1700 1701 1702 1703 1704 1705 1706 1707 1708 1709 1710 1711 1712 1713 1714 1715 1716 1717 1718 1719 1720 1721 1722 1723 1724 1725 1726 1727 1728 1729 1730 1731 1732 1733 1734 1735 1736 1737 1738 1739 1740 1741 1742 1743 1744 1745 1746 1747 1748 1749 1750 1751 1752 1753 1754 1755 1756 1757 1758 1759 1760 1761 1762 1763 1764 1765 1766 1767 1768 1769 1770 1771 1772 1773 1774 1775 1776 1777 1778 1779 1780 1781 1782 1783 1784 1785 1786 1787 1788 1789 1790 1791 1792 1793 1794 1795 1796 1797 1798 1799 1800 1801 1802 1803 1804 1805 1806 1807 1808 1809 1810 1811 1812 1813 1814 1815 1816 1817 1818 1819 1820 1821 1822 1823 1824 1825 1826 1827 1828 1829 1830 1831 1832 1833 1834 1835 1836 1837 1838 1839 1840 1841 1842 1843 1844 1845 1846 1847 1848 1849 1850 1851 1852 1853 1854 1855 1856 1857 1858 1859 1860 1861 1862 1863 1864 1865 1866 1867 1868 1869 1870 1871 1872 1873 1874 1875 1876 1877 1878 1879 1880 1881 1882 1883 1884 1885 1886 1887 1888 1889 1890 1891 1892 1893 1894 1895 1896 1897 1898 1899 1900 1901 1902 1903 1904 1905 1906 1907 1908 1909 1910 1911 1912 1913 1914 1915 1916 1917 1918 1919 1920 1921 1922 1923 1924 1925 1926 1927 1928 1929 1930 1931 1932 1933 1934 1935 1936 1937 1938 1939 1940 1941 1942 1943 1944 1945 1946 1947 1948 1949 1950 1951 1952 1953 1954 1955 1956 1957 1958 1959 1960 1961 1962 1963 1964 1965 1966 1967 1968 1969 1970 1971 1972 1973 1974 1975 1976 1977 1978 1979 1980 1981 1982 1983 1984 1985 1986 1987 1988 1989 1990 1991 1992 1993 1994 1995 1996 1997 1998 1999 2000 2001 2002 2003 2004 2005 2006 2007 2008 2009 2010 2011 2012 2013 2014 2015 2016 2017 2018 2019 2020 2021 2022 2023 2024 2025 2026 2027 2028 2029 2030 2031 2032 2033 2034 2035 2036 2037 2038 2039 2040 2041 2042 2043 2044 2045 2046 2047 2048 2049 2050 2051 2052 2053 2054 2055 2056 2057 2058 2059 2060 2061 2062 2063 2064 2065 2066 2067 2068 2069 2070 2071 2072 2073 2074 2075 2076 2077 2078 2079 2080 2081 2082 2083 2084 2085 2086 2087 2088 2089 2090 2091 2092 2093 2094 2095 2096 2097 2098 2099 2100 2101 2102 2103 2104 2105 2106 2107 2108 2109 2110 2111 2112 2113 2114 2115 2116 2117 2118 2119 2120 2121 2122 2123 2124 2125 2126 2127 2128 2129 2130 2131 2132 2133 2134 2135 2136 2137 2138 2139 2140 2141 2142 2143 2144 2145 2146 2147 2148 2149 2150 2151 2152 2153 2154 2155 2156 2157 2158 2159 2160 2161 2162 2163 2164 2165 2166 2167 2168 2169 2170 2171 2172 2173 2174 2175 2176 2177 2178 2179 2180 2181 2182 2183 2184 2185 2186 2187 2188 2189 2190 2191 2192 2193 2194 2195 2196 2197 2198 2199 2200 2201 2202 2203 2204 2205 2206 2207 2208 2209 2210 2211 2212 2213 2214 2215 2216 2217 2218 2219 2220 2221 2222 2223 2224 2225 2226 2227 2228 2229 2230 2231 2232 2233 2234 2235 2236 2237 2238 2239 2240 2241 2242 2243 2244 2245 2246 2247 2248 2249 2250 2251 2252 2253 2254 2255 2256 2257 2258 2259 2260 2261 2262 2263 2264 2265 2266 2267 2268 2269 2270 2271 2272 2273 2274 2275 2276 2277 2278 2279 2280 2281 2282 2283 2284 2285 2286 2287 2288 2289 2290 2291 2292 2293 2294 2295 2296 2297 2298 2299 2300 2301 2302 2303 2304 2305 2306 2307 2308 2309 2310 2311 2312 2313 2314 2315 2316 2317 2318 2319 2320 2321 2322 2323 2324 2325 2326 2327 2328 2329 2330 2331 2332 2333 2334 2335 2336 2337 2338 2339 2340 2341 2342 2343 2344 2345 2346 2347 2348 2349 2350 2351 2352 2353 2354 2355 2356 2357 2358 2359 2360 2361 2362 2363 2364 2365 2366 2367 2368 2369 2370 2371 2372 2373 2374 2375 2376 2377 2378 2379 2380 2381 2382 2383 2384 2385 2386 2387 2388 2389 2390 2391 2392 2393 2394 2395 2396 2397 2398 2399 2400 2401 2402 2403 2404 2405 2406 2407 2408 2409 2410 2411 2412 2413 2414 2415 2416 2417 2418 2419 2420 2421 2422 2423 2424 2425 2426 2427 2428 2429 2430 2431 2432 2433 2434 2435 2436 2437 2438 2439 2440 2441 2442 2443 2444 2445 2446 2447 2448 2449 2450 2451 2452 2453 2454 2455 2456 2457 2458 2459 2460 2461 2462 2463 2464 2465 2466 2467 2468 2469 2470 2471 2472 2473 2474 2475 2476 2477 2478 2479 2480 2481 2482 2483 2484 2485 2486 2487 2488 2489 2490 2491 2492 2493 2494 2495 2496 2497 2498 2499 2500 2501 2502 2503 2504 2505 2506 2507 2508 2509 2510 2511 2512 2513 2514 2515 2516 2517 2518 2519 2520 2521 2522 2523 2524 2525 2526 2527 2528 2529 2530 2531 2532 2533 2534 2535 2536 2537 2538 2539 2540 2541 2542 2543 2544 2545 2546 2547 2548 2549 2550 2551 2552 2553 2554 2555 2556 2557 2558 2559 2560 2561 2562 2563 2564 2565 2566 2567 2568 2569 2570 2571 2572 2573 2574 2575 2576 2577 2578 2579 2580 2581 2582 2583 2584 2585 2586 2587 2588 2589 2590 2591 2592 2593 2594 2595 2596 2597 2598 2599 2600 2601 2602 2603 2604 2605 2606 2607 2608 2609 2610 2611 2612 2613 2614 2615 2616 2617 2618 2619 2620 2621 2622 2623 2624 2625 2626 2627 2628 2629 2630 2631 2632 2633 2634 2635 2636 2637 2638 2639 2640 2641 2642 2643 2644 2645 2646 2647 2648 2649 2650 2651 2652 2653 2654 2655 2656 2657 2658 2659 2660 2661 2662 2663 2664 2665 2666 2667 2668 2669 2670 2671 2672 2673 2674 2675 2676 2677 2678 2679 2680 2681 2682 2683 2684 2685 2686 2687 2688 2689 2690 2691 2692 2693 2694 2695 2696 2697 2698 2699 2700 2701 2702 2703 2704 2705 2706 2707 2708 2709 2710 2711 2712 2713 2714 2715 2716 2717 2718 2719 2720 2721 2722 2723 2724 2725 2726 2727 2728 2729 2730 2731 2732 2733 2734 2735 2736 2737 2738 2739 2740 2741 2742 2743 2744 2745 2746 2747 2748 2749 2750 2751 2752 2753 2754 2755 2756 2757 2758 2759 2760 2761 2762 2763 2764 2765 2766 2767 2768 2769 2770 2771 2772 2773 2774 2775 2776 2777 2778 2779 2780 2781 2782 2783 2784 2785 2786 2787 2788 2789 2790 2791 2792 2793 2794 2795 2796 2797 2798 2799 2800 2801 2802 2803 2804 2805 2806 2807 2808 2809 2810 2811 2812 2813 2814 2815 2816 2817 2818 2819 2820 2821 2822 2823 2824 2825 2826 2827 2828 2829 2830 2831 2832 2833 2834 2835 2836 2837 2838 2839 2840 2841 2842 2843 2844 2845 2846 2847 2848 2849 2850 2851 2852 2853 2854 2855 2856 2857 2858 2859 2860 2861 2862 2863 2864 2865 2866 2867 2868 2869 2870 2871 2872 2873 2874 2875 2876 2877 2878 2879 2880 2881 2882 2883 2884 2885 2886 2887 2888 2889 2890 2891 2892 2893 2894 2895 2896 2897 2898 2899 2900 2901 2902 2903 2904 2905 2906 2907 2908 2909 2910 2911 2912 2913 2914 2915 2916 2917 2918 2919 2920 2921 2922 2923 2924 2925 2926 2927 2928 2929 2930 2931 2932 2933 2934 2935 2936 2937 2938 2939 2940 2941 2942 2943 2944 2945 2946 2947 2948 2949 2950 2951 2952 2953 2954 2955 2956 2957 2958 2959 2960 2961 2962 2963 2964 2965 2966 2967 2968 2969 2970 2971 2972 2973 2974 2975 2976 2977 2978 2979 2980 2981 2982 2983 2984 2985 2986 2987 2988 2989 2990 2991 2992 2993 2994 2995 2996 2997 2998 2999 3000 3001 3002 3003 3004 3005 3006 3007 3008 3009 3010 3011 3012 3013 3014 3015 3016 3017 3018 3019 3020 3021 3022 3023 3024 3025 3026 3027 3028 3029 3030 3031 3032 3033 3034 3035 3036 3037 3038 3039 3040 3041 3042 3043 3044 3045 3046 3047 3048 3049 3050 3051 3052 3053 3054 3055 3056 3057 3058 3059 3060 3061 3062 3063 3064 3065 3066 3067 3068 3069 3070 3071 3072 3073 3074 3075 3076 3077 3078 3079 3080 3081 3082 3083 3084 3085 3086 3087 3088 3089 3090 3091 3092 3093 3094 3095 3096 3097 3098 3099 3100 3101 3102 3103 3104 3105 3106 3107 3108 3109 3110 3111 3112 3113 3114 3115 3116 3117 3118 3119 3120 3121 3122 3123 3124 3125 3126 3127 3128 3129 3130 3131 3132 3133 3134 3135 3136 3137 3138 3139 3140 3141 3142 3143 3144 3145 3146 3147 3148 3149 3150 3151 3152 3153 3154 3155 3156 3157 3158 3159 3160 3161 3162 3163 3164 3165 3166 3167 3168 3169 3170 3171 3172 3173 3174 3175 3176 3177 3178 3179 3180 3181 3182 3183 3184 3185 3186 3187 3188 3189 3190 3191 3192 3193 3194 3195 3196 3197 3198 3199 3200 3201 3202 3203 3204 3205 3206 3207 3208 3209 3210 3211 3212 3213 3214 3215 3216 3217 3218 3219 3220 3221 3222 3223 3224 3225 3226 3227 3228 3229 3230 3231 3232 3233 3234 3235 3236 3237 3238 3239 3240 3241 3242 3243 3244 3245 3246 3247 3248 3249 3250 3251 3252 3253 3254 3255 3256 3257 3258 3259 3260 3261 3262 3263 3264 3265 3266 3267 3268 3269 3270 3271 3272 3273 3274 3275 3276 3277 3278 3279 3280 3281 3282 3283 3284 3285 3286 3287 3288 3289 3290 3291 3292 3293 3294 3295 3296 3297 3298 3299 3300 3301 3302 3303 3304 3305 3306 3307 3308 3309 3310 3311 3312 3313 3314 3315 3316 3317 3318 3319 3320 3321 3322 3323 3324 3325 3326 3327 3328 3329 3330 3331 3332 3333 3334 3335 3336 3337 3338 3339 3340 3341 3342 3343 3344 3345 3346 3347 3348 3349 3350 3351 3352 3353 3354 3355 3356 3357 3358 3359 3360 3361 3362 3363 3364 3365 3366 3367 3368 3369 3370 3371 3372 3373 3374 3375 3376 3377 3378 3379 3380 3381 3382 3383 3384 3385 3386 3387 3388 3389 3390 3391 3392 3393 3394 3395 3396 3397 3398 3399 3400 3401 3402 3403 3404 3405 3406 3407 3408 3409 3410 3411 3412 3413 3414 3415 3416 3417 3418 3419 3420 3421 3422 3423 3424 3425 3426 3427 3428 3429 3430 3431 3432 3433 3434 3435 3436 3437 3438 3439 3440 3441 3442 3443 3444 3445 3446 3447 3448 3449 3450 3451 3452 3453 3454 3455 3456 3457 3458 3459 3460 3461 3462 3463 3464 3465 3466 3467 3468 3469 3470 3471 3472 3473 3474 3475 3476 3477 3478 3479 3480 3481 3482 3483 3484 3485 3486 3487 3488 3489 3490 3491 3492 3493 3494 3495 3496 3497 3498 3499 3500 3501 3502 3503 3504 3505 3506 3507 3508 3509 3510 3511 3512 3513 3514 3515 3516 3517 3518 3519 3520 3521 3522 3523 3524 3525 3526 3527 3528 3529 3530 3531 3532 3533 3534 3535 3536 3537 3538 3539 3540 3541 3542 3543 3544 3545 3546 3547 3548 3549 3550 3551 3552 3553 3554 3555 3556 3557 3558 3559 3560 3561 3562 3563 3564 3565 3566 3567 3568 3569 3570 3571 3572 3573 3574 3575 3576 3577 3578 3579 3580 3581 3582 3583 3584 3585 3586 3587 3588 3589 3590 3591 3592 3593 3594 3595 3596 3597 3598 3599 3600 3601 3602 3603 3604 3605 3606 3607 3608 3609 3610 3611 3612 3613 3614 3615 3616 3617 3618 3619 3620 3621 3622 3623 3624 3625 3626 3627 3628 3629 3630 3631 3632 3633 3634 3635 3636 3637 3638 3639 3640 3641 3642 3643 3644 3645 3646 3647 3648 3649 3650 3651 3652 3653 3654 3655 3656 3657 3658 3659 3660 3661 3662 3663 3664 3665 3666 3667 3668 3669 3670 3671 3672 3673 3674 3675 3676 3677 3678 3679 3680 3681 3682 3683 3684 3685 3686 3687 3688 3689 3690 3691 3692 3693 3694 3695 3696 3697 3698 3699 3700 3701 3702 3703 3704 3705 3706 3707 3708 3709 3710 3711 3712 3713 3714 3715 3716 3717 3718 3719 3720 3721 3722 3723 3724 3725 3726 3727 3728 3729 3730 3731 3732 3733 3734 3735 3736 3737 3738 3739 3740 3741 3742 3743 3744 3745 3746 3747 3748 3749 3750 3751 3752 3753 3754 3755 3756 3757 3758 3759 3760 3761 3762 3763 3764 3765 3766 3767 3768 3769 3770 3771 3772 3773 3774 3775 3776 3777 3778 3779 3780 3781 3782 3783 3784 3785 3786 3787 3788 3789 3790 3791 3792 3793 3794 3795 3796 3797 3798 3799 3800 3801 3802 3803 3804 3805 3806 3807 3808 3809 3810 3811 3812 3813 3814 3815 3816 3817 3818 3819 3820 3821 3822 3823 3824 3825 3826 3827 3828 3829 3830 3831 3832 3833 3834 3835 3836 3837 3838 3839 3840 3841 3842 3843 3844 3845 3846 3847 3848 3849 3850 3851 3852 3853 3854 3855 3856 3857 3858 3859 3860 3861 3862 3863 3864 3865 3866 3867 3868 3869 3870 3871 3872 3873 3874 3875 3876 3877 3878 3879 3880 3881 3882 3883 3884 3885 3886 3887 3888 3889 3890 3891 3892 3893 3894 3895 3896 3897 3898 3899 3900 3901 3902 3903 3904 3905 3906 3907 3908 3909 3910 3911 3912 3913 3914 3915 3916 3917 3918 3919 3920 3921 3922 3923 3924 3925 3926 3927 3928 3929 3930 3931 3932 3933 3934 3935 3936 3937 3938 3939 3940 3941 3942 3943 3944 3945 3946 3947 3948 3949 3950 3951 3952 3953 3954 3955 3956 3957 3958 3959 3960 3961 3962 3963 3964 3965 3966 3967 3968 3969 3970 3971 3972 3973 3974 3975 3976 3977 3978 3979 3980 3981 3982 3983 3984 3985 3986 3987 3988 3989 3990 3991 3992 3993 3994 3995 3996 3997 3998 3999 4000 4001 4002 4003 4004 4005 4006 4007 4008 4009 4010 4011 4012 4013 4014 4015 4016 4017 4018 4019 4020 4021 4022 4023 4024 4025 4026 4027 4028 4029 4030 4031 4032 4033 4034 4035 4036 4037 4038 4039 4040 4041 4042 4043 4044 4045 4046 4047 4048 4049 4050 4051 4052 4053 4054 4055 4056 4057 4058 4059 4060 4061 4062 4063 4064 4065 4066 4067 4068 4069 4070 4071 4072 4073 4074 4075 4076 4077 4078 4079 4080 4081 4082 4083 4084 4085 4086 4087 4088 4089 4090 4091 4092 4093 4094 4095 4096 4097 4098 4099 4100 4101 4102 4103 4104 4105 4106 4107 4108 4109 4110 4111 4112 4113 4114 4115 4116 4117 4118 4119 4120 4121 4122 4123 4124 4125 4126 4127 4128 4129 4130 4131 4132 4133 4134 4135 4136 4137 4138 4139 4140 4141 4142 4143 4144 4145 4146 4147 4148 4149 4150 4151 4152 4153 4154 4155 4156 4157 4158 4159 4160 4161 4162 4163 4164 4165 4166 4167 4168 4169 4170 4171 4172 4173 4174 4175 4176 4177 4178 4179 4180 4181 4182 4183 4184 4185 4186 4187 4188 4189 4190 4191 4192 4193 4194 4195 4196 4197 4198 4199 4200 4201 4202 4203 4204 4205 4206 4207 4208 4209 4210 4211 4212 4213 4214 4215 4216 4217 4218 4219 4220 4221 4222 4223 4224 4225 4226 4227 4228 4229 4230 4231 4232 4233 4234 4235 4236 4237 4238 4239 4240 4241 4242 4243 4244 4245 4246 4247 4248 4249 4250 4251 4252 4253 4254 4255 4256 4257 4258 4259 4260 4261 4262 4263 4264 4265 4266 4267 4268 4269 4270 4271 4272 4273 4274 4275 4276 4277 4278 4279 4280 4281 4282 4283 4284 4285 4286 4287 4288 4289 4290 4291 4292 4293 4294 4295 4296 4297 4298 4299 4300 4301 4302 4303 4304 4305 4306 4307 4308 4309 4310 4311 4312 4313 4314 4315 4316 4317 4318 4319 4320 4321 4322 4323 4324 4325 4326 4327 4328 4329 4330 4331 4332 4333 4334 4335 4336 4337 4338 4339 4340 4341 4342 4343 4344 4345 4346 4347 4348 4349 4350 4351 4352 4353 4354 4355 4356 4357 4358 4359 4360 4361 4362 4363 4364 4365 4366 4367 4368 4369 4370 4371 4372 4373 4374 4375 4376 4377 4378 4379 4380 4381 4382 4383 4384 4385 4386 4387 4388 4389 4390 4391 4392 4393 4394 4395 4396 4397 4398 4399 4400 4401 4402 4403 4404 4405 4406 4407 4408 4409 4410 4411 4412 4413 4414 4415 4416 4417 4418 4419 4420 4421 4422 4423 4424 4425 4426 4427 4428 4429 4430 4431 4432 4433 4434 4435 4436 4437 4438 4439 4440 4441 4442 4443 4444 4445 4446 4447 4448 4449 4450 4451 4452 4453 4454 4455 4456 4457 4458 4459 4460 4461 4462 4463 4464 4465 4466 4467 4468 4469 4470 4471 4472 4473 4474 4475 4476 4477 4478 4479 4480 4481 4482 4483 4484 4485 4486 4487 4488 4489 4490 4491 4492 4493 4494 4495 4496 4497 4498 4499 4500 4501 4502 4503 4504 4505 4506 4507 4508 4509 4510 4511 4512 4513 4514 4515 4516 4517 4518 4519 4520 4521 4522 4523 4524 4525 4526 4527 4528 4529 4530 4531 4532 4533 4534 4535 4536 4537 4538 4539 4540 4541 4542 4543 4544 4545 4546 4547 4548 4549 4550 4551 4552 4553 4554 4555 4556 4557 4558 4559 4560 4561 4562 4563 4564 4565 4566 4567 4568 4569 4570 4571 4572 4573 4574 4575 4576 4577 4578 4579 4580 4581 4582 4583 4584 4585 4586 4587 4588 4589 4590 4591 4592 4593 4594 4595 4596 4597 4598 4599 4600 4601 4602 4603 4604 4605 4606 4607 4608 4609 4610 4611 4612 4613 4614 4615 4616 4617 4618 4619 4620 4621 4622 4623 4624 4625 4626 4627 4628 4629 4630 4631 4632 4633 4634 4635 4636 4637 4638 4639 4640 4641 4642 4643 4644 4645 4646 4647 4648 4649 4650 4651 4652 4653 4654 4655 4656 4657 4658 4659 4660 4661 4662 4663 4664 4665 4666 4667 4668 4669 4670 4671 4672 4673 4674 4675 4676 4677 4678 4679 4680 4681 4682 4683 4684 4685 4686 4687 4688 4689 4690 4691 4692 4693 4694 4695 4696 4697 4698 4699 4700 4701 4702 4703 4704 4705 4706 4707 4708 4709 4710 4711 4712 4713 4714 4715 4716 4717 4718 4719 4720 4721 4722 4723 4724 4725 4726 4727 4728 4729 4730 4731 4732 4733 4734 4735 4736 4737 4738 4739 4740 4741 4742 4743 4744 4745 4746 4747 4748 4749 4750 4751 4752 4753 4754 4755 4756 4757 4758 4759 4760 4761 4762 4763 4764 4765 4766 4767 4768 4769 4770 4771 4772 4773 4774 4775 4776 4777 4778 4779 4780 4781 4782 4783 4784 4785 4786 4787 4788 4789 4790 4791 4792 4793 4794 4795 4796 4797 4798 4799 4800 4801 4802 4803 4804 4805 4806 4807 4808 4809 4810 4811 4812 4813 4814 4815 4816 4817 4818 4819 4820 4821 4822 4823 4824 4825 4826 4827 4828 4829 4830 4831 4832 4833 4834 4835 4836 4837 4838 4839 4840 4841 4842 4843 4844 4845 4846 4847 4848 4849 4850 4851 4852 4853 4854 4855 4856 4857 4858 4859 4860 4861 4862 4863 4864 4865 4866 4867 4868 4869 4870 4871 4872 4873 4874 4875 4876 4877 4878 4879 4880 4881 4882 4883 4884 4885 4886 4887 4888 4889 4890 4891 4892 4893 4894 4895 4896 4897 4898 4899 4900 4901 4902 4903 4904 4905 4906 4907 4908 4909 4910 4911 4912 4913 4914 4915 4916 4917 4918 4919 4920 4921 4922 4923 4924 4925 4926 4927 4928 4929 4930 4931 4932 4933 4934 4935 4936 4937 4938 4939 4940 4941 4942 4943 4944 4945 4946 4947 4948 4949 4950 4951 4952 4953 4954 4955 4956 4957 4958 4959 4960 4961 4962 4963 4964 4965 4966 4967 4968 4969 4970 4971 4972 4973 4974 4975 4976 4977 4978 4979 4980 4981 4982 4983 4984 4985 4986 4987 4988 4989 4990 4991 4992 4993 4994 4995 4996 4997 4998 4999 5000 5001 5002 5003 5004 5005 5006 5007 5008 5009 5010 5011 5012 5013 5014 5015 5016 5017 5018 5019 5020 5021 5022 5023 5024 5025 5026 5027 5028 5029 5030 5031 5032 5033 5034 5035 5036 5037 5038 5039 5040 5041 5042 5043 5044 5045 5046 5047 5048 5049 5050 5051 5052 5053 5054 5055 5056 5057 5058 5059 5060 5061 5062 5063 5064 5065 5066 5067 5068 5069 5070 5071 5072 5073 5074 5075 5076 5077 5078 5079 5080 5081 5082 5083 5084 5085 5086 5087 5088 5089 5090 5091 5092 5093 5094 5095 5096 5097 5098 5099 5100 5101 5102 5103 5104 5105 5106 5107 5108 5109 5110 5111 5112 5113 5114 5115 5116 5117 5118 5119 5120 5121 5122 5123 5124 5125 5126 5127 5128 5129 5130 5131 5132 5133 5134 5135 5136 5137 5138 5139 5140 5141 5142 5143 5144 5145 5146 5147 5148 5149 5150 5151 5152 5153 5154 5155 5156 5157 5158 5159 5160 5161 5162 5163 5164 5165 5166 5167 5168 5169 5170 5171 5172 5173 5174 5175 5176 5177 5178 5179 5180 5181 5182 5183 5184 5185 5186 5187 5188 5189 5190 5191 5192 5193 5194 5195 5196 5197 5198 5199 5200 5201 5202 5203 5204 5205 5206 5207 5208 5209 5210 5211 5212 5213 5214 5215 5216 5217 5218 5219 5220 5221 5222 5223 5224 5225 5226 5227 5228 5229 5230 5231 5232 5233 5234 5235 5236 5237 5238 5239 5240 5241 5242 5243 5244 5245 5246 5247 5248 5249 5250 5251 5252 5253 5254 5255 5256 5257 5258 5259 5260 5261 5262 5263 5264 5265 5266 5267 5268 5269 5270 5271 5272 5273 5274 5275 5276 5277 5278 5279 5280 5281 5282 5283 5284 5285 5286 5287 5288 5289 5290 5291 5292 5293 5294 5295 5296 5297 5298 5299 5300 5301 5302 5303 5304 5305 5306 5307 5308 5309 5310 5311 5312 5313 5314 5315 5316 5317 5318 5319 5320 5321 5322 5323 5324 5325 5326 5327 5328 5329 5330 5331 5332 5333 5334 5335 5336 5337 5338 5339 5340 5341 5342 5343 5344 5345 5346 5347 5348 5349 5350 5351 5352 5353 5354 5355 5356 5357 5358 5359 5360 5361 5362 5363 5364 5365 5366 5367 5368 5369 5370 5371 5372 5373 5374 5375 5376 5377 5378 5379 5380 5381 5382 5383 5384 5385 5386 5387 5388 5389 5390 5391 5392 5393 5394 5395 5396 5397 5398 5399 5400 5401 5402 5403 5404 5405 5406 5407 5408 5409 5410 5411 5412 5413 5414 5415 5416 5417 5418 5419 5420 5421 5422 5423 5424 5425 5426 5427 5428 5429 5430 5431 5432 5433 5434 5435 5436 5437 5438 5439 5440 5441 5442 5443 5444 5445 5446 5447 5448 5449 5450 5451 5452 5453 5454 5455 5456 5457 5458 5459 5460 5461 5462 5463 5464 5465 5466 5467 5468 5469 5470 5471 5472 5473 5474 5475 5476 5477 5478 5479 5480 5481 5482 5483 5484 5485 5486 5487 5488 5489 5490 5491 5492 5493 5494 5495 5496 5497 5498 5499 5500 5501 5502 5503 5504 5505 5506 5507 5508 5509 5510 5511 5512 5513 5514 5515 5516 5517 5518 5519 5520 5521 5522 5523 5524 5525 5526 5527 5528 5529 5530 5531 5532 5533 5534 5535 5536 5537 5538 5539 5540 5541 5542 5543 5544 5545 5546 5547 5548 5549 5550 5551 5552 5553 5554 5555 5556 5557 5558 5559 5560 5561 5562 5563 5564 5565 5566 5567 5568 5569 5570 5571 5572 5573 5574 5575 5576 5577 5578 5579 5580 5581 5582 5583 5584 5585 5586 5587 5588 5589 5590 5591 5592 5593 5594 5595 5596 5597 5598 5599 5600 5601 5602 5603 5604 5605 5606 5607 5608 5609 5610 5611 5612 5613 5614 5615 5616 5617 5618 5619 5620 5621 5622 5623 5624 5625 5626 5627 5628 5629 5630 5631 5632 5633 5634 5635 5636 5637 5638 5639 5640 5641 5642 5643 5644 5645 5646 5647 5648 5649 5650 5651 5652 5653 5654 5655 5656 5657 5658 5659 5660 5661 5662 5663 5664 5665 5666 5667 5668 5669 5670 5671 5672 5673 5674 5675 5676 5677 5678 5679 5680 5681 5682 5683 5684 5685 5686 5687 5688 5689 5690 5691 5692 5693 5694 5695 5696 5697 5698 5699 5700 5701 5702 5703 5704 5705 5706 5707 5708 5709 5710 5711 5712 5713 5714 5715 5716 5717 5718 5719 5720 5721 5722 5723 5724 5725 5726 5727 5728 5729 5730 5731 5732 5733 5734 5735 5736 5737 5738 5739 5740 5741 5742 5743 5744 5745 5746 5747 5748 5749 5750 5751 5752 5753 5754 5755 5756 5757 5758 5759 5760 5761 5762 5763 5764 5765 5766 5767 5768 5769 5770 5771 5772 5773 5774 5775 5776 5777 5778 5779 5780 5781 5782 5783 5784 5785 5786 5787 5788 5789 5790 5791 5792 5793 5794 5795 5796 5797 5798 5799 5800 5801 5802 5803 5804 5805 5806 5807 5808 5809 5810 5811 5812 5813 5814 5815 5816 5817 5818 5819 5820 5821 5822 5823 5824 5825 5826 5827 5828 5829 5830 5831 5832 5833 5834 5835 5836 5837 5838 5839 5840 5841 5842 5843 5844 5845 5846 5847 5848 5849 5850 5851 5852 5853 5854 5855 5856 5857 5858 5859 5860 5861 5862 5863 5864 5865 5866 5867 5868 5869 5870 5871 5872 5873 5874 5875 5876 5877 5878 5879 5880 5881 5882 5883 5884 5885 5886 5887 5888 5889 5890 5891 5892 5893 5894 5895 5896 5897 5898 5899 5900 5901 5902 5903 5904 5905 5906 5907 5908 5909 5910 5911 5912 5913 5914 5915 5916 5917 5918 5919 5920 5921 5922 5923 5924 5925 5926 5927 5928 5929 5930 5931 5932 5933 5934 5935 5936 5937 5938 5939 5940 5941 5942 5943 5944 5945 5946 5947 5948 5949 5950 5951 5952 5953 5954 5955 5956 5957 5958 5959 5960 5961 5962 5963 5964 5965 5966 5967 5968 5969 5970 5971 5972 5973 5974 5975 5976 5977 5978 5979 5980 5981 5982 5983 5984 5985 5986 5987 5988 5989 5990 5991 5992 5993 5994 5995 5996 5997 5998 5999 6000 6001 6002 6003 6004 6005 6006 6007 6008 6009 6010 6011 6012 6013 6014 6015 6016 6017 6018 6019 6020 6021 6022 6023 6024 6025 6026 6027 6028 6029 6030 6031 6032 6033 6034 6035 6036 6037 6038 6039 6040 6041 6042 6043 6044 6045 6046 6047 6048 6049 6050 6051 6052 6053 6054 6055 6056 6057 6058 6059 6060 6061 6062 6063 6064 6065 6066 6067 6068 6069 6070 6071 6072 6073 6074 6075 6076 6077 6078 6079 6080 6081 6082 6083 6084 6085 6086 6087 6088 6089 6090 6091 6092 6093 6094 6095 6096 6097 6098 6099 6100 6101 6102 6103 6104 6105 6106 6107 6108 6109 6110 6111 6112 6113 6114 6115 6116 6117 6118 6119 6120 6121 6122 6123 6124 6125 6126 6127 6128 6129 6130 6131 6132 6133 6134 6135 6136 6137 6138 6139 6140 6141 6142 6143 6144 6145 6146 6147 6148 6149 6150 6151 6152 6153 6154 6155 6156 6157 6158 6159 6160 6161 6162 6163 6164 6165 6166 6167 6168 6169 6170 6171 6172 6173 6174 6175 6176 6177 6178 6179 6180 6181 6182 6183 6184 6185 6186 6187 6188 6189 6190 6191 6192 6193 6194 6195 6196 6197 6198 6199 6200 6201 6202 6203 6204 6205 6206 6207 6208 6209 6210 6211 6212 6213 6214 6215 6216 6217 6218 6219 6220 6221 6222 6223 6224 6225 6226 6227 6228 6229 6230 6231 6232 6233 6234 6235 6236 6237 6238 6239 6240 6241 6242 6243 6244 6245 6246 6247 6248 6249 6250 6251 6252 6253 6254 6255 6256 6257 6258 6259 6260 6261 6262 6263 6264 6265 6266 6267 6268 6269 6270 6271 6272 6273 6274 6275 6276 6277 6278 6279 6280 6281 6282 6283 6284 6285 6286 6287 6288 6289 6290 6291 6292 6293 6294 6295 6296 6297 6298 6299 6300 6301 6302 6303 6304 6305 6306 6307 6308 6309 6310 6311 6312 6313 6314 6315 6316 6317 6318 6319 6320 6321 6322 6323 6324 6325 6326 6327 6328 6329 6330 6331 6332 6333 6334 6335 6336 6337 6338 6339 6340 6341 6342 6343 6344 6345 6346 6347 6348 6349 6350 6351 6352 6353 6354 6355 6356 6357 6358 6359 6360 6361 6362 6363 6364 6365 6366 6367 6368 6369 6370 6371 6372 6373 6374 6375 6376 6377 6378 6379 6380 6381 6382 6383 6384 6385 6386 6387 6388 6389 6390 6391 6392 6393 6394 6395 6396 6397 6398 6399 6400 6401 6402 6403 6404 6405 6406 6407 6408 6409 6410 6411 6412 6413 6414 6415 6416 6417 6418 6419 6420 6421 6422 6423 6424 6425 6426 6427 6428 6429 6430 6431 6432 6433 6434 6435 6436 6437 6438 6439 6440 6441 6442 6443 6444 6445 6446 6447 6448 6449 6450 6451 6452 6453 6454 6455 6456 6457 6458 6459 6460 6461 6462 6463 6464 6465 6466 6467 6468 6469 6470 6471 6472 6473 6474 6475 6476 6477 6478 6479 6480 6481 6482 6483 6484 6485 6486 6487 6488 6489 6490 6491 6492 6493 6494 6495 6496 6497 6498 6499 6500 6501 6502 6503 6504 6505 6506 6507 6508 6509 6510 6511 6512 6513 6514 6515 6516 6517 6518 6519 6520 6521 6522 6523 6524 6525 6526 6527 6528 6529 6530 6531 6532 6533 6534 6535 6536 6537 6538 6539 6540 6541 6542 6543 6544 6545 6546 6547 6548 6549 6550 6551 6552 6553 6554 6555 6556 6557 6558 6559 6560 6561 6562 6563 6564 6565 6566 6567 6568 6569 6570 6571 6572 6573 6574 6575 6576 6577 6578 6579 6580 6581 6582 6583 6584 6585 6586 6587 6588 6589 6590 6591 6592 6593 6594 6595 6596 6597 6598 6599 6600 6601 6602 6603 6604 6605 6606 6607 6608 6609 6610 6611 6612 6613 6614 6615 6616 6617 6618 6619 6620 6621 6622 6623 6624 6625 6626 6627 6628 6629 6630 6631 6632 6633 6634 6635 6636 6637 6638 6639 6640 6641 6642 6643 6644 6645 6646 6647 6648 6649 6650 6651 6652 6653 6654 6655 6656 6657 6658 6659 6660 6661 6662 6663 6664 6665 6666 6667 6668 6669 6670 6671 6672 6673 6674 6675 6676 6677 6678 6679 6680 6681 6682 6683 6684 6685 6686 6687 6688 6689 6690 6691 6692 6693 6694 6695 6696 6697 6698 6699 6700 6701 6702 6703 6704 6705 6706 6707 6708 6709 6710 6711 6712 6713 6714 6715 6716 6717 6718 6719 6720 6721 6722 6723 6724 6725 6726 6727 6728 6729 6730 6731 6732 6733 6734 6735 6736 6737 6738 6739 6740 6741 6742 6743 6744 6745 6746 6747 6748 6749 6750 6751 6752 6753 6754 6755 6756 6757 6758 6759 6760 6761 6762 6763 6764 6765 6766 6767 6768 6769 6770 6771 6772 6773 6774 6775 6776 6777 6778 6779 6780 6781 6782 6783 6784 6785 6786 6787 6788 6789 6790 6791 6792 6793 6794 6795 6796 6797 6798 6799 6800 6801 6802 6803 6804 6805 6806 6807 6808 6809 6810 6811 6812 6813 6814 6815 6816 6817 6818 6819 6820 6821 6822 6823 6824 6825 6826 6827 6828 6829 6830 6831 6832 6833 6834 6835 6836 6837 6838 6839 6840 6841 6842 6843 6844 6845 6846 6847 6848 6849 6850 6851 6852 6853 6854 6855 6856 6857 6858 6859 6860 6861 6862 6863 6864 6865 6866 6867 6868 6869 6870 6871 6872 6873 6874 6875 6876 6877 6878 6879 6880 6881 6882 6883 6884 6885 6886 6887 6888 6889 6890 6891 6892 6893 6894 6895 6896 6897 6898 6899 6900 6901 6902 6903 6904 6905 6906 6907 6908 6909 6910 6911 6912 6913 6914 6915 6916 6917 6918 6919 6920 6921 6922 6923 6924 6925 6926 6927 6928 6929 6930 6931 6932 6933 6934 6935 6936 6937 6938 6939 6940 6941 6942 6943 6944 6945 6946 6947 6948 6949 6950 6951 6952 6953 6954 6955 6956 6957 6958 6959 6960 6961 6962 6963 6964 6965 6966 6967 6968 6969 6970 6971 6972 6973 6974 6975 6976 6977 6978 6979 6980 6981 6982 6983 6984 6985 6986 6987 6988 6989 6990 6991 6992 6993 6994 6995 6996 6997 6998 6999 7000 7001 7002 7003 7004 7005 7006 7007 7008 7009 7010 7011 7012 7013 7014 7015 7016 7017 7018 7019 7020 7021 7022 7023 7024 7025 7026 7027 7028 7029 7030 7031 7032 7033 7034 7035 7036 7037 7038 7039 7040 7041 7042 7043 7044 7045 7046 7047 7048 7049 7050 7051 7052 7053 7054 7055 7056 7057 7058 7059 7060 7061 7062 7063 7064 7065 7066 7067 7068 7069 7070 7071 7072 7073 7074 7075 7076 7077 7078 7079 7080 7081 7082 7083 7084 7085 7086 7087 7088 7089 7090 7091 7092 7093 7094 7095 7096 7097 7098 7099 7100 7101 7102 7103 7104 7105 7106 7107 7108 7109 7110 7111 7112 7113 7114 7115 7116 7117 7118 7119 7120 7121 7122 7123 7124 7125 7126 7127 7128 7129 7130 7131 7132 7133 7134 7135 7136 7137 7138 7139 7140 7141 7142 7143 7144 7145 7146 7147 7148 7149 7150 7151 7152 7153 7154 7155 7156 7157 7158 7159 7160 7161 7162 7163 7164 7165 7166 7167 7168 7169 7170 7171 7172 7173 7174 7175 7176 7177 7178 7179 7180 7181 7182 7183 7184 7185 7186 7187 7188 7189 7190 7191 7192 7193 7194 7195 7196 7197 7198 7199 7200 7201 7202 7203 7204 7205 7206 7207 7208 7209 7210 7211 7212 7213 7214 7215 7216 7217 7218 7219 7220 7221 7222 7223 7224 7225 7226 7227 7228 7229 7230 7231 7232 7233 7234 7235 7236 7237 7238 7239 7240 7241 7242 7243 7244 7245 7246 7247 7248 7249 7250 7251 7252 7253 7254 7255 7256 7257 7258 7259 7260 7261 7262 7263 7264 7265 7266 7267 7268 7269 7270 7271 7272 7273 7274 7275 7276 7277 7278 7279 7280 7281 7282 7283 7284 7285 7286 7287 7288 7289 7290 7291 7292 7293 7294 7295 7296 7297 7298 7299 7300 7301 7302 7303 7304 7305 7306 7307 7308 7309 7310 7311 7312 7313 7314 7315 7316 7317 7318 7319 7320 7321 7322 7323 7324 7325 7326 7327 7328 7329 7330 7331 7332 7333 7334 7335 7336 7337 7338 7339 7340 7341 7342 7343 7344 7345 7346 7347 7348 7349 7350 7351 7352 7353 7354 7355 7356 7357 7358 7359 7360 7361 7362 7363 7364 7365 7366 7367 7368 7369 7370 7371 7372 7373 7374 7375 7376 7377 7378 7379 7380 7381 7382 7383 7384 7385 7386 7387 7388 7389 7390 7391 7392 7393 7394 7395 7396 7397 7398 7399 7400 7401 7402 7403 7404 7405 7406 7407 7408 7409 7410 7411 7412 7413 7414 7415 7416 7417 7418 7419 7420 7421 7422 7423 7424 7425 7426 7427 7428 7429 7430 7431 7432 7433 7434 7435 7436 7437 7438 7439 7440 7441 7442 7443 7444 7445 7446 7447 7448 7449 7450 7451 7452 7453 7454 7455 7456 7457 7458 7459 7460 7461 7462 7463 7464 7465 7466 7467 7468 7469 7470 7471 7472 7473 7474 7475 7476 7477 7478 7479 7480 7481 7482 7483 7484 7485 7486 7487 7488 7489 7490 7491 7492 7493 7494 7495 7496 7497 7498 7499 7500 7501 7502 7503 7504 7505 7506 7507 7508 7509 7510 7511 7512 7513 7514 7515 7516 7517 7518 7519 7520 7521 7522 7523 7524 7525 7526 7527 7528 7529 7530 7531 7532 7533 7534 7535 7536 7537 7538 7539 7540 7541 7542 7543 7544 7545 7546 7547 7548 7549 7550 7551 7552 7553 7554 7555 7556 7557 7558 7559 7560 7561 7562 7563 7564 7565 7566 7567 7568 7569 7570 7571 7572 7573 7574 7575 7576 7577 7578 7579 7580 7581 7582 7583 7584 7585 7586 7587 7588 7589 7590 7591 7592 7593 7594 7595 7596 7597 7598 7599 7600 7601 7602 7603 7604 7605 7606 7607 7608 7609 7610 7611 7612 7613 7614 7615 7616 7617 7618 7619 7620 7621 7622 7623 7624 7625 7626 7627 7628 7629 7630 7631 7632 7633 7634 7635 7636 7637 7638 7639 7640 7641 7642 7643 7644 7645 7646 7647 7648 7649 7650 7651 7652 7653 7654 7655 7656 7657 7658 7659 7660 7661 7662 7663 7664 7665 7666 7667 7668 7669 7670 7671 7672 7673 7674 7675 7676 7677 7678 7679 7680 7681 7682 7683 7684 7685 7686 7687 7688 7689 7690 7691 7692 7693 7694 7695 7696 7697 7698 7699 7700 7701 7702 7703 7704 7705 7706 7707 7708 7709 7710 7711 7712 7713 7714 7715 7716 7717 7718 7719 7720 7721 7722 7723 7724 7725 7726 7727 7728 7729 7730 7731 7732 7733 7734 7735 7736 7737 7738 7739 7740 7741 7742 7743 7744 7745 7746 7747 7748 7749 7750 7751 7752 7753 7754 7755 7756 7757 7758 7759 7760 7761 7762 7763 7764 7765 7766 7767 7768 7769 7770 7771 7772 7773 7774 7775 7776 7777 7778 7779 7780 7781 7782 7783 7784 7785 7786 7787 7788 7789 7790 7791 7792 7793 7794 7795 7796 7797 7798 7799 7800 7801 7802 7803 7804 7805 7806 7807 7808 7809 7810 7811 7812 7813 7814 7815 7816 7817 7818 7819 7820 7821 7822 7823 7824 7825 7826 7827 7828 7829 7830 7831 7832 7833 7834 7835 7836 7837 7838 7839 7840 7841 7842 7843 7844 7845 7846 7847 7848 7849 7850 7851 7852 7853 7854 7855 7856 7857 7858 7859 7860 7861 7862 7863 7864 7865 7866 7867 7868 7869 7870 7871 7872 7873 7874 7875 7876 7877 7878 7879 7880 7881 7882 7883 7884 7885 7886 7887 7888 7889 7890 7891 7892 7893 7894 7895 7896 7897 7898 7899 7900 7901 7902 7903 7904 7905 7906 7907 7908 7909 7910 7911 7912 7913 7914 7915 7916 7917 7918 7919 7920 7921 7922 7923 7924 7925 7926 7927 7928 7929 7930 7931 7932 7933 7934 7935 7936 7937 7938 7939 7940 7941 7942 7943 7944 7945 7946 7947 7948 7949 7950 7951 7952 7953 7954 7955 7956 7957 7958 7959 7960 7961 7962 7963 7964 7965 7966 7967 7968 7969 7970 7971 7972 7973 7974 7975 7976 7977 7978 7979 7980 7981 7982 7983 7984 7985 7986 7987 7988 7989 7990 7991 7992 7993 7994 7995 7996 7997 7998 7999 8000 8001 8002 8003 8004 8005 8006 8007 8008 8009 8010 8011 8012 8013 8014 8015 8016 8017 8018 8019 8020 8021 8022 8023 8024 8025 8026 8027 8028 8029 8030 8031 8032 8033 8034 8035 8036 8037 8038 8039 8040 8041 8042 8043 8044 8045 8046 8047 8048 8049 8050 8051 8052 8053 8054 8055 8056 8057 8058 8059 8060 8061 8062 8063 8064 8065 8066 8067 8068 8069 8070 8071 8072 8073 8074 8075 8076 8077 8078 8079 8080 8081 8082 8083 8084 8085 8086 8087 8088 8089 8090 8091 8092 8093 8094 8095 8096 8097 8098 8099 8100 8101 8102 8103 8104 8105 8106 8107 8108 8109 8110 8111 8112 8113 8114 8115 8116 8117 8118 8119 8120 8121 8122 8123 8124 8125 8126 8127 8128 8129 8130 8131 8132 8133 8134 8135 8136 8137 8138 8139 8140 8141 8142 8143 8144 8145 8146 8147 8148 8149 8150 8151 8152 8153 8154 8155 8156 8157 8158 8159 8160 8161 8162 8163 8164 8165 8166 8167 8168 8169 8170 8171 8172 8173 8174 8175 8176 8177 8178 8179 8180 8181 8182 8183 8184 8185 8186 8187 8188 8189 8190 8191 8192 8193 8194 8195 8196 8197 8198 8199 8200 8201 8202 8203 8204 8205 8206 8207 8208 8209 8210 8211 8212 8213 8214 8215 8216 8217 8218 8219 8220 8221 8222 8223 8224 8225 8226 8227 8228 8229 8230 8231 8232 8233 8234 8235 8236 8237 8238 8239 8240 8241 8242 8243 8244 8245 8246 8247 8248 8249 8250 8251 8252 8253 8254 8255 8256 8257 8258 8259 8260 8261 8262 8263 8264 8265 8266 8267 8268 8269 8270 8271 8272 8273 8274 8275 8276 8277 8278 8279 8280 8281 8282 8283 8284 8285 8286 8287 8288 8289 8290 8291 8292 8293 8294 8295 8296 8297 8298 8299 8300 8301 8302 8303 8304 8305 8306 8307 8308 8309 8310 8311 8312 8313 8314 8315 8316 8317 8318 8319 8320 8321 8322 8323 8324 8325 8326 8327 8328 8329 8330 8331 8332 8333 8334 8335 8336 8337 8338 8339 8340 8341 8342 8343 8344 8345 8346 8347 8348 8349 8350 8351 8352 8353 8354 8355 8356 8357 8358 8359 8360 8361 8362 8363 8364 8365 8366 8367 8368 8369 8370 8371 8372 8373 8374 8375 8376 8377 8378 8379 8380 8381 8382 8383 8384 8385 8386 8387 8388 8389 8390 8391 8392 8393 8394 8395 8396 8397 8398 8399 8400 8401 8402 8403 8404 8405 8406 8407 8408 8409 8410 8411 8412 8413 8414 8415 8416 8417 8418 8419 8420 8421 8422 8423 8424 8425 8426 8427 8428 8429 8430 8431 8432 8433 8434 8435 8436 8437 8438 8439 8440 8441 8442 8443 8444 8445 8446 8447 8448 8449 8450 8451 8452 8453 8454 8455 8456 8457 8458 8459 8460 8461 8462 8463 8464 8465 8466 8467 8468 8469 8470 8471 8472 8473 8474 8475 8476 8477 8478 8479 8480 8481 8482 8483 8484 8485 8486 8487 8488 8489 8490 8491 8492 8493 8494 8495 8496 8497 8498 8499 8500 8501 8502 8503 8504 8505 8506 8507 8508 8509 8510 8511 8512 8513 8514 8515 8516 8517 8518 8519 8520 8521 8522 8523 8524 8525 8526 8527 8528 8529 8530 8531 8532 8533 8534 8535 8536 8537 8538 8539 8540 8541 8542 8543 8544 8545 8546 8547 8548 8549 8550 8551 8552 8553 8554 8555 8556 8557 8558 8559 8560 8561 8562 8563 8564 8565 8566 8567 8568 8569 8570 8571 8572 8573 8574 8575 8576 8577 8578 8579 8580 8581 8582 8583 8584 8585 8586 8587 8588 8589 8590 8591 8592 8593 8594 8595 8596 8597 8598 8599 8600 8601 8602 8603 8604 8605 8606 8607 8608 8609 8610 8611 8612 8613 8614 8615 8616 8617 8618 8619 8620 8621 8622 8623 8624 8625 8626 8627 8628 8629 8630 8631 8632 8633 8634 8635 8636 8637 8638 8639 8640 8641 8642 8643 8644 8645 8646 8647 8648 8649 8650 8651 8652 8653 8654 8655 8656 8657 8658 8659 8660 8661 8662 8663 8664 8665 8666 8667 8668 8669 8670 8671 8672 8673 8674 8675 8676 8677 8678 8679 8680 8681 8682 8683 8684 8685 8686 8687 8688 8689 8690 8691 8692 8693 8694 8695 8696 8697 8698 8699 8700 8701 8702 8703 8704 8705 8706 8707 8708 8709 8710 8711 8712 8713 8714 8715 8716 8717 8718 8719 8720 8721 8722 8723 8724 8725 8726 8727 8728 8729 8730 8731 8732 8733 8734 8735 8736 8737 8738 8739 8740 8741 8742 8743 8744 8745 8746 8747 8748 8749 8750 8751 8752 8753 8754 8755 8756 8757 8758 8759 8760 8761 8762 8763 8764 8765 8766 8767 8768 8769 8770 8771 8772 8773 8774 8775 8776 8777 8778 8779 8780 8781 8782 8783 8784 8785 8786 8787 8788 8789 8790 8791 8792 8793 8794 8795 8796 8797 8798 8799 8800 8801 8802 8803 8804 8805 8806 8807 8808 8809 8810 8811 8812 8813 8814 8815 8816 8817 8818 8819 8820 8821 8822 8823 8824 8825 8826 8827 8828 8829 8830 8831 8832 8833 8834 8835 8836 8837 8838 8839 8840 8841 8842 8843 8844 8845 8846 8847 8848 8849 8850 8851 8852 8853 8854 8855 8856 8857 8858 8859 8860 8861 8862 8863 8864 8865 8866 8867 8868 8869 8870 8871 8872 8873 8874 8875 8876 8877 8878 8879 8880 8881 8882 8883 8884 8885 8886 8887 8888 8889 8890 8891 8892 8893 8894 8895 8896 8897 8898 8899 8900 8901 8902 8903 8904 8905 8906 8907 8908 8909 8910 8911 8912 8913 8914 8915 8916 8917 8918 8919 8920 8921 8922 8923 8924 8925 8926 8927 8928 8929 8930 8931 8932 8933 8934 8935 8936 8937 8938 8939 8940 8941 8942 8943 8944 8945 8946 8947 8948 8949 8950 8951 8952 8953 8954 8955 8956 8957 8958 8959 8960 8961 8962 8963 8964 8965 8966 8967 8968 8969 8970 8971 8972 8973 8974 8975 8976 8977 8978 8979 8980 8981 8982 8983 8984 8985 8986 8987 8988 8989 8990 8991 8992 8993 8994 8995 8996 8997 8998 8999 9000 9001 9002 9003 9004 9005 9006 9007 9008 9009 9010 9011 9012 9013 9014 9015 9016 9017 9018 9019 9020 9021 9022 9023 9024 9025 9026 9027 9028 9029 9030 9031 9032 9033 9034 9035 9036 9037 9038 9039 9040 9041 9042 9043 9044 9045 9046 9047 9048 9049 9050 9051 9052 9053 9054 9055 9056 9057 9058 9059 9060 9061 9062 9063 9064 9065 9066 9067 9068 9069 9070 9071 9072 9073 9074 9075 9076 9077 9078 9079 9080 9081 9082 9083 9084 9085 9086 9087 9088 9089 9090 9091 9092 9093 9094 9095 9096 9097 9098 9099 9100 9101 9102 9103 9104 9105 9106 9107 9108 9109 9110 9111 9112 9113 9114 9115 9116 9117 9118 9119 9120 9121 9122 9123 9124 9125 9126 9127 9128 9129 9130 9131 9132 9133 9134 9135 9136 9137 9138 9139 9140 9141 9142 9143 9144 9145 9146 9147 9148 9149 9150 9151 9152 9153 9154 9155 9156 9157 9158 9159 9160 9161 9162 9163 9164 9165 9166 9167 9168 9169 9170 9171 9172 9173 9174 9175 9176 9177 9178 9179 9180 9181 9182 9183 9184 9185 9186 9187 9188 9189 9190 9191 9192 9193 9194 9195 9196 9197 9198 9199 9200 9201 9202 9203 9204 9205 9206 9207 9208 9209 9210 9211 9212 9213 9214 9215 9216 9217 9218 9219 9220 9221 9222 9223 9224 9225 9226 9227 9228 9229 9230 9231 9232 9233 9234 9235 9236 9237 9238 9239 9240 9241 9242 9243 9244 9245 9246 9247 9248 9249 9250 9251 9252 9253 9254 9255 9256 9257 9258 9259 9260 9261 9262 9263 9264 9265 9266 9267 9268 9269 9270 9271 9272 9273 9274 9275 9276 9277 9278 9279 9280 9281 9282 9283 9284 9285 9286 9287 9288 9289 9290 9291 9292 9293 9294 9295 9296 9297 9298 9299 9300 9301 9302 9303 9304 9305 9306 9307 9308 9309 9310 9311 9312 9313 9314 9315 9316 9317 9318 9319 9320 9321 9322 9323 9324 9325 9326 9327 9328 9329 9330 9331 9332 9333 9334 9335 9336 9337 9338 9339 9340 9341 9342 9343 9344 9345 9346 9347 9348 9349 9350 9351 9352 9353 9354 9355 9356 9357 9358 9359 9360 9361 9362 9363 9364 9365 9366 9367 9368 9369 9370 9371 9372 9373 9374 9375 9376 9377 9378 9379 9380 9381 9382 9383 9384 9385 9386 9387 9388 9389 9390 9391 9392 9393 9394 9395 9396 9397 9398 9399 9400 9401 9402 9403 9404 9405 9406 9407 9408 9409 9410 9411 9412 9413 9414 9415 9416 9417 9418 9419 9420 9421 9422 9423 9424 9425 9426 9427 9428 9429 9430 9431 9432 9433 9434 9435 9436 9437 9438 9439 9440 9441 9442 9443 9444 9445 9446 9447 9448 9449 9450 9451 9452 9453 9454 9455 9456 9457 9458 9459 9460 9461 9462 9463 9464 9465 9466 9467 9468 9469 9470 9471 9472 9473 9474 9475 9476 9477 9478 9479 9480 9481 9482 9483 9484 9485 9486 9487 9488 9489 9490 9491 9492 9493 9494 9495 9496 9497 9498 9499 9500 9501 9502 9503 9504 9505 9506 9507 9508 9509 9510 9511 9512 9513 9514 9515 9516 9517 9518 9519 9520 9521 9522 9523 9524 9525 9526 9527 9528 9529 9530 9531 9532 9533 9534 9535 9536 9537 9538 9539 9540 9541 9542 9543 9544 9545 9546 9547 9548 9549 9550 9551 9552 9553 9554 9555 9556 9557 9558 9559 9560 9561 9562 9563 9564 9565 9566 9567 9568 9569 9570 9571 9572 9573 9574 9575 9576 9577 9578 9579 9580 9581 9582 9583 9584 9585 9586 9587 9588 9589 9590 9591 9592 9593 9594 9595 9596 9597 9598 9599 9600 9601 9602 9603 9604 9605 9606 9607 9608 9609 9610 9611 9612 9613 9614 9615 9616 9617 9618 9619 9620 9621 9622 9623 9624 9625 9626 9627 9628 9629 9630 9631 9632 9633 9634 9635 9636 9637 9638 9639 9640 9641 9642 9643 9644 9645 9646 9647 9648 9649 9650 9651 9652 9653 9654 9655 9656 9657 9658 9659 9660 9661 9662 9663 9664 9665 9666 9667 9668 9669 9670 9671 9672 9673 9674 9675 9676 9677 9678 9679 9680 9681 9682 9683 9684 9685 9686 9687 9688 9689 9690 9691 9692 9693 9694 9695 9696 9697 9698 9699 9700 9701 9702 9703 9704 9705 9706 9707 9708 9709 9710 9711 9712 9713 9714 9715 9716 9717 9718 9719 9720 9721 9722 9723 9724 9725 9726 9727 9728 9729 9730 9731 9732 9733 9734 9735 9736 9737 9738 9739 9740 9741 9742 9743 9744 9745 9746 9747 9748 9749 9750 9751 9752 9753 9754 9755 9756 9757 9758 9759 9760 9761 9762 9763 9764 9765 9766 9767 9768 9769 9770 9771 9772 9773 9774 9775 9776 9777 9778 9779 9780 9781 9782 9783 9784 9785 9786 9787 9788 9789 9790 9791 9792 9793 9794 9795 9796 9797 9798 9799 9800 9801 9802 9803 9804 9805 9806 9807 9808 9809 9810 9811 9812 9813 9814 9815 9816 9817 9818 9819 9820 9821 9822 9823 9824 9825 9826 9827 9828 9829 9830 9831 9832 9833 9834 9835 9836 9837 9838 9839 9840 9841 9842 9843 9844 9845 9846 9847 9848 9849 9850 9851 9852 9853 9854 9855 9856 9857 9858 9859 9860 9861 9862 9863 9864 9865 9866 9867 9868 9869 9870 9871 9872 9873 9874 9875 9876 9877 9878 9879 9880 9881 9882 9883 9884 9885 9886 9887 9888 9889 9890 9891 9892 9893 9894 9895 9896 9897 9898 9899 9900 9901 9902 9903 9904 9905 9906 9907 9908 9909 9910 9911 9912 9913 9914 9915 9916 9917 9918 9919 9920 9921 9922 9923 9924 9925 9926 9927 9928 9929 9930 9931 9932 9933 9934 9935 9936 9937 9938 9939 9940 9941 9942 9943 9944 9945 9946 9947 9948 9949 9950 9951 9952 9953 9954 9955 9956 9957 9958 9959 9960 9961 9962 9963 9964 9965 9966 9967 9968 9969 9970 9971 9972 9973 9974 9975 9976 9977 9978 9979 9980 9981 9982 9983 9984 9985 9986 9987 9988 9989 9990 9991 9992 9993 9994 9995 9996 9997 9998 9999 10000 10001 10002 10003 10004 10005 10006 10007 10008 10009 10010 10011 10012 10013 10014 10015 10016 10017 10018 10019 10020 10021 10022 10023 10024 10025 10026 10027 10028 10029 10030 10031 10032 10033 10034 10035 10036 10037 10038 10039 10040 10041 10042 10043 10044 10045 10046 10047 10048 10049 10050 10051 10052 10053 10054 10055 10056 10057 10058 10059 10060 10061 10062 10063 10064 10065 10066 10067 10068 10069 10070 10071 10072 10073 10074 10075 10076 10077 10078 10079 10080 10081 10082 10083 10084 10085 10086 10087 10088 10089 10090 10091 10092 10093 10094 10095 10096 10097 10098 10099 10100 10101 10102 10103 10104 10105 10106 10107 10108 10109 10110 10111 10112 10113 10114 10115 10116 10117 10118 10119 10120 10121 10122 10123 10124 10125 10126 10127 10128 10129 10130 10131 10132 10133 10134 10135 10136 10137 10138 10139 10140 10141 10142 10143 10144 10145 10146 10147 10148 10149 10150 10151 10152 10153 10154 10155 10156 10157 10158 10159 10160 10161 10162 10163 10164 10165 10166 10167 10168 10169 10170 10171 10172 10173 10174 10175 10176 10177 10178 10179 10180 10181 10182 10183 10184 10185 10186 10187 10188 10189 10190 10191 10192 10193 10194 10195 10196 10197 10198 10199 10200 10201 10202 10203 10204 10205 10206 10207 10208 10209 10210 10211 10212 10213 10214 10215 10216 10217 10218 10219 10220 10221 10222 10223 10224 10225 10226 10227 10228 10229 10230 10231 10232 10233 10234 10235 10236 10237 10238 10239 10240 10241 10242 10243 10244 10245 10246 10247 10248 10249 10250 10251 10252 10253 10254 10255 10256 10257 10258 10259 10260 10261 10262 10263 10264 10265 10266 10267 10268 10269 10270 10271 10272 10273 10274 10275 10276 10277 10278 10279 10280 10281 10282 10283 10284 10285 10286 10287 10288 10289 10290 10291 10292 10293 10294 10295 10296 10297 10298 10299 10300 10301 10302 10303 10304 10305 10306 10307 10308 10309 10310 10311 10312 10313 10314 10315 10316 10317 10318 10319 10320 10321 10322 10323 10324 10325 10326 10327 10328 10329 10330 10331 10332 10333 10334 10335 10336 10337 10338 10339 10340 10341 10342 10343 10344 10345 10346 10347 10348 10349 10350 10351 10352 10353 10354 10355 10356 10357 10358 10359 10360 10361 10362 10363 10364 10365 10366 10367 10368 10369 10370 10371 10372 10373 10374 10375 10376 10377 10378 10379 10380 10381 10382 10383 10384 10385 10386 10387 10388 10389 10390 10391 10392 10393 10394 10395 10396 10397 10398 10399 10400 10401 10402 10403 10404 10405 10406 10407 10408 10409 10410 10411 10412 10413 10414 10415 10416 10417 10418 10419 10420 10421 10422 10423 10424 10425 10426 10427 10428 10429 10430 10431 10432 10433 10434 10435 10436 10437 10438 10439 10440 10441 10442 10443 10444 10445 10446 10447 10448 10449 10450 10451 10452 10453 10454 10455 10456 10457 10458 10459 10460 10461 10462 10463 10464 10465 10466 10467 10468 10469 10470 10471 10472 10473 10474 10475 10476 10477 10478 10479 10480 10481 10482 10483 10484 10485 10486 10487 10488 10489 10490 10491 10492 10493 10494 10495 10496 10497 10498 10499 10500 10501 10502 10503 10504 10505 10506 10507 10508 10509 10510 10511 10512 10513 10514 10515 10516 10517 10518 10519 10520 10521 10522 10523 10524 10525 10526 10527 10528 10529 10530 10531 10532 10533 10534 10535 10536 10537 10538 10539 10540 10541 10542 10543 10544 10545 10546 10547 10548 10549 10550 10551 10552 10553 10554 10555 10556 10557 10558 10559 10560 10561 10562 10563 10564 10565 10566 10567 10568 10569 10570 10571 10572 10573 10574 10575 10576 10577 10578 10579 10580 10581 10582 10583 10584 10585 10586 10587 10588 10589 10590 10591 10592 10593 10594 10595 10596 10597 10598 10599 10600 10601 10602 10603 10604 10605 10606 10607 10608 10609 10610 10611 10612 10613 10614 10615 10616 10617 10618 10619 10620 10621 10622 10623 10624 10625 10626 10627 10628 10629 10630 10631 10632 10633 10634 10635 10636 10637 10638 10639 10640 10641 10642 10643 10644 10645 10646 10647 10648 10649 10650 10651 10652 10653 10654 10655 10656 10657 10658 10659 10660 10661 10662 10663 10664 10665 10666 10667 10668 10669 10670 10671 10672 10673 10674 10675 10676 10677 10678 10679 10680 10681 10682 10683 10684 10685 10686 10687 10688 10689 10690 10691 10692 10693 10694 10695 10696 10697 10698 10699 10700 10701 10702 10703 10704 10705 10706 10707 10708 10709 10710 10711 10712 10713 10714 10715 10716 10717 10718 10719 10720 10721 10722 10723 10724 10725 10726 10727 10728 10729 10730 10731 10732 10733 10734 10735 10736 10737 10738 10739 10740 10741 10742 10743 10744 10745 10746 10747 10748 10749 10750 10751 10752 10753 10754 10755 10756 10757 10758 10759 10760 10761 10762 10763 10764 10765 10766 10767 10768 10769 10770 10771 10772 10773 10774 10775 10776 10777 10778 10779 10780 10781 10782 10783 10784 10785 10786 10787 10788 10789 10790 10791 10792 10793 10794 10795 10796 10797 10798 10799 10800 10801 10802 10803 10804 10805 10806 10807 10808 10809 10810 10811 10812 10813 10814 10815 10816 10817 10818 10819 10820 10821 10822 10823 10824 10825 10826 10827 10828 10829 10830 10831 10832 10833 10834 10835 10836 10837 10838 10839 10840 10841 10842 10843 10844 10845 10846 10847 10848 10849 10850 10851 10852 10853 10854 10855 10856 10857 10858 10859 10860 10861 10862 10863 10864 10865 10866 10867 10868 10869 10870 10871 10872 10873 10874 10875 10876 10877 10878 10879 10880 10881 10882 10883 10884 10885 10886 10887 10888 10889 10890 10891 10892 10893 10894 10895 10896 10897 10898 10899 10900 10901 10902 10903 10904 10905 10906 10907 10908 10909 10910 10911 10912 10913 10914 10915 10916 10917 10918 10919 10920 10921 10922 10923 10924 10925 10926 10927 10928 10929 10930 10931 10932 10933 10934 10935 10936 10937 10938 10939 10940 10941 10942 10943 10944 10945 10946 10947 10948 10949 10950 10951 10952 10953 10954 10955 10956 10957 10958 10959 10960 10961 10962 10963 10964 10965 10966 10967 10968 10969 10970 10971 10972 10973 10974 10975 10976 10977 10978 10979 10980 10981 10982 10983 10984 10985 10986 10987 10988 10989 10990 10991 10992 10993 10994 10995 10996 10997 10998 10999 11000 11001 11002 11003 11004 11005 11006 11007 11008 11009 11010 11011 11012 11013 11014 11015 11016 11017 11018 11019 11020 11021 11022 11023 11024 11025 11026 11027 11028 11029 11030 11031 11032 11033 11034 11035 11036 11037 11038 11039 11040 11041 11042 11043 11044 11045 11046 11047 11048 11049 11050 11051 11052 11053 11054 11055 11056 11057 11058 11059 11060 11061 11062 11063 11064 11065 11066 11067 11068 11069 11070 11071 11072 11073 11074 11075 11076 11077 11078 11079 11080 11081 11082 11083 11084 11085 11086 11087 11088 11089 11090 11091 11092 11093 11094 11095 11096 11097 11098 11099 11100 11101 11102 11103 11104 11105 11106 11107 11108 11109 11110 11111 11112 11113 11114 11115 11116 11117 11118 11119 11120 11121 11122 11123 11124 11125 11126 11127 11128 11129 11130 11131 11132 11133 11134 11135 11136 11137 11138 11139 11140 11141 11142 11143 11144 11145 11146 11147 11148 11149 11150 11151 11152 11153 11154 11155 11156 11157 11158 11159 11160 11161 11162 11163 11164 11165 11166 11167 11168 11169 11170 11171 11172 11173 11174 11175 11176 11177 11178 11179 11180 11181 11182 11183 11184 11185 11186 11187 11188 11189 11190 11191 11192 11193 11194 11195 11196 11197 11198 11199 11200 11201 11202 11203 11204 11205 11206 11207 11208 11209 11210 11211 11212 11213 11214 11215 11216 11217 11218 11219 11220 11221 11222 11223 11224 11225 11226 11227 11228 11229 11230 11231 11232 11233 11234 11235 11236 11237 11238 11239 11240 11241 11242 11243 11244 11245 11246 11247 11248 11249 11250 11251 11252 11253 11254 11255 11256 11257 11258 11259 11260 11261 11262 11263 11264 11265 11266 11267 11268 11269 11270 11271 11272 11273 11274 11275 11276 11277 11278 11279 11280 11281 11282 11283 11284 11285 11286 11287 11288 11289 11290 11291 11292 11293 11294 11295 11296 11297 11298 11299 11300 11301 11302 11303 11304 11305 11306 11307 11308 11309 11310 11311 11312 11313 11314 11315 11316 11317 11318 11319 11320 11321 11322 11323 11324 11325 11326 11327 11328 11329 11330 11331 11332 11333 11334 11335 11336 11337 11338 11339 11340 11341 11342 11343 11344 11345 11346 11347 11348 11349 11350 11351 11352 11353 11354 11355 11356 11357 11358 11359 11360 11361 11362 11363 11364 11365 11366 11367 11368 11369 11370 11371 11372 11373 11374 11375 11376 11377 11378 11379 11380 11381 11382 11383 11384 11385 11386 11387 11388 11389 11390 11391 11392 11393 11394 11395 11396 11397 11398 11399 11400 11401 11402 11403 11404 11405 11406 11407 11408 11409 11410 11411 11412 11413 11414 11415 11416 11417 11418 11419 11420 11421 11422 11423 11424 11425 11426 11427 11428 11429 11430 11431 11432 11433 11434 11435 11436 11437 11438 11439 11440 11441 11442 11443 11444 11445 11446 11447 11448 11449 11450 11451 11452 11453 11454 11455 11456 11457 11458 11459 11460 11461 11462 11463 11464 11465 11466 11467 11468 11469 11470 11471 11472 11473 11474 11475 11476 11477 11478 11479 11480 11481 11482 11483 11484 11485 11486 11487 11488 11489 11490 11491 11492 11493 11494 11495 11496 11497 11498 11499 11500 11501 11502 11503 11504 11505 11506 11507 11508 11509 11510 11511 11512 11513 11514 11515 11516 11517 11518 11519 11520 11521 11522 11523 11524 11525 11526 11527 11528 11529 11530 11531 11532 11533 11534 11535 11536 11537 11538 11539 11540 11541 11542 11543 11544 11545 11546 11547 11548 11549 11550 11551 11552 11553 11554 11555 11556 11557 11558 11559 11560 11561 11562 11563 11564 11565 11566 11567 11568 11569 11570 11571 11572 11573 11574 11575 11576 11577 11578 11579 11580 11581 11582 11583 11584 11585 11586 11587 11588 11589 11590 11591 11592 11593 11594 11595 11596 11597 11598 11599 11600 11601 11602 11603 11604 11605 11606 11607 11608 11609 11610 11611 11612 11613 11614 11615 11616 11617 11618 11619 11620 11621 11622 11623 11624 11625 11626 11627 11628 11629 11630 11631 11632 11633 11634 11635 11636 11637 11638 11639 11640 11641 11642 11643 11644 11645 11646 11647 11648 11649 11650 11651 11652 11653 11654 11655 11656 11657 11658 11659 11660 11661 11662 11663 11664 11665 11666 11667 11668 11669 11670 11671 11672 11673 11674 11675 11676 11677 11678 11679 11680 11681 11682 11683 11684 11685 11686 11687 11688 11689 11690 11691 11692 11693 11694 11695 11696 11697 11698 11699 11700 11701 11702 11703 11704 11705 11706 11707 11708 11709 11710 11711 11712 11713 11714 11715 11716 11717 11718 11719 11720 11721 11722 11723 11724 11725 11726 11727 11728 11729 11730 11731 11732 11733 11734 11735 11736 11737 11738 11739 11740 11741 11742 11743 11744 11745 11746 11747 11748 11749 11750 11751 11752 11753 11754 11755 11756 11757 11758 11759 11760 11761 11762 11763 11764 11765 11766 11767 11768 11769 11770 11771 11772 11773 11774 11775 11776 11777 11778 11779 11780 11781 11782 11783 11784 11785 11786 11787 11788 11789 11790 11791 11792 11793 11794 11795 11796 11797 11798 11799 11800 11801 11802 11803 11804 11805 11806 11807 11808 11809 11810 11811 11812 11813 11814 11815 11816 11817 11818 11819 11820 11821 11822 11823 11824 11825 11826 11827 11828 11829 11830 11831 11832 11833 11834 11835 11836 11837 11838 11839 11840 11841 11842 11843 11844 11845 11846 11847 11848 11849 11850 11851 11852 11853 11854 11855 11856 11857 11858 11859 11860 11861 11862 11863 11864 11865 11866 11867 11868 11869 11870 11871 11872 11873 11874 11875 11876 11877 11878 11879 11880 11881 11882 11883 11884 11885 11886 11887 11888 11889 11890 11891 11892 11893 11894 11895 11896 11897 11898 11899 11900 11901 11902 11903 11904 11905 11906 11907 11908 11909 11910 11911 11912 11913 11914 11915 11916 11917 11918 11919 11920 11921 11922 11923 11924 11925 11926 11927 11928 11929 11930 11931 11932 11933 11934 11935 11936 11937 11938 11939 11940 11941 11942 11943 11944 11945 11946 11947 11948 11949 11950 11951 11952 11953 11954 11955 11956 11957 11958 11959 11960 11961 11962 11963 11964 11965 11966 11967 11968 11969 11970 11971 11972 11973 11974 11975 11976 11977 11978 11979 11980 11981 11982 11983 11984 11985 11986 11987 11988 11989 11990 11991 11992 11993 11994 11995 11996 11997 11998 11999 12000 12001 12002 12003 12004 12005 12006 12007 12008 12009 12010 12011 12012 12013 12014 12015 12016 12017 12018 12019 12020 12021 12022 12023 12024 12025 12026 12027 12028 12029 12030 12031 12032 12033 12034 12035 12036 12037 12038 12039 12040 12041 12042 12043 12044 12045 12046 12047 12048 12049 12050 12051 12052 12053 12054 12055 12056 12057 12058 12059 12060 12061 12062 12063 12064 12065 12066 12067 12068 12069 12070 12071 12072 12073 12074 12075 12076 12077 12078 12079 12080 12081 12082 12083 12084 12085 12086 12087 12088 12089 12090 12091 12092 12093 12094 12095 12096 12097 12098 12099 12100 12101 12102 12103 12104 12105 12106 12107 12108 12109 12110 12111 12112 12113 12114 12115 12116 12117 12118 12119 12120 12121 12122 12123 12124 12125 12126 12127 12128 12129 12130 12131 12132 12133 12134 12135 12136 12137 12138 12139 12140 12141 12142 12143 12144 12145 12146 12147 12148 12149 12150 12151 12152 12153 12154 12155 12156 12157 12158 12159 12160 12161 12162 12163 12164 12165 12166 12167 12168 12169 12170 12171 12172 12173 12174 12175 12176 12177 12178 12179 12180 12181 12182 12183 12184 12185 12186 12187 12188 12189 12190 12191 12192 12193 12194 12195 12196 12197 12198 12199 12200 12201 12202 12203 12204 12205 12206 12207 12208 12209 12210 12211 12212 12213 12214 12215 12216 12217 12218 12219 12220 12221 12222 12223 12224 12225 12226 12227 12228 12229 12230 12231 12232 12233 12234 12235 12236 12237 12238 12239 12240 12241 12242 12243 12244 12245 12246 12247 12248 12249 12250 12251 12252 12253 12254 12255 12256 12257 12258 12259 12260 12261 12262 12263 12264 12265 12266 12267 12268 12269 12270 12271 12272 12273 12274 12275 12276 12277 12278 12279 12280 12281 12282 12283 12284 12285 12286 12287 12288 12289 12290 12291 12292 12293 12294 12295 12296 12297 12298 12299 12300 12301 12302 12303 12304 12305 12306 12307 12308 12309 12310 12311 12312 12313 12314 12315 12316 12317 12318 12319 12320 12321 12322 12323 12324 12325 12326 12327 12328 12329 12330 12331 12332 12333 12334 12335 12336 12337 12338 12339 12340 12341 12342 12343 12344 12345 12346 12347 12348 12349 12350 12351 12352 12353 12354 12355 12356 12357 12358 12359 12360 12361 12362 12363 12364 12365 12366 12367 12368 12369 12370 12371 12372 12373 12374 12375 12376 12377 12378 12379 12380 12381 12382 12383 12384 12385 12386 12387 12388 12389 12390 12391 12392 12393 12394 12395 12396 12397 12398 12399 12400 12401 12402 12403 12404 12405 12406 12407 12408 12409 12410 12411 12412 12413 12414 12415 12416 12417 12418 12419 12420 12421 12422 12423 12424 12425 12426 12427 12428 12429 12430 12431 12432 12433 12434 12435 12436 12437 12438 12439 12440 12441 12442 12443 12444 12445 12446 12447 12448 12449 12450 12451 12452 12453 12454 12455 12456 12457 12458 12459 12460 12461 12462 12463 12464 12465 12466 12467 12468 12469 12470 12471 12472 12473 12474 12475 12476 12477 12478 12479 12480 12481 12482 12483 12484 12485 12486 12487 12488 12489 12490 12491 12492 12493 12494 12495 12496 12497 12498 12499 12500 12501 12502 12503 12504 12505 12506 12507 12508 12509 12510 12511 12512 12513 12514 12515 12516 12517 12518 12519 12520 12521 12522 12523 12524 12525 12526 12527 12528 12529 12530 12531 12532 12533 12534 12535 12536 12537 12538 12539 12540 12541 12542 12543 12544 12545 12546 12547 12548 12549 12550 12551 12552 12553 12554 12555 12556 12557 12558 12559 12560 12561 12562 12563 12564 12565 12566 12567 12568 12569 12570 12571 12572 12573 12574 12575 12576 12577 12578 12579 12580 12581 12582 12583 12584 12585 12586 12587 12588 12589 12590 12591 12592 12593 12594 12595 12596 12597 12598 12599 12600 12601 12602 12603 12604 12605 12606 12607 12608 12609 12610 12611 12612 12613 12614 12615 12616 12617 12618 12619 12620 12621 12622 12623 12624 12625 12626 12627 12628 12629 12630 12631 12632 12633 12634 12635 12636 12637 12638 12639 12640 12641 12642 12643 12644 12645 12646 12647 12648 12649 12650 12651 12652 12653 12654 12655 12656 12657 12658 12659 12660 12661 12662 12663 12664 12665 12666 12667 12668 12669 12670 12671 12672 12673 12674 12675 12676 12677 12678 12679 12680 12681 12682 12683 12684 12685 12686 12687 12688 12689 12690 12691 12692 12693 12694 12695 12696 12697 12698 12699 12700 12701 12702 12703 12704 12705 12706 12707 12708 12709 12710 12711 12712 12713 12714 12715 12716 12717 12718 12719 12720 12721 12722 12723 12724 12725 12726 12727 12728 12729 12730 12731 12732 12733 12734 12735 12736 12737 12738 12739 12740 12741 12742 12743 12744 12745 12746 12747 12748 12749 12750 12751 12752 12753 12754 12755 12756 12757 12758 12759 12760 12761 12762 12763 12764 12765 12766 12767 12768 12769 12770 12771 12772 12773 12774 12775 12776 12777 12778 12779 12780 12781 12782 12783 12784 12785 12786 12787 12788 12789 12790 12791 12792 12793 12794 12795 12796 12797 12798 12799 12800 12801 12802 12803 12804 12805 12806 12807 12808 12809 12810 12811 12812 12813 12814 12815 12816 12817 12818 12819 12820 12821 12822 12823 12824 12825 12826 12827 12828 12829 12830 12831 12832 12833 12834 12835 12836 12837 12838 12839 12840 12841 12842 12843 12844 12845 12846 12847 12848 12849 12850 12851 12852 12853 12854 12855 12856 12857 12858 12859 12860 12861 12862 12863 12864 12865 12866 12867 12868 12869 12870 12871 12872 12873 12874 12875 12876 12877 12878 12879 12880 12881 12882 12883 12884 12885 12886 12887 12888 12889 12890 12891 12892 12893 12894 12895 12896 12897 12898 12899 12900 12901 12902 12903 12904 12905 12906 12907 12908 12909 12910 12911 12912 12913 12914 12915 12916 12917 12918 12919 12920 12921 12922 12923 12924 12925 12926 12927 12928 12929 12930 12931 12932 12933 12934 12935 12936 12937 12938 12939 12940 12941 12942 12943 12944 12945 12946 12947 12948 12949 12950 12951 12952 12953 12954 12955 12956 12957 12958 12959 12960 12961 12962 12963 12964 12965 12966 12967 12968 12969 12970 12971 12972 12973 12974 12975 12976 12977 12978 12979 12980 12981 12982 12983 12984 12985 12986 12987 12988 12989 12990 12991 12992 12993 12994 12995 12996 12997 12998 12999 13000 13001 13002 13003 13004 13005 13006 13007 13008 13009 13010 13011 13012 13013 13014 13015 13016 13017 13018 13019 13020 13021 13022 13023 13024 13025 13026 13027 13028 13029 13030 13031 13032 13033 13034 13035 13036 13037 13038 13039 13040 13041 13042 13043 13044 13045 13046 13047 13048 13049 13050 13051 13052 13053 13054 13055 13056 13057 13058 13059 13060 13061 13062 13063 13064 13065 13066 13067 13068 13069 13070 13071 13072 13073 13074 13075 13076 13077 13078 13079 13080 13081 13082 13083 13084 13085 13086 13087 13088 13089 13090 13091 13092 13093 13094 13095 13096 13097 13098 13099 13100 13101 13102 13103 13104 13105 13106 13107 13108 13109 13110 13111 13112 13113 13114 13115 13116 13117 13118 13119 13120 13121 13122 13123 13124 13125 13126 13127 13128 13129 13130 13131 13132 13133 13134 13135 13136 13137 13138 13139 13140 13141 13142 13143 13144 13145 13146 13147 13148 13149 13150 13151 13152 13153 13154 13155 13156 13157 13158 13159 13160 13161 13162 13163 13164 13165 13166 13167 13168 13169 13170 13171 13172 13173 13174 13175 13176 13177 13178 13179 13180 13181 13182 13183 13184 13185 13186 13187 13188 13189 13190 13191 13192 13193 13194 13195 13196 13197 13198 13199 13200 13201 13202 13203 13204 13205 13206 13207 13208 13209 13210 13211 13212 13213 13214 13215 13216 13217 13218 13219 13220 13221 13222 13223 13224 13225 13226 13227 13228 13229 13230 13231 13232 13233 13234 13235 13236 13237 13238 13239 13240 13241 13242 13243 13244 13245 13246 13247 13248 13249 13250 13251 13252 13253 13254 13255 13256 13257 13258 13259 13260 13261 13262 13263 13264 13265 13266 13267 13268 13269 13270 13271 13272 13273 13274 13275 13276 13277 13278 13279 13280 13281 13282 13283 13284 13285 13286 13287 13288 13289 13290 13291 13292 13293 13294 13295 13296 13297 13298 13299 13300 13301 13302 13303 13304 13305 13306 13307 13308 13309 13310 13311 13312 13313 13314 13315 13316 13317 13318 13319 13320 13321 13322 13323 13324 13325 13326 13327 13328 13329 13330 13331 13332 13333 13334 13335 13336 13337 13338 13339 13340 13341 13342 13343 13344 13345 13346 13347 13348 13349 13350 13351 13352 13353 13354 13355 13356 13357 13358 13359 13360 13361 13362 13363 13364 13365 13366 13367 13368 13369 13370 13371 13372 13373 13374 13375 13376 13377 13378 13379 13380 13381 13382 13383 13384 13385 13386 13387 13388 13389 13390 13391 13392 13393 13394 13395 13396 13397 13398 13399 13400 13401 13402 13403 13404 13405 13406 13407 13408 13409 13410 13411 13412 13413 13414 13415 13416 13417 13418 13419 13420 13421 13422 13423 13424 13425 13426 13427 13428 13429 13430 13431 13432 13433 13434 13435 13436 13437 13438 13439 13440 13441 13442 13443 13444 13445 13446 13447 13448 13449 13450 13451 13452 13453 13454 13455 13456 13457 13458 13459 13460 13461 13462 13463 13464 13465 13466 13467 13468 13469 13470 13471 13472 13473 13474 13475 13476 13477 13478 13479 13480 13481 13482 13483 13484 13485 13486 13487 13488 13489 13490 13491 13492 13493 13494 13495 13496 13497 13498 13499 13500 13501 13502 13503 13504 13505 13506 13507 13508 13509 13510 13511 13512 13513 13514 13515 13516 13517 13518 13519 13520 13521 13522 13523 13524 13525 13526 13527 13528 13529 13530 13531 13532 13533 13534 13535 13536 13537 13538 13539 13540 13541 13542 13543 13544 13545 13546 13547 13548 13549 13550 13551 13552 13553 13554 13555 13556 13557 13558 13559 13560 13561 13562 13563 13564 13565 13566 13567 13568 13569 13570 13571 13572 13573 13574 13575 13576 13577 13578 13579 13580 13581 13582 13583 13584 13585 13586 13587 13588 13589 13590 13591 13592 13593 13594 13595 13596 13597 13598 13599 13600 13601 13602 13603 13604 13605 13606 13607 13608 13609 13610 13611 13612 13613 13614 13615 13616 13617 13618 13619 13620 13621 13622 13623 13624 13625 13626 13627 13628 13629 13630 13631 13632 13633 13634 13635 13636 13637 13638 13639 13640 13641 13642 13643 13644 13645 13646 13647 13648 13649 13650 13651 13652 13653 13654 13655 13656 13657 13658 13659 13660 13661 13662 13663 13664 13665 13666 13667 13668 13669 13670 13671 13672 13673 13674 13675 13676 13677 13678 13679 13680 13681 13682 13683 13684 13685 13686 13687 13688 13689 13690 13691 13692 13693 13694 13695 13696 13697 13698 13699 13700 13701 13702 13703 13704 13705 13706 13707 13708 13709 13710 13711 13712 13713 13714 13715 13716 13717 13718 13719 13720 13721 13722 13723 13724 13725 13726 13727 13728 13729 13730 13731 13732 13733 13734 13735 13736 13737 13738 13739 13740 13741 13742 13743 13744 13745 13746 13747 13748 13749 13750 13751 13752 13753 13754 13755 13756 13757 13758 13759 13760 13761 13762 13763 13764 13765 13766 13767 13768 13769 13770 13771 13772 13773 13774 13775 13776 13777 13778 13779 13780 13781 13782 13783 13784 13785 13786 13787 13788 13789 13790 13791 13792 13793 13794 13795 13796 13797 13798 13799 13800 13801 13802 13803 13804 13805 13806 13807 13808 13809 13810 13811 13812 13813 13814 13815 13816 13817 13818 13819 13820 13821 13822 13823 13824 13825 13826 13827 13828 13829 13830 13831 13832 13833 13834 13835 13836 13837 13838 13839 13840 13841 13842 13843 13844 13845 13846 13847 13848 13849 13850 13851 13852 13853 13854 13855 13856 13857 13858 13859 13860 13861 13862 13863 13864 13865 13866 13867 13868 13869 13870 13871 13872 13873 13874 13875 13876 13877 13878 13879 13880 13881 13882 13883 13884 13885 13886 13887 13888 13889 13890 13891 13892 13893 13894 13895 13896 13897 13898 13899 13900 13901 13902 13903 13904 13905 13906 13907 13908 13909 13910 13911 13912 13913 13914 13915 13916 13917 13918 13919 13920 13921 13922 13923 13924 13925 13926 13927 13928 13929 13930 13931 13932 13933 13934 13935 13936 13937 13938 13939 13940 13941 13942 13943 13944 13945 13946 13947 13948 13949 13950 13951 13952 13953 13954 13955 13956 13957 13958 13959 13960 13961 13962 13963 13964 13965 13966 13967 13968 13969 13970 13971 13972 13973 13974 13975 13976 13977 13978 13979 13980 13981 13982 13983 13984 13985 13986 13987 13988 13989 13990 13991 13992 13993 13994 13995 13996 13997 13998 13999 14000 14001 14002 14003 14004 14005 14006 14007 14008 14009 14010 14011 14012 14013 14014 14015 14016 14017 14018 14019 14020 14021 14022 14023 14024 14025 14026 14027 14028 14029 14030 14031 14032 14033 14034 14035 14036 14037 14038 14039 14040 14041 14042 14043 14044 14045 14046 14047 14048 14049 14050 14051 14052 14053 14054 14055 14056 14057 14058 14059 14060 14061 14062 14063 14064 14065 14066 14067 14068 14069 14070 14071 14072 14073 14074 14075 14076 14077 14078 14079 14080 14081 14082 14083 14084 14085 14086 14087 14088 14089 14090 14091 14092 14093 14094 14095 14096 14097 14098 14099 14100 14101 14102 14103 14104 14105 14106 14107 14108 14109 14110 14111 14112 14113 14114 14115 14116 14117 14118 14119 14120 14121 14122 14123 14124 14125 14126 14127 14128 14129 14130 14131 14132 14133 14134 14135 14136 14137 14138 14139 14140 14141 14142 14143 14144 14145 14146 14147 14148 14149 14150 14151 14152 14153 14154 14155 14156 14157 14158 14159 14160 14161 14162 14163 14164 14165 14166 14167 14168 14169 14170 14171 14172 14173 14174 14175 14176 14177 14178 14179 14180 14181 14182 14183 14184 14185 14186 14187 14188 14189 14190 14191 14192 14193 14194 14195 14196 14197 14198 14199 14200 14201 14202 14203 14204 14205 14206 14207 14208 14209 14210 14211 14212 14213 14214 14215 14216 14217 14218 14219 14220 14221 14222 14223 14224 14225 14226 14227 14228 14229 14230 14231 14232 14233 14234 14235 14236 14237 14238 14239 14240 14241 14242 14243 14244 14245 14246 14247 14248 14249 14250 14251 14252 14253 14254 14255 14256 14257 14258 14259 14260 14261 14262 14263 14264 14265 14266 14267 14268 14269 14270 14271 14272 14273 14274 14275 14276 14277 14278 14279 14280 14281 14282 14283 14284 14285 14286 14287 14288 14289 14290 14291 14292 14293 14294 14295 14296 14297 14298 14299 14300 14301 14302 14303 14304 14305 14306 14307 14308 14309 14310 14311 14312 14313 14314 14315 14316 14317 14318 14319 14320 14321 14322 14323 14324 14325 14326 14327 14328 14329 14330 14331 14332 14333 14334 14335 14336 14337 14338 14339 14340 14341 14342 14343 14344 14345 14346 14347 14348 14349 14350 14351 14352 14353 14354 14355 14356 14357 14358 14359 14360 14361 14362 14363 14364 14365 14366 14367 14368 14369 14370 14371 14372 14373 14374 14375 14376 14377 14378 14379 14380 14381 14382 14383 14384 14385 14386 14387 14388 14389 14390 14391 14392 14393 14394 14395 14396 14397 14398 14399 14400 14401 14402 14403 14404 14405 14406 14407 14408 14409 14410 14411 14412 14413 14414 14415 14416 14417 14418 14419 14420 14421 14422 14423 14424 14425 14426 14427 14428 14429 14430 14431 14432 14433 14434 14435 14436 14437 14438 14439 14440 14441 14442 14443 14444 14445 14446 14447 14448 14449 14450 14451 14452 14453 14454 14455 14456 14457 14458 14459 14460 14461 14462 14463 14464 14465 14466 14467 14468 14469 14470 14471 14472 14473 14474 14475 14476 14477 14478 14479 14480 14481 14482 14483 14484 14485 14486 14487 14488 14489 14490 14491 14492 14493 14494 14495 14496 14497 14498 14499 14500 14501 14502 14503 14504 14505 14506 14507 14508 14509 14510 14511 14512 14513 14514 14515 14516 14517 14518 14519 14520 14521 14522 14523 14524 14525 14526 14527 14528 14529 14530 14531 14532 14533 14534 14535 14536 14537 14538 14539 14540 14541 14542 14543 14544 14545 14546 14547 14548 14549 14550 14551 14552 14553 14554 14555 14556 14557 14558 14559 14560 14561 14562 14563 14564 14565 14566 14567 14568 14569 14570 14571 14572 14573 14574 14575 14576 14577 14578 14579 14580 14581 14582 14583 14584 14585 14586 14587 14588 14589 14590 14591 14592 14593 14594 14595 14596 14597 14598 14599 14600 14601 14602 14603 14604 14605 14606 14607 14608 14609 14610 14611 14612 14613 14614 14615 14616 14617 14618 14619 14620 14621 14622 14623 14624 14625 14626 14627 14628 14629 14630 14631 14632 14633 14634 14635 14636 14637 14638 14639 14640 14641 14642 14643 14644 14645 14646 14647 14648 14649 14650 14651 14652 14653 14654 14655 14656 14657 14658 14659 14660 14661 14662 14663 14664 14665 14666 14667 14668 14669 14670 14671 14672 14673 14674 14675 14676 14677 14678 14679 14680 14681 14682 14683 14684 14685 14686 14687 14688 14689 14690 14691 14692 14693 14694 14695 14696 14697 14698 14699 14700 14701 14702 14703 14704 14705 14706 14707 14708 14709 14710 14711 14712 14713 14714 14715 14716 14717 14718 14719 14720 14721 14722 14723 14724 14725 14726 14727 14728 14729 14730 14731 14732 14733 14734 14735 14736 14737 14738 14739 14740 14741 14742 14743 14744 14745 14746 14747 14748 14749 14750 14751 14752 14753 14754 14755 14756 14757 14758 14759 14760 14761 14762 14763 14764 14765 14766 14767 14768 14769 14770 14771 14772 14773 14774 14775 14776 14777 14778 14779 14780 14781 14782 14783 14784 14785 14786 14787 14788 14789 14790 14791 14792 14793 14794 14795 14796 14797 14798 14799 14800 14801 14802 14803 14804 14805 14806 14807 14808 14809 14810 14811 14812 14813 14814 14815 14816 14817 14818 14819 14820 14821 14822 14823 14824 14825 14826 14827 14828 14829 14830 14831 14832 14833 14834 14835 14836 14837 14838 14839 14840 14841 14842 14843 14844 14845 14846 14847 14848 14849 14850 14851 14852 14853 14854 14855 14856 14857 14858 14859 14860 14861 14862 14863 14864 14865 14866 14867 14868 14869 14870 14871 14872 14873 14874 14875 14876 14877 14878 14879 14880 14881 14882 14883 14884 14885 14886 14887 14888 14889 14890 14891 14892 14893 14894 14895 14896 14897 14898 14899 14900 14901 14902 14903 14904 14905 14906 14907 14908 14909 14910 14911 14912 14913 14914 14915 14916 14917 14918 14919 14920 14921 14922 14923 14924 14925 14926 14927 14928 14929 14930 14931 14932 14933 14934 14935 14936 14937 14938 14939 14940 14941 14942 14943 14944 14945 14946 14947 14948 14949 14950 14951 14952 14953 14954 14955 14956 14957 14958 14959 14960 14961 14962 14963 14964 14965 14966 14967 14968 14969 14970 14971 14972 14973 14974 14975 14976 14977 14978 14979 14980 14981 14982 14983 14984 14985 14986 14987 14988 14989 14990 14991 14992 14993 14994 14995 14996 14997 14998 14999 15000 15001 15002 15003 15004 15005 15006 15007 15008 15009 15010 15011 15012 15013 15014 15015 15016 15017 15018 15019 15020 15021 15022 15023 15024 15025 15026 15027 15028 15029 15030 15031 15032 15033 15034 15035 15036 15037 15038 15039 15040 15041 15042 15043 15044 15045 15046 15047 15048 15049 15050 15051 15052 15053 15054 15055 15056 15057 15058 15059 15060 15061 15062 15063 15064 15065 15066 15067 15068 15069 15070 15071 15072 15073 15074 15075 15076 15077 15078 15079 15080 15081 15082 15083 15084 15085 15086 15087 15088 15089 15090 15091 15092 15093 15094 15095 15096 15097 15098 15099 15100 15101 15102 15103 15104 15105 15106 15107 15108 15109 15110 15111 15112 15113 15114 15115 15116 15117 15118 15119 15120 15121 15122 15123 15124 15125 15126 15127 15128 15129 15130 15131 15132 15133 15134 15135 15136 15137 15138 15139 15140 15141 15142 15143 15144 15145 15146 15147 15148 15149 15150 15151 15152 15153 15154 15155 15156 15157 15158 15159 15160 15161 15162 15163 15164 15165 15166 15167 15168 15169 15170 15171 15172 15173 15174 15175 15176 15177 15178 15179 15180 15181 15182 15183 15184 15185 15186 15187 15188 15189 15190 15191 15192 15193 15194 15195 15196 15197 15198 15199 15200 15201 15202 15203 15204 15205 15206 15207 15208 15209 15210 15211 15212 15213 15214 15215 15216 15217 15218 15219 15220 15221 15222 15223 15224 15225 15226 15227 15228 15229 15230 15231 15232 15233 15234 15235 15236 15237 15238 15239 15240 15241 15242 15243 15244 15245 15246 15247 15248 15249 15250 15251 15252 15253 15254 15255 15256 15257 15258 15259 15260 15261 15262 15263 15264 15265 15266 15267 15268 15269 15270 15271 15272 15273 15274 15275 15276 15277 15278 15279 15280 15281 15282 15283 15284 15285 15286 15287 15288 15289 15290 15291 15292 15293 15294 15295 15296 15297 15298 15299 15300 15301 15302 15303 15304 15305 15306 15307 15308 15309 15310 15311 15312 15313 15314 15315 15316 15317 15318 15319 15320 15321 15322 15323 15324 15325 15326 15327 15328 15329 15330 15331 15332 15333 15334 15335 15336 15337 15338 15339 15340 15341 15342 15343 15344 15345 15346 15347 15348 15349 15350 15351 15352 15353 15354 15355 15356 15357 15358 15359 15360 15361 15362 15363 15364 15365 15366 15367 15368 15369 15370 15371 15372 15373 15374 15375 15376 15377 15378 15379 15380 15381 15382 15383 15384 15385 15386 15387 15388 15389 15390 15391 15392 15393 15394 15395 15396 15397 15398 15399 15400 15401 15402 15403 15404 15405 15406 15407 15408 15409 15410 15411 15412 15413 15414 15415 15416 15417 15418 15419 15420 15421 15422 15423 15424 15425 15426 15427 15428 15429 15430 15431 15432 15433 15434 15435 15436 15437 15438 15439 15440 15441 15442 15443 15444 15445 15446 15447 15448 15449 15450 15451 15452 15453 15454 15455 15456 15457 15458 15459 15460 15461 15462 15463 15464 15465 15466 15467 15468 15469 15470 15471 15472 15473 15474 15475 15476 15477 15478 15479 15480 15481 15482 15483 15484 15485 15486 15487 15488 15489 15490 15491 15492 15493 15494 15495 15496 15497 15498 15499 15500 15501 15502 15503 15504 15505 15506 15507 15508 15509 15510 15511 15512 15513 15514 15515 15516 15517 15518 15519 15520 15521 15522 15523 15524 15525 15526 15527 15528 15529 15530 15531 15532 15533 15534 15535 15536 15537 15538 15539 15540 15541 15542 15543 15544 15545 15546 15547 15548 15549 15550 15551 15552 15553 15554 15555 15556 15557 15558 15559 15560 15561 15562 15563 15564 15565 15566 15567 15568 15569 15570 15571 15572 15573 15574 15575 15576 15577 15578 15579 15580 15581 15582 15583 15584 15585 15586 15587 15588 15589 15590 15591 15592 15593 15594 15595 15596 15597 15598 15599 15600 15601 15602 15603 15604 15605 15606 15607 15608 15609 15610 15611 15612 15613 15614 15615 15616 15617 15618 15619 15620 15621 15622 15623 15624 15625 15626 15627 15628 15629 15630 15631 15632 15633 15634 15635 15636 15637 15638 15639 15640 15641 15642 15643 15644 15645 15646 15647 15648 15649 15650 15651 15652 15653 15654 15655 15656 15657 15658 15659 15660 15661 15662 15663 15664 15665 15666 15667 15668 15669 15670 15671 15672 15673 15674 15675 15676 15677 15678 15679 15680 15681 15682 15683 15684 15685 15686 15687 15688 15689 15690 15691 15692 15693 15694 15695 15696 15697 15698 15699 15700 15701 15702 15703 15704 15705 15706 15707 15708 15709 15710 15711 15712 15713 15714 15715 15716 15717 15718 15719 15720 15721 15722 15723 15724 15725 15726 15727 15728 15729 15730 15731 15732 15733 15734 15735 15736 15737 15738 15739 15740 15741 15742 15743 15744 15745 15746 15747 15748 15749 15750 15751 15752 15753 15754 15755 15756 15757 15758 15759 15760 15761 15762 15763 15764 15765 15766 15767 15768 15769 15770 15771 15772 15773 15774 15775 15776 15777 15778 15779 15780 15781 15782 15783 15784 15785 15786 15787 15788 15789 15790 15791 15792 15793 15794 15795 15796 15797 15798 15799 15800 15801 15802 15803 15804 15805 15806 15807 15808 15809 15810 15811 15812 15813 15814 15815 15816 15817 15818 15819 15820 15821 15822 15823 15824 15825 15826 15827 15828 15829 15830 15831 15832 15833 15834 15835 15836 15837 15838 15839 15840 15841 15842 15843 15844 15845 15846 15847 15848 15849 15850 15851 15852 15853 15854 15855 15856 15857 15858 15859 15860 15861 15862 15863 15864 15865 15866 15867 15868 15869 15870 15871 15872 15873 15874 15875 15876 15877 15878 15879 15880 15881 15882 15883 15884 15885 15886 15887 15888 15889 15890 15891 15892 15893 15894 15895 15896 15897 15898 15899 15900 15901 15902 15903 15904 15905 15906 15907 15908 15909 15910 15911 15912 15913 15914 15915 15916 15917 15918 15919 15920 15921 15922 15923 15924 15925 15926 15927 15928 15929 15930 15931 15932 15933 15934 15935 15936 15937 15938 15939 15940 15941 15942 15943 15944 15945 15946 15947 15948 15949 15950 15951 15952 15953 15954 15955 15956 15957 15958 15959 15960 15961 15962 15963 15964 15965 15966 15967 15968 15969 15970 15971 15972 15973 15974 15975 15976 15977 15978 15979 15980 15981 15982 15983 15984 15985 15986 15987 15988 15989 15990 15991 15992 15993 15994 15995 15996 15997 15998 15999 16000 16001 16002 16003 16004 16005 16006 16007 16008 16009 16010 16011 16012 16013 16014 16015 16016 16017 16018 16019 16020 16021 16022 16023 16024 16025 16026 16027 16028 16029 16030 16031 16032 16033 16034 16035 16036 16037 16038 16039 16040 16041 16042 16043 16044 16045 16046 16047 16048 16049 16050 16051 16052 16053 16054 16055 16056 16057 16058 16059 16060 16061 16062 16063 16064 16065 16066 16067 16068 16069 16070 16071 16072 16073 16074 16075 16076 16077 16078 16079 16080 16081 16082 16083 16084 16085 16086 16087 16088 16089 16090 16091 16092 16093 16094 16095 16096 16097 16098 16099 16100 16101 16102 16103 16104 16105 16106 16107 16108 16109 16110 16111 16112 16113 16114 16115 16116 16117 16118 16119 16120 16121 16122 16123 16124 16125 16126 16127 16128 16129 16130 16131 16132 16133 16134 16135 16136 16137 16138 16139 16140 16141 16142 16143 16144 16145 16146 16147 16148 16149 16150 16151 16152 16153 16154 16155 16156 16157 16158 16159 16160 16161 16162 16163 16164 16165 16166 16167 16168 16169 16170 16171 16172 16173 16174 16175 16176 16177 16178 16179 16180 16181 16182 16183 16184 16185 16186 16187 16188 16189 16190 16191 16192 16193 16194 16195 16196 16197 16198 16199 16200 16201 16202 16203 16204 16205 16206 16207 16208 16209 16210 16211 16212 16213 16214 16215 16216 16217 16218 16219 16220 16221 16222 16223 16224 16225 16226 16227 16228 16229 16230 16231 16232 16233 16234 16235 16236 16237 16238 16239 16240 16241 16242 16243 16244 16245 16246 16247 16248 16249 16250 16251 16252 16253 16254 16255 16256 16257 16258 16259 16260 16261 16262 16263 16264 16265 16266 16267 16268 16269 16270 16271 16272 16273 16274 16275 16276 16277 16278 16279 16280 16281 16282 16283 16284 16285 16286 16287 16288 16289 16290 16291 16292 16293 16294 16295 16296 16297 16298 16299 16300 16301 16302 16303 16304 16305 16306 16307 16308 16309 16310 16311 16312 16313 16314 16315 16316 16317 16318 16319 16320 16321 16322 16323 16324 16325 16326 16327 16328 16329 16330 16331 16332 16333 16334 16335 16336 16337 16338 16339 16340 16341 16342 16343 16344 16345 16346 16347 16348 16349 16350 16351 16352 16353 16354 16355 16356 16357 16358 16359 16360 16361 16362 16363 16364 16365 16366 16367 16368 16369 16370 16371 16372 16373 16374 16375 16376 16377 16378 16379 16380 16381 16382 16383 16384 16385 16386 16387 16388 16389 16390 16391 16392 16393 16394 16395 16396 16397 16398 16399 16400 16401 16402 16403 16404 16405 16406 16407 16408 16409 16410 16411 16412 16413 16414 16415 16416 16417 16418 16419 16420 16421 16422 16423 16424 16425 16426 16427 16428 16429 16430 16431 16432 16433 16434 16435 16436 16437 16438 16439 16440 16441 16442 16443 16444 16445 16446 16447 16448 16449 16450 16451 16452 16453 16454 16455 16456 16457 16458 16459 16460 16461 16462 16463 16464 16465 16466 16467 16468 16469 16470 16471 16472 16473 16474 16475 16476 16477 16478 16479 16480 16481 16482 16483 16484 16485 16486 16487 16488 16489 16490 16491 16492 16493 16494 16495 16496 16497 16498 16499 16500 16501 16502 16503 16504 16505 16506 16507 16508 16509 16510 16511 16512 16513 16514 16515 16516 16517 16518 16519 16520 16521 16522 16523 16524 16525 16526 16527 16528 16529 16530 16531 16532 16533 16534 16535 16536 16537 16538 16539 16540 16541 16542 16543 16544 16545 16546 16547 16548 16549 16550 16551 16552 16553 16554 16555 16556 16557 16558 16559 16560 16561 16562 16563 16564 16565 16566 16567 16568 16569 16570 16571 16572 16573 16574 16575 16576 16577 16578 16579 16580 16581 16582 16583 16584 16585 16586 16587 16588 16589 16590 16591 16592 16593 16594 16595 16596 16597 16598 16599 16600 16601 16602 16603 16604 16605 16606 16607 16608 16609 16610 16611 16612 16613 16614 16615 16616 16617 16618 16619 16620 16621 16622 16623 16624 16625 16626 16627 16628 16629 16630 16631 16632 16633 16634 16635 16636 16637 16638 16639 16640 16641 16642 16643 16644 16645 16646 16647 16648 16649 16650 16651 16652 16653 16654 16655 16656 16657 16658 16659 16660 16661 16662 16663 16664 16665 16666 16667 16668 16669 16670 16671 16672 16673 16674 16675 16676 16677 16678 16679 16680 16681 16682 16683 16684 16685 16686 16687 16688 16689 16690 16691 16692 16693 16694 16695 16696 16697 16698 16699 16700 16701 16702 16703 16704 16705 16706 16707 16708 16709 16710 16711 16712 16713 16714 16715 16716 16717 16718 16719 16720 16721 16722 16723 16724 16725 16726 16727 16728 16729 16730 16731 16732 16733 16734 16735 16736 16737 16738 16739 16740 16741 16742 16743 16744 16745 16746 16747 16748 16749 16750 16751 16752 16753 16754 16755 16756 16757 16758 16759 16760 16761 16762 16763 16764 16765 16766 16767 16768 16769 16770 16771 16772 16773 16774 16775 16776 16777 16778 16779 16780 16781 16782 16783 16784 16785 16786 16787 16788 16789 16790 16791 16792 16793 16794 16795 16796 16797 16798 16799 16800 16801 16802 16803 16804 16805 16806 16807 16808 16809 16810 16811 16812 16813 16814 16815 16816 16817 16818 16819 16820 16821 16822 16823 16824 16825 16826 16827 16828 16829 16830 16831 16832 16833 16834 16835 16836 16837 16838 16839 16840 16841 16842 16843 16844 16845 16846 16847 16848 16849 16850 16851 16852 16853 16854 16855 16856 16857 16858 16859 16860 16861 16862 16863 16864 16865 16866 16867 16868 16869 16870 16871 16872 16873 16874 16875 16876 16877 16878 16879 16880 16881 16882 16883 16884 16885 16886 16887 16888 16889 16890 16891 16892 16893 16894 16895 16896 16897 16898 16899 16900 16901 16902 16903 16904 16905 16906 16907 16908 16909 16910 16911 16912 16913 16914 16915 16916 16917 16918 16919 16920 16921 16922 16923 16924 16925 16926 16927 16928 16929 16930 16931 16932 16933 16934 16935 16936 16937 16938 16939 16940 16941 16942 16943 16944 16945 16946 16947 16948 16949 16950 16951 16952 16953 16954 16955 16956 16957 16958 16959 16960 16961 16962 16963 16964 16965 16966 16967 16968 16969 16970 16971 16972 16973 16974 16975 16976 16977 16978 16979 16980 16981 16982 16983 16984 16985 16986 16987 16988 16989 16990 16991 16992 16993 16994 16995 16996 16997 16998 16999 17000 17001 17002 17003 17004 17005 17006 17007 17008 17009 17010 17011 17012 17013 17014 17015 17016 17017 17018 17019 17020 17021 17022 17023 17024 17025 17026 17027 17028 17029 17030 17031 17032 17033 17034 17035 17036 17037 17038 17039 17040 17041 17042 17043 17044 17045 17046 17047 17048 17049 17050 17051 17052 17053 17054 17055 17056 17057 17058 17059 17060 17061 17062 17063 17064 17065 17066 17067 17068 17069 17070 17071 17072 17073 17074 17075 17076 17077 17078 17079 17080 17081 17082 17083 17084 17085 17086 17087 17088 17089 17090 17091 17092 17093 17094 17095 17096 17097 17098 17099 17100 17101 17102 17103 17104 17105 17106 17107 17108 17109 17110 17111 17112 17113 17114 17115 17116 17117 17118 17119 17120 17121 17122 17123 17124 17125 17126 17127 17128 17129 17130 17131 17132 17133 17134 17135 17136 17137 17138 17139 17140 17141 17142 17143 17144 17145 17146 17147 17148 17149 17150 17151 17152 17153 17154 17155 17156 17157 17158 17159 17160 17161 17162 17163 17164 17165 17166 17167 17168 17169 17170 17171 17172 17173 17174 17175 17176 17177 17178 17179 17180 17181 17182 17183 17184 17185 17186 17187 17188 17189 17190 17191 17192 17193 17194 17195 17196 17197 17198 17199 17200 17201 17202 17203 17204 17205 17206 17207 17208 17209 17210 17211 17212 17213 17214 17215 17216 17217 17218 17219 17220 17221 17222 17223 17224 17225 17226 17227 17228 17229 17230 17231 17232 17233 17234 17235 17236 17237 17238 17239 17240 17241 17242 17243 17244 17245 17246 17247 17248 17249 17250 17251 17252 17253 17254 17255 17256 17257 17258 17259 17260 17261 17262 17263 17264 17265 17266 17267 17268 17269 17270 17271 17272 17273 17274 17275 17276 17277 17278 17279 17280 17281 17282 17283 17284 17285 17286 17287 17288 17289 17290 17291 17292 17293 17294 17295 17296 17297 17298 17299 17300 17301 17302 17303 17304 17305 17306 17307 17308 17309 17310 17311 17312 17313 17314 17315 17316 17317 17318 17319 17320 17321 17322 17323 17324 17325 17326 17327 17328 17329 17330 17331 17332 17333 17334 17335 17336 17337 17338 17339 17340 17341 17342 17343 17344 17345 17346 17347 17348 17349 17350 17351 17352 17353 17354 17355 17356 17357 17358 17359 17360 17361 17362 17363 17364 17365 17366 17367 17368 17369 17370 17371 17372 17373 17374 17375 17376 17377 17378 17379 17380 17381 17382 17383 17384 17385 17386 17387 17388 17389 17390 17391 17392 17393 17394 17395 17396 17397 17398 17399 17400 17401 17402 17403 17404 17405 17406 17407 17408 17409 17410 17411 17412 17413 17414 17415 17416 17417 17418 17419 17420 17421 17422 17423 17424 17425 17426 17427 17428 17429 17430 17431 17432 17433 17434 17435 17436 17437 17438 17439 17440 17441 17442 17443 17444 17445 17446 17447 17448 17449 17450 17451 17452 17453 17454 17455 17456 17457 17458 17459 17460 17461 17462 17463 17464 17465 17466 17467 17468 17469 17470 17471 17472 17473 17474 17475 17476 17477 17478 17479 17480 17481 17482 17483 17484 17485 17486 17487 17488 17489 17490 17491 17492 17493 17494 17495 17496 17497 17498 17499 17500 17501 17502 17503 17504 17505 17506 17507 17508 17509 17510 17511 17512 17513 17514 17515 17516 17517 17518 17519 17520 17521 17522 17523 17524 17525 17526 17527 17528 17529 17530 17531 17532 17533 17534 17535 17536 17537 17538 17539 17540 17541 17542 17543 17544 17545 17546 17547 17548 17549 17550 17551 17552 17553 17554 17555 17556 17557 17558 17559 17560 17561 17562 17563 17564 17565 17566 17567 17568 17569 17570 17571 17572 17573 17574 17575 17576 17577 17578 17579 17580 17581 17582 17583 17584 17585 17586 17587 17588 17589 17590 17591 17592 17593 17594 17595 17596 17597 17598 17599 17600 17601 17602 17603 17604 17605 17606 17607 17608 17609 17610 17611 17612 17613 17614 17615 17616 17617 17618 17619 17620 17621 17622 17623 17624 17625 17626 17627 17628 17629 17630 17631 17632 17633 17634 17635 17636 17637 17638 17639 17640 17641 17642 17643 17644 17645 17646 17647 17648 17649 17650 17651 17652 17653 17654 17655 17656 17657 17658 17659 17660 17661 17662 17663 17664 17665 17666 17667 17668 17669 17670 17671 17672 17673 17674 17675 17676 17677 17678 17679 17680 17681 17682 17683 17684 17685 17686 17687 17688 17689 17690 17691 17692 17693 17694 17695 17696 17697 17698 17699 17700 17701 17702 17703 17704 17705 17706 17707 17708 17709 17710 17711 17712 17713 17714 17715 17716 17717 17718 17719 17720 17721 17722 17723 17724 17725 17726 17727 17728 17729 17730 17731 17732 17733 17734 17735 17736 17737 17738 17739 17740 17741 17742 17743 17744 17745 17746 17747 17748 17749 17750 17751 17752 17753 17754 17755 17756 17757 17758 17759 17760 17761 17762 17763 17764 17765 17766 17767 17768 17769 17770 17771 17772 17773 17774 17775 17776 17777 17778 17779 17780 17781 17782 17783 17784 17785 17786 17787 17788 17789 17790 17791 17792 17793 17794 17795 17796 17797 17798 17799 17800 17801 17802 17803 17804 17805 17806 17807 17808 17809 17810 17811 17812 17813 17814 17815 17816 17817 17818 17819 17820 17821 17822 17823 17824 17825 17826 17827 17828 17829 17830 17831 17832 17833 17834 17835 17836 17837 17838 17839 17840 17841 17842 17843 17844 17845 17846 17847 17848 17849 17850 17851 17852 17853 17854 17855 17856 17857 17858 17859 17860 17861 17862 17863 17864 17865 17866 17867 17868 17869 17870 17871 17872 17873 17874 17875 17876 17877 17878 17879 17880 17881 17882 17883 17884 17885 17886 17887 17888 17889 17890 17891 17892 17893 17894 17895 17896 17897 17898 17899 17900 17901 17902 17903 17904 17905 17906 17907 17908 17909 17910 17911 17912 17913 17914 17915 17916 17917 17918 17919 17920 17921 17922 17923 17924 17925 17926 17927 17928 17929 17930 17931 17932 17933 17934 17935 17936 17937 17938 17939 17940 17941 17942 17943 17944 17945 17946 17947 17948 17949 17950 17951 17952 17953 17954 17955 17956 17957 17958 17959 17960 17961 17962 17963 17964 17965 17966 17967 17968 17969 17970 17971 17972 17973 17974 17975 17976 17977 17978 17979 17980 17981 17982 17983 17984 17985 17986 17987 17988 17989 17990 17991 17992 17993 17994 17995 17996 17997 17998 17999 18000 18001 18002 18003 18004 18005 18006 18007 18008 18009 18010 18011 18012 18013 18014 18015 18016 18017 18018 18019 18020 18021 18022 18023 18024 18025 18026 18027 18028 18029 18030 18031 18032 18033 18034 18035 18036 18037 18038 18039 18040 18041 18042 18043 18044 18045 18046 18047 18048 18049 18050 18051 18052 18053 18054 18055 18056 18057 18058 18059 18060 18061 18062 18063 18064 18065 18066 18067 18068 18069 18070 18071 18072 18073 18074 18075 18076 18077 18078 18079 18080 18081 18082 18083 18084 18085 18086 18087 18088 18089 18090 18091 18092 18093 18094 18095 18096 18097 18098 18099 18100 18101 18102 18103 18104 18105 18106 18107 18108 18109 18110 18111 18112 18113 18114 18115 18116 18117 18118 18119 18120 18121 18122 18123 18124 18125 18126 18127 18128 18129 18130 18131 18132 18133 18134 18135 18136 18137 18138 18139 18140 18141 18142 18143 18144 18145 18146 18147 18148 18149 18150 18151 18152 18153 18154 18155 18156 18157 18158 18159 18160 18161 18162 18163 18164 18165 18166 18167 18168 18169 18170 18171 18172 18173 18174 18175 18176 18177 18178 18179 18180 18181 18182 18183 18184 18185 18186 18187 18188 18189 18190 18191 18192 18193 18194 18195 18196 18197 18198 18199 18200 18201 18202 18203 18204 18205 18206 18207 18208 18209 18210 18211 18212 18213 18214 18215 18216 18217 18218 18219 18220 18221 18222 18223 18224 18225 18226 18227 18228 18229 18230 18231 18232 18233 18234 18235 18236 18237 18238 18239 18240 18241 18242 18243 18244 18245 18246 18247 18248 18249 18250 18251 18252 18253 18254 18255 18256 18257 18258 18259 18260 18261 18262 18263 18264 18265 18266 18267 18268 18269 18270 18271 18272 18273 18274 18275 18276 18277 18278 18279 18280 18281 18282 18283 18284 18285 18286 18287 18288 18289 18290 18291 18292 18293 18294 18295 18296 18297 18298 18299 18300 18301 18302 18303 18304 18305 18306 18307 18308 18309 18310 18311 18312 18313 18314 18315 18316 18317 18318 18319 18320 18321 18322 18323 18324 18325 18326 18327 18328 18329 18330 18331 18332 18333 18334 18335 18336 18337 18338 18339 18340 18341 18342 18343 18344 18345 18346 18347 18348 18349 18350 18351 18352 18353 18354 18355 18356 18357 18358 18359 18360 18361 18362 18363 18364 18365 18366 18367 18368 18369 18370 18371 18372 18373 18374 18375 18376 18377 18378 18379 18380 18381 18382 18383 18384 18385 18386 18387 18388 18389 18390 18391 18392 18393 18394 18395 18396 18397 18398 18399 18400 18401 18402 18403 18404 18405 18406 18407 18408 18409 18410 18411 18412 18413 18414 18415 18416 18417 18418 18419 18420 18421 18422 18423 18424 18425 18426 18427 18428 18429 18430 18431 18432 18433 18434 18435 18436 18437 18438 18439 18440 18441 18442 18443 18444 18445 18446 18447 18448 18449 18450 18451 18452 18453 18454 18455 18456 18457 18458 18459 18460 18461 18462 18463 18464 18465 18466 18467 18468 18469 18470 18471 18472 18473 18474 18475 18476 18477 18478 18479 18480 18481 18482 18483 18484 18485 18486 18487 18488 18489 18490 18491 18492 18493 18494 18495 18496 18497 18498 18499 18500 18501 18502 18503 18504 18505 18506 18507 18508 18509 18510 18511 18512 18513 18514 18515 18516 18517 18518 18519 18520 18521 18522 18523 18524 18525 18526 18527 18528 18529 18530 18531 18532 18533 18534 18535 18536 18537 18538 18539 18540 18541 18542 18543 18544 18545 18546 18547 18548 18549 18550 18551 18552 18553 18554 18555 18556 18557 18558 18559 18560 18561 18562 18563 18564 18565 18566 18567 18568 18569 18570 18571 18572 18573 18574 18575 18576 18577 18578 18579 18580 18581 18582 18583 18584 18585 18586 18587 18588 18589 18590 18591 18592 18593 18594 18595 18596 18597 18598 18599 18600 18601 18602 18603 18604 18605 18606 18607 18608 18609 18610 18611 18612 18613 18614 18615 18616 18617 18618 18619 18620 18621 18622 18623 18624 18625 18626 18627 18628 18629 18630 18631 18632 18633 18634 18635 18636 18637 18638 18639 18640 18641 18642 18643 18644 18645 18646 18647 18648 18649 18650 18651 18652 18653 18654 18655 18656 18657 18658 18659 18660 18661 18662 18663 18664 18665 18666 18667 18668 18669 18670 18671 18672 18673 18674 18675 18676 18677 18678 18679 18680 18681 18682 18683 18684 18685 18686 18687 18688 18689 18690 18691 18692 18693 18694 18695 18696 18697 18698 18699 18700 18701 18702 18703 18704 18705 18706 18707 18708 18709 18710 18711 18712 18713 18714 18715 18716 18717 18718 18719 18720 18721 18722 18723 18724 18725 18726 18727 18728 18729 18730 18731 18732 18733 18734 18735 18736 18737 18738 18739 18740 18741 18742 18743 18744 18745 18746 18747 18748 18749 18750 18751 18752 18753 18754 18755 18756 18757 18758 18759 18760 18761 18762 18763 18764 18765 18766 18767 18768 18769 18770 18771 18772 18773 18774 18775 18776 18777 18778 18779 18780 18781 18782 18783 18784 18785 18786 18787 18788 18789 18790 18791 18792 18793 18794 18795 18796 18797 18798 18799 18800 18801 18802 18803 18804 18805 18806 18807 18808 18809 18810 18811 18812 18813 18814 18815 18816 18817 18818 18819 18820 18821 18822 18823 18824 18825 18826 18827 18828 18829 18830 18831 18832 18833 18834 18835 18836 18837 18838 18839 18840 18841 18842 18843 18844 18845 18846 18847 18848 18849 18850 18851 18852 18853 18854 18855 18856 18857 18858 18859 18860 18861 18862 18863 18864 18865 18866 18867 18868 18869 18870 18871 18872 18873 18874 18875 18876 18877 18878 18879 18880 18881 18882 18883 18884 18885 18886 18887 18888 18889 18890 18891 18892 18893 18894 18895 18896 18897 18898 18899 18900 18901 18902 18903 18904 18905 18906 18907 18908 18909 18910 18911 18912 18913 18914 18915 18916 18917 18918 18919 18920 18921 18922 18923 18924 18925 18926 18927 18928 18929 18930 18931 18932 18933 18934 18935 18936 18937 18938 18939 18940 18941 18942 18943 18944 18945 18946 18947 18948 18949 18950 18951 18952 18953 18954 18955 18956 18957 18958 18959 18960 18961 18962 18963 18964 18965 18966 18967 18968 18969 18970 18971 18972 18973 18974 18975 18976 18977 18978 18979 18980 18981 18982 18983 18984 18985 18986 18987 18988 18989 18990 18991 18992 18993 18994 18995 18996 18997 18998 18999 19000 19001 19002 19003 19004 19005 19006 19007 19008 19009 19010 19011 19012 19013 19014 19015 19016 19017 19018 19019 19020 19021 19022 19023 19024 19025 19026 19027 19028 19029 19030 19031 19032 19033 19034 19035 19036 19037 19038 19039 19040 19041 19042 19043 19044 19045 19046 19047 19048 19049 19050 19051 19052 19053 19054 19055 19056 19057 19058 19059 19060 19061 19062 19063 19064 19065 19066 19067 19068 19069 19070 19071 19072 19073 19074 19075 19076 19077 19078 19079 19080 19081 19082 19083 19084 19085 19086 19087 19088 19089 19090 19091 19092 19093 19094 19095 19096 19097 19098 19099 19100 19101 19102 19103 19104 19105 19106 19107 19108 19109 19110 19111 19112 19113 19114 19115 19116 19117 19118 19119 19120 19121 19122 19123 19124 19125 19126 19127 19128 19129 19130 19131 19132 19133 19134 19135 19136 19137 19138 19139 19140 19141 19142 19143 19144 19145 19146 19147 19148 19149 19150 19151 19152 19153 19154 19155 19156 19157 19158 19159 19160 19161 19162 19163 19164 19165 19166 19167 19168 19169 19170 19171 19172 19173 19174 19175 19176 19177 19178 19179 19180 19181 19182 19183 19184 19185 19186 19187 19188 19189 19190 19191 19192 19193 19194 19195 19196 19197 19198 19199 19200 19201 19202 19203 19204 19205 19206 19207 19208 19209 19210 19211 19212 19213 19214 19215 19216 19217 19218 19219 19220 19221 19222 19223 19224 19225 19226 19227 19228 19229 19230 19231 19232 19233 19234 19235 19236 19237 19238 19239 19240 19241 19242 19243 19244 19245 19246 19247 19248 19249 19250 19251 19252 19253 19254 19255 19256 19257 19258 19259 19260 19261 19262 19263 19264 19265 19266 19267 19268 19269 19270 19271 19272 19273 19274 19275 19276 19277 19278 19279 19280 19281 19282 19283 19284 19285 19286 19287 19288 19289 19290 19291 19292 19293 19294 19295 19296 19297 19298 19299 19300 19301 19302 19303 19304 19305 19306 19307 19308 19309 19310 19311 19312 19313 19314 19315 19316 19317 19318 19319 19320 19321 19322 19323 19324 19325 19326 19327 19328 19329 19330 19331 19332 19333 19334 19335 19336 19337 19338 19339 19340 19341 19342 19343 19344 19345 19346 19347 19348 19349 19350 19351 19352 19353 19354 19355 19356 19357 19358 19359 19360 19361 19362 19363 19364 19365 19366 19367 19368 19369 19370 19371 19372 19373 19374 19375 19376 19377 19378 19379 19380 19381 19382 19383 19384 19385 19386 19387 19388 19389 19390 19391 19392 19393 19394 19395 19396 19397 19398 19399 19400 19401 19402 19403 19404 19405 19406 19407 19408 19409 19410 19411 19412 19413 19414 19415 19416 19417 19418 19419 19420 19421 19422 19423 19424 19425 19426 19427 19428 19429 19430 19431 19432 19433 19434 19435 19436 19437 19438 19439 19440 19441 19442 19443 19444 19445 19446 19447 19448 19449 19450 19451 19452 19453 19454 19455 19456 19457 19458 19459 19460 19461 19462 19463 19464 19465 19466 19467 19468 19469 19470 19471 19472 19473 19474 19475 19476 19477 19478 19479 19480 19481 19482 19483 19484 19485 19486 19487 19488 19489 19490 19491 19492 19493 19494 19495 19496 19497 19498 19499 19500 19501 19502 19503 19504 19505 19506 19507 19508 19509 19510 19511 19512 19513 19514 19515 19516 19517 19518 19519 19520 19521 19522 19523 19524 19525 19526 19527 19528 19529 19530 19531 19532 19533 19534 19535 19536 19537 19538 19539 19540 19541 19542 19543 19544 19545 19546 19547 19548 19549 19550 19551 19552 19553 19554 19555 19556 19557 19558 19559 19560 19561 19562 19563 19564 19565 19566 19567 19568 19569 19570 19571 19572 19573 19574 19575 19576 19577 19578 19579 19580 19581 19582 19583 19584 19585 19586 19587 19588 19589 19590 19591 19592 19593 19594 19595 19596 19597 19598 19599 19600 19601 19602 19603 19604 19605 19606 19607 19608 19609 19610 19611 19612 19613 19614 19615 19616 19617 19618 19619 19620 19621 19622 19623 19624 19625 19626 19627 19628 19629 19630 19631 19632 19633 19634 19635 19636 19637 19638 19639 19640 19641 19642 19643 19644 19645 19646 19647 19648 19649 19650 19651 19652 19653 19654 19655 19656 19657 19658 19659 19660 19661 19662 19663 19664 19665 19666 19667 19668 19669 19670 19671 19672 19673 19674 19675 19676 19677 19678 19679 19680 19681 19682 19683 19684 19685 19686 19687 19688 19689 19690 19691 19692 19693 19694 19695 19696 19697 19698 19699 19700 19701 19702 19703 19704 19705 19706 19707 19708 19709 19710 19711 19712 19713 19714 19715 19716 19717 19718 19719 19720 19721 19722 19723 19724 19725 19726 19727 19728 19729 19730 19731 19732 19733 19734 19735 19736 19737 19738 19739 19740 19741 19742 19743 19744 19745 19746 19747 19748 19749 19750 19751 19752 19753 19754 19755 19756 19757 19758 19759 19760 19761 19762 19763 19764 19765 19766 19767 19768 19769 19770 19771 19772 19773 19774 19775 19776 19777 19778 19779 19780 19781 19782 19783 19784 19785 19786 19787 19788 19789 19790 19791 19792 19793 19794 19795 19796 19797 19798 19799 19800 19801 19802 19803 19804 19805 19806 19807 19808 19809 19810 19811 19812 19813 19814 19815 19816 19817 19818 19819 19820 19821 19822 19823 19824 19825 19826 19827 19828 19829 19830 19831 19832 19833 19834 19835 19836 19837 19838 19839 19840 19841 19842 19843 19844 19845 19846 19847 19848 19849 19850 19851 19852 19853 19854 19855 19856 19857 19858 19859 19860 19861 19862 19863 19864 19865 19866 19867 19868 19869 19870 19871 19872 19873 19874 19875 19876 19877 19878 19879 19880 19881 19882 19883 19884 19885 19886 19887 19888 19889 19890 19891 19892 19893 19894 19895 19896 19897 19898 19899 19900 19901 19902 19903 19904 19905 19906 19907 19908 19909 19910 19911 19912 19913 19914 19915 19916 19917 19918 19919 19920 19921 19922 19923 19924 19925 19926 19927 19928 19929 19930 19931 19932 19933 19934 19935 19936 19937 19938 19939 19940 19941 19942 19943 19944 19945 19946 19947 19948 19949 19950 19951 19952 19953 19954 19955 19956 19957 19958 19959 19960 19961 19962 19963 19964 19965 19966 19967 19968 19969 19970 19971 19972 19973 19974 19975 19976 19977 19978 19979 19980 19981 19982 19983 19984 19985 19986 19987 19988 19989 19990 19991 19992 19993 19994 19995 19996 19997 19998 19999 20000 20001 20002 20003 20004 20005 20006 20007 20008 20009 20010 20011 20012 20013 20014 20015 20016 20017 20018 20019 20020 20021 20022 20023 20024 20025 20026 20027 20028 20029 20030 20031 20032 20033 20034 20035 20036 20037 20038 20039 20040 20041 20042 20043 20044 20045 20046 20047 20048 20049 20050 20051 20052 20053 20054 20055 20056 20057 20058 20059 20060 20061 20062 20063 20064 20065 20066 20067 20068 20069 20070 20071 20072 20073 20074 20075 20076 20077 20078 20079 20080 20081 20082 20083 20084 20085 20086 20087 20088 20089 20090 20091 20092 20093 20094 20095 20096 20097 20098 20099 20100 20101 20102 20103 20104 20105 20106 20107 20108 20109 20110 20111 20112 20113 20114 20115 20116 20117 20118 20119 20120 20121 20122 20123 20124 20125 20126 20127 20128 20129 20130 20131 20132 20133 20134 20135 20136 20137 20138 20139 20140 20141 20142 20143 20144 20145 20146 20147 20148 20149 20150 20151 20152 20153 20154 20155 20156 20157 20158 20159 20160 20161 20162 20163 20164 20165 20166 20167 20168 20169 20170 20171 20172 20173 20174 20175 20176 20177 20178 20179 20180 20181 20182 20183 20184 20185 20186 20187 20188 20189 20190 20191 20192 20193 20194 20195 20196 20197 20198 20199 20200 20201 20202 20203 20204 20205 20206 20207 20208 20209 20210 20211 20212 20213 20214 20215 20216 20217 20218 20219 20220 20221 20222 20223 20224 20225 20226 20227 20228 20229 20230 20231 20232 20233 20234 20235 20236 20237 20238 20239 20240 20241 20242 20243 20244 20245 20246 20247 20248 20249 20250 20251 20252 20253 20254 20255 20256 20257 20258 20259 20260 20261 20262 20263 20264 20265 20266 20267 20268 20269 20270 20271 20272 20273 20274 20275 20276 20277 20278 20279 20280 20281 20282 20283 20284 20285 20286 20287 20288 20289 20290 20291 20292 20293 20294 20295 20296 20297 20298 20299 20300 20301 20302 20303 20304 20305 20306 20307 20308 20309 20310 20311 20312 20313 20314 20315 20316 20317 20318 20319 20320 20321 20322 20323 20324 20325 20326 20327 20328 20329 20330 20331 20332 20333 20334 20335 20336 20337 20338 20339 20340 20341 20342 20343 20344 20345 20346 20347 20348 20349 20350 20351 20352 20353 20354 20355 20356 20357 20358 20359 20360 20361 20362 20363 20364 20365 20366 20367 20368 20369 20370 20371 20372 20373 20374 20375 20376 20377 20378 20379 20380 20381 20382 20383 20384 20385 20386 20387 20388 20389 20390 20391 20392 20393 20394 20395 20396 20397 20398 20399 20400 20401 20402 20403 20404 20405 20406 20407 20408 20409 20410 20411 20412 20413 20414 20415 20416 20417 20418 20419 20420 20421 20422 20423 20424 20425 20426 20427 20428 20429 20430 20431 20432 20433 20434 20435 20436 20437 20438 20439 20440 20441 20442 20443 20444 20445 20446 20447 20448 20449 20450 20451 20452 20453 20454 20455 20456 20457 20458 20459 20460 20461 20462 20463 20464 20465 20466 20467 20468 20469 20470 20471 20472 20473 20474 20475 20476 20477 20478 20479 20480 20481 20482 20483 20484 20485 20486 20487 20488 20489 20490 20491 20492 20493 20494 20495 20496 20497 20498 20499 20500 20501 20502 20503 20504 20505 20506 20507 20508 20509 20510 20511 20512 20513 20514 20515 20516 20517 20518 20519 20520 20521 20522 20523 20524 20525 20526 20527 20528 20529 20530 20531 20532 20533 20534 20535 20536 20537 20538 20539 20540 20541 20542 20543 20544 20545 20546 20547 20548 20549 20550 20551 20552 20553 20554 20555 20556 20557 20558 20559 20560 20561 20562 20563 20564 20565 20566 20567 20568 20569 20570 20571 20572 20573 20574 20575 20576 20577 20578 20579 20580 20581 20582 20583 20584 20585 20586 20587 20588 20589 20590 20591 20592 20593 20594 20595 20596 20597 20598 20599 20600 20601 20602 20603 20604 20605 20606 20607 20608 20609 20610 20611 20612 20613 20614 20615 20616 20617 20618 20619 20620 20621 20622 20623 20624 20625 20626 20627 20628 20629 20630 20631 20632 20633 20634 20635 20636 20637 20638 20639 20640 20641 20642 20643 20644 20645 20646 20647 20648 20649 20650 20651 20652 20653 20654 20655 20656 20657 20658 20659 20660 20661 20662 20663 20664 20665 20666 20667 20668 20669 20670 20671 20672 20673 20674 20675 20676 20677 20678 20679 20680 20681 20682 20683 20684 20685 20686 20687 20688 20689 20690 20691 20692 20693 20694 20695 20696 20697 20698 20699 20700 20701 20702 20703 20704 20705 20706 20707 20708 20709 20710 20711 20712 20713 20714 20715 20716 20717 20718 20719 20720 20721 20722 20723 20724 20725 20726 20727 20728 20729 20730 20731 20732 20733 20734 20735 20736 20737 20738 20739 20740 20741 20742 20743 20744 20745 20746 20747 20748 20749 20750 20751 20752 20753 20754 20755 20756 20757 20758 20759 20760 20761 20762 20763 20764 20765 20766 20767 20768 20769 20770 20771 20772 20773 20774 20775 20776 20777 20778 20779 20780 20781 20782 20783 20784 20785 20786 20787 20788 20789 20790 20791 20792 20793 20794 20795 20796 20797 20798 20799 20800 20801 20802 20803 20804 20805 20806 20807 20808 20809 20810 20811 20812 20813 20814 20815 20816 20817 20818 20819 20820 20821 20822 20823 20824 20825 20826 20827 20828 20829 20830 20831 20832 20833 20834 20835 20836 20837 20838 20839 20840 20841 20842 20843 20844 20845 20846 20847 20848 20849 20850 20851 20852 20853 20854 20855 20856 20857 20858 20859 20860 20861 20862 20863 20864 20865 20866 20867 20868 20869 20870 20871 20872 20873 20874 20875 20876 20877 20878 20879 20880 20881 20882 20883 20884 20885 20886 20887 20888 20889 20890 20891 20892 20893 20894 20895 20896 20897 20898 20899 20900 20901 20902 20903 20904 20905 20906 20907 20908 20909 20910 20911 20912 20913 20914 20915 20916 20917 20918 20919 20920 20921 20922 20923 20924 20925 20926 20927 20928 20929 20930 20931 20932 20933 20934 20935 20936 20937 20938 20939 20940 20941 20942 20943 20944 20945 20946 20947 20948 20949 20950 20951 20952 20953 20954 20955 20956 20957 20958 20959 20960 20961 20962 20963 20964 20965 20966 20967 20968 20969 20970 20971 20972 20973 20974 20975 20976 20977 20978 20979 20980 20981 20982 20983 20984 20985 20986 20987 20988 20989 20990 20991 20992 20993 20994 20995 20996 20997 20998 20999 21000 21001 21002 21003 21004 21005 21006 21007 21008 21009 21010 21011 21012 21013 21014 21015 21016 21017 21018 21019 21020 21021 21022 21023 21024 21025 21026 21027 21028 21029 21030 21031 21032 21033 21034 21035 21036 21037 21038 21039 21040 21041 21042 21043 21044 21045 21046 21047 21048 21049 21050 21051 21052 21053 21054 21055 21056 21057 21058 21059 21060 21061 21062 21063 21064 21065 21066 21067 21068 21069 21070 21071 21072 21073 21074 21075 21076 21077 21078 21079 21080 21081 21082 21083 21084 21085 21086 21087 21088 21089 21090 21091 21092 21093 21094 21095 21096 21097 21098 21099 21100 21101 21102 21103 21104 21105 21106 21107 21108 21109 21110 21111 21112 21113 21114 21115 21116 21117 21118 21119 21120 21121 21122 21123 21124 21125 21126 21127 21128 21129 21130 21131 21132 21133 21134 21135 21136 21137 21138 21139 21140 21141 21142 21143 21144 21145 21146 21147 21148 21149 21150 21151 21152 21153 21154 21155 21156 21157 21158 21159 21160 21161 21162 21163 21164 21165 21166 21167 21168 21169 21170 21171 21172 21173 21174 21175 21176 21177 21178 21179 21180 21181 21182 21183 21184 21185 21186 21187 21188 21189 21190 21191 21192 21193 21194 21195 21196 21197 21198 21199 21200 21201 21202 21203 21204 21205 21206 21207 21208 21209 21210 21211 21212 21213 21214 21215 21216 21217 21218 21219 21220 21221 21222 21223 21224 21225 21226 21227 21228 21229 21230 21231 21232 21233 21234 21235 21236 21237 21238 21239 21240 21241 21242 21243 21244 21245 21246 21247 21248 21249 21250 21251 21252 21253 21254 21255 21256 21257 21258 21259 21260 21261 21262 21263 21264 21265 21266 21267 21268 21269 21270 21271 21272 21273 21274 21275 21276 21277 21278 21279 21280 21281 21282 21283 21284 21285 21286 21287 21288 21289 21290 21291 21292 21293 21294 21295 21296 21297 21298 21299 21300 21301 21302 21303 21304 21305 21306 21307 21308 21309 21310 21311 21312 21313 21314 21315 21316 21317 21318 21319 21320 21321 21322 21323 21324 21325 21326 21327 21328 21329 21330 21331 21332 21333 21334 21335 21336 21337 21338 21339 21340 21341 21342 21343 21344 21345 21346 21347 21348 21349 21350 21351 21352 21353 21354 21355 21356 21357 21358 21359 21360 21361 21362 21363 21364 21365 21366 21367 21368 21369 21370 21371 21372 21373 21374 21375 21376 21377 21378 21379 21380 21381 21382 21383 21384 21385 21386 21387 21388 21389 21390 21391 21392 21393 21394 21395 21396 21397 21398 21399 21400 21401 21402 21403 21404 21405 21406 21407 21408 21409 21410 21411 21412 21413 21414 21415 21416 21417 21418 21419 21420 21421 21422 21423 21424 21425 21426 21427 21428 21429 21430 21431 21432 21433 21434 21435 21436 21437 21438 21439 21440 21441 21442 21443 21444 21445 21446 21447 21448 21449 21450 21451 21452 21453 21454 21455 21456 21457 21458 21459 21460 21461 21462 21463 21464 21465 21466 21467 21468 21469 21470 21471 21472 21473 21474 21475 21476 21477 21478 21479 21480 21481 21482 21483 21484 21485 21486 21487 21488 21489 21490 21491 21492 21493 21494 21495 21496 21497 21498 21499 21500 21501 21502 21503 21504 21505 21506 21507 21508 21509 21510 21511 21512 21513 21514 21515 21516 21517 21518 21519 21520 21521 21522 21523 21524 21525 21526 21527 21528 21529 21530 21531 21532 21533 21534 21535 21536 21537 21538 21539 21540 21541 21542 21543 21544 21545 21546 21547 21548 21549 21550 21551 21552 21553 21554 21555 21556 21557 21558 21559 21560 21561 21562 21563 21564 21565 21566 21567 21568 21569 21570 21571 21572 21573 21574 21575 21576 21577 21578 21579 21580 21581 21582 21583 21584 21585 21586 21587 21588 21589 21590 21591 21592 21593 21594 21595 21596 21597 21598 21599 21600 21601 21602 21603 21604 21605 21606 21607 21608 21609 21610 21611 21612 21613 21614 21615 21616 21617 21618 21619 21620 21621 21622 21623 21624 21625 21626 21627 21628 21629 21630 21631 21632 21633 21634 21635 21636 21637 21638 21639 21640 21641 21642 21643 21644 21645 21646 21647 21648 21649 21650 21651 21652 21653 21654 21655 21656 21657 21658 21659 21660 21661 21662 21663 21664 21665 21666 21667 21668 21669 21670 21671 21672 21673 21674 21675 21676 21677 21678 21679 21680 21681 21682 21683 21684 21685 21686 21687 21688 21689 21690 21691 21692 21693 21694 21695 21696 21697 21698 21699 21700 21701 21702 21703 21704 21705 21706 21707 21708 21709 21710 21711 21712 21713 21714 21715 21716 21717 21718 21719 21720 21721 21722 21723 21724 21725 21726 21727 21728 21729 21730 21731 21732 21733 21734 21735 21736 21737 21738 21739 21740 21741 21742 21743 21744 21745 21746 21747 21748 21749 21750 21751 21752 21753 21754 21755 21756 21757 21758 21759 21760 21761 21762 21763 21764 21765 21766 21767 21768 21769 21770 21771 21772 21773 21774 21775 21776 21777 21778 21779 21780 21781 21782 21783 21784 21785 21786 21787 21788 21789 21790 21791 21792 21793 21794 21795 21796 21797 21798 21799 21800 21801 21802 21803 21804 21805 21806 21807 21808 21809 21810 21811 21812 21813 21814 21815 21816 21817 21818 21819 21820 21821 21822 21823 21824 21825 21826 21827 21828 21829 21830 21831 21832 21833 21834 21835 21836 21837 21838 21839 21840 21841 21842 21843 21844 21845 21846 21847 21848 21849 21850 21851 21852 21853 21854 21855 21856 21857 21858 21859 21860 21861 21862 21863 21864 21865 21866 21867 21868 21869 21870 21871 21872 21873 21874 21875 21876 21877 21878 21879 21880 21881 21882 21883 21884 21885 21886 21887 21888 21889 21890 21891 21892 21893 21894 21895 21896 21897 21898 21899 21900 21901 21902 21903 21904 21905 21906 21907 21908 21909 21910 21911 21912 21913 21914 21915 21916 21917 21918 21919 21920 21921 21922 21923 21924 21925 21926 21927 21928 21929 21930 21931 21932 21933 21934 21935 21936 21937 21938 21939 21940 21941 21942 21943 21944 21945 21946 21947 21948 21949 21950 21951 21952 21953 21954 21955 21956 21957 21958 21959 21960 21961 21962 21963 21964 21965 21966 21967 21968 21969 21970 21971 21972 21973 21974 21975 21976 21977 21978 21979 21980 21981 21982 21983 21984 21985 21986 21987 21988 21989 21990 21991 21992 21993 21994 21995 21996 21997 21998 21999 22000 22001 22002 22003 22004 22005 22006 22007 22008 22009 22010 22011 22012 22013 22014 22015 22016 22017 22018 22019 22020 22021 22022 22023 22024 22025 22026 22027 22028 22029 22030 22031 22032 22033 22034 22035 22036 22037 22038 22039 22040 22041 22042 22043 22044 22045 22046 22047 22048 22049 22050 22051 22052 22053 22054 22055 22056 22057 22058 22059 22060 22061 22062 22063 22064 22065 22066 22067 22068 22069 22070 22071 22072 22073 22074 22075 22076 22077 22078 22079 22080 22081 22082 22083 22084 22085 22086 22087 22088 22089 22090 22091 22092 22093 22094 22095 22096 22097 22098 22099 22100 22101 22102 22103 22104 22105 22106 22107 22108 22109 22110 22111 22112 22113 22114 22115 22116 22117 22118 22119 22120 22121 22122 22123 22124 22125 22126 22127 22128 22129 22130 22131 22132 22133 22134 22135 22136 22137 22138 22139 22140 22141 22142 22143 22144 22145 22146 22147 22148 22149 22150 22151 22152 22153 22154 22155 22156 22157 22158 22159 22160 22161 22162 22163 22164 22165 22166 22167 22168 22169 22170 22171 22172 22173 22174 22175 22176 22177 22178 22179 22180 22181 22182 22183 22184 22185 22186 22187 22188 22189 22190 22191 22192 22193 22194 22195 22196 22197 22198 22199 22200 22201 22202 22203 22204 22205 22206 22207 22208 22209 22210 22211 22212 22213 22214 22215 22216 22217 22218 22219 22220 22221 22222 22223 22224 22225 22226 22227 22228 22229 22230 22231 22232 22233 22234 22235 22236 22237 22238 22239 22240 22241 22242 22243 22244 22245 22246 22247 22248 22249 22250 22251 22252 22253 22254 22255 22256 22257 22258 22259 22260 22261 22262 22263 22264 22265 22266 22267 22268 22269 22270 22271 22272 22273 22274 22275 22276 22277 22278 22279 22280 22281 22282 22283 22284 22285 22286 22287 22288 22289 22290 22291 22292 22293 22294 22295 22296 22297 22298 22299 22300 22301 22302 22303 22304 22305 22306 22307 22308 22309 22310 22311 22312 22313 22314 22315 22316 22317 22318 22319 22320 22321 22322 22323 22324 22325 22326 22327 22328 22329 22330 22331 22332 22333 22334 22335 22336 22337 22338 22339 22340 22341 22342 22343 22344 22345 22346 22347 22348 22349 22350 22351 22352 22353 22354 22355 22356 22357 22358 22359 22360 22361 22362 22363 22364 22365 22366 22367 22368 22369 22370 22371 22372 22373 22374 22375 22376 22377 22378 22379 22380 22381 22382 22383 22384 22385 22386 22387 22388 22389 22390 22391 22392 22393 22394 22395 22396 22397 22398 22399 22400 22401 22402 22403 22404 22405 22406 22407 22408 22409 22410 22411 22412 22413 22414 22415 22416 22417 22418 22419 22420 22421 22422 22423 22424 22425 22426 22427 22428 22429 22430 22431 22432 22433 22434 22435 22436 22437 22438 22439 22440 22441 22442 22443 22444 22445 22446 22447 22448 22449 22450 22451 22452 22453 22454 22455 22456 22457 22458 22459 22460 22461 22462 22463 22464 22465 22466 22467 22468 22469 22470 22471 22472 22473 22474 22475 22476 22477 22478 22479 22480 22481 22482 22483 22484 22485 22486 22487 22488 22489 22490 22491 22492 22493 22494 22495 22496 22497 22498 22499 22500 22501 22502 22503 22504 22505 22506 22507 22508 22509 22510 22511 22512 22513 22514 22515 22516 22517 22518 22519 22520 22521 22522 22523 22524 22525 22526 22527 22528 22529 22530 22531 22532 22533 22534 22535 22536 22537 22538 22539 22540 22541 22542 22543 22544 22545 22546 22547 22548 22549 22550 22551 22552 22553 22554 22555 22556 22557 22558 22559 22560 22561 22562 22563 22564 22565 22566 22567 22568 22569 22570 22571 22572 22573 22574 22575 22576 22577 22578 22579 22580 22581 22582 22583 22584 22585 22586 22587 22588 22589 22590 22591 22592 22593 22594 22595 22596 22597 22598 22599 22600 22601 22602 22603 22604 22605 22606 22607 22608 22609 22610 22611 22612 22613 22614 22615 22616 22617 22618 22619 22620 22621 22622 22623 22624 22625 22626 22627 22628 22629 22630 22631 22632 22633 22634 22635 22636 22637 22638 22639 22640 22641 22642 22643 22644 22645 22646 22647 22648 22649 22650 22651 22652 22653 22654 22655 22656 22657 22658 22659 22660 22661 22662 22663 22664 22665 22666 22667 22668 22669 22670 22671 22672 22673 22674 22675 22676 22677 22678 22679 22680 22681 22682 22683 22684 22685 22686 22687 22688 22689 22690 22691 22692 22693 22694 22695 22696 22697 22698 22699 22700 22701 22702 22703 22704 22705 22706 22707 22708 22709 22710 22711 22712 22713 22714 22715 22716 22717 22718 22719 22720 22721 22722 22723 22724 22725 22726 22727 22728 22729 22730 22731 22732 22733 22734 22735 22736 22737 22738 22739 22740 22741 22742 22743 22744 22745 22746 22747 22748 22749 22750 22751 22752 22753 22754 22755 22756 22757 22758 22759 22760 22761 22762 22763 22764 22765 22766 22767 22768 22769 22770 22771 22772 22773 22774 22775 22776 22777 22778 22779 22780 22781 22782 22783 22784 22785 22786 22787 22788 22789 22790 22791 22792 22793 22794 22795 22796 22797 22798 22799 22800 22801 22802 22803 22804 22805 22806 22807 22808 22809 22810 22811 22812 22813 22814 22815 22816 22817 22818 22819 22820 22821 22822 22823 22824 22825 22826 22827 22828 22829 22830 22831 22832 22833 22834 22835 22836 22837 22838 22839 22840 22841 22842 22843 22844 22845 22846 22847 22848 22849 22850 22851 22852 22853 22854 22855 22856 22857 22858 22859 22860 22861 22862 22863 22864 22865 22866 22867 22868 22869 22870 22871 22872 22873 22874 22875 22876 22877 22878 22879 22880 22881 22882 22883 22884 22885 22886 22887 22888 22889 22890 22891 22892 22893 22894 22895 22896 22897 22898 22899 22900 22901 22902 22903 22904 22905 22906 22907 22908 22909 22910 22911 22912 22913 22914 22915 22916 22917 22918 22919 22920 22921 22922 22923 22924 22925 22926 22927 22928 22929 22930 22931 22932 22933 22934 22935 22936 22937 22938 22939 22940 22941 22942 22943 22944 22945 22946 22947 22948 22949 22950 22951 22952 22953 22954 22955 22956 22957 22958 22959 22960 22961 22962 22963 22964 22965 22966 22967 22968 22969 22970 22971 22972 22973 22974 22975 22976 22977 22978 22979 22980 22981 22982 22983 22984 22985 22986 22987 22988 22989 22990 22991 22992 22993 22994 22995 22996 22997 22998 22999 23000 23001 23002 23003 23004 23005 23006 23007 23008 23009 23010 23011 23012 23013 23014 23015 23016 23017 23018 23019 23020 23021 23022 23023 23024 23025 23026 23027 23028 23029 23030 23031 23032 23033 23034 23035 23036 23037 23038 23039 23040 23041 23042 23043 23044 23045 23046 23047 23048 23049 23050 23051 23052 23053 23054 23055 23056 23057 23058 23059 23060 23061 23062 23063 23064 23065 23066 23067 23068 23069 23070 23071 23072 23073 23074 23075 23076 23077 23078 23079 23080 23081 23082 23083 23084 23085 23086 23087 23088 23089 23090 23091 23092 23093 23094 23095 23096 23097 23098 23099 23100 23101 23102 23103 23104 23105 23106 23107 23108 23109 23110 23111 23112 23113 23114 23115 23116 23117 23118 23119 23120 23121 23122 23123 23124 23125 23126 23127 23128 23129 23130 23131 23132 23133 23134 23135 23136 23137 23138 23139 23140 23141 23142 23143 23144 23145 23146 23147 23148 23149 23150 23151 23152 23153 23154 23155 23156 23157 23158 23159 23160 23161 23162 23163 23164 23165 23166 23167 23168 23169 23170 23171 23172 23173 23174 23175 23176 23177 23178 23179 23180 23181 23182 23183 23184 23185 23186 23187 23188 23189 23190 23191 23192 23193 23194 23195 23196 23197 23198 23199 23200 23201 23202 23203 23204 23205 23206 23207 23208 23209 23210 23211 23212 23213 23214 23215 23216 23217 23218 23219 23220 23221 23222 23223 23224 23225 23226 23227 23228 23229 23230 23231 23232 23233 23234 23235 23236 23237 23238 23239 23240 23241 23242 23243 23244 23245 23246 23247 23248 23249 23250 23251 23252 23253 23254 23255 23256 23257 23258 23259 23260 23261 23262 23263 23264 23265 23266 23267 23268 23269 23270 23271 23272 23273 23274 23275 23276 23277 23278 23279 23280 23281 23282 23283 23284 23285 23286 23287 23288 23289 23290 23291 23292 23293 23294 23295 23296 23297 23298 23299 23300 23301 23302 23303 23304 23305 23306 23307 23308 23309 23310 23311 23312 23313 23314 23315 23316 23317 23318 23319 23320 23321 23322 23323 23324 23325 23326 23327 23328 23329 23330 23331 23332 23333 23334 23335 23336 23337 23338 23339 23340 23341 23342 23343 23344 23345 23346 23347 23348 23349 23350 23351 23352 23353 23354 23355 23356 23357 23358 23359 23360 23361 23362 23363 23364 23365 23366 23367 23368 23369 23370 23371 23372 23373 23374 23375 23376 23377 23378 23379 23380 23381 23382 23383 23384 23385 23386 23387 23388 23389 23390 23391 23392 23393 23394 23395 23396 23397 23398 23399 23400 23401 23402 23403 23404 23405 23406 23407 23408 23409 23410 23411 23412 23413 23414 23415 23416 23417 23418 23419 23420 23421 23422 23423 23424 23425 23426 23427 23428 23429 23430 23431 23432 23433 23434 23435 23436 23437 23438 23439 23440 23441 23442 23443 23444 23445 23446 23447 23448 23449 23450 23451 23452 23453 23454 23455 23456 23457 23458 23459 23460 23461 23462 23463 23464 23465 23466 23467 23468 23469 23470 23471 23472 23473 23474 23475 23476 23477 23478 23479 23480 23481 23482 23483 23484 23485 23486 23487 23488 23489 23490 23491 23492 23493 23494 23495 23496 23497 23498 23499 23500 23501 23502 23503 23504 23505 23506 23507 23508 23509 23510 23511 23512 23513 23514 23515 23516 23517 23518 23519 23520 23521 23522 23523 23524 23525 23526 23527 23528 23529 23530 23531 23532 23533 23534 23535 23536 23537 23538 23539 23540 23541 23542 23543 23544 23545 23546 23547 23548 23549 23550 23551 23552 23553 23554 23555 23556 23557 23558 23559 23560 23561 23562 23563 23564 23565 23566 23567 23568 23569 23570 23571 23572 23573 23574 23575 23576 23577 23578 23579 23580 23581 23582 23583 23584 23585 23586 23587 23588 23589 23590 23591 23592 23593 23594 23595 23596 23597 23598 23599 23600 23601 23602 23603 23604 23605 23606 23607 23608 23609 23610 23611 23612 23613 23614 23615 23616 23617 23618 23619 23620 23621 23622 23623 23624 23625 23626 23627 23628 23629 23630 23631 23632 23633 23634 23635 23636 23637 23638 23639 23640 23641 23642 23643 23644 23645 23646 23647 23648 23649 23650 23651 23652 23653 23654 23655 23656 23657 23658 23659 23660 23661 23662 23663 23664 23665 23666 23667 23668 23669 23670 23671 23672 23673 23674 23675 23676 23677 23678 23679 23680 23681 23682 23683 23684 23685 23686 23687 23688 23689 23690 23691 23692 23693 23694 23695 23696 23697 23698 23699 23700 23701 23702 23703 23704 23705 23706 23707 23708 23709 23710 23711 23712 23713 23714 23715 23716 23717 23718 23719 23720 23721 23722 23723 23724 23725 23726 23727 23728 23729 23730 23731 23732 23733 23734 23735 23736 23737 23738 23739 23740 23741 23742 23743 23744 23745 23746 23747 23748 23749 23750 23751 23752 23753 23754 23755 23756 23757 23758 23759 23760 23761 23762 23763 23764 23765 23766 23767 23768 23769 23770 23771 23772 23773 23774 23775 23776 23777 23778 23779 23780 23781 23782 23783 23784 23785 23786 23787 23788 23789 23790 23791 23792 23793 23794 23795 23796 23797 23798 23799 23800 23801 23802 23803 23804 23805 23806 23807 23808 23809 23810 23811 23812 23813 23814 23815 23816 23817 23818 23819 23820 23821 23822 23823 23824 23825 23826 23827 23828 23829 23830 23831 23832 23833 23834 23835 23836 23837 23838 23839 23840 23841 23842 23843 23844 23845 23846 23847 23848 23849 23850 23851 23852 23853 23854 23855 23856 23857 23858 23859 23860 23861 23862 23863 23864 23865 23866 23867 23868 23869 23870 23871 23872 23873 23874 23875 23876 23877 23878 23879 23880 23881 23882 23883 23884 23885 23886 23887 23888 23889 23890 23891 23892 23893 23894 23895 23896 23897 23898 23899 23900 23901 23902 23903 23904 23905 23906 23907 23908 23909 23910 23911 23912 23913 23914 23915 23916 23917 23918 23919 23920 23921 23922 23923 23924 23925 23926 23927 23928 23929 23930 23931 23932 23933 23934 23935 23936 23937 23938 23939 23940 23941 23942 23943 23944 23945 23946 23947 23948 23949 23950 23951 23952 23953 23954 23955 23956 23957 23958 23959 23960 23961 23962 23963 23964 23965 23966 23967 23968 23969 23970 23971 23972 23973 23974 23975 23976 23977 23978 23979 23980 23981 23982 23983 23984 23985 23986 23987 23988 23989 23990 23991 23992 23993 23994 23995 23996 23997 23998 23999 24000 24001 24002 24003 24004 24005 24006 24007 24008 24009 24010 24011 24012 24013 24014 24015 24016 24017 24018 24019 24020 24021 24022 24023 24024 24025 24026 24027 24028 24029 24030 24031 24032 24033 24034 24035 24036 24037 24038 24039 24040 24041 24042 24043 24044 24045 24046 24047 24048 24049 24050 24051 24052 24053 24054 24055 24056 24057 24058 24059 24060 24061 24062 24063 24064 24065 24066 24067 24068 24069 24070 24071 24072 24073 24074 24075 24076 24077 24078 24079 24080 24081 24082 24083 24084 24085 24086 24087 24088 24089 24090 24091 24092 24093 24094 24095 24096 24097 24098 24099 24100 24101 24102 24103 24104 24105 24106 24107 24108 24109 24110 24111 24112 24113 24114 24115 24116 24117 24118 24119 24120 24121 24122 24123 24124 24125 24126 24127 24128 24129 24130 24131 24132 24133 24134 24135 24136 24137 24138 24139 24140 24141 24142 24143 24144 24145 24146 24147 24148 24149 24150 24151 24152 24153 24154 24155 24156 24157 24158 24159 24160 24161 24162 24163 24164 24165 24166 24167 24168 24169 24170 24171 24172 24173 24174 24175 24176 24177 24178 24179 24180 24181 24182 24183 24184 24185 24186 24187 24188 24189 24190 24191 24192 24193 24194 24195 24196 24197 24198 24199 24200 24201 24202 24203 24204 24205 24206 24207 24208 24209 24210 24211 24212 24213 24214 24215 24216 24217 24218 24219 24220 24221 24222 24223 24224 24225 24226 24227 24228 24229 24230 24231 24232 24233 24234 24235 24236 24237 24238 24239 24240 24241 24242 24243 24244 24245 24246 24247 24248 24249 24250 24251 24252 24253 24254 24255 24256 24257 24258 24259 24260 24261 24262 24263 24264 24265 24266 24267 24268 24269 24270 24271 24272 24273 24274 24275 24276 24277 24278 24279 24280 24281 24282 24283 24284 24285 24286 24287 24288 24289 24290 24291 24292 24293 24294 24295 24296 24297 24298 24299 24300 24301 24302 24303 24304 24305 24306 24307 24308 24309 24310 24311 24312 24313 24314 24315 24316 24317 24318 24319 24320 24321 24322 24323 24324 24325 24326 24327 24328 24329 24330 24331 24332 24333 24334 24335 24336 24337 24338 24339 24340 24341 24342 24343 24344 24345 24346 24347 24348 24349 24350 24351 24352 24353 24354 24355 24356 24357 24358 24359 24360 24361 24362 24363 24364 24365 24366 24367 24368 24369 24370 24371 24372 24373 24374 24375 24376 24377 24378 24379 24380 24381 24382 24383 24384 24385 24386 24387 24388 24389 24390 24391 24392 24393 24394 24395 24396 24397 24398 24399 24400 24401 24402 24403 24404 24405 24406 24407 24408 24409 24410 24411 24412 24413 24414 24415 24416 24417 24418 24419 24420 24421 24422 24423 24424 24425 24426 24427 24428 24429 24430 24431 24432 24433 24434 24435 24436 24437 24438 24439 24440 24441 24442 24443 24444 24445 24446 24447 24448 24449 24450 24451 24452 24453 24454 24455 24456 24457 24458 24459 24460 24461 24462 24463 24464 24465 24466 24467 24468 24469 24470 24471 24472 24473 24474 24475 24476 24477 24478 24479 24480 24481 24482 24483 24484 24485 24486 24487 24488 24489 24490 24491 24492 24493 24494 24495 24496 24497 24498 24499 24500 24501 24502 24503 24504 24505 24506 24507 24508 24509 24510 24511 24512 24513 24514 24515 24516 24517 24518 24519 24520 24521 24522 24523 24524 24525 24526 24527 24528 24529 24530 24531 24532 24533 24534 24535 24536 24537 24538 24539 24540 24541 24542 24543 24544 24545 24546 24547 24548 24549 24550 24551 24552 24553 24554 24555 24556 24557 24558 24559 24560 24561 24562 24563 24564 24565 24566 24567 24568 24569 24570 24571 24572 24573 24574 24575 24576 24577 24578 24579 24580 24581 24582 24583 24584 24585 24586 24587 24588 24589 24590 24591 24592 24593 24594 24595 24596 24597 24598 24599 24600 24601 24602 24603 24604 24605 24606 24607 24608 24609 24610 24611 24612 24613 24614 24615 24616 24617 24618 24619 24620 24621 24622 24623 24624 24625 24626 24627 24628 24629 24630 24631 24632 24633 24634 24635 24636 24637 24638 24639 24640 24641 24642 24643 24644 24645 24646 24647 24648 24649 24650 24651 24652 24653 24654 24655 24656 24657 24658 24659 24660 24661 24662 24663 24664 24665 24666 24667 24668 24669 24670 24671 24672 24673 24674 24675 24676 24677 24678 24679 24680 24681 24682 24683 24684 24685 24686 24687 24688 24689 24690 24691 24692 24693 24694 24695 24696 24697 24698 24699 24700 24701 24702 24703 24704 24705 24706 24707 24708 24709 24710 24711 24712 24713 24714 24715 24716 24717 24718 24719 24720 24721 24722 24723 24724 24725 24726 24727 24728 24729 24730 24731 24732 24733 24734 24735 24736 24737 24738 24739 24740 24741 24742 24743 24744 24745 24746 24747 24748 24749 24750 24751 24752 24753 24754 24755 24756 24757 24758 24759 24760 24761 24762 24763 24764 24765 24766 24767 24768 24769 24770 24771 24772 24773 24774 24775 24776 24777 24778 24779 24780 24781 24782 24783 24784 24785 24786 24787 24788 24789 24790 24791 24792 24793 24794 24795 24796 24797 24798 24799 24800 24801 24802 24803 24804 24805 24806 24807 24808 24809 24810 24811 24812 24813 24814 24815 24816 24817 24818 24819 24820 24821 24822 24823 24824 24825 24826 24827 24828 24829 24830 24831 24832 24833 24834 24835 24836 24837 24838 24839 24840 24841 24842 24843 24844 24845 24846 24847 24848 24849 24850 24851 24852 24853 24854 24855 24856 24857 24858 24859 24860 24861 24862 24863 24864 24865 24866 24867 24868 24869 24870 24871 24872 24873 24874 24875 24876 24877 24878 24879 24880 24881 24882 24883 24884 24885 24886 24887 24888 24889 24890 24891 24892 24893 24894 24895 24896 24897 24898 24899 24900 24901 24902 24903 24904 24905 24906 24907 24908 24909 24910 24911 24912 24913 24914 24915 24916 24917 24918 24919 24920 24921 24922 24923 24924 24925 24926 24927 24928 24929 24930 24931 24932 24933 24934 24935 24936 24937 24938 24939 24940 24941 24942 24943 24944 24945 24946 24947 24948 24949 24950 24951 24952 24953 24954 24955 24956 24957 24958 24959 24960 24961 24962 24963 24964 24965 24966 24967 24968 24969 24970 24971 24972 24973 24974 24975 24976 24977 24978 24979 24980 24981 24982 24983 24984 24985 24986 24987 24988 24989 24990 24991 24992 24993 24994 24995 24996 24997 24998 24999 25000 25001 25002 25003 25004 25005 25006 25007 25008 25009 25010 25011 25012 25013 25014 25015 25016 25017 25018 25019 25020 25021 25022 25023 25024 25025 25026 25027 25028 25029 25030 25031 25032 25033 25034 25035 25036 25037 25038 25039 25040 25041 25042 25043 25044 25045 25046 25047 25048 25049 25050 25051 25052 25053 25054 25055 25056 25057 25058 25059 25060 25061 25062 25063 25064 25065 25066 25067 25068 25069 25070 25071 25072 25073 25074 25075 25076 25077 25078 25079 25080 25081 25082 25083 25084 25085 25086 25087 25088 25089 25090 25091 25092 25093 25094 25095 25096 25097 25098 25099 25100 25101 25102 25103 25104 25105 25106 25107 25108 25109 25110 25111 25112 25113 25114 25115 25116 25117 25118 25119 25120 25121 25122 25123 25124 25125 25126 25127 25128 25129 25130 25131 25132 25133 25134 25135 25136 25137 25138 25139 25140 25141 25142 25143 25144 25145 25146 25147 25148 25149 25150 25151 25152 25153 25154 25155 25156 25157 25158 25159 25160 25161 25162 25163 25164 25165 25166 25167 25168 25169 25170 25171 25172 25173 25174 25175 25176 25177 25178 25179 25180 25181 25182 25183 25184 25185 25186 25187 25188 25189 25190 25191 25192 25193 25194 25195 25196 25197 25198 25199 25200 25201 25202 25203 25204 25205 25206 25207 25208 25209 25210 25211 25212 25213 25214 25215 25216 25217 25218 25219 25220 25221 25222 25223 25224 25225 25226 25227 25228 25229 25230 25231 25232 25233 25234 25235 25236 25237 25238 25239 25240 25241 25242 25243 25244 25245 25246 25247 25248 25249 25250 25251 25252 25253 25254 25255 25256 25257 25258 25259 25260 25261 25262 25263 25264 25265 25266 25267 25268 25269 25270 25271 25272 25273 25274 25275 25276 25277 25278 25279 25280 25281 25282 25283 25284 25285 25286 25287 25288 25289 25290 25291 25292 25293 25294 25295 25296 25297 25298 25299 25300 25301 25302 25303 25304 25305 25306 25307 25308 25309 25310 25311 25312 25313 25314 25315 25316 25317 25318 25319 25320 25321 25322 25323 25324 25325 25326 25327 25328 25329 25330 25331 25332 25333 25334 25335 25336 25337 25338 25339 25340 25341 25342 25343 25344 25345 25346 25347 25348 25349 25350 25351 25352 25353 25354 25355 25356 25357 25358 25359 25360 25361 25362 25363 25364 25365 25366 25367 25368 25369 25370 25371 25372 25373 25374 25375 25376 25377 25378 25379 25380 25381 25382 25383 25384 25385 25386 25387 25388 25389 25390 25391 25392 25393 25394 25395 25396 25397 25398 25399 25400 25401 25402 25403 25404 25405 25406 25407 25408 25409 25410 25411 25412 25413 25414 25415 25416 25417 25418 25419 25420 25421 25422 25423 25424 25425 25426 25427 25428 25429 25430 25431 25432 25433 25434 25435 25436 25437 25438 25439 25440 25441 25442 25443 25444 25445 25446 25447 25448 25449 25450 25451 25452 25453 25454 25455 25456 25457 25458 25459 25460 25461 25462 25463 25464 25465 25466 25467 25468 25469 25470 25471 25472 25473 25474 25475 25476 25477 25478 25479 25480 25481 25482 25483 25484 25485 25486 25487 25488 25489 25490 25491 25492 25493 25494 25495 25496 25497 25498 25499 25500 25501 25502 25503 25504 25505 25506 25507 25508 25509 25510 25511 25512 25513 25514 25515 25516 25517 25518 25519 25520 25521 25522 25523 25524 25525 25526 25527 25528 25529 25530 25531 25532 25533 25534 25535 25536 25537 25538 25539 25540 25541 25542 25543 25544 25545 25546 25547 25548 25549 25550 25551 25552 25553 25554 25555 25556 25557 25558 25559 25560 25561 25562 25563 25564 25565 25566 25567 25568 25569 25570 25571 25572 25573 25574 25575 25576 25577 25578 25579 25580 25581 25582 25583 25584 25585 25586 25587 25588 25589 25590 25591 25592 25593 25594 25595 25596 25597 25598 25599 25600 25601 25602 25603 25604 25605 25606 25607 25608 25609 25610 25611 25612 25613 25614 25615 25616 25617 25618 25619 25620 25621 25622 25623 25624 25625 25626 25627 25628 25629 25630 25631 25632 25633 25634 25635 25636 25637 25638 25639 25640 25641 25642 25643 25644 25645 25646 25647 25648 25649 25650 25651 25652 25653 25654 25655 25656 25657 25658 25659 25660 25661 25662 25663 25664 25665 25666 25667 25668 25669 25670 25671 25672 25673 25674 25675 25676 25677 25678 25679 25680 25681 25682 25683 25684 25685 25686 25687 25688 25689 25690 25691 25692 25693 25694 25695 25696 25697 25698 25699 25700 25701 25702 25703 25704 25705 25706 25707 25708 25709 25710 25711 25712 25713 25714 25715 25716 25717 25718 25719 25720 25721 25722 25723 25724 25725 25726 25727 25728 25729 25730 25731 25732 25733 25734 25735 25736 25737 25738 25739 25740 25741 25742 25743 25744 25745 25746 25747 25748 25749 25750 25751 25752 25753 25754 25755 25756 25757 25758 25759 25760 25761 25762 25763 25764 25765 25766 25767 25768 25769 25770 25771 25772 25773 25774 25775 25776 25777 25778 25779 25780 25781 25782 25783 25784 25785 25786 25787 25788 25789 25790 25791 25792 25793 25794 25795 25796 25797 25798 25799 25800 25801 25802 25803 25804 25805 25806 25807 25808 25809 25810 25811 25812 25813 25814 25815 25816 25817 25818 25819 25820 25821 25822 25823 25824 25825 25826 25827 25828 25829 25830 25831 25832 25833 25834 25835 25836 25837 25838 25839 25840 25841 25842 25843 25844 25845 25846 25847 25848 25849 25850 25851 25852 25853 25854 25855 25856 25857 25858 25859 25860 25861 25862 25863 25864 25865 25866 25867 25868 25869 25870 25871 25872 25873 25874 25875 25876 25877 25878 25879 25880 25881 25882 25883 25884 25885 25886 25887 25888 25889 25890 25891 25892 25893 25894 25895 25896 25897 25898 25899 25900 25901 25902 25903 25904 25905 25906 25907 25908 25909 25910 25911 25912 25913 25914 25915 25916 25917 25918 25919 25920 25921 25922 25923 25924 25925 25926 25927 25928 25929 25930 25931 25932 25933 25934 25935 25936 25937 25938 25939 25940 25941 25942 25943 25944 25945 25946 25947 25948 25949 25950 25951 25952 25953 25954 25955 25956 25957 25958 25959 25960 25961 25962 25963 25964 25965 25966 25967 25968 25969 25970 25971 25972 25973 25974 25975 25976 25977 25978 25979 25980 25981 25982 25983 25984 25985 25986 25987 25988 25989 25990 25991 25992 25993 25994 25995 25996 25997 25998 25999 26000 26001 26002 26003 26004 26005 26006 26007 26008 26009 26010 26011 26012 26013 26014 26015 26016 26017 26018 26019 26020 26021 26022 26023 26024 26025 26026 26027 26028 26029 26030 26031 26032 26033 26034 26035 26036 26037 26038 26039 26040 26041 26042 26043 26044 26045 26046 26047 26048 26049 26050 26051 26052 26053 26054 26055 26056 26057 26058 26059 26060 26061 26062 26063 26064 26065 26066 26067 26068 26069 26070 26071 26072 26073 26074 26075 26076 26077 26078 26079 26080 26081 26082 26083 26084 26085 26086 26087 26088 26089 26090 26091 26092 26093 26094 26095 26096 26097 26098 26099 26100 26101 26102 26103 26104 26105 26106 26107 26108 26109 26110 26111 26112 26113 26114 26115 26116 26117 26118 26119 26120 26121 26122 26123 26124 26125 26126 26127 26128 26129 26130 26131 26132 26133 26134 26135 26136 26137 26138 26139 26140 26141 26142 26143 26144 26145 26146 26147 26148 26149 26150 26151 26152 26153 26154 26155 26156 26157 26158 26159 26160 26161 26162 26163 26164 26165 26166 26167 26168 26169 26170 26171 26172 26173 26174 26175 26176 26177 26178 26179 26180 26181 26182 26183 26184 26185 26186 26187 26188 26189 26190 26191 26192 26193 26194 26195 26196 26197 26198 26199 26200 26201 26202 26203 26204 26205 26206 26207 26208 26209 26210 26211 26212 26213 26214 26215 26216 26217 26218 26219 26220 26221 26222 26223 26224 26225 26226 26227 26228 26229 26230 26231 26232 26233 26234 26235 26236 26237 26238 26239 26240 26241 26242 26243 26244 26245 26246 26247 26248 26249 26250 26251 26252 26253 26254 26255 26256 26257 26258 26259 26260 26261 26262 26263 26264 26265 26266 26267 26268 26269 26270 26271 26272 26273 26274 26275 26276 26277 26278 26279 26280 26281 26282 26283 26284 26285 26286 26287 26288 26289 26290 26291 26292 26293 26294 26295 26296 26297 26298 26299 26300 26301 26302 26303 26304 26305 26306 26307 26308 26309 26310 26311 26312 26313 26314 26315 26316 26317 26318 26319 26320 26321 26322 26323 26324 26325 26326 26327 26328 26329 26330 26331 26332 26333 26334 26335 26336 26337 26338 26339 26340 26341 26342 26343 26344 26345 26346 26347 26348 26349 26350 26351 26352 26353 26354 26355 26356 26357 26358 26359 26360 26361 26362 26363 26364 26365 26366 26367 26368 26369 26370 26371 26372 26373 26374 26375 26376 26377 26378 26379 26380 26381 26382 26383 26384 26385 26386 26387 26388 26389 26390 26391 26392 26393 26394 26395 26396 26397 26398 26399 26400 26401 26402 26403 26404 26405 26406 26407 26408 26409 26410 26411 26412 26413 26414 26415 26416 26417 26418 26419 26420 26421 26422 26423 26424 26425 26426 26427 26428 26429 26430 26431 26432 26433 26434 26435 26436 26437 26438 26439 26440 26441 26442 26443 26444 26445 26446 26447 26448 26449 26450 26451 26452 26453 26454 26455 26456 26457 26458 26459 26460 26461 26462 26463 26464 26465 26466 26467 26468 26469 26470 26471 26472 26473 26474 26475 26476 26477 26478 26479 26480 26481 26482 26483 26484 26485 26486 26487 26488 26489 26490 26491 26492 26493 26494 26495 26496 26497 26498 26499 26500 26501 26502 26503 26504 26505 26506 26507 26508 26509 26510 26511 26512 26513 26514 26515 26516 26517 26518 26519 26520 26521 26522 26523 26524 26525 26526 26527 26528 26529 26530 26531 26532 26533 26534 26535 26536 26537 26538 26539 26540 26541 26542 26543 26544 26545 26546 26547 26548 26549 26550 26551 26552 26553 26554 26555 26556 26557 26558 26559 26560 26561 26562 26563 26564 26565 26566 26567 26568 26569 26570 26571 26572 26573 26574 26575 26576 26577 26578 26579 26580 26581 26582 26583 26584 26585 26586 26587 26588 26589 26590 26591 26592 26593 26594 26595 26596 26597 26598 26599 26600 26601 26602 26603 26604 26605 26606 26607 26608 26609 26610 26611 26612 26613 26614 26615 26616 26617 26618 26619 26620 26621 26622 26623 26624 26625 26626 26627 26628 26629 26630 26631 26632 26633 26634 26635 26636 26637 26638 26639 26640 26641 26642 26643 26644 26645 26646 26647 26648 26649 26650 26651 26652 26653 26654 26655 26656 26657 26658 26659 26660 26661 26662 26663 26664 26665 26666 26667 26668 26669 26670 26671 26672 26673 26674 26675 26676 26677 26678 26679 26680 26681 26682 26683 26684 26685 26686 26687 26688 26689 26690 26691 26692 26693 26694 26695 26696 26697 26698 26699 26700 26701 26702 26703 26704 26705 26706 26707 26708 26709 26710 26711 26712 26713 26714 26715 26716 26717 26718 26719 26720 26721 26722 26723 26724 26725 26726 26727 26728 26729 26730 26731 26732 26733 26734 26735 26736 26737 26738 26739 26740 26741 26742 26743 26744 26745 26746 26747 26748 26749 26750 26751 26752 26753 26754 26755 26756 26757 26758 26759 26760 26761 26762 26763 26764 26765 26766 26767 26768 26769 26770 26771 26772 26773 26774 26775 26776 26777 26778 26779 26780 26781 26782 26783 26784 26785 26786 26787 26788 26789 26790 26791 26792 26793 26794 26795 26796 26797 26798 26799 26800 26801 26802 26803 26804 26805 26806 26807 26808 26809 26810 26811 26812 26813 26814 26815 26816 26817 26818 26819 26820 26821 26822 26823 26824 26825 26826 26827 26828 26829 26830 26831 26832 26833 26834 26835 26836 26837 26838 26839 26840 26841 26842 26843 26844 26845 26846 26847 26848 26849 26850 26851 26852 26853 26854 26855 26856 26857 26858 26859 26860 26861 26862 26863 26864 26865 26866 26867 26868 26869 26870 26871 26872 26873 26874 26875 26876 26877 26878 26879 26880 26881 26882 26883 26884 26885 26886 26887 26888 26889 26890 26891 26892 26893 26894 26895 26896 26897 26898 26899 26900 26901 26902 26903 26904 26905 26906 26907 26908 26909 26910 26911 26912 26913 26914 26915 26916 26917 26918 26919 26920 26921 26922 26923 26924 26925 26926 26927 26928 26929 26930 26931 26932 26933 26934 26935 26936 26937 26938 26939 26940 26941 26942 26943 26944 26945 26946 26947 26948 26949 26950 26951 26952 26953 26954 26955 26956 26957 26958 26959 26960 26961 26962 26963 26964 26965 26966 26967 26968 26969 26970 26971 26972 26973 26974 26975 26976 26977 26978 26979 26980 26981 26982 26983 26984 26985 26986 26987 26988 26989 26990 26991 26992 26993 26994 26995 26996 26997 26998 26999 27000 27001 27002 27003 27004 27005 27006 27007 27008 27009 27010 27011 27012 27013 27014 27015 27016 27017 27018 27019 27020 27021 27022 27023 27024 27025 27026 27027 27028 27029 27030 27031 27032 27033 27034 27035 27036 27037 27038 27039 27040 27041 27042 27043 27044 27045 27046 27047 27048 27049 27050 27051 27052 27053 27054 27055 27056 27057 27058 27059 27060 27061 27062 27063 27064 27065 27066 27067 27068 27069 27070 27071 27072 27073 27074 27075 27076 27077 27078 27079 27080 27081 27082 27083 27084 27085 27086 27087 27088 27089 27090 27091 27092 27093 27094 27095 27096 27097 27098 27099 27100 27101 27102 27103 27104 27105 27106 27107 27108 27109 27110 27111 27112 27113 27114 27115 27116 27117 27118 27119 27120 27121 27122 27123 27124 27125 27126 27127 27128 27129 27130 27131 27132 27133 27134 27135 27136 27137 27138 27139 27140 27141 27142 27143 27144 27145 27146 27147 27148 27149 27150 27151 27152 27153 27154 27155 27156 27157 27158 27159 27160 27161 27162 27163 27164 27165 27166 27167 27168 27169 27170 27171 27172 27173 27174 27175 27176 27177 27178 27179 27180 27181 27182 27183 27184 27185 27186 27187 27188 27189 27190 27191 27192 27193 27194 27195 27196 27197 27198 27199 27200 27201 27202 27203 27204 27205 27206 27207 27208 27209 27210 27211 27212 27213 27214 27215 27216 27217 27218 27219 27220 27221 27222 27223 27224 27225 27226 27227 27228 27229 27230 27231 27232 27233 27234 27235 27236 27237 27238 27239 27240 27241 27242 27243 27244 27245 27246 27247 27248 27249 27250 27251 27252 27253 27254 27255 27256 27257 27258 27259 27260 27261 27262 27263 27264 27265 27266 27267 27268 27269 27270 27271 27272 27273 27274 27275 27276 27277 27278 27279 27280 27281 27282 27283 27284 27285 27286 27287 27288 27289 27290 27291 27292 27293 27294 27295 27296 27297 27298 27299 27300 27301 27302 27303 27304 27305 27306 27307 27308 27309 27310 27311 27312 27313 27314 27315 27316 27317 27318 27319 27320 27321 27322 27323 27324 27325 27326 27327 27328 27329 27330 27331 27332 27333 27334 27335 27336 27337 27338 27339 27340 27341 27342 27343 27344 27345 27346 27347 27348 27349 27350 27351 27352 27353 27354 27355 27356 27357 27358 27359 27360 27361 27362 27363 27364 27365 27366 27367 27368 27369 27370 27371 27372 27373 27374 27375 27376 27377 27378 27379 27380 27381 27382 27383 27384 27385 27386 27387 27388 27389 27390 27391 27392 27393 27394 27395 27396 27397 27398 27399 27400 27401 27402 27403 27404 27405 27406 27407 27408 27409 27410 27411 27412 27413 27414 27415 27416 27417 27418 27419 27420 27421 27422 27423 27424 27425 27426 27427 27428 27429 27430 27431 27432 27433 27434 27435 27436 27437 27438 27439 27440 27441 27442 27443 27444 27445 27446 27447 27448 27449 27450 27451 27452 27453 27454 27455 27456 27457 27458 27459 27460 27461 27462 27463 27464 27465 27466 27467 27468 27469 27470 27471 27472 27473 27474 27475 27476 27477 27478 27479 27480 27481 27482 27483 27484 27485 27486 27487 27488 27489 27490 27491 27492 27493 27494 27495 27496 27497 27498 27499 27500 27501 27502 27503 27504 27505 27506 27507 27508 27509 27510 27511 27512 27513 27514 27515 27516 27517 27518 27519 27520 27521 27522 27523 27524 27525 27526 27527 27528 27529 27530 27531 27532 27533 27534 27535 27536 27537 27538 27539 27540 27541 27542 27543 27544 27545 27546 27547 27548 27549 27550 27551 27552 27553 27554 27555 27556 27557 27558 27559 27560 27561 27562 27563 27564 27565 27566 27567 27568 27569 27570 27571 27572 27573 27574 27575 27576 27577 27578 27579 27580 27581 27582 27583 27584 27585 27586 27587 27588 27589 27590 27591 27592 27593 27594 27595 27596 27597 27598 27599 27600 27601 27602 27603 27604 27605 27606 27607 27608 27609 27610 27611 27612 27613 27614 27615 27616 27617 27618 27619 27620 27621 27622 27623 27624 27625 27626 27627 27628 27629 27630 27631 27632 27633 27634 27635 27636 27637 27638 27639 27640 27641 27642 27643 27644 27645 27646 27647 27648 27649 27650 27651 27652 27653 27654 27655 27656 27657 27658 27659 27660 27661 27662 27663 27664 27665 27666 27667 27668 27669 27670 27671 27672 27673 27674 27675 27676 27677 27678 27679 27680 27681 27682 27683 27684 27685 27686 27687 27688 27689 27690 27691 27692 27693 27694 27695 27696 27697 27698 27699 27700 27701 27702 27703 27704 27705 27706 27707 27708 27709 27710 27711 27712 27713 27714 27715 27716 27717 27718 27719 27720 27721 27722 27723 27724 27725 27726 27727 27728 27729 27730 27731 27732 27733 27734 27735 27736 27737 27738 27739 27740 27741 27742 27743 27744 27745 27746 27747 27748 27749 27750 27751 27752 27753 27754 27755 27756 27757 27758 27759 27760 27761 27762 27763 27764 27765 27766 27767 27768 27769 27770 27771 27772 27773 27774 27775 27776 27777 27778 27779 27780 27781 27782 27783 27784 27785 27786 27787 27788 27789 27790 27791 27792 27793 27794 27795 27796 27797 27798 27799 27800 27801 27802 27803 27804 27805 27806 27807 27808 27809 27810 27811 27812 27813 27814 27815 27816 27817 27818 27819 27820 27821 27822 27823 27824 27825 27826 27827 27828 27829 27830 27831 27832 27833 27834 27835 27836 27837 27838 27839 27840 27841 27842 27843 27844 27845 27846 27847 27848 27849 27850 27851 27852 27853 27854 27855 27856 27857 27858 27859 27860 27861 27862 27863 27864 27865 27866 27867 27868 27869 27870 27871 27872 27873 27874 27875 27876 27877 27878 27879 27880 27881 27882 27883 27884 27885 27886 27887 27888 27889 27890 27891 27892 27893 27894 27895 27896 27897 27898 27899 27900 27901 27902 27903 27904 27905 27906 27907 27908 27909 27910 27911 27912 27913 27914 27915 27916 27917 27918 27919 27920 27921 27922 27923 27924 27925 27926 27927 27928 27929 27930 27931 27932 27933 27934 27935 27936 27937 27938 27939 27940 27941 27942 27943 27944 27945 27946 27947 27948 27949 27950 27951 27952 27953 27954 27955 27956 27957 27958 27959 27960 27961 27962 27963 27964 27965 27966 27967 27968 27969 27970 27971 27972 27973 27974 27975 27976 27977 27978 27979 27980 27981 27982 27983 27984 27985 27986 27987 27988 27989 27990 27991 27992 27993 27994 27995 27996 27997 27998 27999 28000 28001 28002 28003 28004 28005 28006 28007 28008 28009 28010 28011 28012 28013 28014 28015 28016 28017 28018 28019 28020 28021 28022 28023 28024 28025 28026 28027 28028 28029 28030 28031 28032 28033 28034 28035 28036 28037 28038 28039 28040 28041 28042 28043 28044 28045 28046 28047 28048 28049 28050 28051 28052 28053 28054 28055 28056 28057 28058 28059 28060 28061 28062 28063 28064 28065 28066 28067 28068 28069 28070 28071 28072 28073 28074 28075 28076 28077 28078 28079 28080 28081 28082 28083 28084 28085 28086 28087 28088 28089 28090 28091 28092 28093 28094 28095 28096 28097 28098 28099 28100 28101 28102 28103 28104 28105 28106 28107 28108 28109 28110 28111 28112 28113 28114 28115 28116 28117 28118 28119 28120 28121 28122 28123 28124 28125 28126 28127 28128 28129 28130 28131 28132 28133 28134 28135 28136 28137 28138 28139 28140 28141 28142 28143 28144 28145 28146 28147 28148 28149 28150 28151 28152 28153 28154 28155 28156 28157 28158 28159 28160 28161 28162 28163 28164 28165 28166 28167 28168 28169 28170 28171 28172 28173 28174 28175 28176 28177 28178 28179 28180 28181 28182 28183 28184 28185 28186 28187 28188 28189 28190 28191 28192 28193 28194 28195 28196 28197 28198 28199 28200 28201 28202 28203 28204 28205 28206 28207 28208 28209 28210 28211 28212 28213 28214 28215 28216 28217 28218 28219 28220 28221 28222 28223 28224 28225 28226 28227 28228 28229 28230 28231 28232 28233 28234 28235 28236 28237 28238 28239 28240 28241 28242 28243 28244 28245 28246 28247 28248 28249 28250 28251 28252 28253 28254 28255 28256 28257 28258 28259 28260 28261 28262 28263 28264 28265 28266 28267 28268 28269 28270 28271 28272 28273 28274 28275 28276 28277 28278 28279 28280 28281 28282 28283 28284 28285 28286 28287 28288 28289 28290 28291 28292 28293 28294 28295 28296 28297 28298 28299 28300 28301 28302 28303 28304 28305 28306 28307 28308 28309 28310 28311 28312 28313 28314 28315 28316 28317 28318 28319 28320 28321 28322 28323 28324 28325 28326 28327 28328 28329 28330 28331 28332 28333 28334 28335 28336 28337 28338 28339 28340 28341 28342 28343 28344 28345 28346 28347 28348 28349 28350 28351 28352 28353 28354 28355 28356 28357 28358 28359 28360 28361 28362 28363 28364 28365 28366 28367 28368 28369 28370 28371 28372 28373 28374 28375 28376 28377 28378 28379 28380 28381 28382 28383 28384 28385 28386 28387 28388 28389 28390 28391 28392 28393 28394 28395 28396 28397 28398 28399 28400 28401 28402 28403 28404 28405 28406 28407 28408 28409 28410 28411 28412 28413 28414 28415 28416 28417 28418 28419 28420 28421 28422 28423 28424 28425 28426 28427 28428 28429 28430 28431 28432 28433 28434 28435 28436 28437 28438 28439 28440 28441 28442 28443 28444 28445 28446 28447 28448 28449 28450 28451 28452 28453 28454 28455 28456 28457 28458 28459 28460 28461 28462 28463 28464 28465 28466 28467 28468 28469 28470 28471 28472 28473 28474 28475 28476 28477 28478 28479 28480 28481 28482 28483 28484 28485 28486 28487 28488 28489 28490 28491 28492 28493 28494 28495 28496 28497 28498 28499 28500 28501 28502 28503 28504 28505 28506 28507 28508 28509 28510 28511 28512 28513 28514 28515 28516 28517 28518 28519 28520 28521 28522 28523 28524 28525 28526 28527 28528 28529 28530 28531 28532 28533 28534 28535 28536 28537 28538 28539 28540 28541 28542 28543 28544 28545 28546 28547 28548 28549 28550 28551 28552 28553 28554 28555 28556 28557 28558 28559 28560 28561 28562 28563 28564 28565 28566 28567 28568 28569 28570 28571 28572 28573 28574 28575 28576 28577 28578 28579 28580 28581 28582 28583 28584 28585 28586 28587 28588 28589 28590 28591 28592 28593 28594 28595 28596 28597 28598 28599 28600 28601 28602 28603 28604 28605 28606 28607 28608 28609 28610 28611 28612 28613 28614 28615 28616 28617 28618 28619 28620 28621 28622 28623 28624 28625 28626 28627 28628 28629 28630 28631 28632 28633 28634 28635 28636 28637 28638 28639 28640 28641 28642 28643 28644 28645 28646 28647 28648 28649 28650 28651 28652 28653 28654 28655 28656 28657 28658 28659 28660 28661 28662 28663 28664 28665 28666 28667 28668 28669 28670 28671 28672 28673 28674 28675 28676 28677 28678 28679 28680 28681 28682 28683 28684 28685 28686 28687 28688 28689 28690 28691 28692 28693 28694 28695 28696 28697 28698 28699 28700 28701 28702 28703 28704 28705 28706 28707 28708 28709 28710 28711 28712 28713 28714 28715 28716 28717 28718 28719 28720 28721 28722 28723 28724 28725 28726 28727 28728 28729 28730 28731 28732 28733 28734 28735 28736 28737 28738 28739 28740 28741 28742 28743 28744 28745 28746 28747 28748 28749 28750 28751 28752 28753 28754 28755 28756 28757 28758 28759 28760 28761 28762 28763 28764 28765 28766 28767 28768 28769 28770 28771 28772 28773 28774 28775 28776 28777 28778 28779 28780 28781 28782 28783 28784 28785 28786 28787 28788 28789 28790 28791 28792 28793 28794 28795 28796 28797 28798 28799 28800 28801 28802 28803 28804 28805 28806 28807 28808 28809 28810 28811 28812 28813 28814 28815 28816 28817 28818 28819 28820 28821 28822 28823 28824 28825 28826 28827 28828 28829 28830 28831 28832 28833 28834 28835 28836 28837 28838 28839 28840 28841 28842 28843 28844 28845 28846 28847 28848 28849 28850 28851 28852 28853 28854 28855 28856 28857 28858 28859 28860 28861 28862 28863 28864 28865 28866 28867 28868 28869 28870 28871 28872 28873 28874 28875 28876 28877 28878 28879 28880 28881 28882 28883 28884 28885 28886 28887 28888 28889 28890 28891 28892 28893 28894 28895 28896 28897 28898 28899 28900 28901 28902 28903 28904 28905 28906 28907 28908 28909 28910 28911 28912 28913 28914 28915 28916 28917 28918 28919 28920 28921 28922 28923 28924 28925 28926 28927 28928 28929 28930 28931 28932 28933 28934 28935 28936 28937 28938 28939 28940 28941 28942 28943 28944 28945 28946 28947 28948 28949 28950 28951 28952 28953 28954 28955 28956 28957 28958 28959 28960 28961 28962 28963 28964 28965 28966 28967 28968 28969 28970 28971 28972 28973 28974 28975 28976 28977 28978 28979 28980 28981 28982 28983 28984 28985 28986 28987 28988 28989 28990 28991 28992 28993 28994 28995 28996 28997 28998 28999 29000 29001 29002 29003 29004 29005 29006 29007 29008 29009 29010 29011 29012 29013 29014 29015 29016 29017 29018 29019 29020 29021 29022 29023 29024 29025 29026 29027 29028 29029 29030 29031 29032 29033 29034 29035 29036 29037 29038 29039 29040 29041 29042 29043 29044 29045 29046 29047 29048 29049 29050 29051 29052 29053 29054 29055 29056 29057 29058 29059 29060 29061 29062 29063 29064 29065 29066 29067 29068 29069 29070 29071 29072 29073 29074 29075 29076 29077 29078 29079 29080 29081 29082 29083 29084 29085 29086 29087 29088 29089 29090 29091 29092 29093 29094 29095 29096 29097 29098 29099 29100 29101 29102 29103 29104 29105 29106 29107 29108 29109 29110 29111 29112 29113 29114 29115 29116 29117 29118 29119 29120 29121 29122 29123 29124 29125 29126 29127 29128 29129 29130 29131 29132 29133 29134 29135 29136 29137 29138 29139 29140 29141 29142 29143 29144 29145 29146 29147 29148 29149 29150 29151 29152 29153 29154 29155 29156 29157 29158 29159 29160 29161 29162 29163 29164 29165 29166 29167 29168 29169 29170 29171 29172 29173 29174 29175 29176 29177 29178 29179 29180 29181 29182 29183 29184 29185 29186 29187 29188 29189 29190 29191 29192 29193 29194 29195 29196 29197 29198 29199 29200 29201 29202 29203 29204 29205 29206 29207 29208 29209 29210 29211 29212 29213 29214 29215 29216 29217 29218 29219 29220 29221 29222 29223 29224 29225 29226 29227 29228 29229 29230 29231 29232 29233 29234 29235 29236 29237 29238 29239 29240 29241 29242 29243 29244 29245 29246 29247 29248 29249 29250 29251 29252 29253 29254 29255 29256 29257 29258 29259 29260 29261 29262 29263 29264 29265 29266 29267 29268 29269 29270 29271 29272 29273 29274 29275 29276 29277 29278 29279 29280 29281 29282 29283 29284 29285 29286 29287 29288 29289 29290 29291 29292 29293 29294 29295 29296 29297 29298 29299 29300 29301 29302 29303 29304 29305 29306 29307 29308 29309 29310 29311 29312 29313 29314 29315 29316 29317 29318 29319 29320 29321 29322 29323 29324 29325 29326 29327 29328 29329 29330 29331 29332 29333 29334 29335 29336 29337 29338 29339 29340 29341 29342 29343 29344 29345 29346 29347 29348 29349 29350 29351 29352 29353 29354 29355 29356 29357 29358 29359 29360 29361 29362 29363 29364 29365 29366 29367 29368 29369 29370 29371 29372 29373 29374 29375 29376 29377 29378 29379 29380 29381 29382 29383 29384 29385 29386 29387 29388 29389 29390 29391 29392 29393 29394 29395 29396 29397 29398 29399 29400 29401 29402 29403 29404 29405 29406 29407 29408 29409 29410 29411 29412 29413 29414 29415 29416 29417 29418 29419 29420 29421 29422 29423 29424 29425 29426 29427 29428 29429 29430 29431 29432 29433 29434 29435 29436 29437 29438 29439 29440 29441 29442 29443 29444 29445 29446 29447 29448 29449 29450 29451 29452 29453 29454 29455 29456 29457 29458 29459 29460 29461 29462 29463 29464 29465 29466 29467 29468 29469 29470 29471 29472 29473 29474 29475 29476 29477 29478 29479 29480 29481 29482 29483 29484 29485 29486 29487 29488 29489 29490 29491 29492 29493 29494 29495 29496 29497 29498 29499 29500 29501 29502 29503 29504 29505 29506 29507 29508 29509 29510 29511 29512 29513 29514 29515 29516 29517 29518 29519 29520 29521 29522 29523 29524 29525 29526 29527 29528 29529 29530 29531 29532 29533 29534 29535 29536 29537 29538 29539 29540 29541 29542 29543 29544 29545 29546 29547 29548 29549 29550 29551 29552 29553 29554 29555 29556 29557 29558 29559 29560 29561 29562 29563 29564 29565 29566 29567 29568 29569 29570 29571 29572 29573 29574 29575 29576 29577 29578 29579 29580 29581 29582 29583 29584 29585 29586 29587 29588 29589 29590 29591 29592 29593 29594 29595 29596 29597 29598 29599 29600 29601 29602 29603 29604 29605 29606 29607 29608 29609 29610 29611 29612 29613 29614 29615 29616 29617 29618 29619 29620 29621 29622 29623 29624 29625 29626 29627 29628 29629 29630 29631 29632 29633 29634 29635 29636 29637 29638 29639 29640 29641 29642 29643 29644 29645 29646 29647 29648 29649 29650 29651 29652 29653 29654 29655 29656 29657 29658 29659 29660 29661 29662 29663 29664 29665 29666 29667 29668 29669 29670 29671 29672 29673 29674 29675 29676 29677 29678 29679 29680 29681 29682 29683 29684 29685 29686 29687 29688 29689 29690 29691 29692 29693 29694 29695 29696 29697 29698 29699 29700 29701 29702 29703 29704 29705 29706 29707 29708 29709 29710 29711 29712 29713 29714 29715 29716 29717 29718 29719 29720 29721 29722 29723 29724 29725 29726 29727 29728 29729 29730 29731 29732 29733 29734 29735 29736 29737 29738 29739 29740 29741 29742 29743 29744 29745 29746 29747 29748 29749 29750 29751 29752 29753 29754 29755 29756 29757 29758 29759 29760 29761 29762 29763 29764 29765 29766 29767 29768 29769 29770 29771 29772 29773 29774 29775 29776 29777 29778 29779 29780 29781 29782 29783 29784 29785 29786 29787 29788 29789 29790 29791 29792 29793 29794 29795 29796 29797 29798 29799 29800 29801 29802 29803 29804 29805 29806 29807 29808 29809 29810 29811 29812 29813 29814 29815 29816 29817 29818 29819 29820 29821 29822 29823 29824 29825 29826 29827 29828 29829 29830 29831 29832 29833 29834 29835 29836 29837 29838 29839 29840 29841 29842 29843 29844 29845 29846 29847 29848 29849 29850 29851 29852 29853 29854 29855 29856 29857 29858 29859 29860 29861 29862 29863 29864 29865 29866 29867 29868 29869 29870 29871 29872 29873 29874 29875 29876 29877 29878 29879 29880 29881 29882 29883 29884 29885 29886 29887 29888 29889 29890 29891 29892 29893 29894 29895 29896 29897 29898 29899 29900 29901 29902 29903 29904 29905 29906 29907 29908 29909 29910 29911 29912 29913 29914 29915 29916 29917 29918 29919 29920 29921 29922 29923 29924 29925 29926 29927 29928 29929 29930 29931 29932 29933 29934 29935 29936 29937 29938 29939 29940 29941 29942 29943 29944 29945 29946 29947 29948 29949 29950 29951 29952 29953 29954 29955 29956 29957 29958 29959 29960 29961 29962 29963 29964 29965 29966 29967 29968 29969 29970 29971 29972 29973 29974 29975 29976 29977 29978 29979 29980 29981 29982 29983 29984 29985 29986 29987 29988 29989 29990 29991 29992 29993 29994 29995 29996 29997 29998 29999 30000 30001 30002 30003 30004 30005 30006 30007 30008 30009 30010 30011 30012 30013 30014 30015 30016 30017 30018 30019 30020 30021 30022 30023 30024 30025 30026 30027 30028 30029 30030 30031 30032 30033 30034 30035 30036 30037 30038 30039 30040 30041 30042 30043 30044 30045 30046 30047 30048 30049 30050 30051 30052 30053 30054 30055 30056 30057 30058 30059 30060 30061 30062 30063 30064 30065 30066 30067 30068 30069 30070 30071 30072 30073 30074 30075 30076 30077 30078 30079 30080 30081 30082 30083 30084 30085 30086 30087 30088 30089 30090 30091 30092 30093 30094 30095 30096 30097 30098 30099 30100 30101 30102 30103 30104 30105 30106 30107 30108 30109 30110 30111 30112 30113 30114 30115 30116 30117 30118 30119 30120 30121 30122 30123 30124 30125 30126 30127 30128 30129 30130 30131 30132 30133 30134 30135 30136 30137 30138 30139 30140 30141 30142 30143 30144 30145 30146 30147 30148 30149 30150 30151 30152 30153 30154 30155 30156 30157 30158 30159 30160 30161 30162 30163 30164 30165 30166 30167 30168 30169 30170 30171 30172 30173 30174 30175 30176 30177 30178 30179 30180 30181 30182 30183 30184 30185 30186 30187 30188 30189 30190 30191 30192 30193 30194 30195 30196 30197 30198 30199 30200 30201 30202 30203 30204 30205 30206 30207 30208 30209 30210 30211 30212 30213 30214 30215 30216 30217 30218 30219 30220 30221 30222 30223 30224 30225 30226 30227 30228 30229 30230 30231 30232 30233 30234 30235 30236 30237 30238 30239 30240 30241 30242 30243 30244 30245 30246 30247 30248 30249 30250 30251 30252 30253 30254 30255 30256 30257 30258 30259 30260 30261 30262 30263 30264 30265 30266 30267 30268 30269 30270 30271 30272 30273 30274 30275 30276 30277 30278 30279 30280 30281 30282 30283 30284 30285 30286 30287 30288 30289 30290 30291 30292 30293 30294 30295 30296 30297 30298 30299 30300 30301 30302 30303 30304 30305 30306 30307 30308 30309 30310 30311 30312 30313 30314 30315 30316 30317 30318 30319 30320 30321 30322 30323 30324 30325 30326 30327 30328 30329 30330 30331 30332 30333 30334 30335 30336 30337 30338 30339 30340 30341 30342 30343 30344 30345 30346 30347 30348 30349 30350 30351 30352 30353 30354 30355 30356 30357 30358 30359 30360 30361 30362 30363 30364 30365 30366 30367 30368 30369 30370 30371 30372 30373 30374 30375 30376 30377 30378 30379 30380 30381 30382 30383 30384 30385 30386 30387 30388 30389 30390 30391 30392 30393 30394 30395 30396 30397 30398 30399 30400 30401 30402 30403 30404 30405 30406 30407 30408 30409 30410 30411 30412 30413 30414 30415 30416 30417 30418 30419 30420 30421 30422 30423 30424 30425 30426 30427 30428 30429 30430 30431 30432 30433 30434 30435 30436 30437 30438 30439 30440 30441 30442 30443 30444 30445 30446 30447 30448 30449 30450 30451 30452 30453 30454 30455 30456 30457 30458 30459 30460 30461 30462 30463 30464 30465 30466 30467 30468 30469 30470 30471 30472 30473 30474 30475 30476 30477 30478 30479 30480 30481 30482 30483 30484 30485 30486 30487 30488 30489 30490 30491 30492 30493 30494 30495 30496 30497 30498 30499 30500 30501 30502 30503 30504 30505 30506 30507 30508 30509 30510 30511 30512 30513 30514 30515 30516 30517 30518 30519 30520 30521 30522 30523 30524 30525 30526 30527 30528 30529 30530 30531 30532 30533 30534 30535 30536 30537 30538 30539 30540 30541 30542 30543 30544 30545 30546 30547 30548 30549 30550 30551 30552 30553 30554 30555 30556 30557 30558 30559 30560 30561 30562 30563 30564 30565 30566 30567 30568 30569 30570 30571 30572 30573 30574 30575 30576 30577 30578 30579 30580 30581 30582 30583 30584 30585 30586 30587 30588 30589 30590 30591 30592 30593 30594 30595 30596 30597 30598 30599 30600 30601 30602 30603 30604 30605 30606 30607 30608 30609 30610 30611 30612 30613 30614 30615 30616 30617 30618 30619 30620 30621 30622 30623 30624 30625 30626 30627 30628 30629 30630 30631 30632 30633 30634 30635 30636 30637 30638 30639 30640 30641 30642 30643 30644 30645 30646 30647 30648 30649 30650 30651 30652 30653 30654 30655 30656 30657 30658 30659 30660 30661 30662 30663 30664 30665 30666 30667 30668 30669 30670 30671 30672 30673 30674 30675 30676 30677 30678 30679 30680 30681 30682 30683 30684 30685 30686 30687 30688 30689 30690 30691 30692 30693 30694 30695 30696 30697 30698 30699 30700 30701 30702 30703 30704 30705 30706 30707 30708 30709 30710 30711 30712 30713 30714 30715 30716 30717 30718 30719 30720 30721 30722 30723 30724 30725 30726 30727 30728 30729 30730 30731 30732 30733 30734 30735 30736 30737 30738 30739 30740 30741 30742 30743 30744 30745 30746 30747 30748 30749 30750 30751 30752 30753 30754 30755 30756 30757 30758 30759 30760 30761 30762 30763 30764 30765 30766 30767 30768 30769 30770 30771 30772 30773 30774 30775 30776 30777 30778 30779 30780 30781 30782 30783 30784 30785 30786 30787 30788 30789 30790 30791 30792 30793 30794 30795 30796 30797 30798 30799 30800 30801 30802 30803 30804 30805 30806 30807 30808 30809 30810 30811 30812 30813 30814 30815 30816 30817 30818 30819 30820 30821 30822 30823 30824 30825 30826 30827 30828 30829 30830 30831 30832 30833 30834 30835 30836 30837 30838 30839 30840 30841 30842 30843 30844 30845 30846 30847 30848 30849 30850 30851 30852 30853 30854 30855 30856 30857 30858 30859 30860 30861 30862 30863 30864 30865 30866 30867 30868 30869 30870 30871 30872 30873 30874 30875 30876 30877 30878 30879 30880 30881 30882 30883 30884 30885 30886 30887 30888 30889 30890 30891 30892 30893 30894 30895 30896 30897 30898 30899 30900 30901 30902 30903 30904 30905 30906 30907 30908 30909 30910 30911 30912 30913 30914 30915 30916 30917 30918 30919 30920 30921 30922 30923 30924 30925 30926 30927 30928 30929 30930 30931 30932 30933 30934 30935 30936 30937 30938 30939 30940 30941 30942 30943 30944 30945 30946 30947 30948 30949 30950 30951 30952 30953 30954 30955 30956 30957 30958 30959 30960 30961 30962 30963 30964 30965 30966 30967 30968 30969 30970 30971 30972 30973 30974 30975 30976 30977 30978 30979 30980 30981 30982 30983 30984 30985 30986 30987 30988 30989 30990 30991 30992 30993 30994 30995 30996 30997 30998 30999 31000 31001 31002 31003 31004 31005 31006 31007 31008 31009 31010 31011 31012 31013 31014 31015 31016 31017 31018 31019 31020 31021 31022 31023 31024 31025 31026 31027 31028 31029 31030 31031 31032 31033 31034 31035 31036 31037 31038 31039 31040 31041 31042 31043 31044 31045 31046 31047 31048 31049 31050 31051 31052 31053 31054 31055 31056 31057 31058 31059 31060 31061 31062 31063 31064 31065 31066 31067 31068 31069 31070 31071 31072 31073 31074 31075 31076 31077 31078 31079 31080 31081 31082 31083 31084 31085 31086 31087 31088 31089 31090 31091 31092 31093 31094 31095 31096 31097 31098 31099 31100 31101 31102 31103 31104 31105 31106 31107 31108 31109 31110 31111 31112 31113 31114 31115 31116 31117 31118 31119 31120 31121 31122 31123 31124 31125 31126 31127 31128 31129 31130 31131 31132 31133 31134 31135 31136 31137 31138 31139 31140 31141 31142 31143 31144 31145 31146 31147 31148 31149 31150 31151 31152 31153 31154 31155 31156 31157 31158 31159 31160 31161 31162 31163 31164 31165 31166 31167 31168 31169 31170 31171 31172 31173 31174 31175 31176 31177 31178 31179 31180 31181 31182 31183 31184 31185 31186 31187 31188 31189 31190 31191 31192 31193 31194 31195 31196 31197 31198 31199 31200 31201 31202 31203 31204 31205 31206 31207 31208 31209 31210 31211 31212 31213 31214 31215 31216 31217 31218 31219 31220 31221 31222 31223 31224 31225 31226 31227 31228 31229 31230 31231 31232 31233 31234 31235 31236 31237 31238 31239 31240 31241 31242 31243 31244 31245 31246 31247 31248 31249 31250 31251 31252 31253 31254 31255 31256 31257 31258 31259 31260 31261 31262 31263 31264 31265 31266 31267 31268 31269 31270 31271 31272 31273 31274 31275 31276 31277 31278 31279 31280 31281 31282 31283 31284 31285 31286 31287 31288 31289 31290 31291 31292 31293 31294 31295 31296 31297 31298 31299 31300 31301 31302 31303 31304 31305 31306 31307 31308 31309 31310 31311 31312 31313 31314 31315 31316 31317 31318 31319 31320 31321 31322 31323 31324 31325 31326 31327 31328 31329 31330 31331 31332 31333 31334 31335 31336 31337 31338 31339 31340 31341 31342 31343 31344 31345 31346 31347 31348 31349 31350 31351 31352 31353 31354 31355 31356 31357 31358 31359 31360 31361 31362 31363 31364 31365 31366 31367 31368 31369 31370 31371 31372 31373 31374 31375 31376 31377 31378 31379 31380 31381 31382 31383 31384 31385 31386 31387 31388 31389 31390 31391 31392 31393 31394 31395 31396 31397 31398 31399 31400 31401 31402 31403 31404 31405 31406 31407 31408 31409 31410 31411 31412 31413 31414 31415 31416 31417 31418 31419 31420 31421 31422 31423 31424 31425 31426 31427 31428 31429 31430 31431 31432 31433 31434 31435 31436 31437 31438 31439 31440 31441 31442 31443 31444 31445 31446 31447 31448 31449 31450 31451 31452 31453 31454 31455 31456 31457 31458 31459 31460 31461 31462 31463 31464 31465 31466 31467 31468 31469 31470 31471 31472 31473 31474 31475 31476 31477 31478 31479 31480 31481 31482 31483 31484 31485 31486 31487 31488 31489 31490 31491 31492 31493 31494 31495 31496 31497 31498 31499 31500 31501 31502 31503 31504 31505 31506 31507 31508 31509 31510 31511 31512 31513 31514 31515 31516 31517 31518 31519 31520 31521 31522 31523 31524 31525 31526 31527 31528 31529 31530 31531 31532 31533 31534 31535 31536 31537 31538 31539 31540 31541 31542 31543 31544 31545 31546 31547 31548 31549 31550 31551 31552 31553 31554 31555 31556 31557 31558 31559 31560 31561 31562 31563 31564 31565 31566 31567 31568 31569 31570 31571 31572 31573 31574 31575 31576 31577 31578 31579 31580 31581 31582 31583 31584 31585 31586 31587 31588 31589 31590 31591 31592 31593 31594 31595 31596 31597 31598 31599 31600 31601 31602 31603 31604 31605 31606 31607 31608 31609 31610 31611 31612 31613 31614 31615 31616 31617 31618 31619 31620 31621 31622 31623 31624 31625 31626 31627 31628 31629 31630 31631 31632 31633 31634 31635 31636 31637 31638 31639 31640 31641 31642 31643 31644 31645 31646 31647 31648 31649 31650 31651 31652 31653 31654 31655 31656 31657 31658 31659 31660 31661 31662 31663 31664 31665 31666 31667 31668 31669 31670 31671 31672 31673 31674 31675 31676 31677 31678 31679 31680 31681 31682 31683 31684 31685 31686 31687 31688 31689 31690 31691 31692 31693 31694 31695 31696 31697 31698 31699 31700 31701 31702 31703 31704 31705 31706 31707 31708 31709 31710 31711 31712 31713 31714 31715 31716 31717 31718 31719 31720 31721 31722 31723 31724 31725 31726 31727 31728 31729 31730 31731 31732 31733 31734 31735 31736 31737 31738 31739 31740 31741 31742 31743 31744 31745 31746 31747 31748 31749 31750 31751 31752 31753 31754 31755 31756 31757 31758 31759 31760 31761 31762 31763 31764 31765 31766 31767 31768 31769 31770 31771 31772 31773 31774 31775 31776 31777 31778 31779 31780 31781 31782 31783 31784 31785 31786 31787 31788 31789 31790 31791 31792 31793 31794 31795 31796 31797 31798 31799 31800 31801 31802 31803 31804 31805 31806 31807 31808 31809 31810 31811 31812 31813 31814 31815 31816 31817 31818 31819 31820 31821 31822 31823 31824 31825 31826 31827 31828 31829 31830 31831 31832 31833 31834 31835 31836 31837 31838 31839 31840 31841 31842 31843 31844 31845 31846 31847 31848 31849 31850 31851 31852 31853 31854 31855 31856 31857 31858 31859 31860 31861 31862 31863 31864 31865 31866 31867 31868 31869 31870 31871 31872 31873 31874 31875 31876 31877 31878 31879 31880 31881 31882 31883 31884 31885 31886 31887 31888 31889 31890 31891 31892 31893 31894 31895 31896 31897 31898 31899 31900 31901 31902 31903 31904 31905 31906 31907 31908 31909 31910 31911 31912 31913 31914 31915 31916 31917 31918 31919 31920 31921 31922 31923 31924 31925 31926 31927 31928 31929 31930 31931 31932 31933 31934 31935 31936 31937 31938 31939 31940 31941 31942 31943 31944 31945 31946 31947 31948 31949 31950 31951 31952 31953 31954 31955 31956 31957 31958 31959 31960 31961 31962 31963 31964 31965 31966 31967 31968 31969 31970 31971 31972 31973 31974 31975 31976 31977 31978 31979 31980 31981 31982 31983 31984 31985 31986 31987 31988 31989 31990 31991 31992 31993 31994 31995 31996 31997 31998 31999 32000 32001 32002 32003 32004 32005 32006 32007 32008 32009 32010 32011 32012 32013 32014 32015 32016 32017 32018 32019 32020 32021 32022 32023 32024 32025 32026 32027 32028 32029 32030 32031 32032 32033 32034 32035 32036 32037 32038 32039 32040 32041 32042 32043 32044 32045 32046 32047 
</DataArray>
<DataArray type="UInt32" Name="offsets" format="ascii">
3 6 9 11 14 17 20 23 26 29 32 35 38 41 43 46 49 52 55 57 60 63 66 69 72 75 77 80 83 86 89 92 95 98 101 104 107 110 113 116 119 122 125 127 130 133 136 139 142 144 147 149 152 155 158 161 164 167 170 173 176 179 182 185 188 191 194 197 200 203 206 209 212 215 218 221 224 227 230 233 236 239 241 244 247 249 252 255 258 261 264 267 270 273 276 279 281 284 286 289 292 295 298 301 304 307 310 313 316 318 321 324 327 330 333 336 339 342 345 348 351 354 357 360 362 365 367 370 373 376 379 382 385 387 390 393 396 399 402 405 408 411 414 417 420 423 426 429 431 434 436 439 442 445 448 451 454 457 460 463 466 469 471 474 477 480 483 485 488 491 494 497 500 503 506 509 512 515 518 521 524 527 530 533 535 538 541 544 547 550 553 556 559 562 565 568 571 574 576 579 582 585 588 591 594 597 600 603 606 609 612 615 618 621 624 627 630 633 636 639 642 645 648 651 654 656 659 661 664 667 670 672 675 678 681 684 686 689 692 695 698 701 704 707 710 713 716 719 722 725 728 731 733 736 739 742 745 748 751 754 757 760 763 766 769 772 775 778 781 784 787 790 793 796 799 802 805 808 811 814 817 820 823 826 829 832 835 838 841 844 847 850 853 856 859 862 865 868 871 874 877 880 883 886 889 892 895 898 901 904 907 910 913 916 918 921 924 927 930 932 935 938 940 943 946 949 952 955 958 961 964 967 970 972 975 978 981 984 987 990 993 996 999 1002 1005 1008 1011 1014 1017 1020 1023 1026 1029 1032 1035 1038 1041 1044 1047 1050 1053 1056 1059 1062 1065 1068 1071 1074 1076 1079 1082 1085 1088 1091 1094 1097 1100 1103 1106 1109 1112 1115 1118 1121 1124 1127 1130 1133 1136 1139 1142 1145 1148 1151 1154 1157 1160 1163 1166 1169 1172 1175 1178 1181 1184 1187 1190 1193 1196 1199 1202 1205 1208 1211 1214 1217 1219 1222 1225 1228 1231 1234 1237 1240 1243 1246 1249 1252 1255 1258 1261 1264 1267 1270 1273 1276 1279 1282 1285 1288 1291 1294 1297 1300 1303 1306 1309 1312 1315 1318 1321 1324 1327 1330 1333 1336 1339 1342 1345 1348 1351 1354 1357 1360 1363 1366 1369 1372 1375 1378 1381 1384 1387 1390 1393 1396 1399 1402 1405 1408 1411 1414 1417 1420 1423 1426 1429 1432 1435 1438 1441 1444 1447 1450 1453 1456 1459 1462 1465 1468 1471 1474 1477 1479 1482 1485 1488 1490 1493 1496 1499 1502 1505 1508 1511 1514 1517 1520 1523 1525 1528 1531 1534 1537 1540 1543 1546 1549 1552 1555 1558 1561 1564 1567 1570 1573 1576 1579 1582 1585 1587 1590 1593 1596 1598 1601 1604 1607 1610 1613 1616 1619 1622 1625 1627 1630 1633 1635 1638 1641 1644 1647 1650 1653 1656 1659 1662 1665 1667 1670 1673 1676 1679 1682 1685 1688 1691 1694 1697 1700 1703 1706 1708 1711 1714 1717 1719 1722 1724 1727 1730 1733 1735 1738 1741 1744 1747 1750 1753 1756 1759 1762 1765 1768 1771 1774 1777 1780 1783 1786 1789 1791 1794 1797 1800 1803 1806 1809 1812 1815 1818 1820 1822 1825 1828 1831 1834 1837 1840 1842 1845 1848 1851 1854 1856 1859 1862 1865 1868 1871 1874 1877 1880 1883 1886 1889 1892 1895 1898 1901 1903 1906 1909 1912 1914 1917 1920 1923 1926 1929 1932 1935 1938 1941 1944 1947 1950 1952 1955 1958 1961 1964 1967 1970 1973 1976 1979 1982 1985 1988 1991 1994 1997 2000 2003 2006 2009 2012 2015 2018 2021 2024 2027 2029 2032 2035 2038 2041 2043 2046 2049 2052 2055 2058 2060 2062 2064 2067 2070 2073 2076 2078 2081 2084 2086 2089 2092 2095 2098 2101 2104 2107 2110 2112 2115 2118 2121 2124 2127 2130 2133 2136 2138 2141 2144 2147 2150 2153 2156 2159 2161 2164 2167 2170 2173 2176 2179 2181 2184 2187 2190 2193 2196 2199 2202 2205 2207 2210 2213 2216 2219 2222 2225 2228 2231 2233 2236 2239 2242 2245 2248 2251 2254 2257 2260 2263 2266 2269 2272 2275 2278 2281 2284 2287 2290 2293 2296 2299 2302 2305 2308 2311 2314 2316 2319 2322 2325 2328 2331 2334 2337 2340 2343 2346 2349 2352 2355 2357 2360 2363 2366 2369 2372 2375 2378 2381 2384 2387 2390 2393 2396 2399 2402 2405 2408 2411 2413 2416 2419 2422 2425 2427 2430 2432 2435 2438 2441 2444 2447 2450 2453 2456 2459 2462 2465 2467 2470 2473 2475 2478 2481 2483 2486 2489 2491 2493 2496 2499 2502 2505 2508 2511 2514 2517 2520 2523 2526 2529 2532 2535 2538 2541 2544 2547 2550 2553 2556 2559 2562 2565 2568 2571 2574 2577 2580 2583 2586 2589 2591 2594 2597 2600 2603 2606 2609 2612 2615 2618 2621 2624 2627 2630 2633 2636 2639 2642 2645 2648 2651 2654 2657 2660 2663 2666 2669 2672 2675 2678 2681 2684 2687 2690 2693 2696 2699 2702 2705 2708 2711 2714 2717 2720 2723 2726 2729 2732 2735 2738 2741 2744 2747 2750 2753 2756 2759 2762 2765 2768 2771 2774 2777 2780 2783 2786 2789 2792 2795 2798 2801 2804 2807 2810 2813 2816 2819 2822 2825 2828 2831 2834 2837 2840 2843 2846 2849 2852 2855 2858 2861 2864 2867 2870 2873 2876 2879 2882 2885 2888 2891 2894 2897 2900 2903 2906 2909 2912 2915 2918 2921 2924 2927 2930 2933 2936 2939 2942 2945 2948 2951 2954 2957 2960 2963 2966 2969 2972 2975 2978 2981 2984 2987 2990 2993 2995 2998 3001 3004 3007 3010 3013 3016 3019 3021 3024 3027 3030 3033 3036 3039 3042 3045 3048 3051 3053 3056 3059 3062 3064 3067 3070 3073 3076 3079 3082 3085 3088 3091 3094 3097 3100 3103 3106 3109 3112 3115 3118 3121 3124 3127 3130 3133 3136 3139 3142 3145 3148 3151 3154 3156 3159 3162 3165 3168 3171 3173 3176 3179 3182 3185 3188 3190 3193 3196 3198 3201 3204 3207 3210 3213 3216 3219 3222 3225 3228 3231 3233 3236 3239 3242 3244 3247 3250 3253 3256 3259 3262 3265 3268 3271 3274 3277 3280 3283 3286 3289 3292 3295 3297 3300 3302 3304 3307 3310 3312 3315 3318 3321 3324 3327 3329 3331 3334 3337 3340 3343 3346 3348 3351 3354 3357 3360 3362 3365 3368 3371 3374 3377 3380 3383 3386 3389 3392 3395 3397 3400 3403 3406 3409 3411 3414 3417 3419 3421 3424 3427 3429 3432 3435 3438 3441 3444 3447 3450 3453 3456 3459 3462 3465 3468 3471 3474 3477 3480 3482 3485 3488 3491 3494 3497 3500 3503 3506 3509 3512 3515 3518 3521 3523 3526 3529 3531 3534 3537 3540 3542 3544 3547 3550 3553 3555 3558 3561 3563 3565 3567 3569 3572 3575 3578 3580 3583 3585 3588 3590 3592 3595 3597 3600 3603 3606 3609 3611 3613 3616 3619 3622 3624 3626 3629 3632 3634 3637 3640 3643 3646 3649 3652 3654 3657 3659 3662 3664 3666 3669 3672 3675 3678 3680 3683 3686 3689 3691 3694 3696 3699 3702 3705 3707 3710 3713 3716 3719 3722 3725 3727 3730 3733 3736 3738 3741 3744 3747 3749 3752 3754 3756 3759 3762 3765 3768 3771 3774 3777 3780 3783 3786 3789 3791 3794 3797 3800 3803 3806 3809 3812 3815 3818 3821 3824 3827 3830 3833 3835 3838 3841 3844 3847 3850 3853 3856 3858 3861 3864 3867 3870 3873 3876 3879 3882 3884 3887 3890 3893 3896 3899 3902 3905 3908 3911 3914 3917 3920 3923 3926 3929 3932 3935 3938 3941 3944 3947 3950 3953 3956 3959 3962 3965 3968 3971 3974 3977 3980 3983 3986 3989 3992 3995 3998 4001 4004 4007 4010 4013 4016 4019 4022 4025 4028 4031 4034 4037 4040 4043 4046 4049 4052 4055 4058 4061 4064 4067 4070 4073 4076 4079 4082 4084 4087 4089 4092 4095 4098 4101 4104 4107 4110 4113 4115 4118 4121 4124 4127 4130 4133 4136 4138 4140 4143 4146 4149 4152 4155 4158 4161 4164 4167 4170 4173 4176 4179 4182 4185 4188 4191 4194 4197 4200 4203 4206 4209 4211 4214 4217 4220 4223 4226 4229 4232 4235 4238 4241 4244 4247 4250 4253 4256 4259 4262 4265 4267 4270 4273 4276 4279 4282 4285 4288 4291 4294 4297 4299 4302 4305 4308 4311 4313 4316 4319 4322 4325 4328 4331 4334 4337 4339 4342 4345 4348 4351 4354 4357 4360 4363 4366 4368 4371 4374 4377 4379 4381 4384 4387 4390 4393 4396 4398 4401 4404 4407 4409 4412 4415 4418 4421 4423 4426 4429 4432 4434 4437 4440 4443 4446 4448 4451 4454 4457 4460 4463 4466 4469 4472 4475 4478 4481 4484 4487 4490 4493 4496 4499 4502 4505 4508 4510 4513 4516 4519 4522 4525 4528 4531 4534 4537 4540 4543 4546 4549 4551 4553 4556 4559 4562 4565 4567 4570 4573 4576 4579 4582 4585 4588 4591 4594 4597 4600 4603 4606 4609 4612 4615 4618 4621 4624 4626 4629 4631 4634 4637 4640 4642 4645 4648 4651 4654 4657 4660 4663 4666 4669 4672 4675 4678 4680 4683 4686 4689 4691 4694 4697 4700 4703 4706 4708 4711 4714 4717 4720 4723 4725 4728 4731 4734 4737 4740 4743 4746 4749 4752 4755 4758 4761 4764 4767 4770 4773 4776 4779 4782 4785 4788 4791 4793 4796 4798 4801 4804 4806 4809 4812 4815 4818 4821 4824 4827 4830 4833 4836 4838 4841 4844 4847 4850 4852 4855 4858 4861 4864 4867 4869 4872 4875 4877 4880 4883 4886 4889 4892 4894 4897 4900 4902 4905 4908 4911 4914 4917 4920 4923 4926 4929 4932 4935 4938 4941 4944 4947 4950 4953 4956 4959 4962 4965 4968 4971 4974 4977 4980 4982 4985 4988 4991 4994 4996 4999 5002 5005 5007 5010 5013 5015 5017 5020 5023 5026 5028 5031 5034 5036 5039 5041 5044 5047 5050 5052 5055 5058 5061 5064 5066 5069 5071 5074 5077 5079 5082 5085 5088 5091 5094 5097 5100 5103 5106 5109 5112 5115 5118 5121 5124 5127 5130 5133 5136 5138 5141 5144 5147 5150 5153 5156 5158 5161 5164 5167 5170 5173 5176 5179 5182 5185 5188 5191 5194 5197 5200 5203 5205 5208 5211 5214 5217 5220 5223 5226 5228 5230 5233 5236 5239 5242 5245 5248 5251 5253 5255 5258 5261 5264 5267 5270 5273 5276 5279 5282 5285 5287 5290 5293 5296 5299 5302 5304 5307 5310 5312 5315 5318 5321 5324 5327 5329 5332 5335 5338 5341 5344 5347 5349 5352 5355 5357 5360 5362 5364 5367 5370 5373 5376 5379 5381 5384 5386 5389 5392 5395 5398 5401 5403 5405 5407 5410 5412 5415 5417 5420 5423 5426 5429 5432 5435 5438 5441 5444 5447 5450 5453 5455 5458 5461 5464 5466 5469 5472 5475 5478 5481 5483 5486 5488 5491 5494 5496 5499 5502 5505 5508 5511 5513 5516 5519 5522 5525 5528 5530 5533 5536 5539 5542 5545 5547 5550 5553 5556 5559 5562 5565 5568 5571 5574 5577 5580 5583 5586 5589 5592 5595 5598 5601 5604 5607 5610 5613 5616 5619 5622 5625 5628 5631 5634 5637 5640 5643 5646 5649 5652 5655 5658 5661 5664 5667 5670 5673 5676 5679 5682 5685 5688 5691 5693 5696 5699 5702 5705 5708 5711 5714 5717 5720 5723 5726 5729 5731 5734 5737 5740 5743 5746 5749 5752 5755 5758 5761 5764 5767 5770 5773 5776 5779 5782 5785 5788 5791 5794 5797 5800 5803 5806 5809 5812 5815 5818 5821 5824 5827 5830 5833 5836 5839 5842 5845 5848 5851 5854 5857 5860 5863 5866 5869 5872 5875 5878 5881 5884 5887 5890 5893 5896 5899 5902 5905 5908 5911 5914 5917 5920 5923 5925 5928 5931 5933 5936 5939 5941 5944 5947 5950 5953 5955 5958 5961 5963 5965 5968 5971 5974 5977 5980 5983 5986 5989 5992 5995 5998 6001 6004 6007 6010 6013 6016 6018 6021 6024 6027 6030 6033 6036 6039 6042 6045 6048 6051 6054 6056 6058 6061 6064 6067 6070 6072 6075 6078 6081 6084 6087 6090 6093 6095 6098 6100 6103 6106 6109 6112 6115 6118 6121 6124 6127 6130 6133 6136 6139 6142 6145 6148 6151 6154 6156 6159 6162 6165 6168 6171 6174 6176 6178 6181 6184 6186 6189 6192 6195 6198 6201 6203 6206 6209 6212 6215 6218 6221 6224 6226 6229 6232 6235 6238 6241 6244 6247 6250 6253 6256 6259 6262 6265 6268 6271 6274 6277 6280 6283 6286 6288 6291 6294 6297 6300 6303 6306 6309 6312 6315 6318 6321 6324 6327 6329 6332 6335 6338 6341 6344 6347 6350 6353 6356 6359 6362 6365 6368 6371 6374 6377 6380 6383 6386 6389 6392 6395 6398 6401 6404 6407 6410 6413 6416 6419 6422 6425 6428 6431 6434 6437 6439 6442 6445 6448 6451 6453 6456 6458 6461 6464 6467 6470 6473 6476 6479 6482 6485 6488 6491 6494 6497 6500 6503 6506 6508 6511 6514 6517 6520 6522 6525 6528 6531 6534 6537 6540 6543 6546 6549 6552 6555 6558 6560 6563 6565 6568 6571 6574 6577 6580 6583 6586 6589 6592 6594 6597 6600 6603 6606 6609 6612 6614 6617 6620 6623 6626 6629 6632 6634 6637 6640 6643 6645 6648 6651 6654 6656 6659 6662 6665 6668 6671 6674 6676 6679 6682 6685 6688 6691 6694 6697 6700 6703 6706 6709 6712 6715 6718 6721 6724 6727 6730 6733 6736 6739 6742 6745 6748 6751 6754 6757 6760 6763 6766 6768 6771 6773 6776 6779 6782 6785 6788 6791 6794 6797 6800 6803 6805 6808 6811 6814 6817 6820 6823 6826 6828 6831 6833 6835 6838 6841 6844 6847 6850 6853 6856 6859 6861 6864 6867 6870 6872 6875 6877 6880 6883 6886 6889 6892 6895 6897 6900 6903 6906 6909 6912 6915 6918 6921 6924 6927 6929 6932 6935 6938 6941 6944 6947 6949 6952 6954 6957 6960 6963 6965 6968 6971 6974 6977 6979 6982 6985 6988 6991 6994 6997 7000 7003 7006 7009 7012 7015 7018 7021 7024 7027 7030 7033 7036 7039 7042 7045 7048 7051 7054 7057 7060 7063 7066 7069 7072 7075 7078 7081 7084 7087 7090 7093 7096 7099 7102 7105 7108 7110 7113 7116 7119 7122 7125 7128 7131 7134 7137 7140 7142 7145 7148 7151 7153 7156 7159 7161 7164 7166 7169 7172 7175 7178 7181 7183 7186 7189 7192 7195 7198 7201 7204 7207 7210 7213 7215 7218 7221 7224 7227 7230 7232 7235 7238 7241 7244 7246 7249 7251 7254 7257 7260 7263 7266 7269 7272 7275 7278 7281 7284 7287 7290 7293 7296 7299 7301 7303 7306 7309 7311 7314 7317 7320 7323 7326 7329 7332 7335 7338 7341 7344 7347 7350 7353 7356 7359 7362 7365 7368 7371 7374 7377 7380 7382 7385 7388 7391 7393 7396 7399 7402 7405 7408 7411 7414 7417 7420 7422 7425 7428 7431 7433 7436 7439 7441 7444 7447 7449 7452 7455 7458 7461 7464 7467 7470 7473 7476 7479 7481 7484 7487 7489 7492 7495 7498 7501 7504 7507 7510 7513 7516 7519 7522 7525 7528 7531 7533 7536 7539 7542 7545 7548 7551 7554 7557 7560 7563 7566 7568 7571 7574 7577 7579 7582 7585 7588 7591 7594 7597 7600 7603 7606 7609 7612 7614 7617 7620 7623 7626 7629 7632 7634 7637 7640 7643 7646 7648 7650 7653 7656 7659 7662 7665 7667 7670 7673 7676 7679 7682 7685 7688 7691 7694 7697 7700 7703 7706 7709 7712 7715 7718 7721 7724 7727 7730 7733 7736 7738 7741 7744 7747 7749 7752 7755 7757 7760 7763 7765 7768 7771 7774 7777 7780 7783 7786 7789 7792 7795 7798 7801 7804 7807 7810 7813 7816 7819 7822 7825 7827 7830 7833 7836 7838 7841 7844 7847 7850 7853 7856 7859 7862 7865 7868 7871 7874 7876 7879 7882 7885 7888 7891 7894 7897 7899 7902 7905 7908 7911 7914 7917 7920 7923 7926 7929 7932 7935 7937 7940 7943 7946 7948 7951 7954 7957 7959 7962 7964 7967 7970 7973 7976 7979 7982 7985 7988 7991 7994 7997 7999 8002 8005 8008 8011 8014 8016 8019 8022 8025 8028 8031 8034 8037 8040 8043 8046 8049 8052 8055 8058 8061 8064 8067 8070 8073 8076 8079 8082 8085 8088 8091 8094 8097 8099 8102 8104 8107 8109 8112 8115 8118 8121 8124 8127 8130 8133 8136 8139 8142 8145 8148 8151 8154 8157 8160 8163 8166 8169 8172 8175 8177 8180 8183 8186 8189 8191 8194 8196 8199 8202 8205 8208 8211 8214 8217 8220 8223 8225 8228 8231 8234 8237 8239 8241 8244 8247 8249 8252 8255 8258 8261 8264 8267 8270 8272 8275 8278 8281 8283 8285 8288 8290 8292 8295 8298 8301 8304 8306 8308 8310 8313 8316 8319 8322 8325 8328 8331 8333 8336 8339 8342 8345 8348 8351 8354 8357 8360 8362 8365 8368 8371 8374 8377 8380 8383 8386 8388 8391 8394 8397 8399 8402 8405 8408 8411 8414 8417 8420 8423 8426 8429 8432 8435 8438 8441 8444 8446 8449 8452 8455 8458 8461 8464 8466 8469 8472 8475 8477 8479 8482 8484 8487 8490 8493 8496 8499 8502 8505 8508 8511 8514 8517 8520 8523 8526 8529 8532 8535 8538 8541 8544 8547 8550 8553 8555 8558 8560 8562 8565 8568 8571 8574 8577 8580 8583 8585 8588 8591 8594 8596 8599 8602 8604 8607 8610 8613 8616 8619 8621 8624 8627 8630 8633 8636 8639 8642 8645 8648 8651 8654 8657 8659 8662 8665 8668 8671 8674 8676 8679 8682 8685 8688 8690 8693 8695 8698 8701 8704 8707 8710 8713 8715 8718 8721 8723 8726 8728 8731 8734 8737 8740 8742 8745 8748 8751 8754 8756 8759 8761 8764 8767 8770 8773 8776 8778 8781 8784 8787 8790 8793 8796 8799 8802 8805 8808 8811 8814 8817 8820 8823 8826 8829 8832 8835 8838 8841 8844 8847 8850 8853 8856 8859 8862 8865 8868 8871 8874 8877 8880 8883 8886 8889 8892 8894 8897 8900 8902 8905 8908 8911 8914 8917 8920 8923 8926 8929 8932 8935 8938 8941 8944 8947 8950 8953 8956 8958 8961 8964 8966 8969 8972 8975 8978 8981 8984 8987 8990 8993 8996 8999 9002 9005 9008 9011 9014 9017 9020 9023 9026 9029 9032 9035 9038 9041 9044 9047 9050 9053 9056 9059 9062 9065 9068 9071 9074 9077 9080 9083 9086 9089 9092 9095 9098 9101 9104 9107 9110 9113 9116 9119 9121 9124 9127 9130 9133 9136 9139 9142 9144 9147 9150 9153 9156 9159 9162 9165 9168 9171 9174 9177 9180 9183 9186 9189 9192 9195 9198 9201 9203 9206 9208 9211 9214 9217 9220 9223 9226 9229 9232 9235 9238 9240 9242 9245 9248 9251 9254 9257 9260 9263 9266 9269 9272 9275 9278 9281 9284 9287 9290 9293 9296 9299 9302 9305 9307 9310 9313 9316 9319 9322 9325 9327 9330 9333 9336 9339 9342 9345 9348 9351 9354 9357 9360 9363 9366 9369 9372 9375 9377 9380 9383 9385 9388 9391 9394 9396 9399 9402 9405 9407 9410 9413 9416 9419 9422 9424 9427 9430 9433 9436 9439 9442 9445 9447 9450 9453 9456 9459 9462 9465 9468 9470 9472 9475 9477 9479 9482 9485 9487 9490 9492 9495 9498 9501 9503 9506 9508 9511 9513 9516 9519 9521 9524 9527 9530 9533 9536 9538 9541 9544 9546 9549 9551 9554 9557 9560 9563 9565 9568 9571 9574 9577 9580 9582 9585 9588 9590 9593 9596 9599 9602 9604 9607 9610 9613 9615 9618 9621 9623 9626 9629 9631 9634 9637 9640 9643 9646 9649 9652 9655 9658 9661 9664 9666 9669 9672 9675 9677 9680 9682 9685 9688 9691 9694 9697 9700 9703 9706 9709 9712 9715 9718 9721 9724 9726 9729 9732 9734 9737 9740 9743 9746 9749 9752 9754 9757 9759 9762 9765 9768 9771 9774 9777 9780 9783 9785 9788 9790 9793 9795 9797 9800 9803 9805 9808 9811 9814 9817 9820 9823 9826 9829 9832 9835 9838 9841 9844 9847 9850 9853 9856 9859 9862 9865 9868 9871 9874 9877 9880 9883 9886 9888 9891 9894 9897 9900 9903 9906 9909 9912 9914 9917 9920 9923 9926 9929 9931 9934 9937 9940 9943 9946 9949 9952 9955 9958 9961 9964 9967 9970 9973 9975 9978 9981 9984 9987 9990 9993 9995 9997 10000 10003 10006 10008 10011 10014 10017 10019 10022 10024 10026 10029 10032 10035 10038 10041 10044 10046 10049 10052 10055 10058 10061 10063 10066 10069 10072 10075 10078 10081 10083 10086 10089 10092 10095 10098 10101 10104 10107 10109 10112 10114 10116 10119 10122 10125 10127 10130 10133 10136 10139 10142 10144 10147 10150 10153 10156 10158 10161 10164 10167 10170 10173 10175 10178 10181 10184 10186 10189 10192 10195 10198 10200 10203 10206 10209 10212 10215 10218 10220 10223 10226 10229 10231 10234 10237 10240 10243 10246 10249 10252 10255 10258 10261 10264 10266 10269 10271 10274 10277 10280 10282 10284 10287 10290 10292 10295 10298 10301 10304 10307 10310 10313 10316 10319 10322 10325 10328 10331 10334 10336 10339 10342 10344 10347 10350 10353 10356 10358 10361 10364 10367 10370 10373 10376 10379 10382 10385 10388 10390 10393 10396 10398 10401 10404 10407 10410 10413 10416 10419 10422 10425 10428 10431 10433 10436 10439 10442 10445 10447 10450 10453 10456 10459 10461 10464 10467 10470 10473 10476 10479 10482 10485 10488 10491 10494 10497 10500 10503 10506 10509 10512 10515 10518 10521 10524 10526 10529 10532 10535 10538 10541 10544 10546 10549 10552 10555 10558 10561 10564 10567 10570 10573 10575 10578 10581 10584 10587 10590 10593 10595 10598 10601 10603 10606 10609 10612 10615 10618 10621 10624 10627 10630 10633 10636 10639 10642 10645 10648 10651 10654 10657 10660 10663 10666 10669 10671 10674 10677 10680 10683 10685 10688 10690 10693 10695 10698 10701 10704 10707 10710 10713 10716 10719 10722 10725 10728 10731 10734 10737 10740 10743 10746 10749 10751 10754 10757 10760 10763 10766 10768 10771 10774 10776 10779 10782 10784 10787 10790 10793 10795 10798 10801 10804 10807 10809 10812 10815 10818 10821 10824 10827 10830 10833 10836 10839 10842 10844 10847 10850 10853 10855 10858 10861 10864 10867 10869 10872 10875 10877 10880 10883 10886 10889 10892 10895 10898 10901 10904 10907 10910 10913 10916 10919 10922 10924 10926 10929 10932 10934 10936 10939 10942 10945 10948 10951 10954 10956 10959 10961 10963 10966 10969 10972 10975 10977 10980 10983 10986 10989 10992 10995 10998 11000 11003 11006 11009 11012 11015 11018 11021 11023 11026 11029 11032 11035 11038 11041 11044 11047 11050 11053 11056 11059 11062 11065 11067 11070 11073 11076 11079 11082 11085 11088 11091 11094 11097 11100 11102 11104 11107 11110 11113 11116 11119 11122 11125 11128 11131 11133 11136 11139 11142 11145 11147 11150 11153 11156 11158 11160 11163 11166 11168 11171 11174 11177 11180 11183 11186 11188 11191 11194 11197 11200 11202 11204 11207 11210 11213 11216 11219 11221 11224 11227 11230 11233 11236 11239 11242 11245 11248 11250 11253 11256 11258 11261 11264 11266 11269 11272 11275 11277 11280 11283 11286 11288 11290 11293 11295 11298 11300 11303 11306 11309 11312 11315 11318 11321 11324 11327 11329 11332 11335 11338 11341 11344 11347 11350 11353 11356 11359 11362 11365 11368 11370 11373 11376 11379 11382 11385 11388 11391 11394 11397 11400 11403 11406 11408 11411 11414 11417 11420 11423 11426 11429 11431 11434 11437 11440 11442 11445 11448 11451 11454 11457 11460 11462 11465 11468 11471 11473 11476 11479 11482 11485 11488 11491 11494 11497 11500 11502 11505 11508 11511 11514 11517 11520 11523 11525 11528 11531 11534 11537 11540 11543 11546 11549 11552 11555 11558 11561 11564 11566 11569 11572 11574 11577 11579 11582 11585 11588 11591 11594 11597 11600 11603 11606 11609 11612 11615 11618 11621 11624 11627 11630 11633 11636 11639 11642 11644 11647 11650 11653 11656 11658 11661 11664 11667 11670 11672 11675 11677 11680 11682 11685 11688 11691 11694 11696 11699 11702 11705 11708 11711 11714 11717 11720 11723 11725 11727 11730 11732 11735 11738 11741 11744 11746 11749 11751 11754 11757 11760 11763 11766 11769 11772 11775 11778 11781 11784 11787 11790 11793 11796 11799 11802 11805 11808 11811 11814 11817 11820 11823 11825 11828 11831 11834 11837 11840 11843 11846 11849 11852 11855 11858 11861 11864 11867 11870 11873 11876 11879 11882 11885 11888 11891 11893 11896 11899 11902 11905 11907 11909 11912 11915 11918 11921 11924 11927 11930 11933 11936 11939 11942 11944 11947 11950 11953 11956 11959 11962 11965 11968 11971 11974 11977 11980 11983 11986 11989 11992 11995 11998 12001 12004 12007 12010 12013 12016 12019 12022 12025 12027 12030 12033 12036 12039 12042 12044 12047 12050 12053 12056 12059 12062 12065 12067 12069 12072 12075 12078 12081 12084 12086 12089 12092 12095 12097 12100 12103 12105 12108 12111 12114 12117 12120 12122 12125 12128 12130 12133 12136 12139 12142 12144 12147 12150 12152 12155 12158 12161 12163 12166 12169 12172 12175 12177 12179 12181 12183 12186 12189 12192 12194 12197 12200 12203 12206 12209 12212 12215 12218 12221 12224 12227 12230 12232 12235 12238 12240 12243 12246 12249 12251 12254 12257 12260 12263 12266 12268 12271 12274 12277 12280 12283 12286 12288 12291 12294 12297 12300 12303 12306 12309 12312 12315 12317 12320 12323 12325 12328 12331 12334 12337 12340 12343 12346 12349 12352 12355 12358 12361 12364 12366 12369 12372 12375 12378 12381 12384 12386 12389 12392 12395 12397 12400 12403 12406 12408 12411 12414 12417 12420 12423 12426 12429 12432 12435 12438 12441 12444 12447 12450 12453 12456 12459 12462 12465 12468 12471 12473 12476 12479 12482 12485 12487 12490 12493 12495 12497 12500 12503 12505 12507 12510 12513 12516 12518 12521 12524 12527 12530 12532 12534 12536 12538 12541 12544 12547 12550 12553 12556 12559 12562 12565 12568 12571 12574 12576 12579 12582 12585 12588 12591 12594 12597 12600 12603 12606 12609 12612 12615 12617 12620 12623 12625 12627 12630 12633 12635 12638 12641 12644 12647 12650 12653 12655 12658 12661 12664 12667 12669 12671 12673 12676 12679 12682 12685 12688 12691 12693 12696 12699 12702 12705 12707 12710 12713 12716 12718 12720 12722 12725 12728 12731 12734 12737 12739 12742 12745 12748 12750 12753 12756 12759 12762 12764 12767 12770 12773 12775 12778 12781 12784 12787 12790 12793 12796 12799 12802 12805 12808 12811 12813 12816 12819 12822 12825 12828 12831 12834 12837 12840 12842 12845 12848 12851 12854 12856 12859 12862 12865 12868 12871 12874 12876 12879 12882 12885 12888 12890 12893 12896 12898 12901 12904 12907 12910 12913 12916 12919 12922 12925 12928 12931 12934 12937 12940 12943 12946 12948 12951 12954 12957 12959 12962 12965 12968 12970 12973 12975 12978 12981 12984 12987 12990 12993 12996 12999 13002 13004 13007 13010 13012 13015 13018 13021 13024 13027 13030 13033 13036 13039 13042 13045 13048 13051 13053 13056 13059 13062 13065 13067 13070 13073 13076 13078 13081 13084 13086 13089 13092 13095 13098 13101 13104 13107 13110 13113 13116 13119 13122 13125 13127 13130 13132 13135 13138 13141 13144 13147 13149 13151 13154 13157 13159 13162 13165 13168 13170 13173 13176 13179 13182 13185 13187 13189 13192 13195 13198 13200 13203 13206 13209 13212 13214 13217 13220 13223 13226 13229 13232 13234 13237 13239 13242 13245 13248 13251 13254 13257 13260 13263 13266 13269 13272 13274 13277 13280 13283 13286 13289 13292 13295 13297 13300 13303 13306 13309 13311 13314 13317 13320 13323 13326 13328 13331 13334 13336 13339 13341 13343 13346 13349 13352 13355 13358 13361 13363 13366 13369 13372 13375 13378 13381 13384 13387 13390 13393 13396 13399 13402 13405 13407 13410 13412 13415 13418 13421 13423 13426 13429 13432 13435 13438 13441 13444 13447 13450 13453 13456 13459 13462 13465 13467 13470 13473 13476 13479 13482 13485 13488 13491 13494 13497 13500 13503 13506 13509 13512 13515 13518 13521 13524 13527 13529 13532 13534 13537 13540 13543 13545 13548 13551 13554 13557 13560 13563 13566 13569 13572 13575 13578 13581 13583 13586 13588 13591 13594 13596 13599 13602 13605 13608 13610 13613 13616 13619 13622 13625 13628 13631 13634 13637 13640 13643 13646 13649 13652 13655 13658 13660 13663 13666 13669 13672 13674 13676 13679 13682 13684 13687 13690 13693 13696 13698 13701 13703 13706 13708 13711 13714 13717 13720 13723 13726 13729 13731 13734 13737 13740 13743 13746 13749 13752 13755 13758 13760 13763 13766 13769 13772 13775 13778 13781 13784 13787 13790 13792 13795 13798 13800 13803 13806 13809 13812 13814 13817 13820 13822 13825 13827 13830 13833 13836 13839 13842 13845 13848 13851 13854 13857 13860 13863 13866 13869 13872 13875 13878 13881 13884 13887 13890 13893 13896 13899 13902 13905 13908 13911 13914 13916 13918 13921 13924 13927 13929 13932 13935 13937 13940 13943 13945 13948 13951 13954 13957 13960 13963 13966 13969 13972 13974 13977 13980 13983 13986 13989 13991 13994 13996 13999 14002 14005 14007 14010 14012 14015 14018 14021 14023 14026 14029 14032 14035 14038 14040 14043 14046 14049 14052 14054 14057 14060 14062 14065 14068 14071 14074 14077 14080 14083 14086 14089 14092 14095 14098 14101 14104 14107 14110 14113 14116 14119 14122 14125 14128 14131 14134 14137 14140 14143 14145 14148 14151 14154 14157 14160 14163 14166 14169 14172 14175 14177 14180 14183 14186 14189 14192 14195 14198 14201 14204 14207 14209 14212 14215 14218 14221 14224 14227 14230 14233 14236 14239 14242 14245 14248 14251 14254 14257 14260 14263 14266 14269 14272 14275 14278 14281 14284 14287 14289 14292 14295 14298 14301 14304 14307 14310 14313 14316 14319 14321 14324 14327 14329 14332 14335 14338 14341 14344 14346 14349 14352 14355 14358 14361 14364 14367 14370 14373 14376 14379 14382 14385 14388 14391 14394 14397 14400 14403 14406 14409 14412 14415 14418 14420 14423 14426 14429 14432 14435 14437 14440 14443 14446 14449 14452 14455 14458 14460 14463 14465 14468 14471 14474 14477 14480 14483 14486 14489 14492 14495 14498 14501 14504 14507 14510 14513 14516 14519 14522 14525 14528 14530 14533 14535 14537 14540 14542 14545 14548 14550 14553 14555 14558 14560 14562 14564 14566 14569 14572 14574 14576 14579 14581 14584 14587 14590 14592 14595 14598 14600 14603 14606 14608 14611 14614 14617 14620 14623 14626 14628 14631 14634 14637 14639 14642 14645 14648 14651 14654 14657 14660 14663 14666 14669 14672 14675 14678 14681 14684 14687 14690 14692 14695 14698 14701 14704 14707 14709 14712 14715 14718 14721 14724 14727 14730 14733 14735 14737 14740 14742 14745 14747 14750 14753 14756 14759 14761 14764 14767 14770 14773 14776 14779 14781 14784 14787 14790 14793 14796 14799 14802 14805 14808 14811 14814 14817 14820 14823 14826 14829 14831 14834 14837 14840 14843 14846 14849 14852 14855 14858 14861 14864 14867 14870 14873 14876 14879 14882 14884 14887 14890 14893 14895 14898 14901 14904 14907 14910 14913 14916 14919 14922 14925 14928 14930 14933 14936 14939 14942 14944 14947 14950 14953 14956 14959 14961 14964 14967 14970 14973 14976 14979 14982 14985 14988 14991 14993 14996 14998 15001 15004 15007 15009 15012 15014 15017 15020 15022 15025 15028 15031 15034 15036 15039 15042 15045 15048 15051 15054 15056 15059 15062 15065 15068 15071 15073 15076 15079 15082 15085 15088 15091 15094 15097 15100 15103 15106 15108 15111 15114 15117 15120 15123 15125 15128 15131 15134 15137 15140 15143 15146 15149 15152 15155 15158 15160 15163 15166 15169 15172 15175 15178 15180 15183 15186 15189 15192 15195 15198 15201 15204 15207 15210 15213 15216 15219 15222 15225 15228 15231 15234 15236 15239 15242 15245 15248 15250 15253 15256 15259 15262 15265 15268 15271 15274 15277 15280 15282 15285 15288 15291 15293 15295 15298 15301 15304 15307 15309 15312 15315 15318 15321 15324 15327 15330 15333 15336 15338 15341 15344 15347 15350 15352 15355 15358 15360 15362 15365 15368 15370 15372 15375 15378 15381 15383 15386 15389 15391 15393 15396 15398 15400 15403 15406 15409 15411 15414 15416 15419 15422 15424 15427 15429 15432 15434 15436 15439 15442 15445 15448 15451 15454 15456 15458 15461 15464 15466 15468 15471 15474 15477 15480 15482 15485 15488 15490 15493 15496 15499 15502 15504 15506 15509 15511 15514 15517 15519 15522 15525 15528 15531 15534 15537 15540 15543 15546 15549 15552 15555 15558 15560 15562 15565 15568 15571 15574 15577 15580 15583 15585 15588 15591 15594 15597 15600 15603 15606 15609 15611 15614 15617 15620 15623 15626 15628 15631 15633 15636 15639 15641 15644 15646 15649 15652 15655 15658 15661 15663 15666 15669 15671 15673 15675 15678 15681 15684 15686 15689 15692 15695 15698 15701 15703 15706 15709 15712 15715 15718 15721 15723 15726 15729 15732 15735 15738 15740 15743 15746 15749 15752 15755 15758 15761 15764 15767 15770 15773 15775 15778 15781 15783 15786 15789 15791 15794 15796 15799 15802 15804 15807 15810 15813 15816 15819 15821 15823 15826 15829 15832 15835 15837 15840 15843 15846 15849 15852 15855 15858 15861 15864 15867 15870 15873 15876 15879 15882 15884 15887 15890 15893 15896 15899 15901 15904 15907 15909 15912 15915 15918 15921 15924 15927 15929 15932 15935 15938 15941 15944 15947 15950 15953 15955 15958 15960 15963 15966 15969 15971 15973 15976 15978 15981 15984 15987 15990 15992 15994 15997 16000 16002 16005 16008 16011 16014 16016 16019 16022 16025 16027 16030 16033 16036 16039 16042 16045 16048 16051 16054 16057 16060 16063 16066 16069 16072 16075 16077 16080 16083 16086 16089 16091 16094 16097 16100 16102 16105 16108 16111 16114 16117 16119 16122 16125 16128 16131 16134 16137 16140 16143 16146 16149 16152 16154 16157 16159 16162 16165 16168 16171 16173 16176 16179 16182 16185 16188 16191 16194 16197 16199 16202 16205 16208 16211 16214 16216 16219 16222 16224 16227 16229 16232 16235 16238 16241 16244 16247 16249 16252 16254 16256 16259 16262 16265 16268 16270 16273 16275 16277 16280 16283 16286 16289 16292 16295 16298 16301 16304 16307 16310 16313 16316 16318 16321 16323 16326 16329 16332 16335 16338 16341 16344 16346 16349 16352 16355 16358 16360 16363 16366 16368 16371 16374 16377 16380 16383 16386 16389 16392 16395 16398 16401 16404 16407 16410 16413 16416 16419 16422 16424 16426 16429 16432 16434 16437 16440 16443 16445 16448 16451 16454 16457 16460 16463 16466 16469 16472 16475 16478 16481 16484 16487 16490 16493 16496 16499 16502 16505 16508 16511 16514 16517 16520 16523 16526 16529 16532 16535 16538 16541 16544 16547 16550 16553 16556 16559 16562 16564 16567 16570 16573 16576 16579 16582 16584 16587 16590 16593 16596 16599 16602 16605 16608 16611 16614 16617 16619 16622 16625 16628 16631 16634 16637 16640 16643 16646 16649 16652 16654 16657 16660 16663 16665 16668 16671 16674 16677 16680 16683 16686 16688 16691 16694 16697 16700 16703 16706 16709 16712 16715 16718 16721 16724 16726 16729 16732 16735 16737 16740 16743 16746 16749 16752 16755 16758 16761 16764 16766 16769 16772 16775 16778 16781 16784 16787 16789 16792 16794 16797 16800 16802 16805 16808 16811 16814 16816 16819 16821 16824 16827 16829 16832 16835 16838 16841 16844 16847 16849 16852 16855 16858 16861 16864 16867 16870 16873 16876 16878 16880 16883 16886 16889 16892 16894 16896 16899 16901 16903 16906 16909 16912 16915 16918 16920 16923 16926 16929 16932 16935 16938 16941 16943 16946 16949 16952 16955 16958 16961 16964 16966 16969 16972 16975 16978 16981 16984 16987 16990 16993 16996 16999 17002 17005 17008 17011 17014 17017 17020 17022 17024 17027 17029 17032 17035 17038 17041 17043 17045 17048 17051 17054 17057 17060 17063 17066 17069 17072 17075 17078 17081 17084 17087 17090 17093 17096 17099 17102 17105 17108 17111 17114 17117 17120 17123 17126 17129 17132 17135 17138 17141 17144 17147 17150 17153 17156 17159 17162 17165 17168 17171 17174 17177 17180 17183 17186 17189 17192 17195 17198 17201 17204 17207 17210 17213 17216 17219 17222 17225 17228 17231 17234 17237 17240 17243 17246 17249 17252 17255 17258 17261 17264 17267 17270 17273 17276 17279 17282 17285 17287 17290 17293 17295 17298 17301 17304 17307 17310 17313 17316 17319 17322 17325 17328 17331 17334 17337 17340 17343 17346 17349 17352 17355 17358 17361 17364 17367 17369 17372 17375 17378 17381 17384 17387 17390 17393 17396 17399 17402 17405 17408 17411 17414 17417 17420 17423 17425 17427 17430 17433 17436 17439 17442 17444 17447 17449 17452 17454 17457 17460 17463 17466 17468 17471 17474 17477 17479 17482 17485 17488 17491 17494 17497 17500 17503 17506 17509 17512 17515 17518 17521 17523 17526 17529 17532 17535 17538 17541 17544 17547 17550 17553 17556 17559 17561 17564 17566 17569 17572 17575 17578 17581 17584 17586 17589 17592 17595 17598 17601 17604 17606 17609 17612 17615 17617 17620 17623 17626 17629 17632 17635 17638 17641 17644 17647 17650 17653 17656 17659 17662 17664 17666 17669 17672 17675 17678 17681 17684 17687 17690 17693 17696 17699 17702 17705 17708 17711 17714 17717 17720 17723 17726 17728 17731 17734 17737 17740 17742 17745 17748 17751 17754 17757 17760 17763 17765 17768 17770 17773 17775 17778 17781 17784 17786 17789 17792 17795 17797 17800 17802 17805 17808 17811 17813 17816 17818 17821 17824 17826 17829 17832 17835 17837 17840 17842 17845 17848 17851 17853 17856 17858 17861 17863 17866 17869 17872 17875 17878 17881 17883 17885 17888 17891 17894 17897 17900 17903 17906 17909 17912 17915 17917 17919 17921 17924 17926 17929 17932 17935 17937 17940 17943 17946 17949 17952 17955 17958 17961 17964 17967 17970 17973 17975 17978 17980 17983 17986 17989 17992 17995 17998 18001 18004 18007 18010 18013 18016 18019 18022 18025 18028 18031 18034 18037 18040 18043 18046 18049 18052 18055 18057 18060 18063 18066 18069 18072 18075 18078 18081 18084 18087 18090 18093 18095 18098 18101 18104 18107 18110 18113 18116 18119 18122 18125 18128 18131 18134 18137 18140 18143 18146 18149 18152 18155 18158 18161 18164 18166 18169 18171 18174 18177 18180 18183 18186 18189 18192 18195 18198 18201 18203 18206 18209 18211 18214 18217 18220 18223 18225 18228 18231 18234 18237 18239 18242 18245 18248 18251 18254 18257 18260 18263 18266 18268 18271 18274 18277 18280 18283 18285 18288 18291 18294 18297 18300 18303 18306 18309 18312 18315 18318 18321 18324 18327 18330 18333 18336 18339 18342 18344 18347 18350 18353 18356 18359 18362 18365 18368 18370 18373 18375 18378 18381 18384 18387 18390 18393 18396 18399 18402 18405 18408 18411 18414 18417 18420 18423 18425 18428 18431 18434 18436 18439 18442 18445 18447 18450 18453 18456 18459 18461 18464 18467 18470 18473 18475 18478 18481 18484 18487 18490 18493 18496 18498 18501 18504 18507 18510 18513 18516 18519 18522 18525 18528 18531 18534 18536 18539 18542 18545 18548 18551 18554 18557 18560 18563 18566 18569 18572 18574 18577 18580 18582 18585 18588 18591 18594 18597 18600 18603 18606 18609 18612 18615 18618 18621 18624 18627 18630 18633 18636 18638 18641 18644 18647 18649 18652 18654 18657 18660 18663 18666 18669 18672 18675 18678 18681 18684 18687 18690 18693 18695 18698 18701 18704 18707 18710 18713 18716 18719 18722 18725 18728 18731 18734 18737 18740 18743 18746 18749 18752 18755 18758 18761 18763 18766 18769 18772 18774 18777 18780 18783 18786 18789 18792 18794 18796 18799 18802 18805 18808 18811 18814 18817 18820 18823 18825 18828 18831 18834 18837 18840 18843 18846 18849 18852 18855 18858 18861 18864 18867 18870 18872 18875 18878 18880 18883 18886 18889 18892 18895 18898 18901 18904 18907 18910 18913 18916 18919 18921 18924 18927 18929 18932 18935 18938 18940 18943 18946 18949 18952 18955 18958 18961 18963 18966 18969 18971 18974 18977 18980 18983 18986 18989 18992 18995 18998 19001 19004 19007 19010 19013 19016 19019 19022 19025 19028 19031 19034 19037 19040 19043 19046 19048 19051 19054 19057 19060 19063 19066 19069 19072 19075 19078 19081 19084 19087 19090 19093 19096 19099 19101 19104 19107 19109 19112 19115 19118 19121 19124 19127 19130 19133 19136 19139 19142 19145 19148 19151 19154 19157 19160 19163 19166 19169 19172 19175 19178 19181 19184 19187 19190 19193 19195 19198 19201 19204 19207 19209 19212 19215 19217 19220 19223 19225 19228 19231 19234 19236 19239 19242 19245 19248 19250 19253 19256 19258 19261 19264 19267 19270 19273 19276 19279 19282 19285 19288 19291 19293 19295 19298 19301 19304 19306 19309 19312 19315 19318 19321 19324 19327 19330 19333 19336 19339 19342 19345 19348 19351 19354 19357 19360 19363 19366 19368 19371 19374 19377 19380 19382 19385 19388 19391 19393 19396 19398 19401 19404 19407 19409 19412 19415 19418 19421 19424 19427 19430 19433 19436 19438 19441 19443 19446 19449 19451 19454 19457 19460 19463 19466 19469 19472 19475 19478 19481 19483 19486 19489 19492 19495 19497 19500 19503 19506 19509 19512 19515 19517 19520 19523 19526 19529 19532 19535 19538 19541 19544 19547 19550 19553 19556 19559 19561 19564 19567 19570 19573 19576 19579 19582 19585 19588 19590 19593 19596 19598 19601 19604 19606 19609 19612 19615 19618 19621 19624 19627 19630 19633 19636 19639 19642 19645 19648 19651 19654 19657 19660 19663 19666 19669 19671 19674 19677 19680 19683 19685 19688 19691 19694 19697 19700 19703 19706 19709 19712 19715 19717 19720 19723 19726 19729 19731 19734 19736 19739 19742 19744 19747 19750 19753 19756 19759 19762 19765 19768 19770 19773 19776 19778 19781 19783 19786 19789 19791 19794 19797 19800 19803 19805 19808 19811 19814 19816 19819 19822 19825 19827 19830 19833 19836 19839 19842 19845 19847 19850 19853 19856 19859 19861 19864 19867 19870 19872 19875 19878 19881 19884 19887 19890 19893 19896 19899 19901 19904 19907 19910 19913 19916 19918 19921 19924 19927 19929 19932 19935 19938 19941 19944 19947 19950 19953 19956 19959 19962 19965 19967 19970 19973 19976 19979 19982 19985 19987 19990 19993 19995 19998 20000 20002 20005 20008 20011 20014 20017 20020 20022 20025 20028 20031 20034 20037 20040 20043 20045 20048 20051 20053 20056 20059 20062 20065 20067 20070 20073 20075 20078 20081 20084 20087 20090 20093 20096 20099 20102 20105 20108 20111 20114 20117 20120 20123 20126 20128 20131 20134 20137 20140 20143 20145 20148 20151 20154 20157 20160 20163 20166 20169 20171 20174 20177 20180 20183 20186 20189 20192 20194 20197 20200 20203 20206 20209 20212 20215 20218 20221 20224 20227 20230 20233 20236 20239 20242 20245 20248 20251 20253 20256 20259 20262 20264 20267 20270 20273 20275 20278 20280 20283 20286 20289 20292 20295 20298 20301 20304 20306 20309 20311 20313 20316 20319 20322 20325 20328 20331 20334 20336 20339 20342 20344 20346 20348 20351 20354 20356 20358 20361 20363 20366 20369 20372 20374 20377 20380 20382 20385 20388 20390 20393 20396 20399 20402 20404 20406 20409 20412 20415 20418 20421 20424 20427 20430 20433 20436 20439 20442 20445 20448 20451 20454 20457 20460 20463 20466 20469 20472 20475 20478 20481 20484 20487 20490 20493 20496 20499 20502 20505 20507 20510 20513 20515 20518 20521 20524 20527 20529 20532 20535 20538 20541 20544 20547 20550 20553 20556 20559 20562 20565 20568 20571 20574 20577 20579 20582 20585 20588 20591 20593 20596 20599 20601 20604 20607 20610 20613 20616 20619 20622 20625 20628 20631 20634 20636 20639 20642 20645 20648 20651 20654 20657 20660 20663 20666 20669 20672 20675 20678 20681 20684 20687 20690 20693 20696 20698 20701 20704 20707 20710 20713 20716 20719 20722 20725 20728 20731 20734 20737 20740 20743 20745 20748 20751 20754 20756 20759 20762 20765 20768 20771 20774 20777 20780 20783 20786 20789 20792 20795 20797 20800 20803 20806 20809 20812 20815 20818 20821 20824 20827 20830 20833 20836 20839 20842 20845 20848 20851 20854 20857 20860 20863 20866 20869 20872 20875 20878 20881 20884 20887 20890 20893 20896 20899 20902 20905 20908 20911 20914 20917 20920 20923 20926 20929 20932 20934 20937 20940 20942 20945 20948 20951 20953 20956 20959 20962 20965 20968 20971 20974 20977 20980 20983 20986 20989 20992 20995 20998 21001 21004 21007 21010 21013 21016 21019 21022 21025 21028 21031 21034 21036 21039 21042 21045 21048 21051 21054 21057 21059 21062 21065 21068 21071 21074 21077 21079 21082 21085 21088 21091 21094 21097 21100 21103 21106 21108 21111 21114 21116 21118 21120 21123 21126 21129 21131 21134 21137 21140 21143 21145 21147 21150 21153 21156 21158 21161 21164 21167 21170 21173 21176 21179 21182 21185 21188 21191 21194 21197 21200 21203 21206 21209 21212 21215 21218 21221 21224 21226 21229 21232 21235 21238 21241 21244 21247 21250 21253 21256 21259 21262 21265 21268 21271 21274 21276 21279 21282 21285 21288 21290 21293 21296 21299 21302 21304 21307 21310 21313 21316 21319 21322 21325 21328 21331 21333 21336 21339 21342 21345 21348 21351 21354 21357 21360 21363 21366 21368 21371 21374 21376 21379 21382 21385 21388 21391 21393 21396 21399 21402 21405 21407 21410 21413 21416 21419 21421 21424 21427 21430 21433 21436 21439 21442 21445 21448 21451 21454 21456 21459 21462 21465 21468 21471 21474 21477 21480 21483 21486 21489 21492 21495 21498 21501 21504 21507 21510 21513 21516 21519 21522 21525 21528 21531 21534 21537 21539 21542 21545 21548 21551 21554 21557 21560 21563 21566 21569 21572 21575 21578 21581 21584 21587 21590 21593 21596 21599 21602 21604 21607 21610 21612 21615 21618 21621 21624 21627 21629 21632 21635 21638 21641 21644 21646 21648 21651 21654 21657 21660 21662 21665 21667 21670 21673 21676 21679 21682 21685 21688 21691 21694 21697 21700 21703 21706 21709 21712 21715 21718 21721 21724 21727 21730 21733 21736 21739 21741 21744 21747 21750 21753 21756 21759 21762 21765 21768 21771 21774 21777 21780 21783 21786 21789 21792 21795 21798 21801 21804 21807 21809 21812 21815 21818 21821 21824 21827 21829 21832 21834 21836 21839 21842 21845 21848 21851 21854 21857 21860 21863 21866 21869 21872 21875 21878 21881 21884 21887 21890 21893 21896 21898 21901 21904 21907 21909 21912 21915 21918 21921 21924 21927 21930 21933 21936 21939 21942 21945 21948 21951 21954 21957 21959 21962 21965 21967 21970 21973 21976 21979 21982 21985 21988 21991 21994 21997 22000 22003 22006 22008 22011 22014 22017 22020 22023 22026 22029 22032 22035 22037 22040 22043 22046 22048 22051 22054 22056 22058 22060 22063 22065 22068 22071 22074 22077 22079 22082 22085 22088 22091 22094 22097 22100 22103 22106 22109 22112 22115 22118 22121 22124 22127 22130 22133 22135 22138 22141 22143 22146 22149 22152 22155 22158 22161 22164 22167 22170 22173 22176 22179 22181 22184 22187 22190 22192 22195 22198 22201 22204 22206 22209 22212 22215 22218 22221 22224 22226 22229 22231 22234 22237 22239 22242 22245 22248 22251 22254 22257 22260 22263 22266 22269 22272 22275 22278 22281 22284 22287 22290 22293 22296 22298 22301 22304 22307 22310 22313 22316 22319 22322 22325 22328 22331 22334 22336 22339 22342 22345 22348 22351 22354 22357 22360 22363 22366 22369 22372 22375 22378 22381 22384 22386 22389 22392 22395 22398 22401 22404 22407 22409 22412 22415 22418 22421 22424 22427 22430 22433 22436 22439 22442 22445 22448 22451 22454 22457 22460 22463 22466 22469 22472 22475 22478 22481 22484 22487 22490 22493 22496 22499 22502 22505 22508 22511 22514 22517 22520 22523 22526 22529 22532 22535 22538 22541 22544 22547 22550 22553 22556 22559 22562 22565 22568 22571 22574 22577 22579 22582 22585 22588 22591 22594 22597 22600 22603 22606 22609 22612 22615 22618 22621 22624 22627 22630 22632 22635 22638 22641 22644 22647 22650 22653 22655 22658 22661 22663 22665 22668 22671 22674 22677 22680 22683 22686 22689 22692 22694 22697 22700 22703 22706 22708 22711 22714 22717 22720 22723 22726 22729 22732 22735 22738 22741 22743 22746 22749 22752 22755 22758 22761 22764 22767 22770 22772 22775 22777 22779 22782 22785 22788 22791 22794 22797 22800 22803 22806 22808 22811 22813 22815 22818 22821 22823 22826 22829 22831 22834 22837 22840 22843 22846 22849 22852 22854 22857 22860 22863 22866 22869 22872 22875 22878 22880 22883 22885 22888 22890 22893 22895 22898 22901 22904 22906 22909 22912 22915 22917 22920 22923 22925 22928 22930 22933 22936 22938 22940 22943 22946 22949 22952 22955 22958 22960 22963 22966 22968 22971 22974 22976 22979 22982 22984 22987 22990 22993 22996 22999 23002 23005 23008 23011 23014 23017 23020 23022 23024 23027 23030 23033 23036 23038 23041 23044 23047 23049 23052 23055 23058 23060 23063 23066 23069 23071 23074 23077 23080 23083 23086 23088 23091 23094 23097 23100 23103 23106 23109 23112 23115 23118 23121 23124 23127 23130 23133 23136 23138 23141 23144 23147 23150 23153 23156 23159 23161 23164 23167 23170 23172 23175 23178 23181 23184 23187 23190 23193 23196 23199 23202 23205 23208 23211 23214 23217 23219 23222 23225 23228 23231 23234 23237 23240 23243 23246 23249 23252 23255 23258 23261 23264 23267 23269 23272 23275 23278 23281 23284 23287 23290 23292 23295 23298 23301 23303 23306 23309 23312 23315 23318 23321 23324 23327 23330 23332 23335 23338 23341 23344 23347 23350 23353 23356 23359 23362 23365 23368 23371 23373 23376 23378 23381 23384 23387 23390 23393 23396 23399 23402 23405 23408 23411 23414 23417 23420 23423 23425 23428 23430 23433 23436 23439 23441 23444 23447 23450 23453 23456 23459 23462 23465 23468 23471 23473 23476 23479 23482 23485 23488 23491 23494 23497 23500 23503 23506 23509 23512 23514 23517 23520 23523 23526 23529 23532 23535 23537 23540 23543 23546 23549 23551 23553 23556 23559 23561 23564 23567 23570 23573 23576 23579 23582 23585 23588 23591 23593 23596 23599 23602 23605 23608 23611 23613 23615 23618 23621 23624 23627 23630 23633 23636 23639 23641 23643 23646 23648 23651 23654 23657 23660 23662 23665 23668 23671 23674 23677 23680 23682 23685 23688 23691 23694 23697 23699 23702 23705 23708 23711 23714 23717 23720 23722 23725 23727 23730 23733 23736 23739 23742 23745 23748 23751 23754 23757 23760 23763 23766 23769 23772 23774 23777 23779 23782 23784 23787 23789 23791 23794 23797 23800 23802 23805 23808 23811 23814 23817 23819 23821 23823 23826 23829 23832 23835 23837 23840 23843 23846 23849 23851 23853 23855 23858 23861 23864 23866 23869 23872 23875 23878 23880 23883 23886 23889 23892 23895 23898 23901 23904 23907 23910 23913 23916 23919 23922 23924 23927 23930 23933 23936 23939 23942 23945 23948 23951 23954 23957 23960 23963 23966 23969 23972 23975 23978 23981 23984 23987 23990 23993 23996 23999 24002 24005 24007 24010 24013 24016 24019 24021 24024 24027 24030 24033 24036 24039 24042 24045 24048 24050 24053 24056 24059 24062 24065 24067 24070 24073 24076 24079 24082 24085 24088 24091 24094 24097 24100 24103 24106 24109 24111 24114 24116 24119 24122 24125 24128 24131 24134 24136 24139 24142 24145 24148 24151 24154 24157 24160 24163 24166 24169 24172 24174 24177 24180 24182 24184 24187 24190 24193 24196 24199 24202 24204 24207 24210 24213 24216 24219 24222 24224 24227 24230 24233 24236 24238 24241 24244 24247 24249 24252 24255 24258 24261 24263 24266 24269 24272 24275 24278 24280 24283 24285 24288 24291 24293 24296 24298 24301 24304 24306 24309 24312 24314 24317 24320 24323 24326 24329 24331 24334 24337 24340 24343 24345 24348 24351 24354 24356 24359 24362 24364 24367 24370 24372 24375 24378 24380 24383 24386 24389 24392 24395 24398 24401 24404 24406 24409 24412 24415 24418 24420 24423 24426 24428 24431 24434 24436 24439 24442 24444 24447 24449 24452 24455 24458 24461 24464 24467 24470 24473 24476 24479 24482 24485 24488 24490 24493 24496 24499 24502 24505 24507 24510 24513 24516 24519 24522 24524 24527 24530 24533 24536 24539 24541 24544 24547 24550 24553 24556 24559 24562 24565 24568 24571 24574 24577 24580 24583 24586 24589 24592 24595 24598 24601 24604 24607 24610 24613 24616 24619 24622 24625 24628 24631 24634 24637 24640 24643 24646 24649 24652 24655 24658 24661 24664 24667 24670 24673 24676 24679 24682 24685 24688 24691 24694 24697 24700 24703 24706 24709 24712 24715 24718 24721 24724 24727 24730 24733 24736 24739 24742 24745 24748 24751 24754 24757 24760 24762 24765 24768 24771 24774 24777 24780 24783 24786 24789 24792 24795 24798 24800 24803 24806 24809 24812 24815 24818 24821 24824 24827 24830 24833 24835 24838 24841 24844 24847 24849 24852 24855 24858 24861 24864 24867 24869 24872 24875 24878 24881 24883 24886 24889 24892 24895 24898 24900 24903 24906 24909 24912 24915 24918 24921 24923 24926 24929 24932 24935 24938 24941 24943 24946 24949 24952 24955 24958 24961 24964 24967 24970 24972 24975 24978 24981 24984 24987 24990 24993 24996 24999 25002 25005 25008 25011 25014 25016 25019 25022 25025 25028 25031 25034 25037 25040 25043 25046 25049 25052 25055 25058 25061 25064 25067 25070 25073 25076 25079 25082 25085 25088 25091 25093 25096 25099 25102 25105 25108 25111 25113 25116 25119 25122 25125 25128 25131 25134 25137 25139 25142 25145 25148 25151 25154 25157 25160 25163 25166 25169 25172 25175 25178 25181 25184 25187 25190 25193 25196 25199 25202 25205 25208 25211 25214 25217 25219 25221 25224 25227 25230 25233 25236 25239 25242 25245 25248 25251 25254 25257 25260 25263 25266 25268 25271 25274 25277 25280 25283 25286 25289 25292 25295 25298 25301 25303 25305 25308 25311 25314 25317 25320 25323 25326 25329 25332 25335 25338 25341 25344 25347 25350 25353 25356 25359 25362 25365 25368 25371 25374 25377 25380 25383 25386 25389 25392 25395 25397 25400 25402 25405 25408 25411 25413 25416 25419 25422 25425 25428 25431 25434 25437 25440 25443 25446 25449 25452 25455 25458 25461 25464 25467 25470 25473 25476 25479 25482 25485 25488 25491 25493 25496 25499 25502 25504 25507 25510 25513 25516 25519 25522 25525 25528 25531 25534 25537 25540 25543 25546 25549 25552 25555 25558 25560 25563 25565 25568 25571 25574 25577 25580 25583 25585 25588 25591 25593 25596 25599 25602 25605 25607 25610 25613 25616 25619 25622 25625 25628 25631 25634 25637 25640 25643 25646 25649 25652 25654 25657 25660 25663 25666 25669 25672 25674 25677 25680 25682 25685 25688 25691 25694 25697 25699 25702 25705 25708 25711 25713 25716 25719 25722 25724 25727 25730 25733 25736 25739 25742 25744 25747 25750 25752 25755 25758 25760 25763 25766 25768 25771 25773 25776 25779 25782 25785 25787 25790 25793 25796 25799 25802 25805 25808 25811 25814 25817 25819 25822 25825 25828 25831 25834 25837 25840 25843 25846 25849 25852 25855 25858 25860 25863 25866 25869 25872 25875 25878 25881 25883 25886 25889 25892 25894 25897 25900 25902 25905 25908 25911 25913 25916 25919 25921 25924 25927 25930 25932 25935 25937 25940 25943 25946 25949 25952 25955 25957 25960 25963 25966 25969 25972 25975 25978 25981 25984 25987 25990 25993 25995 25998 26001 26004 26006 26009 26012 26015 26018 26021 26024 26027 26029 26032 26035 26038 26041 26043 26046 26049 26052 26055 26058 26061 26064 26067 26070 26073 26076 26079 26082 26084 26087 26090 26093 26096 26099 26102 26105 26108 26111 26114 26117 26120 26123 26125 26128 26131 26134 26136 26139 26142 26144 26147 26150 26153 26156 26158 26161 26164 26167 26170 26173 26176 26178 26181 26184 26187 26190 26193 26196 26199 26202 26205 26208 26211 26214 26216 26219 26222 26224 26227 26230 26233 26236 26239 26242 26245 26247 26249 26252 26255 26257 26260 26263 26266 26269 26272 26274 26277 26280 26282 26285 26288 26291 26294 26296 26299 26301 26304 26307 26310 26312 26315 26318 26321 26323 26326 26328 26331 26334 26337 26340 26343 26346 26348 26351 26354 26357 26360 26363 26365 26368 26371 26374 26377 26380 26383 26386 26389 26392 26395 26397 26400 26403 26406 26408 26411 26414 26417 26419 26422 26425 26428 26430 26433 26436 26439 26442 26445 26447 26450 26453 26456 26459 26462 26465 26467 26470 26473 26475 26478 26481 26484 26487 26489 26492 26495 26498 26501 26504 26507 26510 26513 26516 26519 26522 26525 26528 26531 26534 26537 26540 26543 26546 26549 26552 26555 26558 26561 26564 26567 26570 26573 26576 26579 26582 26585 26587 26590 26593 26596 26599 26602 26605 26608 26610 26613 26616 26619 26622 26625 26628 26631 26634 26637 26640 26643 26646 26649 26652 26655 26658 26661 26664 26667 26670 26673 26676 26679 26682 26685 26688 26691 26694 26697 26700 26703 26706 26709 26712 26715 26718 26721 26724 26726 26729 26732 26735 26737 26740 26743 26746 26749 26752 26755 26758 26761 26764 26767 26769 26772 26775 26778 26781 26784 26787 26790 26793 26796 26798 26801 26804 26807 26810 26813 26816 26819 26822 26825 26828 26831 26834 26837 26839 26842 26845 26848 26851 26853 26856 26859 26862 26865 26868 26871 26874 26877 26880 26882 26885 26888 26891 26894 26897 26900 26903 26905 26908 26911 26914 26917 26920 26923 26926 26929 26931 26933 26936 26939 26942 26944 26947 26950 26953 26956 26959 26962 26964 26967 26970 26972 26975 26978 26981 26984 26987 26990 26992 26995 26998 27001 27004 27007 27009 27012 27015 27017 27020 27023 27026 27029 27031 27033 27036 27039 27041 27044 27046 27048 27051 27054 27057 27060 27062 27065 27068 27071 27074 27077 27080 27083 27086 27089 27092 27095 27097 27100 27103 27106 27109 27112 27114 27117 27120 27123 27126 27128 27131 27134 27136 27138 27140 27143 27146 27148 27151 27154 27157 27160 27163 27165 27168 27171 27174 27177 27180 27183 27186 27189 27191 27194 27197 27200 27203 27205 27208 27211 27214 27217 27220 27223 27226 27229 27232 27235 27238 27241 27244 27247 27250 27253 27256 27259 27262 27265 27268 27271 27274 27277 27280 27283 27286 27289 27292 27295 27298 27301 27304 27307 27310 27313 27316 27319 27322 27325 27328 27331 27334 27337 27340 27343 27346 27349 27352 27355 27358 27361 27364 27367 27370 27373 27376 27379 27382 27385 27388 27391 27394 27397 27400 27402 27405 27408 27411 27414 27417 27420 27423 27426 27429 27432 27435 27438 27441 27443 27446 27449 27451 27454 27457 27460 27463 27466 27469 27472 27475 27478 27480 27483 27486 27489 27491 27494 27496 27499 27502 27505 27508 27511 27514 27517 27520 27523 27526 27529 27532 27535 27537 27540 27543 27546 27549 27552 27555 27558 27561 27564 27567 27570 27573 27576 27579 27582 27584 27587 27590 27593 27596 27598 27601 27604 27607 27610 27613 27615 27618 27621 27623 27626 27629 27632 27635 27638 27641 27644 27647 27649 27652 27655 27658 27660 27663 27666 27669 27671 27674 27677 27680 27683 27686 27689 27692 27694 27697 27700 27703 27706 27708 27711 27713 27716 27718 27721 27724 27726 27729 27731 27733 27736 27739 27741 27744 27747 27750 27753 27756 27759 27762 27765 27768 27771 27774 27776 27779 27782 27785 27788 27791 27794 27797 27800 27802 27805 27808 27811 27814 27817 27820 27822 27825 27828 27830 27832 27835 27838 27840 27843 27846 27849 27852 27855 27858 27861 27864 27866 27869 27872 27874 27877 27880 27883 27885 27888 27890 27893 27896 27899 27902 27905 27907 27909 27912 27915 27918 27921 27924 27927 27930 27932 27935 27937 27940 27943 27946 27948 27951 27954 27957 27960 27963 27965 27968 27970 27973 27976 27979 27981 27984 27987 27990 27993 27996 27999 28002 28004 28007 28010 28013 28015 28018 28021 28024 28027 28030 28032 28035 28037 28040 28043 28046 28049 28052 28055 28057 28060 28063 28066 28069 28071 28073 28075 28078 28081 28083 28086 28088 28090 28093 28096 28099 28102 28105 28108 28110 28113 28116 28119 28122 28124 28127 28129 28132 28135 28138 28141 28143 28146 28149 28152 28155 28158 28161 28164 28167 28170 28173 28176 28179 28182 28185 28188 28191 28193 28196 28199 28201 28204 28206 28209 28212 28215 28218 28220 28223 28226 28228 28230 28233 28236 28239 28242 28245 28247 28250 28252 28255 28258 28261 28264 28266 28269 28271 28274 28277 28279 28281 28284 28287 28290 28293 28296 28299 28302 28305 28308 28311 28314 28317 28320 28323 28326 28329 28332 28335 28338 28341 28344 28347 28350 28353 28356 28359 28362 28365 28368 28370 28373 28376 28378 28381 28384 28387 28390 28393 28396 28399 28402 28405 28408 28411 28414 28417 28420 28423 28426 28429 28431 28434 28437 28440 28443 28445 28448 28451 28453 28455 28458 28461 28464 28467 28470 28473 28476 28479 28482 28484 28487 28490 28493 28496 28499 28502 28505 28508 28511 28513 28516 28518 28521 28524 28527 28529 28532 28535 28538 28540 28542 28545 28548 28550 28553 28556 28559 28562 28565 28568 28570 28573 28576 28579 28582 28585 28588 28590 28593 28596 28599 28602 28604 28606 28608 28611 28613 28616 28619 28622 28624 28627 28630 28633 28636 28638 28641 28644 28647 28650 28652 28655 28657 28660 28663 28666 28668 28670 28673 28676 28679 28682 28684 28687 28690 28693 28696 28699 28702 28705 28708 28711 28714 28717 28720 28722 28725 28728 28731 28734 28737 28740 28743 28746 28749 28752 28755 28758 28761 28764 28766 28769 28772 28775 28778 28781 28783 28786 28789 28792 28794 28797 28800 28802 28804 28807 28810 28813 28816 28819 28822 28824 28826 28828 28831 28833 28836 28838 28840 28843 28846 28849 28852 28855 28857 28860 28862 28865 28868 28871 28874 28876 28879 28881 28884 28886 28889 28891 28894 28897 28900 28903 28906 28909 28912 28914 28917 28920 28923 28925 28928 28931 28934 28937 28940 28943 28946 28949 28952 28955 28957 28960 28963 28966 28968 28971 28974 28977 28980 28983 28985 28988 28990 28992 28995 28998 29001 29004 29007 29010 29013 29016 29019 29022 29025 29028 29031 29034 29037 29040 29043 29046 29049 29052 29055 29058 29061 29064 29067 29070 29073 29076 29079 29082 29085 29088 29091 29094 29096 29099 29102 29105 29108 29111 29114 29117 29119 29122 29125 29127 29130 29133 29136 29139 29141 29144 29147 29149 29152 29155 29158 29161 29164 29167 29170 29173 29176 29179 29182 29185 29188 29191 29194 29197 29200 29203 29206 29209 29211 29214 29216 29219 29222 29225 29227 29230 29233 29236 29238 29241 29243 29246 29248 29251 29254 29257 29260 29263 29266 29269 29272 29275 29278 29281 29284 29287 29290 29293 29296 29299 29301 29304 29307 29310 29313 29316 29319 29322 29325 29328 29331 29333 29336 29339 29342 29345 29348 29351 29354 29357 29360 29363 29366 29369 29372 29375 29378 29381 29384 29387 29390 29393 29396 29399 29402 29405 29408 29411 29413 29416 29419 29422 29425 29427 29430 29433 29436 29439 29442 29445 29448 29450 29453 29456 29459 29462 29465 29468 29471 29474 29477 29480 29483 29486 29489 29492 29494 29497 29500 29503 29506 29509 29512 29515 29518 29521 29524 29527 29530 29533 29536 29539 29542 29545 29548 29551 29554 29557 29560 29563 29566 29569 29572 29575 29578 29581 29584 29587 29589 29592 29595 29598 29601 29604 29607 29610 29613 29615 29618 29621 29624 29627 29630 29633 29636 29639 29642 29645 29648 29651 29653 29656 29658 29661 29664 29666 29669 29672 29675 29678 29681 29684 29687 29690 29693 29696 29699 29702 29704 29706 29709 29712 29715 29718 29721 29724 29727 29730 29733 29736 29739 29742 29745 29748 29751 29754 29757 29760 29763 29766 29769 29772 29775 29778 29781 29784 29787 29790 29793 29796 29799 29802 29805 29808 29811 29814 29817 29820 29823 29826 29829 29832 29835 29838 29841 29844 29847 29850 29853 29856 29859 29862 29865 29868 29871 29874 29876 29879 29882 29885 29887 29890 29893 29896 29898 29901 29904 29907 29910 29913 29916 29919 29922 29925 29928 29931 29934 29937 29940 29943 29946 29949 29952 29955 29958 29961 29964 29967 29969 29972 29975 29978 29981 29984 29987 29990 29992 29995 29998 30001 30004 30007 30009 30012 30015 30018 30021 30024 30027 30030 30033 30036 30039 30042 30045 30048 30051 30054 30057 30060 30063 30066 30069 30072 30075 30078 30081 30084 30087 30089 30092 30095 30098 30101 30104 30107 30110 30113 30115 30118 30121 30124 30127 30130 30132 30135 30138 30141 30143 30146 30149 30152 30155 30158 30161 30163 30166 30169 30172 30175 30178 30180 30183 30186 30189 30192 30195 30198 30200 30203 30206 30209 30212 30215 30218 30221 30224 30227 30230 30233 30236 30239 30241 30244 30247 30250 30253 30256 30259 30262 30265 30268 30271 30274 30277 30280 30283 30286 30289 30292 30295 30298 30301 30303 30306 30309 30312 30314 30316 30319 30322 30325 30328 30331 30334 30337 30340 30343 30346 30349 30352 30355 30358 30361 30364 30367 30370 30373 30376 30379 30381 30384 30387 30390 30392 30394 30397 30400 30403 30406 30409 30412 30414 30417 30419 30422 30425 30428 30431 30434 30436 30439 30442 30445 30448 30451 30453 30455 30458 30461 30464 30467 30469 30472 30475 30477 30480 30483 30486 30489 30492 30495 30498 30501 30504 30507 30509 30512 30515 30518 30520 30523 30526 30529 30531 30534 30537 30540 30543 30546 30549 30552 30555 30558 30561 30564 30567 30570 30573 30576 30579 30582 30585 30588 30591 30594 30597 30600 30603 30606 30609 30611 30614 30617 30620 30623 30626 30629 30632 30635 30638 30641 30643 30646 30649 30652 30655 30657 30660 30663 30666 30669 30672 30675 30678 30681 30684 30686 30688 30691 30694 30697 30700 30703 30706 30709 30712 30714 30717 30720 30723 30726 30729 30731 30734 30737 30740 30743 30746 30749 30752 30755 30758 30761 30764 30767 30770 30773 30776 30779 30782 30785 30788 30791 30794 30797 30800 30803 30806 30809 30812 30815 30818 30821 30824 30827 30830 30833 30836 30839 30842 30845 30848 30851 30854 30857 30860 30863 30866 30869 30872 30875 30878 30881 30884 30887 30890 30893 30896 30899 30902 30905 30908 30911 30914 30917 30920 30923 30926 30929 30932 30935 30938 30941 30944 30947 30950 30953 30956 30959 30962 30965 30968 30971 30974 30977 30980 30983 30986 30989 30992 30995 30998 31001 31004 31007 31010 31013 31016 31019 31022 31025 31028 31031 31034 31037 31040 31043 31046 31048 31051 31053 31056 31059 31061 31064 31067 31070 31073 31076 31079 31082 31085 31088 31091 31094 31097 31100 31103 31106 31109 31112 31115 31118 31121 31124 31127 31130 31133 31136 31139 31142 31144 31147 31150 31152 31155 31158 31161 31164 31167 31170 31173 31176 31179 31182 31185 31188 31191 31194 31196 31199 31202 31205 31208 31211 31214 31217 31220 31222 31225 31228 31231 31234 31237 31240 31243 31246 31249 31252 31255 31258 31261 31264 31267 31270 31273 31276 31279 31282 31285 31288 31291 31294 31297 31300 31303 31306 31309 31312 31315 31318 31321 31324 31327 31330 31333 31336 31339 31342 31345 31348 31351 31354 31356 31358 31361 31364 31367 31370 31373 31376 31379 31382 31385 31388 31391 31394 31397 31400 31403 31406 31409 31412 31415 31418 31421 31424 31427 31430 31433 31436 31439 31442 31445 31448 31451 31454 31457 31460 31463 31466 31469 31472 31475 31478 31481 31483 31486 31489 31492 31495 31498 31501 31504 31507 31510 31512 31515 31517 31520 31522 31525 31527 31530 31532 31535 31538 31541 31544 31546 31549 31552 31555 31557 31560 31563 31566 31569 31572 31575 31578 31581 31583 31585 31588 31591 31593 31596 31599 31602 31605 31607 31610 31613 31615 31618 31621 31624 31627 31630 31633 31636 31638 31641 31644 31647 31650 31653 31656 31659 31662 31665 31668 31671 31674 31677 31680 31683 31686 31689 31692 31695 31698 31701 31704 31707 31710 31713 31716 31719 31722 31725 31728 31731 31733 31736 31739 31742 31745 31748 31751 31754 31757 31760 31762 31765 31768 31771 31773 31776 31779 31782 31784 31787 31790 31793 31796 31798 31800 31803 31806 31809 31812 31814 31817 31820 31823 31825 31828 31831 31834 31836 31839 31842 31845 31848 31850 31853 31856 31858 31861 31863 31866 31869 31871 31874 31877 31880 31883 31886 31889 31892 31895 31898 31901 31904 31907 31910 31912 31915 31918 31920 31923 31926 31929 31932 31935 31938 31941 31944 31947 31950 31953 31956 31959 31962 31965 31968 31971 31974 31976 31979 31982 31985 31988 31991 31994 31997 32000 32003 32006 32009 32012 32015 32018 32021 32024 32026 32029 32031 32034 32037 32040 32043 32046 32048 
</DataArray>
<DataArray type="UInt32" Name="types" format="ascii">
5 5 5 3 5 5 5 5 5 5 5 5 5 5 3 5 5 5 5 3 5 5 5 5 5 5 3 5 5 5 5 5 5 5 5 5 5 5 5 5 5 5 5 3 5 5 5 5 5 3 5 3 5 5 5 5 5 5 5 5 5 5 5 5 5 5 5 5 5 5 5 5 5 5 5 5 5 5 5 5 5 5 3 5 5 3 5 5 5 5 5 5 5 5 5 5 3 5 3 5 5 5 5 5 5 5 5 5 5 3 5 5 5 5 5 5 5 5 5 5 5 5 5 5 3 5 3 5 5 5 5 5 5 3 5 5 5 5 5 5 5 5 5 5 5 5 5 5 3 5 3 5 5 5 5 5 5 5 5 5 5 5 3 5 5 5 5 3 5 5 5 5 5 5 5 5 5 5 5 5 5 5 5 5 3 5 5 5 5 5 5 5 5 5 5 5 5 5 3 5 5 5 5 5 5 5 5 5 5 5 5 5 5 5 5 5 5 5 5 5 5 5 5 5 5 3 5 3 5 5 5 3 5 5 5 5 3 5 5 5 5 5 5 5 5 5 5 5 5 5 5 5 3 5 5 5 5 5 5 5 5 5 5 5 5 5 5 5 5 5 5 5 5 5 5 5 5 5 5 5 5 5 5 5 5 5 5 5 5 5 5 5 5 5 5 5 5 5 5 5 5 5 5 5 5 5 5 5 5 5 5 5 5 5 3 5 5 5 5 3 5 5 3 5 5 5 5 5 5 5 5 5 5 3 5 5 5 5 5 5 5 5 5 5 5 5 5 5 5 5 5 5 5 5 5 5 5 5 5 5 5 5 5 5 5 5 5 5 3 5 5 5 5 5 5 5 5 5 5 5 5 5 5 5 5 5 5 5 5 5 5 5 5 5 5 5 5 5 5 5 5 5 5 5 5 5 5 5 5 5 5 5 5 5 5 5 3 5 5 5 5 5 5 5 5 5 5 5 5 5 5 5 5 5 5 5 5 5 5 5 5 5 5 5 5 5 5 5 5 5 5 5 5 5 5 5 5 5 5 5 5 5 5 5 5 5 5 5 5 5 5 5 5 5 5 5 5 5 5 5 5 5 5 5 5 5 5 5 5 5 5 5 5 5 5 5 5 5 5 5 5 5 5 3 5 5 5 3 5 5 5 5 5 5 5 5 5 5 5 3 5 5 5 5 5 5 5 5 5 5 5 5 5 5 5 5 5 5 5 5 3 5 5 5 3 5 5 5 5 5 5 5 5 5 3 5 5 3 5 5 5 5 5 5 5 5 5 5 3 5 5 5 5 5 5 5 5 5 5 5 5 5 3 5 5 5 3 5 3 5 5 5 3 5 5 5 5 5 5 5 5 5 5 5 5 5 5 5 5 5 5 3 5 5 5 5 5 5 5 5 5 3 3 5 5 5 5 5 5 3 5 5 5 5 3 5 5 5 5 5 5 5 5 5 5 5 5 5 5 5 3 5 5 5 3 5 5 5 5 5 5 5 5 5 5 5 5 3 5 5 5 5 5 5 5 5 5 5 5 5 5 5 5 5 5 5 5 5 5 5 5 5 5 3 5 5 5 5 3 5 5 5 5 5 3 3 3 5 5 5 5 3 5 5 3 5 5 5 5 5 5 5 5 3 5 5 5 5 5 5 5 5 3 5 5 5 5 5 5 5 3 5 5 5 5 5 5 3 5 5 5 5 5 5 5 5 3 5 5 5 5 5 5 5 5 3 5 5 5 5 5 5 5 5 5 5 5 5 5 5 5 5 5 5 5 5 5 5 5 5 5 5 5 3 5 5 5 5 5 5 5 5 5 5 5 5 5 3 5 5 5 5 5 5 5 5 5 5 5 5 5 5 5 5 5 5 3 5 5 5 5 3 5 3 5 5 5 5 5 5 5 5 5 5 5 3 5 5 3 5 5 3 5 5 3 3 5 5 5 5 5 5 5 5 5 5 5 5 5 5 5 5 5 5 5 5 5 5 5 5 5 5 5 5 5 5 5 5 3 5 5 5 5 5 5 5 5 5 5 5 5 5 5 5 5 5 5 5 5 5 5 5 5 5 5 5 5 5 5 5 5 5 5 5 5 5 5 5 5 5 5 5 5 5 5 5 5 5 5 5 5 5 5 5 5 5 5 5 5 5 5 5 5 5 5 5 5 5 5 5 5 5 5 5 5 5 5 5 5 5 5 5 5 5 5 5 5 5 5 5 5 5 5 5 5 5 5 5 5 5 5 5 5 5 5 5 5 5 5 5 5 5 5 5 5 5 5 5 5 5 5 5 5 5 5 5 5 5 5 5 5 5 5 3 5 5 5 5 5 5 5 5 3 5 5 5 5 5 5 5 5 5 5 3 5 5 5 3 5 5 5 5 5 5 5 5 5 5 5 5 5 5 5 5 5 5 5 5 5 5 5 5 5 5 5 5 5 5 3 5 5 5 5 5 3 5 5 5 5 5 3 5 5 3 5 5 5 5 5 5 5 5 5 5 5 3 5 5 5 3 5 5 5 5 5 5 5 5 5 5 5 5 5 5 5 5 5 3 5 3 3 5 5 3 5 5 5 5 5 3 3 5 5 5 5 5 3 5 5 5 5 3 5 5 5 5 5 5 5 5 5 5 5 3 5 5 5 5 3 5 5 3 3 5 5 3 5 5 5 5 5 5 5 5 5 5 5 5 5 5 5 5 5 3 5 5 5 5 5 5 5 5 5 5 5 5 5 3 5 5 3 5 5 5 3 3 5 5 5 3 5 5 3 3 3 3 5 5 5 3 5 3 5 3 3 5 3 5 5 5 5 3 3 5 5 5 3 3 5 5 3 5 5 5 5 5 5 3 5 3 5 3 3 5 5 5 5 3 5 5 5 3 5 3 5 5 5 3 5 5 5 5 5 5 3 5 5 5 3 5 5 5 3 5 3 3 5 5 5 5 5 5 5 5 5 5 5 3 5 5 5 5 5 5 5 5 5 5 5 5 5 5 3 5 5 5 5 5 5 5 3 5 5 5 5 5 5 5 5 3 5 5 5 5 5 5 5 5 5 5 5 5 5 5 5 5 5 5 5 5 5 5 5 5 5 5 5 5 5 5 5 5 5 5 5 5 5 5 5 5 5 5 5 5 5 5 5 5 5 5 5 5 5 5 5 5 5 5 5 5 5 5 5 5 5 5 3 5 3 5 5 5 5 5 5 5 5 3 5 5 5 5 5 5 5 3 3 5 5 5 5 5 5 5 5 5 5 5 5 5 5 5 5 5 5 5 5 5 5 5 3 5 5 5 5 5 5 5 5 5 5 5 5 5 5 5 5 5 5 3 5 5 5 5 5 5 5 5 5 5 3 5 5 5 5 3 5 5 5 5 5 5 5 5 3 5 5 5 5 5 5 5 5 5 3 5 5 5 3 3 5 5 5 5 5 3 5 5 5 3 5 5 5 5 3 5 5 5 3 5 5 5 5 3 5 5 5 5 5 5 5 5 5 5 5 5 5 5 5 5 5 5 5 5 3 5 5 5 5 5 5 5 5 5 5 5 5 5 3 3 5 5 5 5 3 5 5 5 5 5 5 5 5 5 5 5 5 5 5 5 5 5 5 5 3 5 3 5 5 5 3 5 5 5 5 5 5 5 5 5 5 5 5 3 5 5 5 3 5 5 5 5 5 3 5 5 5 5 5 3 5 5 5 5 5 5 5 5 5 5 5 5 5 5 5 5 5 5 5 5 5 5 3 5 3 5 5 3 5 5 5 5 5 5 5 5 5 5 3 5 5 5 5 3 5 5 5 5 5 3 5 5 3 5 5 5 5 5 3 5 5 3 5 5 5 5 5 5 5 5 5 5 5 5 5 5 5 5 5 5 5 5 5 5 5 5 5 5 3 5 5 5 5 3 5 5 5 3 5 5 3 3 5 5 5 3 5 5 3 5 3 5 5 5 3 5 5 5 5 3 5 3 5 5 3 5 5 5 5 5 5 5 5 5 5 5 5 5 5 5 5 5 5 5 3 5 5 5 5 5 5 3 5 5 5 5 5 5 5 5 5 5 5 5 5 5 5 3 5 5 5 5 5 5 5 3 3 5 5 5 5 5 5 5 3 3 5 5 5 5 5 5 5 5 5 5 3 5 5 5 5 5 3 5 5 3 5 5 5 5 5 3 5 5 5 5 5 5 3 5 5 3 5 3 3 5 5 5 5 5 3 5 3 5 5 5 5 5 3 3 3 5 3 5 3 5 5 5 5 5 5 5 5 5 5 5 5 3 5 5 5 3 5 5 5 5 5 3 5 3 5 5 3 5 5 5 5 5 3 5 5 5 5 5 3 5 5 5 5 5 3 5 5 5 5 5 5 5 5 5 5 5 5 5 5 5 5 5 5 5 5 5 5 5 5 5 5 5 5 5 5 5 5 5 5 5 5 5 5 5 5 5 5 5 5 5 5 5 5 3 5 5 5 5 5 5 5 5 5 5 5 5 3 5 5 5 5 5 5 5 5 5 5 5 5 5 5 5 5 5 5 5 5 5 5 5 5 5 5 5 5 5 5 5 5 5 5 5 5 5 5 5 5 5 5 5 5 5 5 5 5 5 5 5 5 5 5 5 5 5 5 5 5 5 5 5 5 3 5 5 3 5 5 3 5 5 5 5 3 5 5 3 3 5 5 5 5 5 5 5 5 5 5 5 5 5 5 5 5 5 3 5 5 5 5 5 5 5 5 5 5 5 5 3 3 5 5 5 5 3 5 5 5 5 5 5 5 3 5 3 5 5 5 5 5 5 5 5 5 5 5 5 5 5 5 5 5 5 3 5 5 5 5 5 5 3 3 5 5 3 5 5 5 5 5 3 5 5 5 5 5 5 5 3 5 5 5 5 5 5 5 5 5 5 5 5 5 5 5 5 5 5 5 5 3 5 5 5 5 5 5 5 5 5 5 5 5 5 3 5 5 5 5 5 5 5 5 5 5 5 5 5 5 5 5 5 5 5 5 5 5 5 5 5 5 5 5 5 5 5 5 5 5 5 5 3 5 5 5 5 3 5 3 5 5 5 5 5 5 5 5 5 5 5 5 5 5 5 5 3 5 5 5 5 3 5 5 5 5 5 5 5 5 5 5 5 5 3 5 3 5 5 5 5 5 5 5 5 5 3 5 5 5 5 5 5 3 5 5 5 5 5 5 3 5 5 5 3 5 5 5 3 5 5 5 5 5 5 3 5 5 5 5 5 5 5 5 5 5 5 5 5 5 5 5 5 5 5 5 5 5 5 5 5 5 5 5 5 5 3 5 3 5 5 5 5 5 5 5 5 5 5 3 5 5 5 5 5 5 5 3 5 3 3 5 5 5 5 5 5 5 5 3 5 5 5 3 5 3 5 5 5 5 5 5 3 5 5 5 5 5 5 5 5 5 5 3 5 5 5 5 5 5 3 5 3 5 5 5 3 5 5 5 5 3 5 5 5 5 5 5 5 5 5 5 5 5 5 5 5 5 5 5 5 5 5 5 5 5 5 5 5 5 5 5 5 5 5 5 5 5 5 5 5 5 5 5 5 3 5 5 5 5 5 5 5 5 5 5 3 5 5 5 3 5 5 3 5 3 5 5 5 5 5 3 5 5 5 5 5 5 5 5 5 5 3 5 5 5 5 5 3 5 5 5 5 3 5 3 5 5 5 5 5 5 5 5 5 5 5 5 5 5 5 5 3 3 5 5 3 5 5 5 5 5 5 5 5 5 5 5 5 5 5 5 5 5 5 5 5 5 5 5 3 5 5 5 3 5 5 5 5 5 5 5 5 5 3 5 5 5 3 5 5 3 5 5 3 5 5 5 5 5 5 5 5 5 5 3 5 5 3 5 5 5 5 5 5 5 5 5 5 5 5 5 5 3 5 5 5 5 5 5 5 5 5 5 5 3 5 5 5 3 5 5 5 5 5 5 5 5 5 5 5 3 5 5 5 5 5 5 3 5 5 5 5 3 3 5 5 5 5 5 3 5 5 5 5 5 5 5 5 5 5 5 5 5 5 5 5 5 5 5 5 5 5 5 3 5 5 5 3 5 5 3 5 5 3 5 5 5 5 5 5 5 5 5 5 5 5 5 5 5 5 5 5 5 5 3 5 5 5 3 5 5 5 5 5 5 5 5 5 5 5 5 3 5 5 5 5 5 5 5 3 5 5 5 5 5 5 5 5 5 5 5 5 3 5 5 5 3 5 5 5 3 5 3 5 5 5 5 5 5 5 5 5 5 5 3 5 5 5 5 5 3 5 5 5 5 5 5 5 5 5 5 5 5 5 5 5 5 5 5 5 5 5 5 5 5 5 5 5 3 5 3 5 3 5 5 5 5 5 5 5 5 5 5 5 5 5 5 5 5 5 5 5 5 5 5 3 5 5 5 5 3 5 3 5 5 5 5 5 5 5 5 5 3 5 5 5 5 3 3 5 5 3 5 5 5 5 5 5 5 3 5 5 5 3 3 5 3 3 5 5 5 5 3 3 3 5 5 5 5 5 5 5 3 5 5 5 5 5 5 5 5 5 3 5 5 5 5 5 5 5 5 3 5 5 5 3 5 5 5 5 5 5 5 5 5 5 5 5 5 5 5 3 5 5 5 5 5 5 3 5 5 5 3 3 5 3 5 5 5 5 5 5 5 5 5 5 5 5 5 5 5 5 5 5 5 5 5 5 5 3 5 3 3 5 5 5 5 5 5 5 3 5 5 5 3 5 5 3 5 5 5 5 5 3 5 5 5 5 5 5 5 5 5 5 5 5 3 5 5 5 5 5 3 5 5 5 5 3 5 3 5 5 5 5 5 5 3 5 5 3 5 3 5 5 5 5 3 5 5 5 5 3 5 3 5 5 5 5 5 3 5 5 5 5 5 5 5 5 5 5 5 5 5 5 5 5 5 5 5 5 5 5 5 5 5 5 5 5 5 5 5 5 5 5 5 5 5 5 3 5 5 3 5 5 5 5 5 5 5 5 5 5 5 5 5 5 5 5 5 5 3 5 5 3 5 5 5 5 5 5 5 5 5 5 5 5 5 5 5 5 5 5 5 5 5 5 5 5 5 5 5 5 5 5 5 5 5 5 5 5 5 5 5 5 5 5 5 5 5 5 5 5 5 5 5 3 5 5 5 5 5 5 5 3 5 5 5 5 5 5 5 5 5 5 5 5 5 5 5 5 5 5 5 3 5 3 5 5 5 5 5 5 5 5 5 5 3 3 5 5 5 5 5 5 5 5 5 5 5 5 5 5 5 5 5 5 5 5 5 3 5 5 5 5 5 5 3 5 5 5 5 5 5 5 5 5 5 5 5 5 5 5 5 3 5 5 3 5 5 5 3 5 5 5 3 5 5 5 5 5 3 5 5 5 5 5 5 5 3 5 5 5 5 5 5 5 3 3 5 3 3 5 5 3 5 3 5 5 5 3 5 3 5 3 5 5 3 5 5 5 5 5 3 5 5 3 5 3 5 5 5 5 3 5 5 5 5 5 3 5 5 3 5 5 5 5 3 5 5 5 3 5 5 3 5 5 3 5 5 5 5 5 5 5 5 5 5 5 3 5 5 5 3 5 3 5 5 5 5 5 5 5 5 5 5 5 5 5 5 3 5 5 3 5 5 5 5 5 5 3 5 3 5 5 5 5 5 5 5 5 3 5 3 5 3 3 5 5 3 5 5 5 5 5 5 5 5 5 5 5 5 5 5 5 5 5 5 5 5 5 5 5 5 5 5 5 3 5 5 5 5 5 5 5 5 3 5 5 5 5 5 3 5 5 5 5 5 5 5 5 5 5 5 5 5 5 3 5 5 5 5 5 5 3 3 5 5 5 3 5 5 5 3 5 3 3 5 5 5 5 5 5 3 5 5 5 5 5 3 5 5 5 5 5 5 3 5 5 5 5 5 5 5 5 3 5 3 3 5 5 5 3 5 5 5 5 5 3 5 5 5 5 3 5 5 5 5 5 3 5 5 5 3 5 5 5 5 3 5 5 5 5 5 5 3 5 5 5 3 5 5 5 5 5 5 5 5 5 5 5 3 5 3 5 5 5 3 3 5 5 3 5 5 5 5 5 5 5 5 5 5 5 5 5 5 3 5 5 3 5 5 5 5 3 5 5 5 5 5 5 5 5 5 5 3 5 5 3 5 5 5 5 5 5 5 5 5 5 5 3 5 5 5 5 3 5 5 5 5 3 5 5 5 5 5 5 5 5 5 5 5 5 5 5 5 5 5 5 5 5 5 3 5 5 5 5 5 5 3 5 5 5 5 5 5 5 5 5 3 5 5 5 5 5 5 3 5 5 3 5 5 5 5 5 5 5 5 5 5 5 5 5 5 5 5 5 5 5 5 5 5 3 5 5 5 5 3 5 3 5 3 5 5 5 5 5 5 5 5 5 5 5 5 5 5 5 5 5 5 3 5 5 5 5 5 3 5 5 3 5 5 3 5 5 5 3 5 5 5 5 3 5 5 5 5 5 5 5 5 5 5 5 3 5 5 5 3 5 5 5 5 3 5 5 3 5 5 5 5 5 5 5 5 5 5 5 5 5 5 5 3 3 5 5 3 3 5 5 5 5 5 5 3 5 3 3 5 5 5 5 3 5 5 5 5 5 5 5 3 5 5 5 5 5 5 5 3 5 5 5 5 5 5 5 5 5 5 5 5 5 5 3 5 5 5 5 5 5 5 5 5 5 5 3 3 5 5 5 5 5 5 5 5 5 3 5 5 5 5 3 5 5 5 3 3 5 5 3 5 5 5 5 5 5 3 5 5 5 5 3 3 5 5 5 5 5 3 5 5 5 5 5 5 5 5 5 3 5 5 3 5 5 3 5 5 5 3 5 5 5 3 3 5 3 5 3 5 5 5 5 5 5 5 5 5 3 5 5 5 5 5 5 5 5 5 5 5 5 5 3 5 5 5 5 5 5 5 5 5 5 5 5 3 5 5 5 5 5 5 5 3 5 5 5 3 5 5 5 5 5 5 3 5 5 5 3 5 5 5 5 5 5 5 5 5 3 5 5 5 5 5 5 5 3 5 5 5 5 5 5 5 5 5 5 5 5 5 3 5 5 3 5 3 5 5 5 5 5 5 5 5 5 5 5 5 5 5 5 5 5 5 5 5 5 3 5 5 5 5 3 5 5 5 5 3 5 3 5 3 5 5 5 5 3 5 5 5 5 5 5 5 5 5 3 3 5 3 5 5 5 5 3 5 3 5 5 5 5 5 5 5 5 5 5 5 5 5 5 5 5 5 5 5 5 5 5 5 5 3 5 5 5 5 5 5 5 5 5 5 5 5 5 5 5 5 5 5 5 5 5 5 3 5 5 5 5 3 3 5 5 5 5 5 5 5 5 5 5 5 3 5 5 5 5 5 5 5 5 5 5 5 5 5 5 5 5 5 5 5 5 5 5 5 5 5 5 5 3 5 5 5 5 5 3 5 5 5 5 5 5 5 3 3 5 5 5 5 5 3 5 5 5 3 5 5 3 5 5 5 5 5 3 5 5 3 5 5 5 5 3 5 5 3 5 5 5 3 5 5 5 5 3 3 3 3 5 5 5 3 5 5 5 5 5 5 5 5 5 5 5 5 3 5 5 3 5 5 5 3 5 5 5 5 5 3 5 5 5 5 5 5 3 5 5 5 5 5 5 5 5 5 3 5 5 3 5 5 5 5 5 5 5 5 5 5 5 5 5 3 5 5 5 5 5 5 3 5 5 5 3 5 5 5 3 5 5 5 5 5 5 5 5 5 5 5 5 5 5 5 5 5 5 5 5 5 3 5 5 5 5 3 5 5 3 3 5 5 3 3 5 5 5 3 5 5 5 5 3 3 3 3 5 5 5 5 5 5 5 5 5 5 5 5 3 5 5 5 5 5 5 5 5 5 5 5 5 5 3 5 5 3 3 5 5 3 5 5 5 5 5 5 3 5 5 5 5 3 3 3 5 5 5 5 5 5 3 5 5 5 5 3 5 5 5 3 3 3 5 5 5 5 5 3 5 5 5 3 5 5 5 5 3 5 5 5 3 5 5 5 5 5 5 5 5 5 5 5 5 3 5 5 5 5 5 5 5 5 5 3 5 5 5 5 3 5 5 5 5 5 5 3 5 5 5 5 3 5 5 3 5 5 5 5 5 5 5 5 5 5 5 5 5 5 5 5 3 5 5 5 3 5 5 5 3 5 3 5 5 5 5 5 5 5 5 5 3 5 5 3 5 5 5 5 5 5 5 5 5 5 5 5 5 3 5 5 5 5 3 5 5 5 3 5 5 3 5 5 5 5 5 5 5 5 5 5 5 5 5 3 5 3 5 5 5 5 5 3 3 5 5 3 5 5 5 3 5 5 5 5 5 3 3 5 5 5 3 5 5 5 5 3 5 5 5 5 5 5 3 5 3 5 5 5 5 5 5 5 5 5 5 5 3 5 5 5 5 5 5 5 3 5 5 5 5 3 5 5 5 5 5 3 5 5 3 5 3 3 5 5 5 5 5 5 3 5 5 5 5 5 5 5 5 5 5 5 5 5 5 3 5 3 5 5 5 3 5 5 5 5 5 5 5 5 5 5 5 5 5 5 3 5 5 5 5 5 5 5 5 5 5 5 5 5 5 5 5 5 5 5 5 3 5 3 5 5 5 3 5 5 5 5 5 5 5 5 5 5 5 5 3 5 3 5 5 3 5 5 5 5 3 5 5 5 5 5 5 5 5 5 5 5 5 5 5 5 5 3 5 5 5 5 3 3 5 5 3 5 5 5 5 3 5 3 5 3 5 5 5 5 5 5 5 3 5 5 5 5 5 5 5 5 5 3 5 5 5 5 5 5 5 5 5 5 3 5 5 3 5 5 5 5 3 5 5 3 5 3 5 5 5 5 5 5 5 5 5 5 5 5 5 5 5 5 5 5 5 5 5 5 5 5 5 5 5 5 5 3 3 5 5 5 3 5 5 3 5 5 3 5 5 5 5 5 5 5 5 5 3 5 5 5 5 5 3 5 3 5 5 5 3 5 3 5 5 5 3 5 5 5 5 5 3 5 5 5 5 3 5 5 3 5 5 5 5 5 5 5 5 5 5 5 5 5 5 5 5 5 5 5 5 5 5 5 5 5 5 5 3 5 5 5 5 5 5 5 5 5 5 3 5 5 5 5 5 5 5 5 5 5 3 5 5 5 5 5 5 5 5 5 5 5 5 5 5 5 5 5 5 5 5 5 5 5 5 5 5 3 5 5 5 5 5 5 5 5 5 5 3 5 5 3 5 5 5 5 5 3 5 5 5 5 5 5 5 5 5 5 5 5 5 5 5 5 5 5 5 5 5 5 5 5 3 5 5 5 5 5 3 5 5 5 5 5 5 5 3 5 3 5 5 5 5 5 5 5 5 5 5 5 5 5 5 5 5 5 5 5 5 5 3 5 3 3 5 3 5 5 3 5 3 5 3 3 3 3 5 5 3 3 5 3 5 5 5 3 5 5 3 5 5 3 5 5 5 5 5 5 3 5 5 5 3 5 5 5 5 5 5 5 5 5 5 5 5 5 5 5 5 5 3 5 5 5 5 5 3 5 5 5 5 5 5 5 5 3 3 5 3 5 3 5 5 5 5 3 5 5 5 5 5 5 3 5 5 5 5 5 5 5 5 5 5 5 5 5 5 5 5 3 5 5 5 5 5 5 5 5 5 5 5 5 5 5 5 5 5 3 5 5 5 3 5 5 5 5 5 5 5 5 5 5 5 3 5 5 5 5 3 5 5 5 5 5 3 5 5 5 5 5 5 5 5 5 5 3 5 3 5 5 5 3 5 3 5 5 3 5 5 5 5 3 5 5 5 5 5 5 3 5 5 5 5 5 3 5 5 5 5 5 5 5 5 5 5 5 3 5 5 5 5 5 3 5 5 5 5 5 5 5 5 5 5 5 3 5 5 5 5 5 5 3 5 5 5 5 5 5 5 5 5 5 5 5 5 5 5 5 5 5 3 5 5 5 5 3 5 5 5 5 5 5 5 5 5 5 3 5 5 5 3 3 5 5 5 5 3 5 5 5 5 5 5 5 5 5 3 5 5 5 5 3 5 5 3 3 5 5 3 3 5 5 5 3 5 5 3 3 5 3 3 5 5 5 3 5 3 5 5 3 5 3 5 3 3 5 5 5 5 5 5 3 3 5 5 3 3 5 5 5 5 3 5 5 3 5 5 5 5 3 3 5 3 5 5 3 5 5 5 5 5 5 5 5 5 5 5 5 5 3 3 5 5 5 5 5 5 5 3 5 5 5 5 5 5 5 5 3 5 5 5 5 5 3 5 3 5 5 3 5 3 5 5 5 5 5 3 5 5 3 3 3 5 5 5 3 5 5 5 5 5 3 5 5 5 5 5 5 3 5 5 5 5 5 3 5 5 5 5 5 5 5 5 5 5 5 3 5 5 3 5 5 3 5 3 5 5 3 5 5 5 5 5 3 3 5 5 5 5 3 5 5 5 5 5 5 5 5 5 5 5 5 5 5 5 3 5 5 5 5 5 3 5 5 3 5 5 5 5 5 5 3 5 5 5 5 5 5 5 5 3 5 3 5 5 5 3 3 5 3 5 5 5 5 3 3 5 5 3 5 5 5 5 3 5 5 5 3 5 5 5 5 5 5 5 5 5 5 5 5 5 5 5 5 3 5 5 5 5 3 5 5 5 3 5 5 5 5 5 3 5 5 5 5 5 5 5 5 5 5 5 3 5 3 5 5 5 5 3 5 5 5 5 5 5 5 5 3 5 5 5 5 5 3 5 5 3 5 3 5 5 5 5 5 5 3 5 3 3 5 5 5 5 3 5 3 3 5 5 5 5 5 5 5 5 5 5 5 5 5 3 5 3 5 5 5 5 5 5 5 3 5 5 5 5 3 5 5 3 5 5 5 5 5 5 5 5 5 5 5 5 5 5 5 5 5 5 3 3 5 5 3 5 5 5 3 5 5 5 5 5 5 5 5 5 5 5 5 5 5 5 5 5 5 5 5 5 5 5 5 5 5 5 5 5 5 5 5 5 5 5 5 5 5 5 3 5 5 5 5 5 5 3 5 5 5 5 5 5 5 5 5 5 5 3 5 5 5 5 5 5 5 5 5 5 5 3 5 5 5 3 5 5 5 5 5 5 5 3 5 5 5 5 5 5 5 5 5 5 5 5 3 5 5 5 3 5 5 5 5 5 5 5 5 5 3 5 5 5 5 5 5 5 3 5 3 5 5 3 5 5 5 5 3 5 3 5 5 3 5 5 5 5 5 5 3 5 5 5 5 5 5 5 5 5 3 3 5 5 5 5 3 3 5 3 3 5 5 5 5 5 3 5 5 5 5 5 5 5 3 5 5 5 5 5 5 5 3 5 5 5 5 5 5 5 5 5 5 5 5 5 5 5 5 5 5 3 3 5 3 5 5 5 5 3 3 5 5 5 5 5 5 5 5 5 5 5 5 5 5 5 5 5 5 5 5 5 5 5 5 5 5 5 5 5 5 5 5 5 5 5 5 5 5 5 5 5 5 5 5 5 5 5 5 5 5 5 5 5 5 5 5 5 5 5 5 5 5 5 5 5 5 5 5 5 5 5 5 5 5 5 5 5 5 5 5 3 5 5 3 5 5 5 5 5 5 5 5 5 5 5 5 5 5 5 5 5 5 5 5 5 5 5 5 3 5 5 5 5 5 5 5 5 5 5 5 5 5 5 5 5 5 5 3 3 5 5 5 5 5 3 5 3 5 3 5 5 5 5 3 5 5 5 3 5 5 5 5 5 5 5 5 5 5 5 5 5 5 3 5 5 5 5 5 5 5 5 5 5 5 5 3 5 3 5 5 5 5 5 5 3 5 5 5 5 5 5 3 5 5 5 3 5 5 5 5 5 5 5 5 5 5 5 5 5 5 5 3 3 5 5 5 5 5 5 5 5 5 5 5 5 5 5 5 5 5 5 5 5 3 5 5 5 5 3 5 5 5 5 5 5 5 3 5 3 5 3 5 5 5 3 5 5 5 3 5 3 5 5 5 3 5 3 5 5 3 5 5 5 3 5 3 5 5 5 3 5 3 5 3 5 5 5 5 5 5 3 3 5 5 5 5 5 5 5 5 5 5 3 3 3 5 3 5 5 5 3 5 5 5 5 5 5 5 5 5 5 5 5 3 5 3 5 5 5 5 5 5 5 5 5 5 5 5 5 5 5 5 5 5 5 5 5 5 5 5 5 3 5 5 5 5 5 5 5 5 5 5 5 5 3 5 5 5 5 5 5 5 5 5 5 5 5 5 5 5 5 5 5 5 5 5 5 5 3 5 3 5 5 5 5 5 5 5 5 5 5 3 5 5 3 5 5 5 5 3 5 5 5 5 3 5 5 5 5 5 5 5 5 5 3 5 5 5 5 5 3 5 5 5 5 5 5 5 5 5 5 5 5 5 5 5 5 5 5 5 3 5 5 5 5 5 5 5 5 3 5 3 5 5 5 5 5 5 5 5 5 5 5 5 5 5 5 5 3 5 5 5 3 5 5 5 3 5 5 5 5 3 5 5 5 5 3 5 5 5 5 5 5 5 3 5 5 5 5 5 5 5 5 5 5 5 5 3 5 5 5 5 5 5 5 5 5 5 5 5 3 5 5 3 5 5 5 5 5 5 5 5 5 5 5 5 5 5 5 5 5 5 3 5 5 5 3 5 3 5 5 5 5 5 5 5 5 5 5 5 5 5 3 5 5 5 5 5 5 5 5 5 5 5 5 5 5 5 5 5 5 5 5 5 5 3 5 5 5 3 5 5 5 5 5 5 3 3 5 5 5 5 5 5 5 5 5 3 5 5 5 5 5 5 5 5 5 5 5 5 5 5 5 3 5 5 3 5 5 5 5 5 5 5 5 5 5 5 5 5 3 5 5 3 5 5 5 3 5 5 5 5 5 5 5 3 5 5 3 5 5 5 5 5 5 5 5 5 5 5 5 5 5 5 5 5 5 5 5 5 5 5 5 5 3 5 5 5 5 5 5 5 5 5 5 5 5 5 5 5 5 5 3 5 5 3 5 5 5 5 5 5 5 5 5 5 5 5 5 5 5 5 5 5 5 5 5 5 5 5 5 5 5 5 3 5 5 5 5 3 5 5 3 5 5 3 5 5 5 3 5 5 5 5 3 5 5 3 5 5 5 5 5 5 5 5 5 5 5 3 3 5 5 5 3 5 5 5 5 5 5 5 5 5 5 5 5 5 5 5 5 5 5 5 5 3 5 5 5 5 3 5 5 5 3 5 3 5 5 5 3 5 5 5 5 5 5 5 5 5 3 5 3 5 5 3 5 5 5 5 5 5 5 5 5 5 3 5 5 5 5 3 5 5 5 5 5 5 3 5 5 5 5 5 5 5 5 5 5 5 5 5 5 3 5 5 5 5 5 5 5 5 5 3 5 5 3 5 5 3 5 5 5 5 5 5 5 5 5 5 5 5 5 5 5 5 5 5 5 5 5 3 5 5 5 5 3 5 5 5 5 5 5 5 5 5 5 3 5 5 5 5 3 5 3 5 5 3 5 5 5 5 5 5 5 5 3 5 5 3 5 3 5 5 3 5 5 5 5 3 5 5 5 3 5 5 5 3 5 5 5 5 5 5 3 5 5 5 5 3 5 5 5 3 5 5 5 5 5 5 5 5 5 3 5 5 5 5 5 3 5 5 5 3 5 5 5 5 5 5 5 5 5 5 5 5 3 5 5 5 5 5 5 3 5 5 3 5 3 3 5 5 5 5 5 5 3 5 5 5 5 5 5 5 3 5 5 3 5 5 5 5 3 5 5 3 5 5 5 5 5 5 5 5 5 5 5 5 5 5 5 5 5 3 5 5 5 5 5 3 5 5 5 5 5 5 5 5 3 5 5 5 5 5 5 5 3 5 5 5 5 5 5 5 5 5 5 5 5 5 5 5 5 5 5 5 3 5 5 5 3 5 5 5 3 5 3 5 5 5 5 5 5 5 5 3 5 3 3 5 5 5 5 5 5 5 3 5 5 3 3 3 5 5 3 3 5 3 5 5 5 3 5 5 3 5 5 3 5 5 5 5 3 3 5 5 5 5 5 5 5 5 5 5 5 5 5 5 5 5 5 5 5 5 5 5 5 5 5 5 5 5 5 5 5 5 5 3 5 5 3 5 5 5 5 3 5 5 5 5 5 5 5 5 5 5 5 5 5 5 5 5 3 5 5 5 5 3 5 5 3 5 5 5 5 5 5 5 5 5 5 5 3 5 5 5 5 5 5 5 5 5 5 5 5 5 5 5 5 5 5 5 5 3 5 5 5 5 5 5 5 5 5 5 5 5 5 5 5 3 5 5 5 3 5 5 5 5 5 5 5 5 5 5 5 5 5 3 5 5 5 5 5 5 5 5 5 5 5 5 5 5 5 5 5 5 5 5 5 5 5 5 5 5 5 5 5 5 5 5 5 5 5 5 5 5 5 5 5 5 5 5 5 3 5 5 3 5 5 5 3 5 5 5 5 5 5 5 5 5 5 5 5 5 5 5 5 5 5 5 5 5 5 5 5 5 5 5 3 5 5 5 5 5 5 5 3 5 5 5 5 5 5 3 5 5 5 5 5 5 5 5 5 3 5 5 3 3 3 5 5 5 3 5 5 5 5 3 3 5 5 5 3 5 5 5 5 5 5 5 5 5 5 5 5 5 5 5 5 5 5 5 5 5 5 3 5 5 5 5 5 5 5 5 5 5 5 5 5 5 5 5 3 5 5 5 5 3 5 5 5 5 3 5 5 5 5 5 5 5 5 5 3 5 5 5 5 5 5 5 5 5 5 5 3 5 5 3 5 5 5 5 5 3 5 5 5 5 3 5 5 5 5 3 5 5 5 5 5 5 5 5 5 5 5 3 5 5 5 5 5 5 5 5 5 5 5 5 5 5 5 5 5 5 5 5 5 5 5 5 5 5 5 3 5 5 5 5 5 5 5 5 5 5 5 5 5 5 5 5 5 5 5 5 5 3 5 5 3 5 5 5 5 5 3 5 5 5 5 5 3 3 5 5 5 5 3 5 3 5 5 5 5 5 5 5 5 5 5 5 5 5 5 5 5 5 5 5 5 5 5 5 5 3 5 5 5 5 5 5 5 5 5 5 5 5 5 5 5 5 5 5 5 5 5 5 3 5 5 5 5 5 5 3 5 3 3 5 5 5 5 5 5 5 5 5 5 5 5 5 5 5 5 5 5 5 5 3 5 5 5 3 5 5 5 5 5 5 5 5 5 5 5 5 5 5 5 5 3 5 5 3 5 5 5 5 5 5 5 5 5 5 5 5 5 3 5 5 5 5 5 5 5 5 5 3 5 5 5 3 5 5 3 3 3 5 3 5 5 5 5 3 5 5 5 5 5 5 5 5 5 5 5 5 5 5 5 5 5 5 3 5 5 3 5 5 5 5 5 5 5 5 5 5 5 5 3 5 5 5 3 5 5 5 5 3 5 5 5 5 5 5 3 5 3 5 5 3 5 5 5 5 5 5 5 5 5 5 5 5 5 5 5 5 5 5 5 3 5 5 5 5 5 5 5 5 5 5 5 5 3 5 5 5 5 5 5 5 5 5 5 5 5 5 5 5 5 3 5 5 5 5 5 5 5 3 5 5 5 5 5 5 5 5 5 5 5 5 5 5 5 5 5 5 5 5 5 5 5 5 5 5 5 5 5 5 5 5 5 5 5 5 5 5 5 5 5 5 5 5 5 5 5 5 5 5 5 5 5 5 5 5 3 5 5 5 5 5 5 5 5 5 5 5 5 5 5 5 5 5 3 5 5 5 5 5 5 5 3 5 5 3 3 5 5 5 5 5 5 5 5 5 3 5 5 5 5 3 5 5 5 5 5 5 5 5 5 5 5 3 5 5 5 5 5 5 5 5 5 3 5 3 3 5 5 5 5 5 5 5 5 5 3 5 3 3 5 5 3 5 5 3 5 5 5 5 5 5 5 3 5 5 5 5 5 5 5 5 3 5 3 5 3 5 3 5 5 5 3 5 5 5 3 5 5 3 5 3 5 5 3 3 5 5 5 5 5 5 3 5 5 3 5 5 3 5 5 3 5 5 5 5 5 5 5 5 5 5 5 5 3 3 5 5 5 5 3 5 5 5 3 5 5 5 3 5 5 5 3 5 5 5 5 5 3 5 5 5 5 5 5 5 5 5 5 5 5 5 5 5 5 3 5 5 5 5 5 5 5 3 5 5 5 3 5 5 5 5 5 5 5 5 5 5 5 5 5 5 5 3 5 5 5 5 5 5 5 5 5 5 5 5 5 5 5 5 3 5 5 5 5 5 5 5 3 5 5 5 3 5 5 5 5 5 5 5 5 5 3 5 5 5 5 5 5 5 5 5 5 5 5 5 3 5 3 5 5 5 5 5 5 5 5 5 5 5 5 5 5 5 3 5 3 5 5 5 3 5 5 5 5 5 5 5 5 5 5 3 5 5 5 5 5 5 5 5 5 5 5 5 5 3 5 5 5 5 5 5 5 3 5 5 5 5 3 3 5 5 3 5 5 5 5 5 5 5 5 5 5 3 5 5 5 5 5 5 3 3 5 5 5 5 5 5 5 5 3 3 5 3 5 5 5 5 3 5 5 5 5 5 5 3 5 5 5 5 5 3 5 5 5 5 5 5 5 3 5 3 5 5 5 5 5 5 5 5 5 5 5 5 5 5 5 3 5 3 5 3 5 3 3 5 5 5 3 5 5 5 5 5 3 3 3 5 5 5 5 3 5 5 5 5 3 3 3 5 5 5 3 5 5 5 5 3 5 5 5 5 5 5 5 5 5 5 5 5 5 5 3 5 5 5 5 5 5 5 5 5 5 5 5 5 5 5 5 5 5 5 5 5 5 5 5 5 5 5 3 5 5 5 5 3 5 5 5 5 5 5 5 5 5 3 5 5 5 5 5 3 5 5 5 5 5 5 5 5 5 5 5 5 5 5 3 5 3 5 5 5 5 5 5 3 5 5 5 5 5 5 5 5 5 5 5 5 3 5 5 3 3 5 5 5 5 5 5 3 5 5 5 5 5 5 3 5 5 5 5 3 5 5 5 3 5 5 5 5 3 5 5 5 5 5 3 5 3 5 5 3 5 3 5 5 3 5 5 3 5 5 5 5 5 3 5 5 5 5 3 5 5 5 3 5 5 3 5 5 3 5 5 3 5 5 5 5 5 5 5 5 3 5 5 5 5 3 5 5 3 5 5 3 5 5 3 5 3 5 5 5 5 5 5 5 5 5 5 5 5 5 3 5 5 5 5 5 3 5 5 5 5 5 3 5 5 5 5 5 3 5 5 5 5 5 5 5 5 5 5 5 5 5 5 5 5 5 5 5 5 5 5 5 5 5 5 5 5 5 5 5 5 5 5 5 5 5 5 5 5 5 5 5 5 5 5 5 5 5 5 5 5 5 5 5 5 5 5 5 5 5 5 5 5 5 5 5 5 5 5 5 5 5 3 5 5 5 5 5 5 5 5 5 5 5 5 3 5 5 5 5 5 5 5 5 5 5 5 3 5 5 5 5 3 5 5 5 5 5 5 3 5 5 5 5 3 5 5 5 5 5 3 5 5 5 5 5 5 5 3 5 5 5 5 5 5 3 5 5 5 5 5 5 5 5 5 3 5 5 5 5 5 5 5 5 5 5 5 5 5 5 3 5 5 5 5 5 5 5 5 5 5 5 5 5 5 5 5 5 5 5 5 5 5 5 5 5 3 5 5 5 5 5 5 3 5 5 5 5 5 5 5 5 3 5 5 5 5 5 5 5 5 5 5 5 5 5 5 5 5 5 5 5 5 5 5 5 5 5 5 3 3 5 5 5 5 5 5 5 5 5 5 5 5 5 5 5 3 5 5 5 5 5 5 5 5 5 5 5 3 3 5 5 5 5 5 5 5 5 5 5 5 5 5 5 5 5 5 5 5 5 5 5 5 5 5 5 5 5 5 5 3 5 3 5 5 5 3 5 5 5 5 5 5 5 5 5 5 5 5 5 5 5 5 5 5 5 5 5 5 5 5 5 5 3 5 5 5 3 5 5 5 5 5 5 5 5 5 5 5 5 5 5 5 5 5 5 3 5 3 5 5 5 5 5 5 3 5 5 3 5 5 5 5 3 5 5 5 5 5 5 5 5 5 5 5 5 5 5 5 3 5 5 5 5 5 5 3 5 5 3 5 5 5 5 5 3 5 5 5 5 3 5 5 5 3 5 5 5 5 5 5 3 5 5 3 5 5 3 5 5 3 5 3 5 5 5 5 3 5 5 5 5 5 5 5 5 5 5 3 5 5 5 5 5 5 5 5 5 5 5 5 5 3 5 5 5 5 5 5 5 3 5 5 5 3 5 5 3 5 5 5 3 5 5 3 5 5 5 3 5 3 5 5 5 5 5 5 3 5 5 5 5 5 5 5 5 5 5 5 5 3 5 5 5 3 5 5 5 5 5 5 5 3 5 5 5 5 3 5 5 5 5 5 5 5 5 5 5 5 5 5 3 5 5 5 5 5 5 5 5 5 5 5 5 5 3 5 5 5 3 5 5 3 5 5 5 5 3 5 5 5 5 5 5 3 5 5 5 5 5 5 5 5 5 5 5 5 3 5 5 3 5 5 5 5 5 5 5 3 3 5 5 3 5 5 5 5 5 3 5 5 3 5 5 5 5 3 5 3 5 5 5 3 5 5 5 3 5 3 5 5 5 5 5 5 3 5 5 5 5 5 3 5 5 5 5 5 5 5 5 5 5 3 5 5 5 3 5 5 5 3 5 5 5 3 5 5 5 5 5 3 5 5 5 5 5 5 3 5 5 3 5 5 5 5 3 5 5 5 5 5 5 5 5 5 5 5 5 5 5 5 5 5 5 5 5 5 5 5 5 5 5 5 5 5 5 5 5 3 5 5 5 5 5 5 5 3 5 5 5 5 5 5 5 5 5 5 5 5 5 5 5 5 5 5 5 5 5 5 5 5 5 5 5 5 5 5 5 5 5 5 5 5 5 5 3 5 5 5 3 5 5 5 5 5 5 5 5 5 5 3 5 5 5 5 5 5 5 5 5 3 5 5 5 5 5 5 5 5 5 5 5 5 5 3 5 5 5 5 3 5 5 5 5 5 5 5 5 5 3 5 5 5 5 5 5 5 3 5 5 5 5 5 5 5 5 3 3 5 5 5 3 5 5 5 5 5 5 3 5 5 3 5 5 5 5 5 5 3 5 5 5 5 5 3 5 5 3 5 5 5 5 3 3 5 5 3 5 3 3 5 5 5 5 3 5 5 5 5 5 5 5 5 5 5 5 3 5 5 5 5 5 3 5 5 5 5 3 5 5 3 3 3 5 5 3 5 5 5 5 5 3 5 5 5 5 5 5 5 5 3 5 5 5 5 3 5 5 5 5 5 5 5 5 5 5 5 5 5 5 5 5 5 5 5 5 5 5 5 5 5 5 5 5 5 5 5 5 5 5 5 5 5 5 5 5 5 5 5 5 5 5 5 5 5 5 5 5 5 5 5 5 5 5 5 5 5 5 5 5 5 3 5 5 5 5 5 5 5 5 5 5 5 5 5 3 5 5 3 5 5 5 5 5 5 5 5 5 3 5 5 5 3 5 3 5 5 5 5 5 5 5 5 5 5 5 5 5 3 5 5 5 5 5 5 5 5 5 5 5 5 5 5 5 3 5 5 5 5 3 5 5 5 5 5 3 5 5 3 5 5 5 5 5 5 5 5 3 5 5 5 3 5 5 5 3 5 5 5 5 5 5 5 3 5 5 5 5 3 5 3 5 3 5 5 3 5 3 3 5 5 3 5 5 5 5 5 5 5 5 5 5 5 3 5 5 5 5 5 5 5 5 3 5 5 5 5 5 5 3 5 5 3 3 5 5 3 5 5 5 5 5 5 5 5 3 5 5 3 5 5 5 3 5 3 5 5 5 5 5 3 3 5 5 5 5 5 5 5 3 5 3 5 5 5 3 5 5 5 5 5 3 5 3 5 5 5 3 5 5 5 5 5 5 5 3 5 5 5 3 5 5 5 5 5 3 5 3 5 5 5 5 5 5 3 5 5 5 5 3 3 3 5 5 3 5 3 3 5 5 5 5 5 5 3 5 5 5 5 3 5 3 5 5 5 5 3 5 5 5 5 5 5 5 5 5 5 5 5 5 5 5 5 3 5 5 3 5 3 5 5 5 5 3 5 5 3 3 5 5 5 5 5 3 5 3 5 5 5 5 3 5 3 5 5 3 3 5 5 5 5 5 5 5 5 5 5 5 5 5 5 5 5 5 5 5 5 5 5 5 5 5 5 5 5 5 3 5 5 3 5 5 5 5 5 5 5 5 5 5 5 5 5 5 5 5 5 3 5 5 5 5 3 5 5 3 3 5 5 5 5 5 5 5 5 5 3 5 5 5 5 5 5 5 5 5 3 5 3 5 5 5 3 5 5 5 3 3 5 5 3 5 5 5 5 5 5 3 5 5 5 5 5 5 3 5 5 5 5 3 3 3 5 3 5 5 5 3 5 5 5 5 3 5 5 5 5 3 5 3 5 5 5 3 3 5 5 5 5 3 5 5 5 5 5 5 5 5 5 5 5 5 3 5 5 5 5 5 5 5 5 5 5 5 5 5 5 3 5 5 5 5 5 3 5 5 5 3 5 5 3 3 5 5 5 5 5 5 3 3 3 5 3 5 3 3 5 5 5 5 5 3 5 3 5 5 5 5 3 5 3 5 3 5 3 5 5 5 5 5 5 5 3 5 5 5 3 5 5 5 5 5 5 5 5 5 5 3 5 5 5 3 5 5 5 5 5 3 5 3 3 5 5 5 5 5 5 5 5 5 5 5 5 5 5 5 5 5 5 5 5 5 5 5 5 5 5 5 5 5 5 5 5 5 5 3 5 5 5 5 5 5 5 3 5 5 3 5 5 5 5 3 5 5 3 5 5 5 5 5 5 5 5 5 5 5 5 5 5 5 5 5 5 5 5 3 5 3 5 5 5 3 5 5 5 3 5 3 5 3 5 5 5 5 5 5 5 5 5 5 5 5 5 5 5 5 5 3 5 5 5 5 5 5 5 5 5 5 3 5 5 5 5 5 5 5 5 5 5 5 5 5 5 5 5 5 5 5 5 5 5 5 5 5 5 3 5 5 5 5 3 5 5 5 5 5 5 5 3 5 5 5 5 5 5 5 5 5 5 5 5 5 5 3 5 5 5 5 5 5 5 5 5 5 5 5 5 5 5 5 5 5 5 5 5 5 5 5 5 5 5 5 5 5 5 3 5 5 5 5 5 5 5 5 3 5 5 5 5 5 5 5 5 5 5 5 5 3 5 3 5 5 3 5 5 5 5 5 5 5 5 5 5 5 5 3 3 5 5 5 5 5 5 5 5 5 5 5 5 5 5 5 5 5 5 5 5 5 5 5 5 5 5 5 5 5 5 5 5 5 5 5 5 5 5 5 5 5 5 5 5 5 5 5 5 5 5 5 5 5 5 5 5 3 5 5 5 3 5 5 5 3 5 5 5 5 5 5 5 5 5 5 5 5 5 5 5 5 5 5 5 5 5 5 5 3 5 5 5 5 5 5 5 3 5 5 5 5 5 3 5 5 5 5 5 5 5 5 5 5 5 5 5 5 5 5 5 5 5 5 5 5 5 5 5 5 3 5 5 5 5 5 5 5 5 3 5 5 5 5 5 3 5 5 5 3 5 5 5 5 5 5 3 5 5 5 5 5 3 5 5 5 5 5 5 3 5 5 5 5 5 5 5 5 5 5 5 5 5 3 5 5 5 5 5 5 5 5 5 5 5 5 5 5 5 5 5 5 5 5 3 5 5 5 3 3 5 5 5 5 5 5 5 5 5 5 5 5 5 5 5 5 5 5 5 5 5 3 5 5 5 3 3 5 5 5 5 5 5 3 5 3 5 5 5 5 5 3 5 5 5 5 5 3 3 5 5 5 5 3 5 5 3 5 5 5 5 5 5 5 5 5 5 3 5 5 5 3 5 5 5 3 5 5 5 5 5 5 5 5 5 5 5 5 5 5 5 5 5 5 5 5 5 5 5 5 5 5 3 5 5 5 5 5 5 5 5 5 5 3 5 5 5 5 3 5 5 5 5 5 5 5 5 5 3 3 5 5 5 5 5 5 5 5 3 5 5 5 5 5 3 5 5 5 5 5 5 5 5 5 5 5 5 5 5 5 5 5 5 5 5 5 5 5 5 5 5 5 5 5 5 5 5 5 5 5 5 5 5 5 5 5 5 5 5 5 5 5 5 5 5 5 5 5 5 5 5 5 5 5 5 5 5 5 5 5 5 5 5 5 5 5 5 5 5 5 5 5 5 5 5 5 5 5 5 5 5 5 5 5 5 5 5 5 5 5 5 5 5 5 5 5 5 5 5 5 3 5 3 5 5 3 5 5 5 5 5 5 5 5 5 5 5 5 5 5 5 5 5 5 5 5 5 5 5 5 5 5 5 3 5 5 3 5 5 5 5 5 5 5 5 5 5 5 5 5 5 3 5 5 5 5 5 5 5 5 3 5 5 5 5 5 5 5 5 5 5 5 5 5 5 5 5 5 5 5 5 5 5 5 5 5 5 5 5 5 5 5 5 5 5 5 5 5 5 5 5 5 5 5 5 3 3 5 5 5 5 5 5 5 5 5 5 5 5 5 5 5 5 5 5 5 5 5 5 5 5 5 5 5 5 5 5 5 5 5 5 5 5 5 5 5 5 5 3 5 5 5 5 5 5 5 5 5 3 5 3 5 3 5 3 5 3 5 5 5 5 3 5 5 5 3 5 5 5 5 5 5 5 5 3 3 5 5 3 5 5 5 5 3 5 5 3 5 5 5 5 5 5 5 3 5 5 5 5 5 5 5 5 5 5 5 5 5 5 5 5 5 5 5 5 5 5 5 5 5 5 5 5 5 5 5 3 5 5 5 5 5 5 5 5 5 3 5 5 5 3 5 5 5 3 5 5 5 5 3 3 5 5 5 5 3 5 5 5 3 5 5 5 3 5 5 5 5 3 5 5 3 5 3 5 5 3 5 5 5 5 5 5 5 5 5 5 5 5 5 3 5 5 3 5 5 5 5 5 5 5 5 5 5 5 5 5 5 5 5 5 5 3 5 5 5 5 5 5 5 5 5 5 5 5 5 5 5 5 3 5 3 5 5 5 5 5 3 
</DataArray>
</Cells>
<PointData Scalars="" Vectors="displacement," Tensors="">
<DataArray type="Float64" Name="displacement" NumberOfComponents="3" format="ascii">
-0.044999348480939283 -0.044997054809443743 0 -0.043091037435787981 -0.045465254406049718 0 -0.040979196176712154 -0.045367690609401851 0 -0.044999348480939283 -0.044997054809443743 0 -0.040979196176712154 -0.045367690609401851 0 -0.038338613084922903 -0.044994740415289017 0 -0.044998423481241834 -0.04386061866882271 0 -0.044999348480939283 -0.044997054809443743 0 -0.043091037435787981 -0.045465254406049718 0 -0.044999037943814636 -0.043854432785430837 0 -0.043531236549695054 -0.043600370929502613 0 -0.044363799522354551 -0.041717303625517621 0 -0.04468270992072728 -0.041812700447499074 0 -0.043398025202716656 -0.041691835326804406 0 -0.044999300718085403 -0.043850016032827711 0 -0.04468270992072728 -0.041812700447499074 0 -0.044998517864069894 -0.041445311412048234 0 -0.044999300718085403 -0.043850016032827711 0 -0.044363799522354551 -0.041717303625517621 0 -0.04468270992072728 -0.041812700447499074 0 -0.04468270992072728 -0.041812700447499074 0 -0.044998517864069894 -0.041445311412048234 0 -0.044382297261065747 -0.04059982029077483 0 -0.04468270992072728 -0.041812700447499074 0 -0.044382297261065747 -0.04059982029077483 0 -0.043398025202716656 -0.041691835326804406 0 -0.044998517864069894 -0.041445311412048234 0 -0.044382297261065747 -0.04059982029077483 0 -0.044998388229286382 -0.039035436171760182 0 -0.043219941378608767 -0.040413806069342015 0 -0.04166244247505832 -0.041728909961436592 0 -0.04279809593558815 -0.03913482565396402 0 -0.044382297261065747 -0.04059982029077483 0 -0.043219941378608767 -0.040413806069342015 0 -0.043398025202716656 -0.041691835326804406 0 -0.043219941378608767 -0.040413806069342015 0 -0.043398025202716656 -0.041691835326804406 0 -0.04166244247505832 -0.041728909961436592 0 -0.043398025202716656 -0.041691835326804406 0 -0.04166244247505832 -0.041728909961436592 0 -0.04178017057850017 -0.042227533274163613 0 -0.041886902629214899 -0.043408538700409574 0 -0.040202928230140031 -0.043528848538053888 0 -0.04178017057850017 -0.042227533274163613 0 -0.042589287632352098 -0.041354426970339982 0 -0.039794811837610092 -0.043585032269189992 0 -0.04166244247505832 -0.041728909961436592 0 -0.04178017057850017 -0.042227533274163613 0 -0.039794811837610092 -0.043585032269189992 0 -0.044363799522354551 -0.041717303625517621 0 -0.043398025202716656 -0.041691835326804406 0 -0.042589287632352098 -0.041354426970339982 0 -0.043398025202716656 -0.041691835326804406 0 -0.04178017057850017 -0.042227533274163613 0 -0.042589287632352098 -0.041354426970339982 0 -0.043531236549695054 -0.043600370929502613 0 -0.041886902629214899 -0.043408538700409574 0 -0.040979196176712154 -0.045367690609401851 0 -0.038338613084922903 -0.044994740415289017 0 -0.039794811837610092 -0.043585032269189992 0 -0.038338613084922903 -0.044994740415289017 0 -0.03863119654017072 -0.043803553359962513 0 -0.039794811837610092 -0.043585032269189992 0 -0.038338613084922903 -0.044994740415289017 0 -0.03863119654017072 -0.043803553359962513 0 -0.037055786845849738 -0.044197762305908411 0 -0.03863119654017072 -0.043803553359962513 0 -0.039794811837610092 -0.043585032269189992 0 -0.039380570446112206 -0.042593095526040937 0 -0.03863119654017072 -0.043803553359962513 0 -0.037055786845849738 -0.044197762305908411 0 -0.039380570446112206 -0.042593095526040937 0 -0.038338613084922903 -0.044994740415289017 0 -0.037055786845849738 -0.044197762305908411 0 -0.033382256346567676 -0.045000258507046233 0 -0.035487417698204043 -0.043911332015178647 0 -0.036736598765588463 -0.04413683443183513 0 -0.037144447025356769 -0.042223254488276032 0 -0.037055786845849738 -0.044197762305908411 0 -0.03733105536925764 -0.042549793809251071 0 -0.034070317081472914 -0.045618245524903185 0 -0.037055786845849738 -0.044197762305908411 0 -0.033382256346567676 -0.045000258507046233 0 -0.037055786845849738 -0.044197762305908411 0 -0.03778573749512365 -0.042263582311812979 0 -0.039380570446112206 -0.042593095526040937 0 -0.037055786845849738 -0.044197762305908411 0 -0.03733105536925764 -0.042549793809251071 0 -0.03778573749512365 -0.042263582311812979 0 -0.03733105536925764 -0.042549793809251071 0 -0.03778573749512365 -0.042263582311812979 0 -0.036270448921901434 -0.042441514237646159 0 -0.03778573749512365 -0.042263582311812979 0 -0.039199270416632216 -0.041980346982046612 0 -0.039380570446112206 -0.042593095526040937 0 -0.039199270416632216 -0.041980346982046612 0 -0.03802307391870019 -0.042291274230616641 0 -0.04147038253534973 -0.041367596914310002 0 -0.03778573749512365 -0.042263582311812979 0 -0.039199270416632216 -0.041980346982046612 0 -0.03802307391870019 -0.042291274230616641 0 -0.03802307391870019 -0.042291274230616641 0 -0.036519054059177269 -0.042444832885108467 0 -0.037154089379966122 -0.042493119735427805 0 -0.03778573749512365 -0.042263582311812979 0 -0.03802307391870019 -0.042291274230616641 0 -0.036519054059177269 -0.042444832885108467 0 -0.04166244247505832 -0.041728909961436592 0 -0.04147038253534973 -0.041367596914310002 0 -0.04279809593558815 -0.03913482565396402 0 -0.04166244247505832 -0.041728909961436592 0 -0.039794811837610092 -0.043585032269189992 0 -0.039380570446112206 -0.042593095526040937 0 -0.039199270416632216 -0.041980346982046612 0 -0.039380570446112206 -0.042593095526040937 0 -0.04147038253534973 -0.041367596914310002 0 -0.04166244247505832 -0.041728909961436592 0 -0.039380570446112206 -0.042593095526040937 0 -0.04147038253534973 -0.041367596914310002 0 -0.04147038253534973 -0.041367596914310002 0 -0.044415507795444183 -0.037511609072811057 0 -0.04279809593558815 -0.03913482565396402 0 -0.044415507795444183 -0.037511609072811057 0 -0.044014537485939031 -0.036220782657130988 0 -0.04279809593558815 -0.03913482565396402 0 -0.041480942278460942 -0.041154928556518616 0 -0.041325254863043552 -0.040117521722802314 0 -0.038246919229947537 -0.042957992366461056 0 -0.037154089379966122 -0.042493119735427805 0 -0.037587681819269053 -0.041950805109409829 0 -0.03802307391870019 -0.042291274230616641 0 -0.038246919229947537 -0.042957992366461056 0 -0.037154089379966122 -0.042493119735427805 0 -0.03802307391870019 -0.042291274230616641 0 -0.04147038253534973 -0.041367596914310002 0 -0.038246919229947537 -0.042957992366461056 0 -0.038246919229947537 -0.042957992366461056 0 -0.037242352516152315 -0.041574442758136328 0 -0.037587681819269053 -0.041950805109409829 0 -0.044415507795444183 -0.037511609072811057 0 -0.044157587861877096 -0.034691935519133556 0 -0.044465110020446653 -0.034868608971605923 0 -0.041325254863043552 -0.040117521722802314 0 -0.040630830072076303 -0.038258614814206497 0 -0.044157587861877096 -0.034691935519133556 0 -0.044465110020446653 -0.034868608971605923 0 -0.04442191261497315 -0.034764294509528212 0 -0.040630830072076303 -0.038258614814206497 0 -0.039432970699373099 -0.038182273898637382 0 -0.037242352516152315 -0.041574442758136328 0 -0.038330511112093311 -0.040401397141226189 0 -0.039293332909302897 -0.037985898898321629 0 -0.037242352516152315 -0.041574442758136328 0 -0.038330511112093311 -0.040401397141226189 0 -0.037587681819269053 -0.041950805109409829 0 -0.044415507795444183 -0.037511609072811057 0 -0.044014537485939031 -0.036220782657130988 0 -0.044465110020446653 -0.034868608971605923 0 -0.044014537485939031 -0.036220782657130988 0 -0.04450083369482441 -0.034538728774098706 0 -0.044151531678488301 -0.035905127298438928 0 -0.044014537485939031 -0.036220782657130988 0 -0.044465110020446653 -0.034868608971605923 0 -0.04450083369482441 -0.034538728774098706 0 -0.04450083369482441 -0.034538728774098706 0 -0.044151531678488301 -0.035905127298438928 0 -0.044639499081536443 -0.033786429660884472 0 -0.044014537485939031 -0.036220782657130988 0 -0.044151531678488301 -0.035905127298438928 0 -0.04279809593558815 -0.03913482565396402 0 -0.044151531678488301 -0.035905127298438928 0 -0.044616285022312137 -0.035739077629077652 0 -0.044169139691209086 -0.03828165398845583 0 -0.044151531678488301 -0.035905127298438928 0 -0.044802276150012636 -0.033632109602606354 0 -0.044639499081536443 -0.033786429660884472 0 -0.044151531678488301 -0.035905127298438928 0 -0.044616285022312137 -0.035739077629077652 0 -0.044802276150012636 -0.033632109602606354 0 -0.04499857469725544 -0.034216130331954649 0 -0.044616285022312137 -0.035739077629077652 0 -0.044802276150012636 -0.033632109602606354 0 -0.04499857469725544 -0.034216130331954649 0 -0.044616285022312137 -0.035739077629077652 0 -0.044998465559244229 -0.036626007368881705 0 -0.044616285022312137 -0.035739077629077652 0 -0.044169139691209086 -0.03828165398845583 0 -0.044998465559244229 -0.036626007368881705 0 -0.044169139691209086 -0.03828165398845583 0 -0.044998465559244229 -0.036626007368881705 0 -0.044998388229286382 -0.039035436171760182 0 -0.044382297261065747 -0.04059982029077483 0 -0.044169139691209086 -0.03828165398845583 0 -0.044998388229286382 -0.039035436171760182 0 -0.044382297261065747 -0.04059982029077483 0 -0.043219941378608767 -0.040413806069342015 0 -0.044169139691209086 -0.03828165398845583 0 -0.044151531678488301 -0.035905127298438928 0 -0.044169139691209086 -0.03828165398845583 0 -0.04279809593558815 -0.03913482565396402 0 -0.043219941378608767 -0.040413806069342015 0 -0.044169139691209086 -0.03828165398845583 0 -0.04279809593558815 -0.03913482565396402 0 -0.02782904696038857 -0.04495435888147873 0 -0.027859927845649134 -0.044820646865980675 0 -0.027461044649883287 -0.044838573693622062 0 -0.02782904696038857 -0.04495435888147873 0 -0.027461044649883287 -0.044838573693622062 0 -0.027798636206573961 -0.044913236880779514 0 -0.02782904696038857 -0.04495435888147873 0 -0.027859927845649134 -0.044820646865980675 0 -0.028013372077581797 -0.045244131216059524 0 -0.027859927845649134 -0.044820646865980675 0 -0.028795668262407294 -0.04455273262705485 0 -0.028013372077581797 -0.045244131216059524 0 -0.027859927845649134 -0.044820646865980675 0 -0.027666156514348575 -0.044772300440618633 0 -0.028795668262407294 -0.04455273262705485 0 -0.027859927845649134 -0.044820646865980675 0 -0.027666156514348575 -0.044772300440618633 0 -0.027461044649883287 -0.044838573693622062 0 -0.027666156514348575 -0.044772300440618633 0 -0.027461044649883287 -0.044838573693622062 0 -0.026853535484702078 -0.044888236831648137 0 -0.027461044649883287 -0.044838573693622062 0 -0.027197739652336704 -0.044903971223046749 0 -0.027798636206573961 -0.044913236880779514 0 -0.027461044649883287 -0.044838573693622062 0 -0.026853535484702078 -0.044888236831648137 0 -0.027197739652336704 -0.044903971223046749 0 -0.022677728057370908 -0.045979905811661295 0 -0.021548789384810273 -0.046450365385065431 0 -0.021423315449265751 -0.046663580363027028 0 -0.026313255468071419 -0.045103474431031798 0 -0.025863285926713747 -0.045167732092710446 0 -0.026853535484702078 -0.044888236831648137 0 -0.026313255468071419 -0.045103474431031798 0 -0.026853535484702078 -0.044888236831648137 0 -0.027197739652336704 -0.044903971223046749 0 -0.024377893038392245 -0.045451426366338379 0 -0.026381221953019597 -0.045925246457148787 0 -0.022677728057370908 -0.045979905811661295 0 -0.023890725643502097 -0.044999820214759026 0 -0.021883206843699488 -0.045774672054718364 0 -0.026313255468071419 -0.045103474431031798 0 -0.023897049268607105 -0.045000193081114394 0 -0.025863285926713747 -0.045167732092710446 0 -0.024377893038392245 -0.045451426366338379 0 -0.023892071173180627 -0.044999724077124548 0 -0.023897049268607105 -0.045000193081114394 0 -0.025863285926713747 -0.045167732092710446 0 -0.025430784258956476 -0.044999226407992067 0 -0.025863285926713747 -0.045167732092710446 0 -0.026572231226284611 -0.045155639002523298 0 -0.025430784258956476 -0.044999226407992067 0 -0.027666156514348575 -0.044772300440618633 0 -0.026853535484702078 -0.044888236831648137 0 -0.027108433790176776 -0.044991153743432689 0 -0.025863285926713747 -0.045167732092710446 0 -0.027108433790176776 -0.044991153743432689 0 -0.026572231226284611 -0.045155639002523298 0 -0.025863285926713747 -0.045167732092710446 0 -0.026853535484702078 -0.044888236831648137 0 -0.027108433790176776 -0.044991153743432689 0 -0.027108433790176776 -0.044991153743432689 0 -0.026572231226284611 -0.045155639002523298 0 -0.027483855704444698 -0.045046513637202974 0 -0.027108433790176776 -0.044991153743432689 0 -0.027483855704444698 -0.045046513637202974 0 -0.028259178943232693 -0.044833016722791677 0 -0.026572231226284611 -0.045155639002523298 0 -0.025430784258956476 -0.044999226407992067 0 -0.026968835673790381 -0.044999704086514901 0 -0.026572231226284611 -0.045155639002523298 0 -0.026968835673790381 -0.044999704086514901 0 -0.027483855704444698 -0.045046513637202974 0 -0.028308636663014201 -0.044567500555421323 0 -0.030842601384834925 -0.043670825032749362 0 -0.031075792382760443 -0.043540934039700635 0 -0.026970306396317451 -0.044999139622544822 0 -0.029121448906743647 -0.04421327109061083 0 -0.026978356721811869 -0.04499462980958932 0 -0.028308636663014201 -0.044567500555421323 0 -0.030842601384834925 -0.043670825032749362 0 -0.029121448906743647 -0.04421327109061083 0 -0.031120876613356593 -0.044043674571683886 0 -0.030842601384834925 -0.043670825032749362 0 -0.033064879285760511 -0.043122567044709487 0 -0.032996960643455794 -0.043128273492972519 0 -0.027483855704444698 -0.045046513637202974 0 -0.029161715752596278 -0.044939257841209286 0 -0.028259178943232693 -0.044833016722791677 0 -0.027666156514348575 -0.044772300440618633 0 -0.027108433790176776 -0.044991153743432689 0 -0.028259178943232693 -0.044833016722791677 0 -0.027666156514348575 -0.044772300440618633 0 -0.028259178943232693 -0.044833016722791677 0 -0.028795668262407294 -0.04455273262705485 0 -0.029161715752596278 -0.044939257841209286 0 -0.028259178943232693 -0.044833016722791677 0 -0.029333730252445935 -0.044633654835662472 0 -0.028259178943232693 -0.044833016722791677 0 -0.029333730252445935 -0.044633654835662472 0 -0.028795668262407294 -0.04455273262705485 0 -0.028795668262407294 -0.04455273262705485 0 -0.031013437326489503 -0.044243121699068445 0 -0.028013372077581797 -0.045244131216059524 0 -0.029333730252445935 -0.044633654835662472 0 -0.028795668262407294 -0.04455273262705485 0 -0.031013437326489503 -0.044243121699068445 0 -0.033064879285760511 -0.043122567044709487 0 -0.033630017438009932 -0.042757185116371631 0 -0.034406256068808663 -0.042235585707079089 0 -0.029161715752596278 -0.044939257841209286 0 -0.031013437326489503 -0.044243121699068445 0 -0.031652137849131338 -0.04326226017937207 0 -0.031120876613356593 -0.044043674571683886 0 -0.033040467880192111 -0.042788599894094857 0 -0.033064879285760511 -0.043122567044709487 0 -0.033630017438009932 -0.042757185116371631 0 -0.032996960643455794 -0.043128273492972519 0 -0.029161715752596278 -0.044939257841209286 0 -0.029333730252445935 -0.044633654835662472 0 -0.031013437326489503 -0.044243121699068445 0 -0.026978356721811869 -0.04499462980958932 0 -0.029844120686060231 -0.045438342486950146 0 -0.033382256346567676 -0.045000258507046233 0 -0.033630017438009932 -0.042757185116371631 0 -0.033747033782249941 -0.042834250626306379 0 -0.034038772325978801 -0.042088101283179705 0 -0.033630017438009932 -0.042757185116371631 0 -0.033747033782249941 -0.042834250626306379 0 -0.032996960643455794 -0.043128273492972519 0 -0.033747033782249941 -0.042834250626306379 0 -0.034773929314342332 -0.042762755066216088 0 -0.035195917613232569 -0.042364797015004202 0 -0.033747033782249941 -0.042834250626306379 0 -0.035195917613232569 -0.042364797015004202 0 -0.034038772325978801 -0.042088101283179705 0 -0.032674469824507064 -0.043206509375448648 0 -0.033975304633759973 -0.042593631386391426 0 -0.034773929314342332 -0.042762755066216088 0 -0.033747033782249941 -0.042834250626306379 0 -0.032674469824507064 -0.043206509375448648 0 -0.034773929314342332 -0.042762755066216088 0 -0.033747033782249941 -0.042834250626306379 0 -0.032674469824507064 -0.043206509375448648 0 -0.032996960643455794 -0.043128273492972519 0 -0.030842601384834925 -0.043670825032749362 0 -0.032674469824507064 -0.043206509375448648 0 -0.032996960643455794 -0.043128273492972519 0 -0.032674469824507064 -0.043206509375448648 0 -0.031075792382760443 -0.043540934039700635 0 -0.033975304633759973 -0.042593631386391426 0 -0.030842601384834925 -0.043670825032749362 0 -0.032674469824507064 -0.043206509375448648 0 -0.031075792382760443 -0.043540934039700635 0 -0.028308636663014201 -0.044567500555421323 0 -0.031075792382760443 -0.043540934039700635 0 -0.032820601128641783 -0.041735948179008255 0 -0.02879759346732292 -0.044315494614541227 0 -0.031377324619600709 -0.043726648550866269 0 -0.026978356721811869 -0.04499462980958932 0 -0.028308636663014201 -0.044567500555421323 0 -0.029844120686060231 -0.045438342486950146 0 -0.031377324619600709 -0.043726648550866269 0 -0.033618855969426001 -0.043616818778996765 0 -0.032820601128641783 -0.041735948179008255 0 -0.033975304633759973 -0.042593631386391426 0 -0.035377245805772416 -0.041487659757763341 0 -0.031075792382760443 -0.043540934039700635 0 -0.032820601128641783 -0.041735948179008255 0 -0.033975304633759973 -0.042593631386391426 0 -0.029844120686060231 -0.045438342486950146 0 -0.031880233571204827 -0.045693214438229032 0 -0.033382256346567676 -0.045000258507046233 0 -0.033975304633759973 -0.042593631386391426 0 -0.036270448921901434 -0.042441514237646159 0 -0.034773929314342332 -0.042762755066216088 0 -0.033975304633759973 -0.042593631386391426 0 -0.035377245805772416 -0.041487659757763341 0 -0.036270448921901434 -0.042441514237646159 0 -0.034070317081472914 -0.045618245524903185 0 -0.031880233571204827 -0.045693214438229032 0 -0.033382256346567676 -0.045000258507046233 0 -0.035487417698204043 -0.043911332015178647 0 -0.033618855969426001 -0.043616818778996765 0 -0.037144447025356769 -0.042223254488276032 0 -0.03733105536925764 -0.042549793809251071 0 -0.036270448921901434 -0.042441514237646159 0 -0.037144447025356769 -0.042223254488276032 0 -0.035377245805772416 -0.041487659757763341 0 -0.036270448921901434 -0.042441514237646159 0 -0.03778573749512365 -0.042263582311812979 0 -0.036270448921901434 -0.042441514237646159 0 -0.036519054059177269 -0.042444832885108467 0 -0.036270448921901434 -0.042441514237646159 0 -0.034773929314342332 -0.042762755066216088 0 -0.036519054059177269 -0.042444832885108467 0 -0.034773929314342332 -0.042762755066216088 0 -0.036519054059177269 -0.042444832885108467 0 -0.035195917613232569 -0.042364797015004202 0 -0.036519054059177269 -0.042444832885108467 0 -0.037154089379966122 -0.042493119735427805 0 -0.035195917613232569 -0.042364797015004202 0 -0.037154089379966122 -0.042493119735427805 0 -0.035195917613232569 -0.042364797015004202 0 -0.036734996601227435 -0.04215939264883535 0 -0.035195917613232569 -0.042364797015004202 0 -0.036734996601227435 -0.04215939264883535 0 -0.034596035790232932 -0.041968436058528964 0 -0.036734996601227435 -0.04215939264883535 0 -0.03802377658729069 -0.041527123246821632 0 -0.034596035790232932 -0.041968436058528964 0 -0.037154089379966122 -0.042493119735427805 0 -0.036734996601227435 -0.04215939264883535 0 -0.037587681819269053 -0.041950805109409829 0 -0.038330511112093311 -0.040401397141226189 0 -0.037587681819269053 -0.041950805109409829 0 -0.038334266120416786 -0.040601543424754617 0 -0.037587681819269053 -0.041950805109409829 0 -0.038334266120416786 -0.040601543424754617 0 -0.03802377658729069 -0.041527123246821632 0 -0.038330511112093311 -0.040401397141226189 0 -0.038334266120416786 -0.040601543424754617 0 -0.038806440750580429 -0.039244338673240724 0 -0.038334266120416786 -0.040601543424754617 0 -0.03802377658729069 -0.041527123246821632 0 -0.038781070409762426 -0.039719078433694363 0 -0.034227169690211626 -0.040224210488295969 0 -0.038997208738100406 -0.034556692285973134 0 -0.036734996601227435 -0.04215939264883535 0 -0.037587681819269053 -0.041950805109409829 0 -0.03802377658729069 -0.041527123246821632 0 -0.034227169690211626 -0.040224210488295969 0 -0.034780240639528129 -0.04144580545094223 0 -0.031708009776599842 -0.038366716411518585 0 -0.034200302070599424 -0.040123890155710017 0 -0.034596035790232932 -0.041968436058528964 0 -0.031708009776599842 -0.038366716411518585 0 -0.034851401045379198 -0.03744063769357002 0 -0.034200302070599424 -0.040123890155710017 0 -0.031708009776599842 -0.038366716411518585 0 -0.034851401045379198 -0.03744063769357002 0 -0.033559265136045659 -0.033856086246761279 0 -0.034851401045379198 -0.03744063769357002 0 -0.034200302070599424 -0.040123890155710017 0 -0.034635326617357499 -0.040287564110321257 0 -0.034200302070599424 -0.040123890155710017 0 -0.034038772325978801 -0.042088101283179705 0 -0.034635326617357499 -0.040287564110321257 0 -0.034200302070599424 -0.040123890155710017 0 -0.034596035790232932 -0.041968436058528964 0 -0.034038772325978801 -0.042088101283179705 0 -0.035195917613232569 -0.042364797015004202 0 -0.034596035790232932 -0.041968436058528964 0 -0.034038772325978801 -0.042088101283179705 0 -0.033630017438009932 -0.042757185116371631 0 -0.034038772325978801 -0.042088101283179705 0 -0.034406256068808663 -0.042235585707079089 0 -0.034038772325978801 -0.042088101283179705 0 -0.034406256068808663 -0.042235585707079089 0 -0.034635326617357499 -0.040287564110321257 0 -0.031013437326489503 -0.044243121699068445 0 -0.031652137849131338 -0.04326226017937207 0 -0.034451190258410355 -0.041923145435527498 0 -0.031652137849131338 -0.04326226017937207 0 -0.034451190258410355 -0.041923145435527498 0 -0.034024374367122967 -0.041342967134142108 0 -0.031108716051086813 -0.04419158429947926 0 -0.032402112965236596 -0.043868967303844854 0 -0.031013437326489503 -0.044243121699068445 0 -0.034451190258410355 -0.041923145435527498 0 -0.037065965407027002 -0.042297467576834731 0 -0.034451190258410355 -0.041923145435527498 0 -0.035335882695922853 -0.040286403711287354 0 -0.034024374367122967 -0.041342967134142108 0 -0.035335882695922853 -0.040286403711287354 0 -0.036829429992829649 -0.038378115950982443 0 -0.037247808482951832 -0.03985698132537397 0 -0.034451190258410355 -0.041923145435527498 0 -0.035335882695922853 -0.040286403711287354 0 -0.037247808482951832 -0.03985698132537397 0 -0.033040467880192111 -0.042788599894094857 0 -0.034257979394555917 -0.040678909011375559 0 -0.031652137849131338 -0.04326226017937207 0 -0.034635326617357499 -0.040287564110321257 0 -0.034024374367122967 -0.041342967134142108 0 -0.035335882695922853 -0.040286403711287354 0 -0.034635326617357499 -0.040287564110321257 0 -0.034024374367122967 -0.041342967134142108 0 -0.034635326617357499 -0.040287564110321257 0 -0.03654525848548016 -0.037002902130134747 0 -0.036829429992829649 -0.038378115950982443 0 -0.034851401045379198 -0.03744063769357002 0 -0.034635326617357499 -0.040287564110321257 0 -0.03654525848548016 -0.037002902130134747 0 -0.034851401045379198 -0.03744063769357002 0 -0.03654525848548016 -0.037002902130134747 0 -0.037369534642704094 -0.033129315013508361 0 -0.03654525848548016 -0.037002902130134747 0 -0.036829429992829649 -0.038378115950982443 0 -0.038491423743178453 -0.035135634396407815 0 -0.035335882695922853 -0.040286403711287354 0 -0.034635326617357499 -0.040287564110321257 0 -0.036829429992829649 -0.038378115950982443 0 -0.036829429992829649 -0.038378115950982443 0 -0.038078870146074542 -0.038127243871873703 0 -0.037247808482951832 -0.03985698132537397 0 -0.038078870146074542 -0.038127243871873703 0 -0.038881992486674198 -0.037353688730672706 0 -0.038491423743178453 -0.035135634396407815 0 -0.036829429992829649 -0.038378115950982443 0 -0.038078870146074542 -0.038127243871873703 0 -0.038491423743178453 -0.035135634396407815 0 -0.038078870146074542 -0.038127243871873703 0 -0.038436547394823099 -0.039394994331354433 0 -0.037247808482951832 -0.03985698132537397 0 -0.038078870146074542 -0.038127243871873703 0 -0.038881992486674198 -0.037353688730672706 0 -0.038436547394823099 -0.039394994331354433 0 -0.038436547394823099 -0.039394994331354433 0 -0.037976443633864716 -0.040181458251213449 0 -0.037785551046847728 -0.03956989158736221 0 -0.038436547394823099 -0.039394994331354433 0 -0.037976443633864716 -0.040181458251213449 0 -0.037247808482951832 -0.03985698132537397 0 -0.037976443633864716 -0.040181458251213449 0 -0.037247808482951832 -0.03985698132537397 0 -0.037065965407027002 -0.042297467576834731 0 -0.034451190258410355 -0.041923145435527498 0 -0.037247808482951832 -0.03985698132537397 0 -0.037065965407027002 -0.042297467576834731 0 -0.032402112965236596 -0.043868967303844854 0 -0.033429700564591026 -0.041673321880699138 0 -0.037976443633864716 -0.040181458251213449 0 -0.037065965407027002 -0.042297467576834731 0 -0.038170326019527988 -0.040537891236681244 0 -0.02782904696038857 -0.04495435888147873 0 -0.028013372077581797 -0.045244131216059524 0 -0.02840876546429575 -0.044627589777908185 0 -0.039545729934474187 -0.031491617855180093 0 -0.039520675498701495 -0.031451271689953812 0 -0.039465647403628644 -0.031357339756773225 0 -0.039545729934474187 -0.031491617855180093 0 -0.03954859028887546 -0.031476482585736466 0 -0.039520675498701495 -0.031451271689953812 0 -0.03954859028887546 -0.031476482585736466 0 -0.039584265115151958 -0.031507326204488706 0 -0.039638736248314918 -0.031486495340485789 0 -0.03954859028887546 -0.031476482585736466 0 -0.039366186341677392 -0.031644927114973451 0 -0.039584265115151958 -0.031507326204488706 0 -0.039545729934474187 -0.031491617855180093 0 -0.03954859028887546 -0.031476482585736466 0 -0.039366186341677392 -0.031644927114973451 0 -0.039545729934474187 -0.031491617855180093 0 -0.039366186341677392 -0.031644927114973451 0 -0.039490151527190785 -0.032097051754094032 0 -0.039366186341677392 -0.031644927114973451 0 -0.039490151527190785 -0.032097051754094032 0 -0.038936160226321806 -0.032157648323382249 0 -0.039545729934474187 -0.031491617855180093 0 -0.039603198493340208 -0.031407376898240594 0 -0.039465647403628644 -0.031357339756773225 0 -0.039545729934474187 -0.031491617855180093 0 -0.039490151527190785 -0.032097051754094032 0 -0.039603198493340208 -0.031407376898240594 0 -0.039490151527190785 -0.032097051754094032 0 -0.039952874667989725 -0.03220795588068643 0 -0.039603198493340208 -0.031407376898240594 0 -0.038491423743178453 -0.035135634396407815 0 -0.039490151527190785 -0.032097051754094032 0 -0.039952874667989725 -0.03220795588068643 0 -0.038329702150912449 -0.035197806631438441 0 -0.039412095766833036 -0.034923316872792758 0 -0.038881992486674198 -0.037353688730672706 0 -0.038491423743178453 -0.035135634396407815 0 -0.039210472785540934 -0.037557033240650836 0 -0.038491423743178453 -0.035135634396407815 0 -0.039490151527190785 -0.032097051754094032 0 -0.038936160226321806 -0.032157648323382249 0 -0.038491423743178453 -0.035135634396407815 0 -0.037369534642704094 -0.033129315013508361 0 -0.038391399145078352 -0.032170518976115364 0 -0.038491423743178453 -0.035135634396407815 0 -0.038391399145078352 -0.032170518976115364 0 -0.038936160226321806 -0.032157648323382249 0 -0.03654525848548016 -0.037002902130134747 0 -0.038491423743178453 -0.035135634396407815 0 -0.037369534642704094 -0.033129315013508361 0 -0.037369534642704094 -0.033129315013508361 0 -0.038391399145078352 -0.032170518976115364 0 -0.039431473894147688 -0.031823792692389746 0 -0.038391399145078352 -0.032170518976115364 0 -0.039512669186437366 -0.031750114690202579 0 -0.039347199218447912 -0.031632413343639053 0 -0.038391399145078352 -0.032170518976115364 0 -0.039512669186437366 -0.031750114690202579 0 -0.039431473894147688 -0.031823792692389746 0 -0.039366186341677392 -0.031644927114973451 0 -0.038936160226321806 -0.032157648323382249 0 -0.039347199218447912 -0.031632413343639053 0 -0.038391399145078352 -0.032170518976115364 0 -0.038936160226321806 -0.032157648323382249 0 -0.039347199218447912 -0.031632413343639053 0 -0.039366186341677392 -0.031644927114973451 0 -0.039347199218447912 -0.031632413343639053 0 -0.039584265115151958 -0.031507326204488706 0 -0.039347199218447912 -0.031632413343639053 0 -0.039584265115151958 -0.031507326204488706 0 -0.039784923686947943 -0.031524997692244934 0 -0.039347199218447912 -0.031632413343639053 0 -0.039784923686947943 -0.031524997692244934 0 -0.040072267476827031 -0.031566635581066808 0 -0.039512669186437366 -0.031750114690202579 0 -0.039347199218447912 -0.031632413343639053 0 -0.040072267476827031 -0.031566635581066808 0 -0.039512669186437366 -0.031750114690202579 0 -0.040072267476827031 -0.031566635581066808 0 -0.040383743967901918 -0.031636986964729122 0 -0.040072267476827031 -0.031566635581066808 0 -0.040383743967901918 -0.031636986964729122 0 -0.040874586291839897 -0.03154825723870118 0 -0.040383743967901918 -0.031636986964729122 0 -0.041190213932456102 -0.03157263488201327 0 -0.040874586291839897 -0.03154825723870118 0 -0.041190213932456102 -0.03157263488201327 0 -0.040911539913983566 -0.031554529465816751 0 -0.042096494867875173 -0.0315132492333558 0 -0.040383743967901918 -0.031636986964729122 0 -0.041190213932456102 -0.03157263488201327 0 -0.040911539913983566 -0.031554529465816751 0 -0.040911539913983566 -0.031554529465816751 0 -0.041884916935816634 -0.031300341798698089 0 -0.042096494867875173 -0.0315132492333558 0 -0.040911539913983566 -0.031554529465816751 0 -0.039431473894147688 -0.031823792692389746 0 -0.041108329899312686 -0.031130118372508959 0 -0.040911539913983566 -0.031554529465816751 0 -0.041108329899312686 -0.031130118372508959 0 -0.041884916935816634 -0.031300341798698089 0 -0.039512669186437366 -0.031750114690202579 0 -0.040383743967901918 -0.031636986964729122 0 -0.039431473894147688 -0.031823792692389746 0 -0.040383743967901918 -0.031636986964729122 0 -0.040911539913983566 -0.031554529465816751 0 -0.039431473894147688 -0.031823792692389746 0 -0.037369534642704094 -0.033129315013508361 0 -0.039431473894147688 -0.031823792692389746 0 -0.040079173671065789 -0.030757184462040617 0 -0.034851401045379198 -0.03744063769357002 0 -0.037369534642704094 -0.033129315013508361 0 -0.033559265136045659 -0.033856086246761279 0 -0.037747817131192997 -0.03294504504892877 0 -0.036336641900512265 -0.032212507368940817 0 -0.031708009776599842 -0.038366716411518585 0 -0.033559265136045659 -0.033856086246761279 0 -0.030556938422735585 -0.034052825712786228 0 -0.036336641900512265 -0.032212507368940817 0 -0.038997208738100406 -0.034556692285973134 0 -0.039431473894147688 -0.031823792692389746 0 -0.040079173671065789 -0.030757184462040617 0 -0.041108329899312686 -0.031130118372508959 0 -0.040079173671065789 -0.030757184462040617 0 -0.041108329899312686 -0.031130118372508959 0 -0.041859937620023595 -0.030215716676147236 0 -0.041108329899312686 -0.031130118372508959 0 -0.042255360459210106 -0.030915559321239926 0 -0.041859937620023595 -0.030215716676147236 0 -0.042983546644026698 -0.031122523903574069 0 -0.038997208738100406 -0.034556692285973134 0 -0.044208740618266379 -0.031922373965067072 0 -0.044180005414302739 -0.031991038571331017 0 -0.044321280294105495 -0.032099456122570508 0 -0.03802377658729069 -0.041527123246821632 0 -0.039044161239108123 -0.039474691780073935 0 -0.038781070409762426 -0.039719078433694363 0 -0.039044161239108123 -0.039474691780073935 0 -0.038781070409762426 -0.039719078433694363 0 -0.038947390630205705 -0.038495874528350023 0 -0.038330511112093311 -0.040401397141226189 0 -0.038806440750580429 -0.039244338673240724 0 -0.039293332909302897 -0.037985898898321629 0 -0.038997208738100406 -0.034556692285973134 0 -0.042282474326447189 -0.035486254879935793 0 -0.038334266120416786 -0.040601543424754617 0 -0.038806440750580429 -0.039244338673240724 0 -0.038781070409762426 -0.039719078433694363 0 -0.038806440750580429 -0.039244338673240724 0 -0.038781070409762426 -0.039719078433694363 0 -0.038947390630205705 -0.038495874528350023 0 -0.044180005414302739 -0.031991038571331017 0 -0.044321280294105495 -0.032099456122570508 0 -0.044608012729539612 -0.032332344695172349 0 -0.044442350441955339 -0.032204592692352957 0 -0.044321280294105495 -0.032099456122570508 0 -0.044608012729539612 -0.032332344695172349 0 -0.044208740618266379 -0.031922373965067072 0 -0.044321280294105495 -0.032099456122570508 0 -0.044224849774042743 -0.031961379715176867 0 -0.044442350441955339 -0.032204592692352957 0 -0.044321280294105495 -0.032099456122570508 0 -0.044224849774042743 -0.031961379715176867 0 -0.044442350441955339 -0.032204592692352957 0 -0.044224849774042743 -0.031961379715176867 0 -0.044339912432101829 -0.031929186649356671 0 -0.043978123233096078 -0.031608459476123889 0 -0.044339912432101829 -0.031929186649356671 0 -0.044345792259403903 -0.031603233093362861 0 -0.044224849774042743 -0.031961379715176867 0 -0.043978123233096078 -0.031608459476123889 0 -0.044339912432101829 -0.031929186649356671 0 -0.043978123233096078 -0.031608459476123889 0 -0.043265105579017006 -0.031385138966551908 0 -0.044036139584246597 -0.031335092613270825 0 -0.043978123233096078 -0.031608459476123889 0 -0.044036139584246597 -0.031335092613270825 0 -0.044345792259403903 -0.031603233093362861 0 -0.044208740618266379 -0.031922373965067072 0 -0.043978123233096078 -0.031608459476123889 0 -0.043265105579017006 -0.031385138966551908 0 -0.044208740618266379 -0.031922373965067072 0 -0.044224849774042743 -0.031961379715176867 0 -0.043978123233096078 -0.031608459476123889 0 -0.041108329899312686 -0.031130118372508959 0 -0.042255360459210106 -0.030915559321239926 0 -0.041884916935816634 -0.031300341798698089 0 -0.042255360459210106 -0.030915559321239926 0 -0.043265105579017006 -0.031385138966551908 0 -0.041884916935816634 -0.031300341798698089 0 -0.042983546644026698 -0.031122523903574069 0 -0.043301591273379486 -0.031665559523053742 0 -0.043265105579017006 -0.031385138966551908 0 -0.041884916935816634 -0.031300341798698089 0 -0.042096494867875173 -0.0315132492333558 0 -0.043265105579017006 -0.031385138966551908 0 -0.042096494867875173 -0.0315132492333558 0 -0.043129791345945176 -0.031285904918141635 0 -0.043265105579017006 -0.031385138966551908 0 -0.043129791345945176 -0.031285904918141635 0 -0.043609202453068117 -0.031265946140137661 0 -0.043129791345945176 -0.031285904918141635 0 -0.043609202453068117 -0.031265946140137661 0 -0.043886801898412875 -0.030932571644199696 0 -0.043609202453068117 -0.031265946140137661 0 -0.044036139584246597 -0.031335092613270825 0 -0.043886801898412875 -0.030932571644199696 0 -0.043265105579017006 -0.031385138966551908 0 -0.043609202453068117 -0.031265946140137661 0 -0.044036139584246597 -0.031335092613270825 0 -0.043129791345945176 -0.031285904918141635 0 -0.043273833713916215 -0.030953499131105101 0 -0.043886801898412875 -0.030932571644199696 0 -0.043129791345945176 -0.031285904918141635 0 -0.043273833713916215 -0.030953499131105101 0 -0.042576598518468171 -0.031277303792428393 0 -0.042096494867875173 -0.0315132492333558 0 -0.042576598518468171 -0.031277303792428393 0 -0.041708583066807789 -0.031472119772526841 0 -0.042096494867875173 -0.0315132492333558 0 -0.043129791345945176 -0.031285904918141635 0 -0.042576598518468171 -0.031277303792428393 0 -0.042576598518468171 -0.031277303792428393 0 -0.042292016370855445 -0.031264138596206442 0 -0.041708583066807789 -0.031472119772526841 0 -0.042576598518468171 -0.031277303792428393 0 -0.042292016370855445 -0.031264138596206442 0 -0.042835571926682608 -0.030985544667074427 0 -0.043273833713916215 -0.030953499131105101 0 -0.042576598518468171 -0.031277303792428393 0 -0.042835571926682608 -0.030985544667074427 0 -0.043273833713916215 -0.030953499131105101 0 -0.043359456064940113 -0.030602317698679712 0 -0.043807705805099913 -0.030605818939409841 0 -0.043273833713916215 -0.030953499131105101 0 -0.042835571926682608 -0.030985544667074427 0 -0.043359456064940113 -0.030602317698679712 0 -0.042835571926682608 -0.030985544667074427 0 -0.043359456064940113 -0.030602317698679712 0 -0.042966071981866083 -0.030663057862965633 0 -0.042966071981866083 -0.030663057862965633 0 -0.042773867132825286 -0.030403948931258137 0 -0.042540593182280109 -0.030981286457793914 0 -0.042773867132825286 -0.030403948931258137 0 -0.043081235521057741 -0.030331088472818193 0 -0.042894547871797452 -0.029936759806056621 0 -0.042966071981866083 -0.030663057862965633 0 -0.042773867132825286 -0.030403948931258137 0 -0.043081235521057741 -0.030331088472818193 0 -0.042773867132825286 -0.030403948931258137 0 -0.042540593182280109 -0.030981286457793914 0 -0.042607144424117303 -0.030653180986167219 0 -0.042292016370855445 -0.031264138596206442 0 -0.042835571926682608 -0.030985544667074427 0 -0.042540593182280109 -0.030981286457793914 0 -0.042835571926682608 -0.030985544667074427 0 -0.042966071981866083 -0.030663057862965633 0 -0.042540593182280109 -0.030981286457793914 0 -0.042292016370855445 -0.031264138596206442 0 -0.042540593182280109 -0.030981286457793914 0 -0.042068400685466557 -0.031317518298548452 0 -0.042540593182280109 -0.030981286457793914 0 -0.042068400685466557 -0.031317518298548452 0 -0.042248608031523124 -0.031087193260000746 0 -0.042068400685466557 -0.031317518298548452 0 -0.042248608031523124 -0.031087193260000746 0 -0.041827800438740174 -0.031523323765322936 0 -0.042540593182280109 -0.030981286457793914 0 -0.042248608031523124 -0.031087193260000746 0 -0.042607144424117303 -0.030653180986167219 0 -0.041827800438740174 -0.031523323765322936 0 -0.042137825730932957 -0.031358045683161875 0 -0.042098468570101605 -0.031140334085919069 0 -0.042248608031523124 -0.031087193260000746 0 -0.041827800438740174 -0.031523323765322936 0 -0.042098468570101605 -0.031140334085919069 0 -0.042068400685466557 -0.031317518298548452 0 -0.041457248526501476 -0.031514458242793718 0 -0.041782710924635869 -0.03141039980631706 0 -0.042068400685466557 -0.031317518298548452 0 -0.041827800438740174 -0.031523323765322936 0 -0.041457248526501476 -0.031514458242793718 0 -0.041827800438740174 -0.031523323765322936 0 -0.041457248526501476 -0.031514458242793718 0 -0.040851586408036711 -0.031693736309378918 0 -0.041457248526501476 -0.031514458242793718 0 -0.04118319602445366 -0.031508387030445617 0 -0.040672414779170454 -0.03156029494261154 0 -0.04118319602445366 -0.031508387030445617 0 -0.040586774159839308 -0.031534426902208638 0 -0.040672414779170454 -0.03156029494261154 0 -0.041457248526501476 -0.031514458242793718 0 -0.04118319602445366 -0.031508387030445617 0 -0.041782710924635869 -0.03141039980631706 0 -0.042292016370855445 -0.031264138596206442 0 -0.042068400685466557 -0.031317518298548452 0 -0.041782710924635869 -0.03141039980631706 0 -0.042292016370855445 -0.031264138596206442 0 -0.041782710924635869 -0.03141039980631706 0 -0.041708583066807789 -0.031472119772526841 0 -0.04118319602445366 -0.031508387030445617 0 -0.041782710924635869 -0.03141039980631706 0 -0.041708583066807789 -0.031472119772526841 0 -0.041190213932456102 -0.03157263488201327 0 -0.042096494867875173 -0.0315132492333558 0 -0.041708583066807789 -0.031472119772526841 0 -0.041190213932456102 -0.03157263488201327 0 -0.041708583066807789 -0.031472119772526841 0 -0.040874586291839897 -0.03154825723870118 0 -0.040072267476827031 -0.031566635581066808 0 -0.040874586291839897 -0.03154825723870118 0 -0.040586774159839308 -0.031534426902208638 0 -0.04118319602445366 -0.031508387030445617 0 -0.040874586291839897 -0.03154825723870118 0 -0.040586774159839308 -0.031534426902208638 0 -0.04118319602445366 -0.031508387030445617 0 -0.041708583066807789 -0.031472119772526841 0 -0.040874586291839897 -0.03154825723870118 0 -0.04016380540593209 -0.031523675786349972 0 -0.040586774159839308 -0.031534426902208638 0 -0.040672414779170454 -0.03156029494261154 0 -0.040072267476827031 -0.031566635581066808 0 -0.04016380540593209 -0.031523675786349972 0 -0.040586774159839308 -0.031534426902208638 0 -0.039784923686947943 -0.031524997692244934 0 -0.040072267476827031 -0.031566635581066808 0 -0.04016380540593209 -0.031523675786349972 0 -0.039784923686947943 -0.031524997692244934 0 -0.04016380540593209 -0.031523675786349972 0 -0.039808755934669267 -0.03150851617288488 0 -0.039584265115151958 -0.031507326204488706 0 -0.039784923686947943 -0.031524997692244934 0 -0.039808755934669267 -0.03150851617288488 0 -0.039584265115151958 -0.031507326204488706 0 -0.039808755934669267 -0.03150851617288488 0 -0.039638736248314918 -0.031486495340485789 0 -0.039808755934669267 -0.03150851617288488 0 -0.039923942129897368 -0.031623626074870501 0 -0.039755298076428233 -0.031551990132698979 0 -0.04016380540593209 -0.031523675786349972 0 -0.039808755934669267 -0.03150851617288488 0 -0.040171571856412396 -0.031573816277183447 0 -0.040171571856412396 -0.031573816277183447 0 -0.039923942129897368 -0.031623626074870501 0 -0.040115259041399016 -0.031706794476913734 0 -0.039808755934669267 -0.03150851617288488 0 -0.040171571856412396 -0.031573816277183447 0 -0.039923942129897368 -0.031623626074870501 0 -0.040115259041399016 -0.031706794476913734 0 -0.040025333673380369 -0.031878864237953171 0 -0.039860978785722194 -0.031747121553278218 0 -0.039923942129897368 -0.031623626074870501 0 -0.040115259041399016 -0.031706794476913734 0 -0.039860978785722194 -0.031747121553278218 0 -0.040171571856412396 -0.031573816277183447 0 -0.040115259041399016 -0.031706794476913734 0 -0.040423575957873867 -0.031676643932417071 0 -0.040115259041399016 -0.031706794476913734 0 -0.040423575957873867 -0.031676643932417071 0 -0.040322065568477082 -0.031827486369466834 0 -0.040423575957873867 -0.031676643932417071 0 -0.040672414779170454 -0.03156029494261154 0 -0.040851586408036711 -0.031693736309378918 0 -0.040171571856412396 -0.031573816277183447 0 -0.040423575957873867 -0.031676643932417071 0 -0.040672414779170454 -0.03156029494261154 0 -0.04016380540593209 -0.031523675786349972 0 -0.040171571856412396 -0.031573816277183447 0 -0.040672414779170454 -0.03156029494261154 0 -0.041457248526501476 -0.031514458242793718 0 -0.040672414779170454 -0.03156029494261154 0 -0.040851586408036711 -0.031693736309378918 0 -0.041827800438740174 -0.031523323765322936 0 -0.040851586408036711 -0.031693736309378918 0 -0.040374152500423678 -0.032178611463829637 0 -0.041716420653216041 -0.031580732881074998 0 -0.041394973976250152 -0.031835384047534498 0 -0.040851586408036711 -0.031693736309378918 0 -0.040374152500423678 -0.032178611463829637 0 -0.040322065568477082 -0.031827486369466834 0 -0.040423575957873867 -0.031676643932417071 0 -0.040851586408036711 -0.031693736309378918 0 -0.040322065568477082 -0.031827486369466834 0 -0.042137825730932957 -0.031358045683161875 0 -0.042321910065501712 -0.031363212074749743 0 -0.042098468570101605 -0.031140334085919069 0 -0.041827800438740174 -0.031523323765322936 0 -0.042137825730932957 -0.031358045683161875 0 -0.042312724462691867 -0.031459645457661757 0 -0.042244700367676427 -0.030461886184426752 0 -0.042614734104429439 -0.030435079914151206 0 -0.04189797171419074 -0.029565385928234156 0 -0.043205746277581669 -0.029748065072415338 0 -0.042320227883335441 -0.030030094581644844 0 -0.042137825730932957 -0.031358045683161875 0 -0.042321910065501712 -0.031363212074749743 0 -0.042312724462691867 -0.031459645457661757 0 -0.042244700367676427 -0.030461886184426752 0 -0.040819281510013836 -0.03113428504955661 0 -0.042321910065501712 -0.031363212074749743 0 -0.04237344736864055 -0.031424567435605441 0 -0.042427955788013214 -0.031432794314265905 0 -0.041569147602653241 -0.029857749982569147 0 -0.041400577290788734 -0.029800572184680484 0 -0.04189797171419074 -0.029565385928234156 0 -0.041569147602653241 -0.029857749982569147 0 -0.041400577290788734 -0.029800572184680484 0 -0.041100373364216881 -0.030000336982198658 0 -0.041569147602653241 -0.029857749982569147 0 -0.041100373364216881 -0.030000336982198658 0 -0.041430370298023447 -0.030141352266580174 0 -0.041569147602653241 -0.029857749982569147 0 -0.04189797171419074 -0.029565385928234156 0 -0.042320227883335441 -0.030030094581644844 0 -0.042321910065501712 -0.031363212074749743 0 -0.04237344736864055 -0.031424567435605441 0 -0.042312724462691867 -0.031459645457661757 0 -0.041400577290788734 -0.029800572184680484 0 -0.04189797171419074 -0.029565385928234156 0 -0.041035661699022688 -0.029778910584679106 0 -0.040374152500423678 -0.032178611463829637 0 -0.039858264200235111 -0.031946829540403156 0 -0.03965851781029546 -0.032101711680321984 0 -0.04237344736864055 -0.031424567435605441 0 -0.042312724462691867 -0.031459645457661757 0 -0.042427955788013214 -0.031432794314265905 0 -0.040374152500423678 -0.032178611463829637 0 -0.040025333673380369 -0.031878864237953171 0 -0.039858264200235111 -0.031946829540403156 0 -0.041394973976250152 -0.031835384047534498 0 -0.040819281510013836 -0.03113428504955661 0 -0.040374152500423678 -0.032178611463829637 0 -0.040322065568477082 -0.031827486369466834 0 -0.040025333673380369 -0.031878864237953171 0 -0.040115259041399016 -0.031706794476913734 0 -0.040322065568477082 -0.031827486369466834 0 -0.040025333673380369 -0.031878864237953171 0 -0.039858264200235111 -0.031946829540403156 0 -0.039641359314430795 -0.031919729280513433 0 -0.039718747996598677 -0.031840000028083251 0 -0.040025333673380369 -0.031878864237953171 0 -0.039861914953375155 -0.031852248105944843 0 -0.039860978785722194 -0.031747121553278218 0 -0.039861914953375155 -0.031852248105944843 0 -0.039718747996598677 -0.031840000028083251 0 -0.039860978785722194 -0.031747121553278218 0 -0.039861914953375155 -0.031852248105944843 0 -0.039858264200235111 -0.031946829540403156 0 -0.039718747996598677 -0.031840000028083251 0 -0.040025333673380369 -0.031878864237953171 0 -0.039861914953375155 -0.031852248105944843 0 -0.039858264200235111 -0.031946829540403156 0 -0.039641359314430795 -0.031919729280513433 0 -0.03965851781029546 -0.032101711680321984 0 -0.039465474918093095 -0.031897346734593969 0 -0.039641359314430795 -0.031919729280513433 0 -0.039718747996598677 -0.031840000028083251 0 -0.039552547580672469 -0.031806916258621878 0 -0.039858264200235111 -0.031946829540403156 0 -0.039641359314430795 -0.031919729280513433 0 -0.03965851781029546 -0.032101711680321984 0 -0.040589077209635685 -0.029717250407367515 0 -0.040721215679096902 -0.02982019818892408 0 -0.04055008237624249 -0.02988806202646653 0 -0.04189797171419074 -0.029565385928234156 0 -0.040589077209635685 -0.029717250407367515 0 -0.041035661699022688 -0.029778910584679106 0 -0.041035661699022688 -0.029778910584679106 0 -0.040817918191985374 -0.029980133060826735 0 -0.041100373364216881 -0.030000336982198658 0 -0.041400577290788734 -0.029800572184680484 0 -0.041035661699022688 -0.029778910584679106 0 -0.041100373364216881 -0.030000336982198658 0 -0.041035661699022688 -0.029778910584679106 0 -0.040817918191985374 -0.029980133060826735 0 -0.040722152621625672 -0.029896487645594418 0 -0.041035661699022688 -0.029778910584679106 0 -0.040721215679096902 -0.02982019818892408 0 -0.040722152621625672 -0.029896487645594418 0 -0.040589077209635685 -0.029717250407367515 0 -0.041035661699022688 -0.029778910584679106 0 -0.040721215679096902 -0.02982019818892408 0 -0.04055008237624249 -0.02988806202646653 0 -0.040722152621625672 -0.029896487645594418 0 -0.040548475650133198 -0.030065084105016019 0 -0.040589077209635685 -0.029717250407367515 0 -0.04055008237624249 -0.02988806202646653 0 -0.040227543875259016 -0.03017564817292847 0 -0.040721215679096902 -0.02982019818892408 0 -0.04055008237624249 -0.02988806202646653 0 -0.040722152621625672 -0.029896487645594418 0 -0.04055008237624249 -0.02988806202646653 0 -0.040548475650133198 -0.030065084105016019 0 -0.040227543875259016 -0.03017564817292847 0 -0.040548475650133198 -0.030065084105016019 0 -0.040345522765761387 -0.030308113886082687 0 -0.040227543875259016 -0.03017564817292847 0 -0.040817918191985374 -0.029980133060826735 0 -0.040722152621625672 -0.029896487645594418 0 -0.040548475650133198 -0.030065084105016019 0 -0.040817918191985374 -0.029980133060826735 0 -0.040548475650133198 -0.030065084105016019 0 -0.040675537958392988 -0.030187874150603599 0 -0.040675537958392988 -0.030187874150603599 0 -0.040345522765761387 -0.030308113886082687 0 -0.040397112874334867 -0.030514740018688251 0 -0.040548475650133198 -0.030065084105016019 0 -0.040675537958392988 -0.030187874150603599 0 -0.040345522765761387 -0.030308113886082687 0 -0.041100373364216881 -0.030000336982198658 0 -0.04089903294317665 -0.030314856380099935 0 -0.041430370298023447 -0.030141352266580174 0 -0.040675537958392988 -0.030187874150603599 0 -0.041100373364216881 -0.030000336982198658 0 -0.04089903294317665 -0.030314856380099935 0 -0.040817918191985374 -0.029980133060826735 0 -0.040675537958392988 -0.030187874150603599 0 -0.041100373364216881 -0.030000336982198658 0 -0.039955522749274892 -0.030554074808763529 0 -0.040227543875259016 -0.03017564817292847 0 -0.03954330932570399 -0.030556547746542286 0 -0.039955522749274892 -0.030554074808763529 0 -0.040345522765761387 -0.030308113886082687 0 -0.040227543875259016 -0.03017564817292847 0 -0.039955522749274892 -0.030554074808763529 0 -0.040345522765761387 -0.030308113886082687 0 -0.040397112874334867 -0.030514740018688251 0 -0.03965851781029546 -0.032101711680321984 0 -0.039465474918093095 -0.031897346734593969 0 -0.039218329255458942 -0.03193453665937715 0 -0.040589077209635685 -0.029717250407367515 0 -0.040227543875259016 -0.03017564817292847 0 -0.03954330932570399 -0.030556547746542286 0 -0.040819281510013836 -0.03113428504955661 0 -0.039295122139294342 -0.031246311426051637 0 -0.039641359314430795 -0.031919729280513433 0 -0.039465474918093095 -0.031897346734593969 0 -0.039552547580672469 -0.031806916258621878 0 -0.039465474918093095 -0.031897346734593969 0 -0.039361664103991161 -0.0317784287366146 0 -0.039552547580672469 -0.031806916258621878 0 -0.039465474918093095 -0.031897346734593969 0 -0.039361664103991161 -0.0317784287366146 0 -0.039218329255458942 -0.03193453665937715 0 -0.039361664103991161 -0.0317784287366146 0 -0.03948196646532167 -0.031595609103456053 0 -0.039174641288604713 -0.03174032440474471 0 -0.03948196646532167 -0.031595609103456053 0 -0.039358221417249047 -0.03150534800815457 0 -0.039174641288604713 -0.03174032440474471 0 -0.039361664103991161 -0.0317784287366146 0 -0.03948196646532167 -0.031595609103456053 0 -0.039529746623057263 -0.03170103878660837 0 -0.03948196646532167 -0.031595609103456053 0 -0.039529746623057263 -0.03170103878660837 0 -0.039673298951924993 -0.031620306812049602 0 -0.039361664103991161 -0.0317784287366146 0 -0.039529746623057263 -0.03170103878660837 0 -0.039552547580672469 -0.031806916258621878 0 -0.039718747996598677 -0.031840000028083251 0 -0.039552547580672469 -0.031806916258621878 0 -0.039660168913655459 -0.031739679139657355 0 -0.039529746623057263 -0.03170103878660837 0 -0.039552547580672469 -0.031806916258621878 0 -0.039660168913655459 -0.031739679139657355 0 -0.039718747996598677 -0.031840000028083251 0 -0.039660168913655459 -0.031739679139657355 0 -0.039860978785722194 -0.031747121553278218 0 -0.039660168913655459 -0.031739679139657355 0 -0.039860978785722194 -0.031747121553278218 0 -0.039673298951924993 -0.031620306812049602 0 -0.039923942129897368 -0.031623626074870501 0 -0.039673298951924993 -0.031620306812049602 0 -0.039755298076428233 -0.031551990132698979 0 -0.039923942129897368 -0.031623626074870501 0 -0.039860978785722194 -0.031747121553278218 0 -0.039673298951924993 -0.031620306812049602 0 -0.039529746623057263 -0.03170103878660837 0 -0.039660168913655459 -0.031739679139657355 0 -0.039673298951924993 -0.031620306812049602 0 -0.03948196646532167 -0.031595609103456053 0 -0.039673298951924993 -0.031620306812049602 0 -0.039623489955780487 -0.031505912170680703 0 -0.039623489955780487 -0.031505912170680703 0 -0.039755298076428233 -0.031551990132698979 0 -0.039638736248314918 -0.031486495340485789 0 -0.039808755934669267 -0.03150851617288488 0 -0.039755298076428233 -0.031551990132698979 0 -0.039638736248314918 -0.031486495340485789 0 -0.039673298951924993 -0.031620306812049602 0 -0.039623489955780487 -0.031505912170680703 0 -0.039755298076428233 -0.031551990132698979 0 -0.03954859028887546 -0.031476482585736466 0 -0.039623489955780487 -0.031505912170680703 0 -0.039638736248314918 -0.031486495340485789 0 -0.03954859028887546 -0.031476482585736466 0 -0.039623489955780487 -0.031505912170680703 0 -0.039520675498701495 -0.031451271689953812 0 -0.039520675498701495 -0.031451271689953812 0 -0.039358221417249047 -0.03150534800815457 0 -0.039465647403628644 -0.031357339756773225 0 -0.03948196646532167 -0.031595609103456053 0 -0.039520675498701495 -0.031451271689953812 0 -0.039358221417249047 -0.03150534800815457 0 -0.03948196646532167 -0.031595609103456053 0 -0.039623489955780487 -0.031505912170680703 0 -0.039520675498701495 -0.031451271689953812 0 -0.045189015796125165 -0.03078148175935622 0 -0.045289305366871771 -0.029649807844039013 0 -0.045069961302134587 -0.031340919702215107 0 -0.045189015796125165 -0.03078148175935622 0 -0.045069961302134587 -0.031340919702215107 0 -0.044936945924961544 -0.032230488171700135 0 -0.045200791416282124 -0.030693917963614353 0 -0.044936945924961544 -0.032230488171700135 0 -0.044775799570074853 -0.03268996173362286 0 -0.045189015796125165 -0.03078148175935622 0 -0.045200791416282124 -0.030693917963614353 0 -0.044936945924961544 -0.032230488171700135 0 -0.045200791416282124 -0.030693917963614353 0 -0.045411892256478958 -0.029733281356141582 0 -0.045658899819250483 -0.029025737873259891 0 -0.045189015796125165 -0.03078148175935622 0 -0.045200791416282124 -0.030693917963614353 0 -0.045411892256478958 -0.029733281356141582 0 -0.045189015796125165 -0.03078148175935622 0 -0.045411892256478958 -0.029733281356141582 0 -0.045289305366871771 -0.029649807844039013 0 -0.045289305366871771 -0.029649807844039013 0 -0.044998992567995992 -0.02939698154783112 0 -0.045328024259319165 -0.027955909518122352 0 -0.044998992567995992 -0.02939698154783112 0 -0.045069961302134587 -0.031340919702215107 0 -0.044998832382183059 -0.031806544368193822 0 -0.045289305366871771 -0.029649807844039013 0 -0.044998992567995992 -0.02939698154783112 0 -0.045069961302134587 -0.031340919702215107 0 -0.045069961302134587 -0.031340919702215107 0 -0.044998832382183059 -0.031806544368193822 0 -0.044802276150012636 -0.033632109602606354 0 -0.04499857469725544 -0.034216130331954649 0 -0.044998832382183059 -0.031806544368193822 0 -0.044802276150012636 -0.033632109602606354 0 -0.044802276150012636 -0.033632109602606354 0 -0.044936945924961544 -0.032230488171700135 0 -0.044639499081536443 -0.033786429660884472 0 -0.045069961302134587 -0.031340919702215107 0 -0.044802276150012636 -0.033632109602606354 0 -0.044936945924961544 -0.032230488171700135 0 -0.044936945924961544 -0.032230488171700135 0 -0.044639499081536443 -0.033786429660884472 0 -0.044775799570074853 -0.03268996173362286 0 -0.04450083369482441 -0.034538728774098706 0 -0.044639499081536443 -0.033786429660884472 0 -0.044775799570074853 -0.03268996173362286 0 -0.04450083369482441 -0.034538728774098706 0 -0.044584543557249778 -0.034054699375698889 0 -0.044775799570074853 -0.03268996173362286 0 -0.044465110020446653 -0.034868608971605923 0 -0.044584543557249778 -0.034054699375698889 0 -0.04442191261497315 -0.034764294509528212 0 -0.044465110020446653 -0.034868608971605923 0 -0.04450083369482441 -0.034538728774098706 0 -0.044584543557249778 -0.034054699375698889 0 -0.044584543557249778 -0.034054699375698889 0 -0.044617793008021628 -0.032566786524168251 0 -0.04442191261497315 -0.034764294509528212 0 -0.044584543557249778 -0.034054699375698889 0 -0.044617793008021628 -0.032566786524168251 0 -0.044775799570074853 -0.03268996173362286 0 -0.044608012729539612 -0.032332344695172349 0 -0.04442191261497315 -0.034764294509528212 0 -0.044674093759895506 -0.032675029377141854 0 -0.044157587861877096 -0.034691935519133556 0 -0.039293332909302897 -0.037985898898321629 0 -0.04442191261497315 -0.034764294509528212 0 -0.042282474326447189 -0.035486254879935793 0 -0.043622445998084514 -0.034885403714810949 0 -0.038947390630205705 -0.038495874528350023 0 -0.039293332909302897 -0.037985898898321629 0 -0.04442191261497315 -0.034764294509528212 0 -0.038806440750580429 -0.039244338673240724 0 -0.038947390630205705 -0.038495874528350023 0 -0.039293332909302897 -0.037985898898321629 0 -0.04442191261497315 -0.034764294509528212 0 -0.04469603829932739 -0.032651666077534426 0 -0.04466603144758307 -0.032187866825480596 0 -0.044617793008021628 -0.032566786524168251 0 -0.04442191261497315 -0.034764294509528212 0 -0.04466603144758307 -0.032187866825480596 0 -0.04442191261497315 -0.034764294509528212 0 -0.044674093759895506 -0.032675029377141854 0 -0.04469603829932739 -0.032651666077534426 0 -0.04469603829932739 -0.032651666077534426 0 -0.044584040561697125 -0.0320365442533505 0 -0.04466603144758307 -0.032187866825480596 0 -0.04469603829932739 -0.032651666077534426 0 -0.044543044807209296 -0.032253350232359868 0 -0.044584040561697125 -0.0320365442533505 0 -0.044674093759895506 -0.032675029377141854 0 -0.04469603829932739 -0.032651666077534426 0 -0.044543044807209296 -0.032253350232359868 0 -0.044339912432101829 -0.031929186649356671 0 -0.044543044807209296 -0.032253350232359868 0 -0.044584040561697125 -0.0320365442533505 0 -0.044442350441955339 -0.032204592692352957 0 -0.044339912432101829 -0.031929186649356671 0 -0.044543044807209296 -0.032253350232359868 0 -0.044442350441955339 -0.032204592692352957 0 -0.044674093759895506 -0.032675029377141854 0 -0.044543044807209296 -0.032253350232359868 0 -0.044442350441955339 -0.032204592692352957 0 -0.044608012729539612 -0.032332344695172349 0 -0.044674093759895506 -0.032675029377141854 0 -0.044036139584246597 -0.031335092613270825 0 -0.044345792259403903 -0.031603233093362861 0 -0.044394571007761625 -0.031227103038449291 0 -0.044339912432101829 -0.031929186649356671 0 -0.044345792259403903 -0.031603233093362861 0 -0.044584040561697125 -0.0320365442533505 0 -0.044345792259403903 -0.031603233093362861 0 -0.044584040561697125 -0.0320365442533505 0 -0.044570797620098877 -0.031651446349392778 0 -0.044345792259403903 -0.031603233093362861 0 -0.044570797620098877 -0.031651446349392778 0 -0.044394571007761625 -0.031227103038449291 0 -0.044617793008021628 -0.032566786524168251 0 -0.04466603144758307 -0.032187866825480596 0 -0.044737134235726214 -0.031334057782412585 0 -0.044570797620098877 -0.031651446349392778 0 -0.044737134235726214 -0.031334057782412585 0 -0.044394571007761625 -0.031227103038449291 0 -0.044570797620098877 -0.031651446349392778 0 -0.04466603144758307 -0.032187866825480596 0 -0.044737134235726214 -0.031334057782412585 0 -0.044584040561697125 -0.0320365442533505 0 -0.044570797620098877 -0.031651446349392778 0 -0.04466603144758307 -0.032187866825480596 0 -0.044737134235726214 -0.031334057782412585 0 -0.044520758488140189 -0.030830198166868189 0 -0.04491415647204075 -0.030528697610564974 0 -0.044737134235726214 -0.031334057782412585 0 -0.044520758488140189 -0.030830198166868189 0 -0.044394571007761625 -0.031227103038449291 0 -0.044036139584246597 -0.031335092613270825 0 -0.044394571007761625 -0.031227103038449291 0 -0.043886801898412875 -0.030932571644199696 0 -0.044520758488140189 -0.030830198166868189 0 -0.044394571007761625 -0.031227103038449291 0 -0.043886801898412875 -0.030932571644199696 0 -0.045200791416282124 -0.030693917963614353 0 -0.044775799570074853 -0.03268996173362286 0 -0.044937759535486649 -0.031189266277158418 0 -0.044617793008021628 -0.032566786524168251 0 -0.044737134235726214 -0.031334057782412585 0 -0.044937759535486649 -0.031189266277158418 0 -0.044617793008021628 -0.032566786524168251 0 -0.044775799570074853 -0.03268996173362286 0 -0.044937759535486649 -0.031189266277158418 0 -0.044737134235726214 -0.031334057782412585 0 -0.044937759535486649 -0.031189266277158418 0 -0.04491415647204075 -0.030528697610564974 0 -0.044937759535486649 -0.031189266277158418 0 -0.04491415647204075 -0.030528697610564974 0 -0.045341993869565798 -0.029750369181583337 0 -0.045200791416282124 -0.030693917963614353 0 -0.044937759535486649 -0.031189266277158418 0 -0.045341993869565798 -0.029750369181583337 0 -0.045341993869565798 -0.029750369181583337 0 -0.045677830961540024 -0.028967463736891186 0 -0.045658899819250483 -0.029025737873259891 0 -0.045200791416282124 -0.030693917963614353 0 -0.045341993869565798 -0.029750369181583337 0 -0.045658899819250483 -0.029025737873259891 0 -0.045341993869565798 -0.029750369181583337 0 -0.045162682654931847 -0.029354527407096237 0 -0.044750919934070592 -0.030070401477768433 0 -0.04491415647204075 -0.030528697610564974 0 -0.045341993869565798 -0.029750369181583337 0 -0.044750919934070592 -0.030070401477768433 0 -0.045341993869565798 -0.029750369181583337 0 -0.045162682654931847 -0.029354527407096237 0 -0.045677830961540024 -0.028967463736891186 0 -0.045162682654931847 -0.029354527407096237 0 -0.045836649557621623 -0.028622617493195862 0 -0.045677830961540024 -0.028967463736891186 0 -0.045162682654931847 -0.029354527407096237 0 -0.044494319769336516 -0.029651627023274656 0 -0.045108487436352873 -0.029036803846043339 0 -0.045162682654931847 -0.029354527407096237 0 -0.045836649557621623 -0.028622617493195862 0 -0.045108487436352873 -0.029036803846043339 0 -0.045677830961540024 -0.028967463736891186 0 -0.046022311181486905 -0.02805785626148127 0 -0.045658899819250483 -0.029025737873259891 0 -0.045836649557621623 -0.028622617493195862 0 -0.045677830961540024 -0.028967463736891186 0 -0.046022311181486905 -0.02805785626148127 0 -0.044520758488140189 -0.030830198166868189 0 -0.043886801898412875 -0.030932571644199696 0 -0.044254461285834254 -0.030528581864884458 0 -0.043273833713916215 -0.030953499131105101 0 -0.043807705805099913 -0.030605818939409841 0 -0.043886801898412875 -0.030932571644199696 0 -0.043807705805099913 -0.030605818939409841 0 -0.043886801898412875 -0.030932571644199696 0 -0.044254461285834254 -0.030528581864884458 0 -0.043807705805099913 -0.030605818939409841 0 -0.044254461285834254 -0.030528581864884458 0 -0.04424577597147198 -0.030191734466215116 0 -0.044520758488140189 -0.030830198166868189 0 -0.04491415647204075 -0.030528697610564974 0 -0.044750919934070592 -0.030070401477768433 0 -0.044254461285834254 -0.030528581864884458 0 -0.044750919934070592 -0.030070401477768433 0 -0.04424577597147198 -0.030191734466215116 0 -0.044520758488140189 -0.030830198166868189 0 -0.044254461285834254 -0.030528581864884458 0 -0.044750919934070592 -0.030070401477768433 0 -0.045162682654931847 -0.029354527407096237 0 -0.044750919934070592 -0.030070401477768433 0 -0.044494319769336516 -0.029651627023274656 0 -0.044750919934070592 -0.030070401477768433 0 -0.044494319769336516 -0.029651627023274656 0 -0.04424577597147198 -0.030191734466215116 0 -0.044494319769336516 -0.029651627023274656 0 -0.04424577597147198 -0.030191734466215116 0 -0.043843845274137538 -0.030167074869727476 0 -0.044494319769336516 -0.029651627023274656 0 -0.043843845274137538 -0.030167074869727476 0 -0.043947970644369352 -0.029897626521901879 0 -0.043807705805099913 -0.030605818939409841 0 -0.04424577597147198 -0.030191734466215116 0 -0.043843845274137538 -0.030167074869727476 0 -0.043359456064940113 -0.030602317698679712 0 -0.043807705805099913 -0.030605818939409841 0 -0.043843845274137538 -0.030167074869727476 0 -0.042966071981866083 -0.030663057862965633 0 -0.043443809052153871 -0.030254182648044931 0 -0.043081235521057741 -0.030331088472818193 0 -0.043359456064940113 -0.030602317698679712 0 -0.042966071981866083 -0.030663057862965633 0 -0.043443809052153871 -0.030254182648044931 0 -0.043359456064940113 -0.030602317698679712 0 -0.043843845274137538 -0.030167074869727476 0 -0.043443809052153871 -0.030254182648044931 0 -0.043843845274137538 -0.030167074869727476 0 -0.043443809052153871 -0.030254182648044931 0 -0.043947970644369352 -0.029897626521901879 0 -0.043443809052153871 -0.030254182648044931 0 -0.043772524040513044 -0.0299342392330086 0 -0.043947970644369352 -0.029897626521901879 0 -0.044494319769336516 -0.029651627023274656 0 -0.043947970644369352 -0.029897626521901879 0 -0.044350928878070732 -0.029507529665598192 0 -0.043772524040513044 -0.0299342392330086 0 -0.043947970644369352 -0.029897626521901879 0 -0.044350928878070732 -0.029507529665598192 0 -0.043772524040513044 -0.0299342392330086 0 -0.044350928878070732 -0.029507529665598192 0 -0.044070800367580341 -0.029777262345412083 0 -0.043772524040513044 -0.0299342392330086 0 -0.044070800367580341 -0.029777262345412083 0 -0.043624422478069941 -0.030035915278342113 0 -0.044070800367580341 -0.029777262345412083 0 -0.043624422478069941 -0.030035915278342113 0 -0.043900436605057443 -0.029989326091068327 0 -0.043624422478069941 -0.030035915278342113 0 -0.043583542791261698 -0.030055977877268925 0 -0.043900436605057443 -0.029989326091068327 0 -0.043624422478069941 -0.030035915278342113 0 -0.043583542791261698 -0.030055977877268925 0 -0.043251730744472999 -0.030030669260485594 0 -0.043359383217344283 -0.030130799642694599 0 -0.043098210473209296 -0.030098905093581013 0 -0.043251730744472999 -0.030030669260485594 0 -0.043624422478069941 -0.030035915278342113 0 -0.043359383217344283 -0.030130799642694599 0 -0.043251730744472999 -0.030030669260485594 0 -0.043772524040513044 -0.0299342392330086 0 -0.043624422478069941 -0.030035915278342113 0 -0.043359383217344283 -0.030130799642694599 0 -0.043443809052153871 -0.030254182648044931 0 -0.043772524040513044 -0.0299342392330086 0 -0.043359383217344283 -0.030130799642694599 0 -0.043098210473209296 -0.030098905093581013 0 -0.043081235521057741 -0.030331088472818193 0 -0.042894547871797452 -0.029936759806056621 0 -0.043443809052153871 -0.030254182648044931 0 -0.043359383217344283 -0.030130799642694599 0 -0.043081235521057741 -0.030331088472818193 0 -0.043359383217344283 -0.030130799642694599 0 -0.043098210473209296 -0.030098905093581013 0 -0.043081235521057741 -0.030331088472818193 0 -0.045836649557621623 -0.028622617493195862 0 -0.046387688672526323 -0.027870463360682895 0 -0.046022311181486905 -0.02805785626148127 0 -0.046387688672526323 -0.027870463360682895 0 -0.046419247698939542 -0.026285310464074122 0 -0.046022311181486905 -0.02805785626148127 0 -0.046387688672526323 -0.027870463360682895 0 -0.046447080669681361 -0.028234265263967839 0 -0.046824465164073563 -0.026702576215549272 0 -0.046387688672526323 -0.027870463360682895 0 -0.045761303701801523 -0.028590874320519596 0 -0.046447080669681361 -0.028234265263967839 0 -0.046387688672526323 -0.027870463360682895 0 -0.046824465164073563 -0.026702576215549272 0 -0.046419247698939542 -0.026285310464074122 0 -0.045836649557621623 -0.028622617493195862 0 -0.046387688672526323 -0.027870463360682895 0 -0.045761303701801523 -0.028590874320519596 0 -0.045836649557621623 -0.028622617493195862 0 -0.045761303701801523 -0.028590874320519596 0 -0.045108487436352873 -0.029036803846043339 0 -0.045761303701801523 -0.028590874320519596 0 -0.045108487436352873 -0.029036803846043339 0 -0.044851949714765596 -0.029130925965959144 0 -0.044494319769336516 -0.029651627023274656 0 -0.044350928878070732 -0.029507529665598192 0 -0.045108487436352873 -0.029036803846043339 0 -0.044350928878070732 -0.029507529665598192 0 -0.045108487436352873 -0.029036803846043339 0 -0.044851949714765596 -0.029130925965959144 0 -0.044851949714765596 -0.029130925965959144 0 -0.044911097104907816 -0.029423779786979094 0 -0.044310350622954874 -0.029854573717387492 0 -0.044350928878070732 -0.029507529665598192 0 -0.044070800367580341 -0.029777262345412083 0 -0.044851949714765596 -0.029130925965959144 0 -0.045761303701801523 -0.028590874320519596 0 -0.044851949714765596 -0.029130925965959144 0 -0.046447080669681361 -0.028234265263967839 0 -0.044851949714765596 -0.029130925965959144 0 -0.046447080669681361 -0.028234265263967839 0 -0.044911097104907816 -0.029423779786979094 0 -0.046394737202725703 -0.028303326248865023 0 -0.046263948810385952 -0.026683510862219855 0 -0.046447080669681361 -0.028234265263967839 0 -0.044739082117758795 -0.030125766286101963 0 -0.044992669747268746 -0.030817876099371089 0 -0.046447080669681361 -0.028234265263967839 0 -0.044911097104907816 -0.029423779786979094 0 -0.044739082117758795 -0.030125766286101963 0 -0.044911097104907816 -0.029423779786979094 0 -0.044739082117758795 -0.030125766286101963 0 -0.044310350622954874 -0.029854573717387492 0 -0.046370001271745405 -0.027725303081475743 0 -0.046263948810385952 -0.026683510862219855 0 -0.044070800367580341 -0.029777262345412083 0 -0.044851949714765596 -0.029130925965959144 0 -0.044310350622954874 -0.029854573717387492 0 -0.044739082117758795 -0.030125766286101963 0 -0.044310350622954874 -0.029854573717387492 0 -0.043986242929434559 -0.030084650259893219 0 -0.044070800367580341 -0.029777262345412083 0 -0.044310350622954874 -0.029854573717387492 0 -0.043900436605057443 -0.029989326091068327 0 -0.044310350622954874 -0.029854573717387492 0 -0.043900436605057443 -0.029989326091068327 0 -0.043986242929434559 -0.030084650259893219 0 -0.043986242929434559 -0.030084650259893219 0 -0.044327940987423077 -0.030126871012934171 0 -0.043331680923225722 -0.029983075500471978 0 -0.043583542791261698 -0.030055977877268925 0 -0.043986242929434559 -0.030084650259893219 0 -0.043331680923225722 -0.029983075500471978 0 -0.043583542791261698 -0.030055977877268925 0 -0.043900436605057443 -0.029989326091068327 0 -0.043986242929434559 -0.030084650259893219 0 -0.044739082117758795 -0.030125766286101963 0 -0.043986242929434559 -0.030084650259893219 0 -0.044327940987423077 -0.030126871012934171 0 -0.048237603668262637 -0.025714915592544043 0 -0.046824465164073563 -0.026702576215549272 0 -0.047259026347102093 -0.024645907066334117 0 -0.046447080669681361 -0.028234265263967839 0 -0.048237603668262637 -0.025714915592544043 0 -0.046824465164073563 -0.026702576215549272 0 -0.046824465164073563 -0.026702576215549272 0 -0.047259026347102093 -0.024645907066334117 0 -0.046419247698939542 -0.026285310464074122 0 -0.046548756105961729 -0.025959166581361149 0 -0.04609231530408274 -0.024843113732163299 0 -0.047259026347102093 -0.024645907066334117 0 -0.046419247698939542 -0.026285310464074122 0 -0.046720169104217418 -0.023613620916920038 0 -0.046419247698939542 -0.026285310464074122 0 -0.046134549428009687 -0.024118228207349057 0 -0.046720169104217418 -0.023613620916920038 0 -0.045972292100296304 -0.025463933388685016 0 -0.045859478375452463 -0.026721367812827562 0 -0.045638202686892719 -0.025646929954429985 0 -0.045859478375452463 -0.026721367812827562 0 -0.045584005831165141 -0.027096959147595735 0 -0.045638202686892719 -0.025646929954429985 0 -0.046419247698939542 -0.026285310464074122 0 -0.045859478375452463 -0.026721367812827562 0 -0.046022311181486905 -0.02805785626148127 0 -0.046419247698939542 -0.026285310464074122 0 -0.045972292100296304 -0.025463933388685016 0 -0.045859478375452463 -0.026721367812827562 0 -0.045859478375452463 -0.026721367812827562 0 -0.046022311181486905 -0.02805785626148127 0 -0.045611999073431775 -0.028430949860293219 0 -0.046022311181486905 -0.02805785626148127 0 -0.045611999073431775 -0.028430949860293219 0 -0.045658899819250483 -0.029025737873259891 0 -0.045859478375452463 -0.026721367812827562 0 -0.045611999073431775 -0.028430949860293219 0 -0.045584005831165141 -0.027096959147595735 0 -0.045411892256478958 -0.029733281356141582 0 -0.045289305366871771 -0.029649807844039013 0 -0.045611999073431775 -0.028430949860293219 0 -0.045411892256478958 -0.029733281356141582 0 -0.045611999073431775 -0.028430949860293219 0 -0.045658899819250483 -0.029025737873259891 0 -0.044998992567995992 -0.02939698154783112 0 -0.044999080111566211 -0.02698756701464855 0 -0.045328024259319165 -0.027955909518122352 0 -0.045289305366871771 -0.029649807844039013 0 -0.045611999073431775 -0.028430949860293219 0 -0.045328024259319165 -0.027955909518122352 0 -0.045611999073431775 -0.028430949860293219 0 -0.045328024259319165 -0.027955909518122352 0 -0.045584005831165141 -0.027096959147595735 0 -0.045328024259319165 -0.027955909518122352 0 -0.045584005831165141 -0.027096959147595735 0 -0.045339503009193309 -0.026461910559828623 0 -0.045584005831165141 -0.027096959147595735 0 -0.045339503009193309 -0.026461910559828623 0 -0.045638202686892719 -0.025646929954429985 0 -0.044999080111566211 -0.02698756701464855 0 -0.045339503009193309 -0.026461910559828623 0 -0.04499922961834437 -0.024578044229612649 0 -0.044999080111566211 -0.02698756701464855 0 -0.045328024259319165 -0.027955909518122352 0 -0.045339503009193309 -0.026461910559828623 0 -0.045339503009193309 -0.026461910559828623 0 -0.04499922961834437 -0.024578044229612649 0 -0.045638202686892719 -0.025646929954429985 0 -0.045972292100296304 -0.025463933388685016 0 -0.045638202686892719 -0.025646929954429985 0 -0.045689439198237813 -0.024006097236465445 0 -0.04609231530408274 -0.024843113732163299 0 -0.045567000437040761 -0.023438341402956833 0 -0.04499922961834437 -0.024578044229612649 0 -0.045689439198237813 -0.024006097236465445 0 -0.044999532186809431 -0.022169292225295435 0 -0.04499922961834437 -0.024578044229612649 0 -0.045638202686892719 -0.025646929954429985 0 -0.045689439198237813 -0.024006097236465445 0 -0.045595027174974746 -0.02288465240263976 0 -0.044999258697687408 -0.022166650398436051 0 -0.045752256034363413 -0.0212542796774992 0 -0.045567000437040761 -0.023438341402956833 0 -0.044999911686309194 -0.02216756677171728 0 -0.045595027174974746 -0.02288465240263976 0 -0.045752256034363413 -0.0212542796774992 0 -0.046583650345650575 -0.021853778873153162 0 -0.045752256034363413 -0.0212542796774992 0 -0.046583650345650575 -0.021853778873153162 0 -0.046240708434716102 -0.019253959110320695 0 -0.045752256034363413 -0.0212542796774992 0 -0.044999416782853893 -0.019912287992990135 0 -0.046240708434716102 -0.019253959110320695 0 -0.044999258697687408 -0.022166650398436051 0 -0.045752256034363413 -0.0212542796774992 0 -0.044999416782853893 -0.019912287992990135 0 -0.047259026347102093 -0.024645907066334117 0 -0.046720169104217418 -0.023613620916920038 0 -0.048121082473869946 -0.022309323109538481 0 -0.046720169104217418 -0.023613620916920038 0 -0.046583650345650575 -0.021853778873153162 0 -0.048121082473869946 -0.022309323109538481 0 -0.046134549428009687 -0.024118228207349057 0 -0.046720169104217418 -0.023613620916920038 0 -0.046583650345650575 -0.021853778873153162 0 -0.046134549428009687 -0.024118228207349057 0 -0.045595027174974746 -0.02288465240263976 0 -0.046583650345650575 -0.021853778873153162 0 -0.046583650345650575 -0.021853778873153162 0 -0.04806329124066324 -0.019591310109994861 0 -0.048121082473869946 -0.022309323109538481 0 -0.046339116028594966 -0.019274782776736991 0 -0.046982328865224014 -0.021309376986007704 0 -0.046583650345650575 -0.021853778873153162 0 -0.04806329124066324 -0.019591310109994861 0 -0.046240708434716102 -0.019253959110320695 0 -0.04806329124066324 -0.019591310109994861 0 -0.046240708434716102 -0.019253959110320695 0 -0.047669299252025274 -0.016980545525639146 0 -0.046339116028594966 -0.019274782776736991 0 -0.045760943408489275 -0.016664105370017421 0 -0.044657753431678805 -0.018877075914705995 0 -0.043849860110662782 -0.016374008970760089 0 -0.046072871556208969 -0.017912372283624804 0 -0.044999416782853893 -0.019912287992990135 0 -0.046240708434716102 -0.019253959110320695 0 -0.044999522104375855 -0.017655922222659118 0 -0.046240708434716102 -0.019253959110320695 0 -0.046084856945067254 -0.016756498631755157 0 -0.047669299252025274 -0.016980545525639146 0 -0.046240708434716102 -0.019253959110320695 0 -0.044999522104375855 -0.017655922222659118 0 -0.046084856945067254 -0.016756498631755157 0 -0.044999522104375855 -0.017655922222659118 0 -0.044999800708092244 -0.015400549842136948 0 -0.046084856945067254 -0.016756498631755157 0 -0.044999800708092244 -0.015400549842136948 0 -0.046769462797738692 -0.014456340539777884 0 -0.04499894841532074 -0.013142812124887791 0 -0.044999800708092244 -0.015400549842136948 0 -0.046769462797738692 -0.014456340539777884 0 -0.046084856945067254 -0.016756498631755157 0 -0.046769462797738692 -0.014456340539777884 0 -0.046084856945067254 -0.016756498631755157 0 -0.047669299252025274 -0.016980545525639146 0 -0.043849860110662782 -0.016374008970760089 0 -0.045806110862297529 -0.016110141894853505 0 -0.046072871556208969 -0.017912372283624804 0 -0.043849860110662782 -0.016374008970760089 0 -0.044999275553112068 -0.014684030440123633 0 -0.045806110862297529 -0.016110141894853505 0 -0.045299773797386741 -0.014190531802457922 0 -0.045760943408489275 -0.016664105370017421 0 -0.043721685148835975 -0.013819474299923223 0 -0.043849860110662782 -0.016374008970760089 0 -0.044999275553112068 -0.014684030440123633 0 -0.043721685148835975 -0.013819474299923223 0 -0.044999275553112068 -0.014684030440123633 0 -0.044714047270376409 -0.013290686825218971 0 -0.043721685148835975 -0.013819474299923223 0 -0.044714047270376409 -0.013290686825218971 0 -0.044549470493305821 -0.012300540403799288 0 -0.044999275553112068 -0.014684030440123633 0 -0.044714047270376409 -0.013290686825218971 0 -0.045670830727128485 -0.013788422608570135 0 -0.044714047270376409 -0.013290686825218971 0 -0.045150387749845408 -0.012740399917876101 0 -0.045670830727128485 -0.013788422608570135 0 -0.044714047270376409 -0.013290686825218971 0 -0.044736061723588322 -0.012234000337957939 0 -0.045150387749845408 -0.012740399917876101 0 -0.044736061723588322 -0.012234000337957939 0 -0.045150387749845408 -0.012740399917876101 0 -0.045038584408524047 -0.011817019402752926 0 -0.044714047270376409 -0.013290686825218971 0 -0.044736061723588322 -0.012234000337957939 0 -0.044549470493305821 -0.012300540403799288 0 -0.044736061723588322 -0.012234000337957939 0 -0.044549470493305821 -0.012300540403799288 0 -0.044594718177264875 -0.011609155442468114 0 -0.044549470493305821 -0.012300540403799288 0 -0.045116204938292409 -0.012173520581538325 0 -0.044856203876362383 -0.011451091708868159 0 -0.045116204938292409 -0.012173520581538325 0 -0.044856203876362383 -0.011451091708868159 0 -0.044998995775653 -0.010892305923366799 0 -0.045116204938292409 -0.012173520581538325 0 -0.04499894841532074 -0.013142812124887791 0 -0.044998995775653 -0.010892305923366799 0 -0.046769462797738692 -0.014456340539777884 0 -0.045116204938292409 -0.012173520581538325 0 -0.04499894841532074 -0.013142812124887791 0 -0.045299773797386741 -0.014190531802457922 0 -0.045090502849205155 -0.012418332294915313 0 -0.043721685148835975 -0.013819474299923223 0 -0.044549470493305821 -0.012300540403799288 0 -0.045116204938292409 -0.012173520581538325 0 -0.047775771117721744 -0.01475916999966905 0 -0.047898401571819217 -0.012611190433469447 0 -0.046721046862775346 -0.013391774194485917 0 -0.041315029003436955 -0.023807358394412257 0 -0.041663775668404998 -0.021512701676025845 0 -0.042101689605730741 -0.022291187244671693 0 -0.044893577341138462 -0.019126527658307885 0 -0.04200347118137393 -0.017611659631208042 0 -0.041315029003436955 -0.023807358394412257 0 -0.042101689605730741 -0.022291187244671693 0 -0.043137560665283618 -0.024599070978659709 0 -0.040437819554156075 -0.02147260622171554 0 -0.040752757868755464 -0.024094292975490775 0 -0.038884175661629869 -0.021984342899998982 0 -0.037454841868628193 -0.021288713056774426 0 -0.038591505310439415 -0.023533338143461587 0 -0.038575026154651214 -0.020456004144004548 0 -0.037067200267776532 -0.02052326756585492 0 -0.037454841868628193 -0.021288713056774426 0 -0.038884175661629869 -0.021984342899998982 0 -0.038575026154651214 -0.020456004144004548 0 -0.037454841868628193 -0.021288713056774426 0 -0.04200347118137393 -0.017611659631208042 0 -0.040437819554156075 -0.02147260622171554 0 -0.047898401571819217 -0.012611190433469447 0 -0.046903872148588217 -0.012651606958590095 0 -0.046749931592892702 -0.011897467868839835 0 -0.047898401571819217 -0.012611190433469447 0 -0.046903872148588217 -0.012651606958590095 0 -0.046721046862775346 -0.013391774194485917 0 -0.046903872148588217 -0.012651606958590095 0 -0.04629036605061676 -0.01266241914559298 0 -0.046749931592892702 -0.011897467868839835 0 -0.04629036605061676 -0.01266241914559298 0 -0.045709725113062261 -0.012733638167885029 0 -0.046031583196655353 -0.011992675732052963 0 -0.04629036605061676 -0.01266241914559298 0 -0.046721046862775346 -0.013391774194485917 0 -0.045709725113062261 -0.012733638167885029 0 -0.046903872148588217 -0.012651606958590095 0 -0.04629036605061676 -0.01266241914559298 0 -0.046721046862775346 -0.013391774194485917 0 -0.046721046862775346 -0.013391774194485917 0 -0.045709725113062261 -0.012733638167885029 0 -0.045670830727128485 -0.013788422608570135 0 -0.045150387749845408 -0.012740399917876101 0 -0.045709725113062261 -0.012733638167885029 0 -0.045038584408524047 -0.011817019402752926 0 -0.045150387749845408 -0.012740399917876101 0 -0.045709725113062261 -0.012733638167885029 0 -0.045670830727128485 -0.013788422608570135 0 -0.047775771117721744 -0.01475916999966905 0 -0.046721046862775346 -0.013391774194485917 0 -0.046590546579742251 -0.015178566255285797 0 -0.046721046862775346 -0.013391774194485917 0 -0.045670830727128485 -0.013788422608570135 0 -0.046590546579742251 -0.015178566255285797 0 -0.047775771117721744 -0.01475916999966905 0 -0.046590546579742251 -0.015178566255285797 0 -0.047678829752517041 -0.01694952970157905 0 -0.044999275553112068 -0.014684030440123633 0 -0.045670830727128485 -0.013788422608570135 0 -0.046590546579742251 -0.015178566255285797 0 -0.044999275553112068 -0.014684030440123633 0 -0.046590546579742251 -0.015178566255285797 0 -0.045806110862297529 -0.016110141894853505 0 -0.045806110862297529 -0.016110141894853505 0 -0.047678829752517041 -0.01694952970157905 0 -0.046072871556208969 -0.017912372283624804 0 -0.046590546579742251 -0.015178566255285797 0 -0.045806110862297529 -0.016110141894853505 0 -0.047678829752517041 -0.01694952970157905 0 -0.041248452140335595 -0.025999923520189466 0 -0.042423731631646984 -0.026033705945391158 0 -0.042458277625734495 -0.027587317728047032 0 -0.041315029003436955 -0.023807358394412257 0 -0.041248452140335595 -0.025999923520189466 0 -0.042423731631646984 -0.026033705945391158 0 -0.044893577341138462 -0.019126527658307885 0 -0.044434043499475946 -0.021501865927853206 0 -0.041315029003436955 -0.023807358394412257 0 -0.043137560665283618 -0.024599070978659709 0 -0.042423731631646984 -0.026033705945391158 0 -0.043137560665283618 -0.024599070978659709 0 -0.042423731631646984 -0.026033705945391158 0 -0.043461054694370845 -0.027037101360712846 0 -0.042423731631646984 -0.026033705945391158 0 -0.042458277625734495 -0.027587317728047032 0 -0.043461054694370845 -0.027037101360712846 0 -0.042458277625734495 -0.027587317728047032 0 -0.042835967315645616 -0.028312470075813081 0 -0.043461054694370845 -0.027037101360712846 0 -0.041248452140335595 -0.025999923520189466 0 -0.042458277625734495 -0.027587317728047032 0 -0.041613756242733467 -0.028087039937667261 0 -0.042458277625734495 -0.027587317728047032 0 -0.041613756242733467 -0.028087039937667261 0 -0.042736702892055785 -0.029087347521171647 0 -0.042736702892055785 -0.029087347521171647 0 -0.04277408327414281 -0.029375784109040463 0 -0.042835967315645616 -0.028312470075813081 0 -0.042458277625734495 -0.027587317728047032 0 -0.042736702892055785 -0.029087347521171647 0 -0.042835967315645616 -0.028312470075813081 0 -0.047678829752517041 -0.01694952970157905 0 -0.046072871556208969 -0.017912372283624804 0 -0.0475035459476634 -0.018941948902475862 0 -0.044434043499475946 -0.021501865927853206 0 -0.044592722730250119 -0.023463625411880323 0 -0.044592722730250119 -0.023463625411880323 0 -0.044851066881191497 -0.025290526111331976 0 -0.0475035459476634 -0.018941948902475862 0 -0.046248205430019382 -0.019582530899080026 0 -0.047277988529742833 -0.021075441195685832 0 -0.046072871556208969 -0.017912372283624804 0 -0.0475035459476634 -0.018941948902475862 0 -0.046248205430019382 -0.019582530899080026 0 -0.044657753431678805 -0.018877075914705995 0 -0.046072871556208969 -0.017912372283624804 0 -0.046248205430019382 -0.019582530899080026 0 -0.044657753431678805 -0.018877075914705995 0 -0.046248205430019382 -0.019582530899080026 0 -0.045684678492296897 -0.021159125243313443 0 -0.046248205430019382 -0.019582530899080026 0 -0.045684678492296897 -0.021159125243313443 0 -0.047277988529742833 -0.021075441195685832 0 -0.041613756242733467 -0.028087039937667261 0 -0.042490003331115363 -0.029614379354884063 0 -0.042733045476508906 -0.029563939101335104 0 -0.046263948810385952 -0.026683510862219855 0 -0.044851066881191497 -0.025290526111331976 0 -0.042490003331115363 -0.029614379354884063 0 -0.043331680923225722 -0.029983075500471978 0 -0.042733045476508906 -0.029563939101335104 0 -0.044327940987423077 -0.030126871012934171 0 -0.042490003331115363 -0.029614379354884063 0 -0.043331680923225722 -0.029983075500471978 0 -0.046895152081312765 -0.023498853617648516 0 -0.045684678492296897 -0.021159125243313443 0 -0.047277988529742833 -0.021075441195685832 0 -0.048237603668262637 -0.025714915592544043 0 -0.047259026347102093 -0.024645907066334117 0 -0.048121082473869946 -0.022309323109538481 0 -0.046263948810385952 -0.026683510862219855 0 -0.046982328865224014 -0.021309376986007704 0 -0.042736702892055785 -0.029087347521171647 0 -0.042965045534173775 -0.029876092651744929 0 -0.042894547871797452 -0.029936759806056621 0 -0.042736702892055785 -0.029087347521171647 0 -0.042894547871797452 -0.029936759806056621 0 -0.04277408327414281 -0.029375784109040463 0 -0.042736702892055785 -0.029087347521171647 0 -0.042733045476508906 -0.029563939101335104 0 -0.042965045534173775 -0.029876092651744929 0 -0.041613756242733467 -0.028087039937667261 0 -0.042736702892055785 -0.029087347521171647 0 -0.042733045476508906 -0.029563939101335104 0 -0.043331680923225722 -0.029983075500471978 0 -0.042733045476508906 -0.029563939101335104 0 -0.043251730744472999 -0.030030669260485594 0 -0.042733045476508906 -0.029563939101335104 0 -0.043251730744472999 -0.030030669260485594 0 -0.042965045534173775 -0.029876092651744929 0 -0.043583542791261698 -0.030055977877268925 0 -0.043331680923225722 -0.029983075500471978 0 -0.043251730744472999 -0.030030669260485594 0 -0.043098210473209296 -0.030098905093581013 0 -0.043251730744472999 -0.030030669260485594 0 -0.042965045534173775 -0.029876092651744929 0 -0.043098210473209296 -0.030098905093581013 0 -0.042965045534173775 -0.029876092651744929 0 -0.042894547871797452 -0.029936759806056621 0 -0.042773867132825286 -0.030403948931258137 0 -0.042894547871797452 -0.029936759806056621 0 -0.04277408327414281 -0.029375784109040463 0 -0.042773867132825286 -0.030403948931258137 0 -0.04277408327414281 -0.029375784109040463 0 -0.042700936470685284 -0.029565883339646153 0 -0.04277408327414281 -0.029375784109040463 0 -0.042700936470685284 -0.029565883339646153 0 -0.042428994614998744 -0.028286974308293061 0 -0.042700936470685284 -0.029565883339646153 0 -0.043029383142382839 -0.028938985031993408 0 -0.042428994614998744 -0.028286974308293061 0 -0.042700936470685284 -0.029565883339646153 0 -0.042607144424117303 -0.030653180986167219 0 -0.042529505978353276 -0.030713435625936633 0 -0.042773867132825286 -0.030403948931258137 0 -0.042700936470685284 -0.029565883339646153 0 -0.042607144424117303 -0.030653180986167219 0 -0.042618486204175611 -0.029670918662298349 0 -0.042784023664413293 -0.0301706537701034 0 -0.042248608031523124 -0.031087193260000746 0 -0.042607144424117303 -0.030653180986167219 0 -0.042529505978353276 -0.030713435625936633 0 -0.043122169252626304 -0.029764197918894158 0 -0.043205746277581669 -0.029748065072415338 0 -0.043536642970100736 -0.029900954882466073 0 -0.042248608031523124 -0.031087193260000746 0 -0.042529505978353276 -0.030713435625936633 0 -0.042098468570101605 -0.031140334085919069 0 -0.042784023664413293 -0.0301706537701034 0 -0.042614734104429439 -0.030435079914151206 0 -0.043536642970100736 -0.029900954882466073 0 -0.043029383142382839 -0.028938985031993408 0 -0.043835418809280643 -0.028277466422167042 0 -0.043122169252626304 -0.029764197918894158 0 -0.043536642970100736 -0.029900954882466073 0 -0.043029383142382839 -0.028938985031993408 0 -0.042700936470685284 -0.029565883339646153 0 -0.043122169252626304 -0.029764197918894158 0 -0.043029383142382839 -0.028938985031993408 0 -0.043029383142382839 -0.028938985031993408 0 -0.043054896944020669 -0.027407237119047245 0 -0.042428994614998744 -0.028286974308293061 0 -0.043835418809280643 -0.028277466422167042 0 -0.04375594365256421 -0.027103312707580617 0 -0.043054896944020669 -0.027407237119047245 0 -0.043029383142382839 -0.028938985031993408 0 -0.043835418809280643 -0.028277466422167042 0 -0.043054896944020669 -0.027407237119047245 0 -0.04375594365256421 -0.027103312707580617 0 -0.043493073261688768 -0.026426223653538812 0 -0.043054896944020669 -0.027407237119047245 0 -0.04375594365256421 -0.027103312707580617 0 -0.043493073261688768 -0.026426223653538812 0 -0.043947515182367246 -0.026047083773698597 0 -0.043493073261688768 -0.026426223653538812 0 -0.043054896944020669 -0.027407237119047245 0 -0.0429664150987943 -0.02591201769175976 0 -0.043054896944020669 -0.027407237119047245 0 -0.042245546353265884 -0.026804936576439078 0 -0.0429664150987943 -0.02591201769175976 0 -0.043054896944020669 -0.027407237119047245 0 -0.042245546353265884 -0.026804936576439078 0 -0.042428994614998744 -0.028286974308293061 0 -0.042245546353265884 -0.026804936576439078 0 -0.042428994614998744 -0.028286974308293061 0 -0.040035583380133126 -0.025941809301362816 0 -0.042358520142677221 -0.028067474264142502 0 -0.041727370533209067 -0.02641387291953784 0 -0.042835967315645616 -0.028312470075813081 0 -0.042428994614998744 -0.028286974308293061 0 -0.043461054694370845 -0.027037101360712846 0 -0.04277408327414281 -0.029375784109040463 0 -0.042835967315645616 -0.028312470075813081 0 -0.042428994614998744 -0.028286974308293061 0 -0.039840854960410531 -0.031236644056467294 0 -0.040159499035075791 -0.031062806786651093 0 -0.040488030338880245 -0.031602369259633487 0 -0.039840854960410531 -0.031236644056467294 0 -0.040159499035075791 -0.031062806786651093 0 -0.039628389112569669 -0.031014512907332904 0 -0.039955522749274892 -0.030554074808763529 0 -0.039952802414161666 -0.030815038819782713 0 -0.039416808360996335 -0.031039239585091024 0 -0.040159499035075791 -0.031062806786651093 0 -0.039952802414161666 -0.030815038819782713 0 -0.039628389112569669 -0.031014512907332904 0 -0.039955522749274892 -0.030554074808763529 0 -0.039952802414161666 -0.030815038819782713 0 -0.040397112874334867 -0.030514740018688251 0 -0.039952802414161666 -0.030815038819782713 0 -0.040365236161342966 -0.030810238641154362 0 -0.040397112874334867 -0.030514740018688251 0 -0.040159499035075791 -0.031062806786651093 0 -0.039952802414161666 -0.030815038819782713 0 -0.040365236161342966 -0.030810238641154362 0 -0.040776536792473915 -0.030632451266304133 0 -0.040365236161342966 -0.030810238641154362 0 -0.04092367705191411 -0.031024889338907655 0 -0.040776536792473915 -0.030632451266304133 0 -0.040365236161342966 -0.030810238641154362 0 -0.040397112874334867 -0.030514740018688251 0 -0.040776536792473915 -0.030632451266304133 0 -0.040397112874334867 -0.030514740018688251 0 -0.04089903294317665 -0.030314856380099935 0 -0.040675537958392988 -0.030187874150603599 0 -0.040397112874334867 -0.030514740018688251 0 -0.04089903294317665 -0.030314856380099935 0 -0.04089903294317665 -0.030314856380099935 0 -0.041314499819123975 -0.030559798578132163 0 -0.041430370298023447 -0.030141352266580174 0 -0.040776536792473915 -0.030632451266304133 0 -0.04092367705191411 -0.031024889338907655 0 -0.041314499819123975 -0.030559798578132163 0 -0.040776536792473915 -0.030632451266304133 0 -0.04089903294317665 -0.030314856380099935 0 -0.041314499819123975 -0.030559798578132163 0 -0.04092367705191411 -0.031024889338907655 0 -0.041883391747531085 -0.031238142186402192 0 -0.040488030338880245 -0.031602369259633487 0 -0.040159499035075791 -0.031062806786651093 0 -0.040365236161342966 -0.030810238641154362 0 -0.04092367705191411 -0.031024889338907655 0 -0.040159499035075791 -0.031062806786651093 0 -0.04092367705191411 -0.031024889338907655 0 -0.040488030338880245 -0.031602369259633487 0 -0.04092367705191411 -0.031024889338907655 0 -0.041883391747531085 -0.031238142186402192 0 -0.041314499819123975 -0.030559798578132163 0 -0.041883391747531085 -0.031238142186402192 0 -0.041314499819123975 -0.030559798578132163 0 -0.042320227883335441 -0.030030094581644844 0 -0.041314499819123975 -0.030559798578132163 0 -0.041430370298023447 -0.030141352266580174 0 -0.042320227883335441 -0.030030094581644844 0 -0.041569147602653241 -0.029857749982569147 0 -0.041430370298023447 -0.030141352266580174 0 -0.042320227883335441 -0.030030094581644844 0 -0.043205746277581669 -0.029748065072415338 0 -0.043536642970100736 -0.029900954882466073 0 -0.042320227883335441 -0.030030094581644844 0 -0.043536642970100736 -0.029900954882466073 0 -0.043835418809280643 -0.028277466422167042 0 -0.045661534250227384 -0.028982301274749871 0 -0.043549019648521564 -0.029970764325793122 0 -0.043622621417034942 -0.030078197138629054 0 -0.043536642970100736 -0.029900954882466073 0 -0.041883391747531085 -0.031238142186402192 0 -0.042320227883335441 -0.030030094581644844 0 -0.043835418809280643 -0.028277466422167042 0 -0.045661534250227384 -0.028982301274749871 0 -0.045011855479720635 -0.027405668195743447 0 -0.043835418809280643 -0.028277466422167042 0 -0.04375594365256421 -0.027103312707580617 0 -0.045011855479720635 -0.027405668195743447 0 -0.043947515182367246 -0.026047083773698597 0 -0.045011855479720635 -0.027405668195743447 0 -0.046044196268972 -0.026523301121860281 0 -0.044585289462496382 -0.026247452697080897 0 -0.044218450498649663 -0.025222434620199404 0 -0.04375594365256421 -0.027103312707580617 0 -0.043947515182367246 -0.026047083773698597 0 -0.045011855479720635 -0.027405668195743447 0 -0.045011855479720635 -0.027405668195743447 0 -0.046044196268972 -0.026523301121860281 0 -0.04627413556531524 -0.027678060432929023 0 -0.045661534250227384 -0.028982301274749871 0 -0.045011855479720635 -0.027405668195743447 0 -0.04627413556531524 -0.027678060432929023 0 -0.045661534250227384 -0.028982301274749871 0 -0.04627413556531524 -0.027678060432929023 0 -0.04712464437523578 -0.028235255631796026 0 -0.04627413556531524 -0.027678060432929023 0 -0.04712464437523578 -0.028235255631796026 0 -0.047259497374959242 -0.027295446793229868 0 -0.043622621417034942 -0.030078197138629054 0 -0.044296150908466052 -0.030022098112996533 0 -0.044218450498649663 -0.025222434620199404 0 -0.045467602433924822 -0.025896834817963704 0 -0.044218450498649663 -0.025222434620199404 0 -0.041736168829560605 -0.024156356669452414 0 -0.043194401247455723 -0.024776014269886487 0 -0.042361405154290391 -0.024412266351046704 0 -0.042054351828979097 -0.024707832010359941 0 -0.046044196268972 -0.026523301121860281 0 -0.04627413556531524 -0.027678060432929023 0 -0.047259497374959242 -0.027295446793229868 0 -0.042361405154290391 -0.024412266351046704 0 -0.041671497011442377 -0.024184028136505296 0 -0.041741136577157806 -0.02446301274430205 0 -0.042361405154290391 -0.024412266351046704 0 -0.042054351828979097 -0.024707832010359941 0 -0.041741136577157806 -0.02446301274430205 0 -0.045467602433924822 -0.025896834817963704 0 -0.041251236951701652 -0.027784015276526606 0 -0.039840854960410531 -0.031236644056467294 0 -0.040488030338880245 -0.031602369259633487 0 -0.039604982311423557 -0.031492518429356887 0 -0.04712464437523578 -0.028235255631796026 0 -0.047259497374959242 -0.027295446793229868 0 -0.048211380272057042 -0.027786900622213794 0 -0.044296150908466052 -0.030022098112996533 0 -0.041251236951701652 -0.027784015276526606 0 -0.041888115584528714 -0.024131462779437812 0 -0.042521388883840223 -0.024478115528997112 0 -0.04174554658919951 -0.02406489008095564 0 -0.041903899534923607 -0.023773191745081815 0 -0.041888115584528714 -0.024131462779437812 0 -0.04249741816581537 -0.024215368858023695 0 -0.041903899534923607 -0.023773191745081815 0 -0.041888115584528714 -0.024131462779437812 0 -0.041510856312151248 -0.024070742374687055 0 -0.043069936381731781 -0.02397217488361978 0 -0.041903899534923607 -0.023773191745081815 0 -0.04249741816581537 -0.024215368858023695 0 -0.041888115584528714 -0.024131462779437812 0 -0.04249741816581537 -0.024215368858023695 0 -0.042521388883840223 -0.024478115528997112 0 -0.04249741816581537 -0.024215368858023695 0 -0.042521388883840223 -0.024478115528997112 0 -0.043173776897066959 -0.024643822960481589 0 -0.043173776897066959 -0.024643822960481589 0 -0.043662984520559611 -0.024898191240051631 0 -0.0431863822159523 -0.024761436011357853 0 -0.042521388883840223 -0.024478115528997112 0 -0.043173776897066959 -0.024643822960481589 0 -0.0431863822159523 -0.024761436011357853 0 -0.044218450498649663 -0.025222434620199404 0 -0.043970035594781444 -0.02496931963853077 0 -0.043069936381731781 -0.02397217488361978 0 -0.04249741816581537 -0.024215368858023695 0 -0.043173776897066959 -0.024643822960481589 0 -0.043069936381731781 -0.02397217488361978 0 -0.043173776897066959 -0.024643822960481589 0 -0.044038329477706806 -0.025156756402716449 0 -0.044038329477706806 -0.025156756402716449 0 -0.043662984520559611 -0.024898191240051631 0 -0.043801029004531623 -0.025442284423433343 0 -0.043947515182367246 -0.026047083773698597 0 -0.045268850119278316 -0.025611722416421821 0 -0.044038329477706806 -0.025156756402716449 0 -0.043173776897066959 -0.024643822960481589 0 -0.044038329477706806 -0.025156756402716449 0 -0.043662984520559611 -0.024898191240051631 0 -0.043662984520559611 -0.024898191240051631 0 -0.043506778814957951 -0.024764397547360383 0 -0.0431863822159523 -0.024761436011357853 0 -0.043662984520559611 -0.024898191240051631 0 -0.043506778814957951 -0.024764397547360383 0 -0.043801029004531623 -0.025442284423433343 0 -0.043506778814957951 -0.024764397547360383 0 -0.043262110967475086 -0.024977170266843974 0 -0.0431863822159523 -0.024761436011357853 0 -0.044174216545415257 -0.023801892995979027 0 -0.044940346593866642 -0.023211755316348566 0 -0.043262110967475086 -0.024977170266843974 0 -0.042839225674709491 -0.024856129359558846 0 -0.0431863822159523 -0.024761436011357853 0 -0.043262110967475086 -0.024977170266843974 0 -0.042839225674709491 -0.024856129359558846 0 -0.042931477536739461 -0.025123693837268393 0 -0.042521388883840223 -0.024478115528997112 0 -0.042839225674709491 -0.024856129359558846 0 -0.0431863822159523 -0.024761436011357853 0 -0.042521388883840223 -0.024478115528997112 0 -0.042839225674709491 -0.024856129359558846 0 -0.042317285764768342 -0.024633513861643017 0 -0.042839225674709491 -0.024856129359558846 0 -0.042519756002170166 -0.02517518373546921 0 -0.042931477536739461 -0.025123693837268393 0 -0.042839225674709491 -0.024856129359558846 0 -0.042317285764768342 -0.024633513861643017 0 -0.042519756002170166 -0.02517518373546921 0 -0.042317285764768342 -0.024633513861643017 0 -0.042519756002170166 -0.02517518373546921 0 -0.041711635376189694 -0.024465625973848864 0 -0.040435428815974193 -0.022129691192580726 0 -0.040903521677805109 -0.022266929377790397 0 -0.042521388883840223 -0.024478115528997112 0 -0.042317285764768342 -0.024633513861643017 0 -0.04174554658919951 -0.02406489008095564 0 -0.042317285764768342 -0.024633513861643017 0 -0.04174554658919951 -0.02406489008095564 0 -0.041711635376189694 -0.024465625973848864 0 -0.040604584954083908 -0.023758234672992991 0 -0.0420298516472195 -0.02529863461952218 0 -0.043204157842219766 -0.023881154907126011 0 -0.040604584954083908 -0.023758234672992991 0 -0.043204157842219766 -0.023881154907126011 0 -0.04086375139560082 -0.021630902913470702 0 -0.038591505310439415 -0.023533338143461587 0 -0.040604584954083908 -0.023758234672992991 0 -0.040035583380133126 -0.025941809301362816 0 -0.038884175661629869 -0.021984342899998982 0 -0.038591505310439415 -0.023533338143461587 0 -0.040604584954083908 -0.023758234672992991 0 -0.040752757868755464 -0.024094292975490775 0 -0.041727370533209067 -0.02641387291953784 0 -0.040604584954083908 -0.023758234672992991 0 -0.040035583380133126 -0.025941809301362816 0 -0.0420298516472195 -0.02529863461952218 0 -0.042245546353265884 -0.026804936576439078 0 -0.040035583380133126 -0.025941809301362816 0 -0.0420298516472195 -0.02529863461952218 0 -0.0420298516472195 -0.02529863461952218 0 -0.0429664150987943 -0.02591201769175976 0 -0.043204157842219766 -0.023881154907126011 0 -0.042245546353265884 -0.026804936576439078 0 -0.0420298516472195 -0.02529863461952218 0 -0.0429664150987943 -0.02591201769175976 0 -0.0429664150987943 -0.02591201769175976 0 -0.043801029004531623 -0.025442284423433343 0 -0.043204157842219766 -0.023881154907126011 0 -0.043947515182367246 -0.026047083773698597 0 -0.044038329477706806 -0.025156756402716449 0 -0.043801029004531623 -0.025442284423433343 0 -0.043493073261688768 -0.026426223653538812 0 -0.043947515182367246 -0.026047083773698597 0 -0.043801029004531623 -0.025442284423433343 0 -0.043493073261688768 -0.026426223653538812 0 -0.0429664150987943 -0.02591201769175976 0 -0.043801029004531623 -0.025442284423433343 0 -0.044174216545415257 -0.023801892995979027 0 -0.043834703412931351 -0.025351457166783321 0 -0.044926793660489413 -0.023044846608706645 0 -0.043801029004531623 -0.025442284423433343 0 -0.043204157842219766 -0.023881154907126011 0 -0.043204157842219766 -0.023881154907126011 0 -0.043346240172692438 -0.020753192778660494 0 -0.04086375139560082 -0.021630902913470702 0 -0.044926793660489413 -0.023044846608706645 0 -0.043204157842219766 -0.023881154907126011 0 -0.043346240172692438 -0.020753192778660494 0 -0.044926793660489413 -0.023044846608706645 0 -0.045759758628144263 -0.020362649057954204 0 -0.043346240172692438 -0.020753192778660494 0 -0.045759758628144263 -0.020362649057954204 0 -0.043346240172692438 -0.020753192778660494 0 -0.04461761389117249 -0.018494661414005666 0 -0.04086375139560082 -0.021630902913470702 0 -0.039742884617060451 -0.019584526901410135 0 -0.041235937713201949 -0.019312705022549365 0 -0.043346240172692438 -0.020753192778660494 0 -0.04086375139560082 -0.021630902913470702 0 -0.041235937713201949 -0.019312705022549365 0 -0.038884175661629869 -0.021984342899998982 0 -0.040604584954083908 -0.023758234672992991 0 -0.04086375139560082 -0.021630902913470702 0 -0.037660879809077195 -0.020667675811889136 0 -0.041059584097687417 -0.021481095102104476 0 -0.038275981677296234 -0.019987610812626764 0 -0.04086375139560082 -0.021630902913470702 0 -0.039742884617060451 -0.019584526901410135 0 -0.038884175661629869 -0.021984342899998982 0 -0.038575026154651214 -0.020456004144004548 0 -0.04086375139560082 -0.021630902913470702 0 -0.038275981677296234 -0.019987610812626764 0 -0.039742884617060451 -0.019584526901410135 0 -0.03879742057790446 -0.018743222276314839 0 -0.039742884617060451 -0.019584526901410135 0 -0.039859240109553482 -0.018239971716771282 0 -0.041235937713201949 -0.019312705022549365 0 -0.039742884617060451 -0.019584526901410135 0 -0.039859240109553482 -0.018239971716771282 0 -0.03879742057790446 -0.018743222276314839 0 -0.039859240109553482 -0.018239971716771282 0 -0.03879742057790446 -0.018743222276314839 0 -0.038691935946604625 -0.017573651366886593 0 -0.039893347072277076 -0.017026190724876659 0 -0.039007710065490107 -0.015800946142384822 0 -0.038691935946604625 -0.017573651366886593 0 -0.039859240109553482 -0.018239971716771282 0 -0.039893347072277076 -0.017026190724876659 0 -0.038691935946604625 -0.017573651366886593 0 -0.039893347072277076 -0.017026190724876659 0 -0.041128141234433611 -0.017231159323382976 0 -0.040658126452918268 -0.016152896240964922 0 -0.039859240109553482 -0.018239971716771282 0 -0.039893347072277076 -0.017026190724876659 0 -0.041128141234433611 -0.017231159323382976 0 -0.041128141234433611 -0.017231159323382976 0 -0.041235937713201949 -0.019312705022549365 0 -0.042658661401665188 -0.018263177111085729 0 -0.039859240109553482 -0.018239971716771282 0 -0.041128141234433611 -0.017231159323382976 0 -0.041235937713201949 -0.019312705022549365 0 -0.043346240172692438 -0.020753192778660494 0 -0.041235937713201949 -0.019312705022549365 0 -0.042658661401665188 -0.018263177111085729 0 -0.043346240172692438 -0.020753192778660494 0 -0.042658661401665188 -0.018263177111085729 0 -0.04461761389117249 -0.018494661414005666 0 -0.04461761389117249 -0.018494661414005666 0 -0.04325776933025248 -0.016952004546054649 0 -0.045007083898198123 -0.016572896398292437 0 -0.042658661401665188 -0.018263177111085729 0 -0.04461761389117249 -0.018494661414005666 0 -0.04325776933025248 -0.016952004546054649 0 -0.041128141234433611 -0.017231159323382976 0 -0.042658661401665188 -0.018263177111085729 0 -0.042284252719809345 -0.016892245745228365 0 -0.042658661401665188 -0.018263177111085729 0 -0.04325776933025248 -0.016952004546054649 0 -0.042284252719809345 -0.016892245745228365 0 -0.04325776933025248 -0.016952004546054649 0 -0.042284252719809345 -0.016892245745228365 0 -0.042449317176010387 -0.016043358440306806 0 -0.041128141234433611 -0.017231159323382976 0 -0.042284252719809345 -0.016892245745228365 0 -0.04169439522243034 -0.016181154054095259 0 -0.042284252719809345 -0.016892245745228365 0 -0.04169439522243034 -0.016181154054095259 0 -0.042449317176010387 -0.016043358440306806 0 -0.04169439522243034 -0.016181154054095259 0 -0.042449317176010387 -0.016043358440306806 0 -0.042060830514194472 -0.015593070770351356 0 -0.042449317176010387 -0.016043358440306806 0 -0.042651678925430578 -0.015739242767313654 0 -0.04292297907477656 -0.015402606272515671 0 -0.042651678925430578 -0.015739242767313654 0 -0.042060830514194472 -0.015593070770351356 0 -0.042841412073125626 -0.016076468741830306 0 -0.042449317176010387 -0.016043358440306806 0 -0.042651678925430578 -0.015739242767313654 0 -0.042060830514194472 -0.015593070770351356 0 -0.04169439522243034 -0.016181154054095259 0 -0.042060830514194472 -0.015593070770351356 0 -0.041311049834357037 -0.015561496952718346 0 -0.04292297907477656 -0.015402606272515671 0 -0.042841412073125626 -0.016076468741830306 0 -0.040286513785493208 -0.013470203041587156 0 -0.042914466843633953 -0.015324848352047163 0 -0.042546018878296739 -0.01502949406182418 0 -0.04325776933025248 -0.016952004546054649 0 -0.04292297907477656 -0.015402606272515671 0 -0.045007083898198123 -0.016572896398292437 0 -0.04325776933025248 -0.016952004546054649 0 -0.042449317176010387 -0.016043358440306806 0 -0.04292297907477656 -0.015402606272515671 0 -0.042651678925430578 -0.015739242767313654 0 -0.04292297907477656 -0.015402606272515671 0 -0.042841412073125626 -0.016076468741830306 0 -0.037127267211563147 -0.012912544628939348 0 -0.037318301112244663 -0.012831453878782933 0 -0.037590468603471594 -0.013378640108387864 0 -0.037127267211563147 -0.012912544628939348 0 -0.037318301112244663 -0.012831453878782933 0 -0.037249645990757245 -0.012630359804386412 0 -0.037127267211563147 -0.012912544628939348 0 -0.037249645990757245 -0.012630359804386412 0 -0.037302845576815673 -0.012433295672345999 0 -0.037249645990757245 -0.012630359804386412 0 -0.037280740046587636 -0.012602580207457326 0 -0.037299922323028985 -0.012395730320393759 0 -0.037280740046587636 -0.012602580207457326 0 -0.037299922323028985 -0.012395730320393759 0 -0.037290079398536402 -0.012392301484592283 0 -0.037280740046587636 -0.012602580207457326 0 -0.037324803387917202 -0.012629838192394466 0 -0.037290079398536402 -0.012392301484592283 0 -0.037318301112244663 -0.012831453878782933 0 -0.037280740046587636 -0.012602580207457326 0 -0.037324803387917202 -0.012629838192394466 0 -0.037318301112244663 -0.012831453878782933 0 -0.037249645990757245 -0.012630359804386412 0 -0.037280740046587636 -0.012602580207457326 0 -0.037318301112244663 -0.012831453878782933 0 -0.037590468603471594 -0.013378640108387864 0 -0.037476098825292181 -0.012854105909735224 0 -0.037318301112244663 -0.012831453878782933 0 -0.037324803387917202 -0.012629838192394466 0 -0.037476098825292181 -0.012854105909735224 0 -0.03994821886203298 -0.014470037096422337 0 -0.039624290217474586 -0.012834875634470368 0 -0.037127267211563147 -0.012912544628939348 0 -0.037484638200201773 -0.012031220248658546 0 -0.03778026657474496 -0.011432201994505557 0 -0.042060830514194472 -0.015593070770351356 0 -0.042841412073125626 -0.016076468741830306 0 -0.041263425165406133 -0.014687546352604509 0 -0.037127267211563147 -0.012912544628939348 0 -0.037484638200201773 -0.012031220248658546 0 -0.037302845576815673 -0.012433295672345999 0 -0.037484638200201773 -0.012031220248658546 0 -0.037302845576815673 -0.012433295672345999 0 -0.037374474626952536 -0.012214139623316219 0 -0.037302845576815673 -0.012433295672345999 0 -0.037374474626952536 -0.012214139623316219 0 -0.037299922323028985 -0.012395730320393759 0 -0.037249645990757245 -0.012630359804386412 0 -0.037302845576815673 -0.012433295672345999 0 -0.037299922323028985 -0.012395730320393759 0 -0.037299922323028985 -0.012395730320393759 0 -0.037355691365470907 -0.01221277110090583 0 -0.037290079398536402 -0.012392301484592283 0 -0.037374474626952536 -0.012214139623316219 0 -0.037299922323028985 -0.012395730320393759 0 -0.037355691365470907 -0.01221277110090583 0 -0.037374474626952536 -0.012214139623316219 0 -0.037355691365470907 -0.01221277110090583 0 -0.037491929777690655 -0.012004244624464805 0 -0.037484638200201773 -0.012031220248658546 0 -0.037374474626952536 -0.012214139623316219 0 -0.037491929777690655 -0.012004244624464805 0 -0.037484638200201773 -0.012031220248658546 0 -0.037491929777690655 -0.012004244624464805 0 -0.037647958604770958 -0.011769921434215878 0 -0.037491929777690655 -0.012004244624464805 0 -0.037647958604770958 -0.011769921434215878 0 -0.037676607608146478 -0.011839906032090869 0 -0.037868251653585656 -0.01169300589213159 0 -0.037647958604770958 -0.011769921434215878 0 -0.037676607608146478 -0.011839906032090869 0 -0.037484638200201773 -0.012031220248658546 0 -0.037647958604770958 -0.011769921434215878 0 -0.03778026657474496 -0.011432201994505557 0 -0.037868251653585656 -0.01169300589213159 0 -0.037647958604770958 -0.011769921434215878 0 -0.03778026657474496 -0.011432201994505557 0 -0.042060830514194472 -0.015593070770351356 0 -0.041263425165406133 -0.014687546352604509 0 -0.041311049834357037 -0.015561496952718346 0 -0.041263425165406133 -0.014687546352604509 0 -0.041311049834357037 -0.015561496952718346 0 -0.040568974528226776 -0.015348455944221361 0 -0.041263425165406133 -0.014687546352604509 0 -0.040633268092445114 -0.01448244997149495 0 -0.040568974528226776 -0.015348455944221361 0 -0.039624290217474586 -0.012834875634470368 0 -0.039238641134588699 -0.011871972194812666 0 -0.03778026657474496 -0.011432201994505557 0 -0.038222399930606561 -0.011218837430638395 0 -0.038425218035595766 -0.011582433218972638 0 -0.037868251653585656 -0.01169300589213159 0 -0.03778026657474496 -0.011432201994505557 0 -0.038425218035595766 -0.011582433218972638 0 -0.038222399930606561 -0.011218837430638395 0 -0.038425218035595766 -0.011582433218972638 0 -0.040016392343266281 -0.011071332829341377 0 -0.038951728271059541 -0.010758638910410647 0 -0.039928315257778506 -0.009948787880089266 0 -0.040016392343266281 -0.011071332829341377 0 -0.039238641134588699 -0.011871972194812666 0 -0.039600157802776946 -0.012892288100850151 0 -0.040633268092445114 -0.01448244997149495 0 -0.039007710065490107 -0.015800946142384822 0 -0.040568974528226776 -0.015348455944221361 0 -0.039238641134588699 -0.011871972194812666 0 -0.039641828322306318 -0.010961877633561865 0 -0.039007710065490107 -0.015800946142384822 0 -0.040658126452918268 -0.016152896240964922 0 -0.040568974528226776 -0.015348455944221361 0 -0.039893347072277076 -0.017026190724876659 0 -0.039007710065490107 -0.015800946142384822 0 -0.040658126452918268 -0.016152896240964922 0 -0.04169439522243034 -0.016181154054095259 0 -0.040658126452918268 -0.016152896240964922 0 -0.041311049834357037 -0.015561496952718346 0 -0.041128141234433611 -0.017231159323382976 0 -0.04169439522243034 -0.016181154054095259 0 -0.040658126452918268 -0.016152896240964922 0 -0.040658126452918268 -0.016152896240964922 0 -0.041311049834357037 -0.015561496952718346 0 -0.040568974528226776 -0.015348455944221361 0 -0.038581123931057525 -0.01826308051203681 0 -0.038882913523626619 -0.016042843909509528 0 -0.040051650334021492 -0.017966286446498805 0 -0.038882913523626619 -0.016042843909509528 0 -0.04050069457564575 -0.015600875359841322 0 -0.040051650334021492 -0.017966286446498805 0 -0.038581123931057525 -0.01826308051203681 0 -0.040051650334021492 -0.017966286446498805 0 -0.039870048939263387 -0.020156551620316099 0 -0.038581123931057525 -0.01826308051203681 0 -0.038882913523626619 -0.016042843909509528 0 -0.038017024384737551 -0.016157879288629759 0 -0.038882913523626619 -0.016042843909509528 0 -0.038017024384737551 -0.016157879288629759 0 -0.038235846095354582 -0.01514221703039784 0 -0.038017024384737551 -0.016157879288629759 0 -0.036730138021592126 -0.016611616671000095 0 -0.037580404736751234 -0.014686258515849423 0 -0.040965906763111633 -0.018402816494845757 0 -0.037555266043336234 -0.013692078951879414 0 -0.038581123931057525 -0.01826308051203681 0 -0.038017024384737551 -0.016157879288629759 0 -0.036730138021592126 -0.016611616671000095 0 -0.042519756002170166 -0.02517518373546921 0 -0.043065058655908761 -0.025382025427596544 0 -0.042931477536739461 -0.025123693837268393 0 -0.040435428815974193 -0.022129691192580726 0 -0.040965906763111633 -0.018402816494845757 0 -0.043262110967475086 -0.024977170266843974 0 -0.043065058655908761 -0.025382025427596544 0 -0.042931477536739461 -0.025123693837268393 0 -0.045759758628144263 -0.020362649057954204 0 -0.04461761389117249 -0.018494661414005666 0 -0.046624390327262087 -0.01758443610522438 0 -0.044940346593866642 -0.023211755316348566 0 -0.040965906763111633 -0.018402816494845757 0 -0.04461761389117249 -0.018494661414005666 0 -0.046624390327262087 -0.01758443610522438 0 -0.045007083898198123 -0.016572896398292437 0 -0.037986169942350621 -0.012428780707820657 0 -0.040286513785493208 -0.013470203041587156 0 -0.038125052079829962 -0.014553380389704617 0 -0.040965906763111633 -0.018402816494845757 0 -0.042546018878296739 -0.01502949406182418 0 -0.03994821886203298 -0.014470037096422337 0 -0.038338393668778503 -0.014519105514723954 0 -0.037127267211563147 -0.012912544628939348 0 -0.038125052079829962 -0.014553380389704617 0 -0.037590468603471594 -0.013378640108387864 0 -0.042841412073125626 -0.016076468741830306 0 -0.040286513785493208 -0.013470203041587156 0 -0.038125052079829962 -0.014553380389704617 0 -0.038125052079829962 -0.014553380389704617 0 -0.037863428243934037 -0.013839400413075907 0 -0.037874212175821487 -0.014269884401275615 0 -0.038125052079829962 -0.014553380389704617 0 -0.037590468603471594 -0.013378640108387864 0 -0.037863428243934037 -0.013839400413075907 0 -0.037590468603471594 -0.013378640108387864 0 -0.037476098825292181 -0.012854105909735224 0 -0.037737467061205128 -0.013304473753905059 0 -0.037476098825292181 -0.012854105909735224 0 -0.037737467061205128 -0.013304473753905059 0 -0.037675432545365095 -0.01284608783096104 0 -0.037737467061205128 -0.013304473753905059 0 -0.038027862273138494 -0.013133066335944929 0 -0.037675432545365095 -0.01284608783096104 0 -0.037737467061205128 -0.013304473753905059 0 -0.037863428243934037 -0.013839400413075907 0 -0.037919755494553425 -0.013749045948574786 0 -0.037590468603471594 -0.013378640108387864 0 -0.037737467061205128 -0.013304473753905059 0 -0.037863428243934037 -0.013839400413075907 0 -0.037919755494553425 -0.013749045948574786 0 -0.038153165101085428 -0.014142018289560255 0 -0.038027862273138494 -0.013133066335944929 0 -0.037919755494553425 -0.013749045948574786 0 -0.038153165101085428 -0.014142018289560255 0 -0.037874212175821487 -0.014269884401275615 0 -0.037863428243934037 -0.013839400413075907 0 -0.037919755494553425 -0.013749045948574786 0 -0.037874212175821487 -0.014269884401275615 0 -0.037737467061205128 -0.013304473753905059 0 -0.037919755494553425 -0.013749045948574786 0 -0.038027862273138494 -0.013133066335944929 0 -0.038153165101085428 -0.014142018289560255 0 -0.038623501132824811 -0.013335547734461323 0 -0.038027862273138494 -0.013133066335944929 0 -0.037986169942350621 -0.012428780707820657 0 -0.038125052079829962 -0.014553380389704617 0 -0.037580404736751234 -0.014686258515849423 0 -0.038153165101085428 -0.014142018289560255 0 -0.037580404736751234 -0.014686258515849423 0 -0.038235846095354582 -0.01514221703039784 0 -0.038153165101085428 -0.014142018289560255 0 -0.037874212175821487 -0.014269884401275615 0 -0.037580404736751234 -0.014686258515849423 0 -0.038125052079829962 -0.014553380389704617 0 -0.037874212175821487 -0.014269884401275615 0 -0.037580404736751234 -0.014686258515849423 0 -0.038017024384737551 -0.016157879288629759 0 -0.037580404736751234 -0.014686258515849423 0 -0.038235846095354582 -0.01514221703039784 0 -0.038882913523626619 -0.016042843909509528 0 -0.038235846095354582 -0.01514221703039784 0 -0.038757673398353815 -0.014432477265875047 0 -0.038153165101085428 -0.014142018289560255 0 -0.038235846095354582 -0.01514221703039784 0 -0.038757673398353815 -0.014432477265875047 0 -0.038757673398353815 -0.014432477265875047 0 -0.038623501132824811 -0.013335547734461323 0 -0.039716269276242486 -0.013185229622853185 0 -0.038153165101085428 -0.014142018289560255 0 -0.038757673398353815 -0.014432477265875047 0 -0.038623501132824811 -0.013335547734461323 0 -0.03976945096227457 -0.014552113848926991 0 -0.039716269276242486 -0.013185229622853185 0 -0.040699331904726486 -0.0140383161103828 0 -0.038757673398353815 -0.014432477265875047 0 -0.03976945096227457 -0.014552113848926991 0 -0.039716269276242486 -0.013185229622853185 0 -0.038882913523626619 -0.016042843909509528 0 -0.03976945096227457 -0.014552113848926991 0 -0.04050069457564575 -0.015600875359841322 0 -0.038882913523626619 -0.016042843909509528 0 -0.038757673398353815 -0.014432477265875047 0 -0.03976945096227457 -0.014552113848926991 0 -0.039918829568410891 -0.012041864912449025 0 -0.039716269276242486 -0.013185229622853185 0 -0.039041762668199115 -0.012420543430250834 0 -0.038623501132824811 -0.013335547734461323 0 -0.039041762668199115 -0.012420543430250834 0 -0.038296467811180721 -0.012363150486023735 0 -0.038623501132824811 -0.013335547734461323 0 -0.039716269276242486 -0.013185229622853185 0 -0.039041762668199115 -0.012420543430250834 0 -0.039041762668199115 -0.012420543430250834 0 -0.038296467811180721 -0.012363150486023735 0 -0.038733951977849047 -0.01127300729273145 0 -0.039918829568410891 -0.012041864912449025 0 -0.039041762668199115 -0.012420543430250834 0 -0.038733951977849047 -0.01127300729273145 0 -0.040058628551176721 -0.011939951328303529 0 -0.03879028757932821 -0.011285993670459267 0 -0.038296467811180721 -0.012363150486023735 0 -0.037763616526646122 -0.012453183137032574 0 -0.037797452327528201 -0.011756107359371257 0 -0.038296467811180721 -0.012363150486023735 0 -0.037797452327528201 -0.011756107359371257 0 -0.038733951977849047 -0.01127300729273145 0 -0.038296467811180721 -0.012363150486023735 0 -0.038027862273138494 -0.013133066335944929 0 -0.037763616526646122 -0.012453183137032574 0 -0.038623501132824811 -0.013335547734461323 0 -0.038296467811180721 -0.012363150486023735 0 -0.038027862273138494 -0.013133066335944929 0 -0.038027862273138494 -0.013133066335944929 0 -0.037763616526646122 -0.012453183137032574 0 -0.037675432545365095 -0.01284608783096104 0 -0.037476098825292181 -0.012854105909735224 0 -0.037675432545365095 -0.01284608783096104 0 -0.037483008382336806 -0.012508263196972276 0 -0.037763616526646122 -0.012453183137032574 0 -0.037675432545365095 -0.01284608783096104 0 -0.037483008382336806 -0.012508263196972276 0 -0.037763616526646122 -0.012453183137032574 0 -0.037483008382336806 -0.012508263196972276 0 -0.037467709928017109 -0.012144999146817499 0 -0.037763616526646122 -0.012453183137032574 0 -0.037467709928017109 -0.012144999146817499 0 -0.037797452327528201 -0.011756107359371257 0 -0.037467709928017109 -0.012144999146817499 0 -0.037797452327528201 -0.011756107359371257 0 -0.03734825399346528 -0.011835143790086915 0 -0.037797452327528201 -0.011756107359371257 0 -0.037440337792671204 -0.011389059749456995 0 -0.03734825399346528 -0.011835143790086915 0 -0.037797452327528201 -0.011756107359371257 0 -0.037440337792671204 -0.011389059749456995 0 -0.037973314542080971 -0.010987841822316937 0 -0.037464623361825093 -0.010592619199452038 0 -0.038289902104138671 -0.0099478970501551672 0 -0.037973314542080971 -0.010987841822316937 0 -0.037440337792671204 -0.011389059749456995 0 -0.037464623361825093 -0.010592619199452038 0 -0.037149172082398263 -0.011274834118179396 0 -0.037440337792671204 -0.011389059749456995 0 -0.037464623361825093 -0.010592619199452038 0 -0.037973314542080971 -0.010987841822316937 0 -0.038289902104138671 -0.0099478970501551672 0 -0.037973314542080971 -0.010987841822316937 0 -0.038733951977849047 -0.01127300729273145 0 -0.037797452327528201 -0.011756107359371257 0 -0.037973314542080971 -0.010987841822316937 0 -0.038733951977849047 -0.01127300729273145 0 -0.040253392007285803 -0.01185194880875636 0 -0.038733951977849047 -0.01127300729273145 0 -0.039903458142018726 -0.010542786596287669 0 -0.038289902104138671 -0.0099478970501551672 0 -0.038733951977849047 -0.01127300729273145 0 -0.039252865762950735 -0.0098157328133808702 0 -0.038733951977849047 -0.01127300729273145 0 -0.039252865762950735 -0.0098157328133808702 0 -0.039903458142018726 -0.010542786596287669 0 -0.039903458142018726 -0.010542786596287669 0 -0.041030435931784785 -0.010289872413946227 0 -0.040313561186834296 -0.0093749914774090681 0 -0.039252865762950735 -0.0098157328133808702 0 -0.039903458142018726 -0.010542786596287669 0 -0.040313561186834296 -0.0093749914774090681 0 -0.040253392007285803 -0.01185194880875636 0 -0.039903458142018726 -0.010542786596287669 0 -0.041030435931784785 -0.010289872413946227 0 -0.038293443944612288 -0.012121334934672484 0 -0.037725795156956489 -0.012158345460941748 0 -0.038035417976040861 -0.011980820225766195 0 -0.038293443944612288 -0.012121334934672484 0 -0.03886849214504258 -0.011890268160124189 0 -0.038035417976040861 -0.011980820225766195 0 -0.037725795156956489 -0.012158345460941748 0 -0.03763733418241124 -0.01204999269386893 0 -0.037455493137922923 -0.012106469371666118 0 -0.037725795156956489 -0.012158345460941748 0 -0.038035417976040861 -0.011980820225766195 0 -0.03763733418241124 -0.01204999269386893 0 -0.038293443944612288 -0.012121334934672484 0 -0.037725795156956489 -0.012158345460941748 0 -0.038346548503416622 -0.012413925369534614 0 -0.038293443944612288 -0.012121334934672484 0 -0.03887321182760816 -0.012225675128807623 0 -0.038346548503416622 -0.012413925369534614 0 -0.03887321182760816 -0.012225675128807623 0 -0.039305072425967431 -0.012851891328397338 0 -0.039703180149142363 -0.012242780302025682 0 -0.03886849214504258 -0.011890268160124189 0 -0.039742091877885154 -0.011736984319594228 0 -0.039703180149142363 -0.012242780302025682 0 -0.03887321182760816 -0.012225675128807623 0 -0.03886849214504258 -0.011890268160124189 0 -0.039703180149142363 -0.012242780302025682 0 -0.038293443944612288 -0.012121334934672484 0 -0.03887321182760816 -0.012225675128807623 0 -0.03886849214504258 -0.011890268160124189 0 -0.03924953853519085 -0.011583373763173414 0 -0.038425218035595766 -0.011582433218972638 0 -0.040016392343266281 -0.011071332829341377 0 -0.03886849214504258 -0.011890268160124189 0 -0.039742091877885154 -0.011736984319594228 0 -0.03924953853519085 -0.011583373763173414 0 -0.039742091877885154 -0.011736984319594228 0 -0.03924953853519085 -0.011583373763173414 0 -0.040016392343266281 -0.011071332829341377 0 -0.03886849214504258 -0.011890268160124189 0 -0.03924953853519085 -0.011583373763173414 0 -0.038425218035595766 -0.011582433218972638 0 -0.038425218035595766 -0.011582433218972638 0 -0.038035417976040861 -0.011980820225766195 0 -0.037828978196050862 -0.011867331256604172 0 -0.037868251653585656 -0.01169300589213159 0 -0.038425218035595766 -0.011582433218972638 0 -0.037828978196050862 -0.011867331256604172 0 -0.03886849214504258 -0.011890268160124189 0 -0.038425218035595766 -0.011582433218972638 0 -0.038035417976040861 -0.011980820225766195 0 -0.038035417976040861 -0.011980820225766195 0 -0.03763733418241124 -0.01204999269386893 0 -0.037828978196050862 -0.011867331256604172 0 -0.03763733418241124 -0.01204999269386893 0 -0.037828978196050862 -0.011867331256604172 0 -0.037474849213696634 -0.012065104488461289 0 -0.037828978196050862 -0.011867331256604172 0 -0.037676607608146478 -0.011839906032090869 0 -0.037497614354898595 -0.012014996663168376 0 -0.037868251653585656 -0.01169300589213159 0 -0.037828978196050862 -0.011867331256604172 0 -0.037676607608146478 -0.011839906032090869 0 -0.037828978196050862 -0.011867331256604172 0 -0.037497614354898595 -0.012014996663168376 0 -0.037474849213696634 -0.012065104488461289 0 -0.037491929777690655 -0.012004244624464805 0 -0.037676607608146478 -0.011839906032090869 0 -0.037497614354898595 -0.012014996663168376 0 -0.037497614354898595 -0.012014996663168376 0 -0.037353395575433532 -0.012172571506287356 0 -0.037474849213696634 -0.012065104488461289 0 -0.037355691365470907 -0.01221277110090583 0 -0.037497614354898595 -0.012014996663168376 0 -0.037353395575433532 -0.012172571506287356 0 -0.037355691365470907 -0.01221277110090583 0 -0.037491929777690655 -0.012004244624464805 0 -0.037497614354898595 -0.012014996663168376 0 -0.037355691365470907 -0.01221277110090583 0 -0.037353395575433532 -0.012172571506287356 0 -0.037290079398536402 -0.012392301484592283 0 -0.037353395575433532 -0.012172571506287356 0 -0.037290079398536402 -0.012392301484592283 0 -0.037293643270928968 -0.012286891619056271 0 -0.037315032725397539 -0.012165293278095277 0 -0.037278866947514651 -0.012261173285288305 0 -0.037266794269940895 -0.012166998804781406 0 -0.037315032725397539 -0.012165293278095277 0 -0.037293643270928968 -0.012286891619056271 0 -0.037278866947514651 -0.012261173285288305 0 -0.037353395575433532 -0.012172571506287356 0 -0.037315032725397539 -0.012165293278095277 0 -0.037474849213696634 -0.012065104488461289 0 -0.037353395575433532 -0.012172571506287356 0 -0.037315032725397539 -0.012165293278095277 0 -0.037293643270928968 -0.012286891619056271 0 -0.037315032725397539 -0.012165293278095277 0 -0.037474849213696634 -0.012065104488461289 0 -0.037415243752473147 -0.012101947661579239 0 -0.03763733418241124 -0.01204999269386893 0 -0.037474849213696634 -0.012065104488461289 0 -0.037415243752473147 -0.012101947661579239 0 -0.037476098825292181 -0.012854105909735224 0 -0.037483008382336806 -0.012508263196972276 0 -0.037328012175176853 -0.012487904367887792 0 -0.037324803387917202 -0.012629838192394466 0 -0.037476098825292181 -0.012854105909735224 0 -0.037328012175176853 -0.012487904367887792 0 -0.037328012175176853 -0.012487904367887792 0 -0.037290079398536402 -0.012392301484592283 0 -0.037293643270928968 -0.012286891619056271 0 -0.037324803387917202 -0.012629838192394466 0 -0.037328012175176853 -0.012487904367887792 0 -0.037290079398536402 -0.012392301484592283 0 -0.037328012175176853 -0.012487904367887792 0 -0.037278866947514651 -0.012261173285288305 0 -0.037329398961626695 -0.012269524914494144 0 -0.037328012175176853 -0.012487904367887792 0 -0.037293643270928968 -0.012286891619056271 0 -0.037278866947514651 -0.012261173285288305 0 -0.037483008382336806 -0.012508263196972276 0 -0.037328012175176853 -0.012487904367887792 0 -0.037329398961626695 -0.012269524914494144 0 -0.037483008382336806 -0.012508263196972276 0 -0.037467709928017109 -0.012144999146817499 0 -0.037329398961626695 -0.012269524914494144 0 -0.037467709928017109 -0.012144999146817499 0 -0.037329398961626695 -0.012269524914494144 0 -0.037243862376824248 -0.012062201701353826 0 -0.037329398961626695 -0.012269524914494144 0 -0.037258581825665625 -0.012173093605458768 0 -0.037243862376824248 -0.012062201701353826 0 -0.037278866947514651 -0.012261173285288305 0 -0.037329398961626695 -0.012269524914494144 0 -0.037258581825665625 -0.012173093605458768 0 -0.037278866947514651 -0.012261173285288305 0 -0.037258581825665625 -0.012173093605458768 0 -0.037266794269940895 -0.012166998804781406 0 -0.037258581825665625 -0.012173093605458768 0 -0.037219272918198397 -0.012098546207831368 0 -0.037266794269940895 -0.012166998804781406 0 -0.037258581825665625 -0.012173093605458768 0 -0.037219272918198397 -0.012098546207831368 0 -0.037243862376824248 -0.012062201701353826 0 -0.037172630939023607 -0.012018203886596909 0 -0.037243862376824248 -0.012062201701353826 0 -0.037155137745569763 -0.011893000274313998 0 -0.037219272918198397 -0.012098546207831368 0 -0.037172630939023607 -0.012018203886596909 0 -0.037243862376824248 -0.012062201701353826 0 -0.037467709928017109 -0.012144999146817499 0 -0.037243862376824248 -0.012062201701353826 0 -0.03734825399346528 -0.011835143790086915 0 -0.037243862376824248 -0.012062201701353826 0 -0.03734825399346528 -0.011835143790086915 0 -0.037155137745569763 -0.011893000274313998 0 -0.037455493137922923 -0.012106469371666118 0 -0.037297157547566705 -0.012115435269985212 0 -0.03734421737238857 -0.012113789747590286 0 -0.03763733418241124 -0.01204999269386893 0 -0.037455493137922923 -0.012106469371666118 0 -0.037415243752473147 -0.012101947661579239 0 -0.037455493137922923 -0.012106469371666118 0 -0.037415243752473147 -0.012101947661579239 0 -0.037297157547566705 -0.012115435269985212 0 -0.037315032725397539 -0.012165293278095277 0 -0.037415243752473147 -0.012101947661579239 0 -0.037297157547566705 -0.012115435269985212 0 -0.037315032725397539 -0.012165293278095277 0 -0.037266794269940895 -0.012166998804781406 0 -0.037297157547566705 -0.012115435269985212 0 -0.037219272918198397 -0.012098546207831368 0 -0.037266794269940895 -0.012166998804781406 0 -0.037297157547566705 -0.012115435269985212 0 -0.037297157547566705 -0.012115435269985212 0 -0.037202034418664834 -0.012065799841475442 0 -0.03734421737238857 -0.012113789747590286 0 -0.037219272918198397 -0.012098546207831368 0 -0.037172630939023607 -0.012018203886596909 0 -0.037202034418664834 -0.012065799841475442 0 -0.037219272918198397 -0.012098546207831368 0 -0.037297157547566705 -0.012115435269985212 0 -0.037202034418664834 -0.012065799841475442 0 -0.037172630939023607 -0.012018203886596909 0 -0.037202034418664834 -0.012065799841475442 0 -0.037101352236507797 -0.011967225597926475 0 -0.037202034418664834 -0.012065799841475442 0 -0.03734421737238857 -0.012113789747590286 0 -0.037178384947706117 -0.012066008909278361 0 -0.037725795156956489 -0.012158345460941748 0 -0.037455493137922923 -0.012106469371666118 0 -0.03734421737238857 -0.012113789747590286 0 -0.037725795156956489 -0.012158345460941748 0 -0.03734421737238857 -0.012113789747590286 0 -0.037399732119093934 -0.012192496915990151 0 -0.037399732119093934 -0.012192496915990151 0 -0.037188571706706669 -0.012099091714681778 0 -0.037462900341741177 -0.012322080621363141 0 -0.037399732119093934 -0.012192496915990151 0 -0.037178384947706117 -0.012066008909278361 0 -0.037188571706706669 -0.012099091714681778 0 -0.037178384947706117 -0.012066008909278361 0 -0.036997742227249657 -0.011923311802813316 0 -0.037188571706706669 -0.012099091714681778 0 -0.03734421737238857 -0.012113789747590286 0 -0.037399732119093934 -0.012192496915990151 0 -0.037178384947706117 -0.012066008909278361 0 -0.037202034418664834 -0.012065799841475442 0 -0.037178384947706117 -0.012066008909278361 0 -0.037101352236507797 -0.011967225597926475 0 -0.037101352236507797 -0.011967225597926475 0 -0.036997742227249657 -0.011923311802813316 0 -0.037023870458904637 -0.011823187456080493 0 -0.037178384947706117 -0.012066008909278361 0 -0.037101352236507797 -0.011967225597926475 0 -0.036997742227249657 -0.011923311802813316 0 -0.036997742227249657 -0.011923311802813316 0 -0.036908384785187938 -0.011730850091209331 0 -0.037023870458904637 -0.011823187456080493 0 -0.036908384785187938 -0.011730850091209331 0 -0.036836659152374371 -0.011778193660524666 0 -0.036806068959251988 -0.011529040398959498 0 -0.036997742227249657 -0.011923311802813316 0 -0.036908384785187938 -0.011730850091209331 0 -0.036836659152374371 -0.011778193660524666 0 -0.036997742227249657 -0.011923311802813316 0 -0.036836659152374371 -0.011778193660524666 0 -0.037145871064932626 -0.012093729297173485 0 -0.037145871064932626 -0.012093729297173485 0 -0.037188571706706669 -0.012099091714681778 0 -0.037462900341741177 -0.012322080621363141 0 -0.036997742227249657 -0.011923311802813316 0 -0.037145871064932626 -0.012093729297173485 0 -0.037188571706706669 -0.012099091714681778 0 -0.037440337792671204 -0.011389059749456995 0 -0.03734825399346528 -0.011835143790086915 0 -0.03715799749198237 -0.011647942786486969 0 -0.03734825399346528 -0.011835143790086915 0 -0.037155137745569763 -0.011893000274313998 0 -0.03715799749198237 -0.011647942786486969 0 -0.037155137745569763 -0.011893000274313998 0 -0.037023870458904637 -0.011823187456080493 0 -0.03715799749198237 -0.011647942786486969 0 -0.037172630939023607 -0.012018203886596909 0 -0.037101352236507797 -0.011967225597926475 0 -0.037155137745569763 -0.011893000274313998 0 -0.037101352236507797 -0.011967225597926475 0 -0.037155137745569763 -0.011893000274313998 0 -0.037023870458904637 -0.011823187456080493 0 -0.037023870458904637 -0.011823187456080493 0 -0.036984108563922889 -0.011564881045499312 0 -0.03715799749198237 -0.011647942786486969 0 -0.036984108563922889 -0.011564881045499312 0 -0.03715799749198237 -0.011647942786486969 0 -0.037149172082398263 -0.011274834118179396 0 -0.036908384785187938 -0.011730850091209331 0 -0.036984108563922889 -0.011564881045499312 0 -0.036806068959251988 -0.011529040398959498 0 -0.036908384785187938 -0.011730850091209331 0 -0.037023870458904637 -0.011823187456080493 0 -0.036984108563922889 -0.011564881045499312 0 -0.037440337792671204 -0.011389059749456995 0 -0.03715799749198237 -0.011647942786486969 0 -0.037149172082398263 -0.011274834118179396 0 -0.037464623361825093 -0.010592619199452038 0 -0.037149172082398263 -0.011274834118179396 0 -0.037062844065288203 -0.010907291685693096 0 -0.037149172082398263 -0.011274834118179396 0 -0.03695867094314384 -0.011318297304641485 0 -0.037062844065288203 -0.010907291685693096 0 -0.03695867094314384 -0.011318297304641485 0 -0.036824417488130784 -0.011193528030225828 0 -0.037062844065288203 -0.010907291685693096 0 -0.036984108563922889 -0.011564881045499312 0 -0.037149172082398263 -0.011274834118179396 0 -0.03695867094314384 -0.011318297304641485 0 -0.036984108563922889 -0.011564881045499312 0 -0.03695867094314384 -0.011318297304641485 0 -0.036806068959251988 -0.011529040398959498 0 -0.03695867094314384 -0.011318297304641485 0 -0.036824417488130784 -0.011193528030225828 0 -0.036806068959251988 -0.011529040398959498 0 -0.036824417488130784 -0.011193528030225828 0 -0.036853598357735648 -0.010699774508513662 0 -0.03666402902324771 -0.011112286902185435 0 -0.036824417488130784 -0.011193528030225828 0 -0.036853598357735648 -0.010699774508513662 0 -0.037062844065288203 -0.010907291685693096 0 -0.036853598357735648 -0.010699774508513662 0 -0.037062844065288203 -0.010907291685693096 0 -0.037095201673125577 -0.010138645213583687 0 -0.037464623361825093 -0.010592619199452038 0 -0.037062844065288203 -0.010907291685693096 0 -0.037095201673125577 -0.010138645213583687 0 -0.036836659152374371 -0.011778193660524666 0 -0.037145871064932626 -0.012093729297173485 0 -0.036594273381803627 -0.011550669203856714 0 -0.036836659152374371 -0.011778193660524666 0 -0.036806068959251988 -0.011529040398959498 0 -0.036594273381803627 -0.011550669203856714 0 -0.036824417488130784 -0.011193528030225828 0 -0.036666087345917316 -0.011402402128458805 0 -0.03666402902324771 -0.011112286902185435 0 -0.036824417488130784 -0.011193528030225828 0 -0.036806068959251988 -0.011529040398959498 0 -0.036666087345917316 -0.011402402128458805 0 -0.036806068959251988 -0.011529040398959498 0 -0.036666087345917316 -0.011402402128458805 0 -0.036594273381803627 -0.011550669203856714 0 -0.036666087345917316 -0.011402402128458805 0 -0.036594273381803627 -0.011550669203856714 0 -0.036536198990122518 -0.011589219477078005 0 -0.036536198990122518 -0.011589219477078005 0 -0.03666402902324771 -0.011112286902185435 0 -0.036370819995932585 -0.010528975292662572 0 -0.036853598357735648 -0.010699774508513662 0 -0.03666402902324771 -0.011112286902185435 0 -0.036370819995932585 -0.010528975292662572 0 -0.036666087345917316 -0.011402402128458805 0 -0.036536198990122518 -0.011589219477078005 0 -0.03666402902324771 -0.011112286902185435 0 -0.036594273381803627 -0.011550669203856714 0 -0.036536198990122518 -0.011589219477078005 0 -0.037826757787183543 -0.012211749095587201 0 -0.036594273381803627 -0.011550669203856714 0 -0.037826757787183543 -0.012211749095587201 0 -0.038881982517221352 -0.01139446650613697 0 -0.037826757787183543 -0.012211749095587201 0 -0.038881982517221352 -0.01139446650613697 0 -0.039455119258992262 -0.012957821672949272 0 -0.037145871064932626 -0.012093729297173485 0 -0.036594273381803627 -0.011550669203856714 0 -0.038294661663988663 -0.013278450847044349 0 -0.03682423303917625 -0.011717231781034903 0 -0.038599418633657318 -0.012275281018638427 0 -0.038346548503416622 -0.012413925369534614 0 -0.037772842290857506 -0.012391059576316301 0 -0.038294661663988663 -0.013278450847044349 0 -0.037145871064932626 -0.012093729297173485 0 -0.037462900341741177 -0.012322080621363141 0 -0.038294661663988663 -0.013278450847044349 0 -0.037462900341741177 -0.012322080621363141 0 -0.037772842290857506 -0.012391059576316301 0 -0.038294661663988663 -0.013278450847044349 0 -0.037725795156956489 -0.012158345460941748 0 -0.038346548503416622 -0.012413925369534614 0 -0.037772842290857506 -0.012391059576316301 0 -0.037725795156956489 -0.012158345460941748 0 -0.037399732119093934 -0.012192496915990151 0 -0.037772842290857506 -0.012391059576316301 0 -0.037399732119093934 -0.012192496915990151 0 -0.037462900341741177 -0.012322080621363141 0 -0.037772842290857506 -0.012391059576316301 0 -0.038346548503416622 -0.012413925369534614 0 -0.039305072425967431 -0.012851891328397338 0 -0.038294661663988663 -0.013278450847044349 0 -0.039305072425967431 -0.012851891328397338 0 -0.038294661663988663 -0.013278450847044349 0 -0.04056242896181108 -0.013484290889253153 0 -0.038599418633657318 -0.012275281018638427 0 -0.040564220792719929 -0.012631898665523163 0 -0.03887321182760816 -0.012225675128807623 0 -0.038346548503416622 -0.012413925369534614 0 -0.039305072425967431 -0.012851891328397338 0 -0.039969084883020194 -0.012007975777029698 0 -0.038881982517221352 -0.01139446650613697 0 -0.039455119258992262 -0.012957821672949272 0 -0.039969084883020194 -0.012007975777029698 0 -0.038881982517221352 -0.01139446650613697 0 -0.040629498427003627 -0.011833399874577457 0 -0.039969084883020194 -0.012007975777029698 0 -0.040851534566473578 -0.012143465603244695 0 -0.039455119258992262 -0.012957821672949272 0 -0.039969084883020194 -0.012007975777029698 0 -0.040851534566473578 -0.012143465603244695 0 -0.04071638326970408 -0.012124826348796565 0 -0.040851534566473578 -0.012143465603244695 0 -0.04071638326970408 -0.012124826348796565 0 -0.041015592341929787 -0.012374191612107326 0 -0.04071638326970408 -0.012124826348796565 0 -0.041015592341929787 -0.012374191612107326 0 -0.040629498427003627 -0.011833399874577457 0 -0.039969084883020194 -0.012007975777029698 0 -0.04071638326970408 -0.012124826348796565 0 -0.040629498427003627 -0.011833399874577457 0 -0.040851534566473578 -0.012143465603244695 0 -0.041015592341929787 -0.012374191612107326 0 -0.040376922183080192 -0.01162813109544816 0 -0.041015592341929787 -0.012374191612107326 0 -0.042394842953870207 -0.01255898183653141 0 -0.042248473472414581 -0.013320531620610775 0 -0.040964064765744192 -0.012403612387337863 0 -0.040860492433713785 -0.012405635281267299 0 -0.041015592341929787 -0.012374191612107326 0 -0.040376922183080192 -0.01162813109544816 0 -0.039518551378007881 -0.011718212307341682 0 -0.041015592341929787 -0.012374191612107326 0 -0.040629498427003627 -0.011833399874577457 0 -0.042394842953870207 -0.01255898183653141 0 -0.041400501480674763 -0.01267253008514242 0 -0.04056242896181108 -0.013484290889253153 0 -0.042394842953870207 -0.01255898183653141 0 -0.040564220792719929 -0.012631898665523163 0 -0.042206176013767797 -0.012568668008041965 0 -0.041400501480674763 -0.01267253008514242 0 -0.041984612220950235 -0.012361790178778162 0 -0.042394842953870207 -0.01255898183653141 0 -0.039305072425967431 -0.012851891328397338 0 -0.04056242896181108 -0.013484290889253153 0 -0.040010399504705661 -0.012808761492325238 0 -0.04056242896181108 -0.013484290889253153 0 -0.040010399504705661 -0.012808761492325238 0 -0.040511642493571635 -0.012540320203429895 0 -0.041400501480674763 -0.01267253008514242 0 -0.04056242896181108 -0.013484290889253153 0 -0.040511642493571635 -0.012540320203429895 0 -0.039305072425967431 -0.012851891328397338 0 -0.040010399504705661 -0.012808761492325238 0 -0.039703180149142363 -0.012242780302025682 0 -0.039703180149142363 -0.012242780302025682 0 -0.040511642493571635 -0.012540320203429895 0 -0.04070242473457189 -0.011709100692640615 0 -0.040010399504705661 -0.012808761492325238 0 -0.039703180149142363 -0.012242780302025682 0 -0.040511642493571635 -0.012540320203429895 0 -0.040511642493571635 -0.012540320203429895 0 -0.041552004879655602 -0.01208872744449933 0 -0.04070242473457189 -0.011709100692640615 0 -0.039742091877885154 -0.011736984319594228 0 -0.039703180149142363 -0.012242780302025682 0 -0.04070242473457189 -0.011709100692640615 0 -0.041400501480674763 -0.01267253008514242 0 -0.040511642493571635 -0.012540320203429895 0 -0.041552004879655602 -0.01208872744449933 0 -0.041984612220950235 -0.012361790178778162 0 -0.041552004879655602 -0.01208872744449933 0 -0.042513569125069282 -0.01206734373386914 0 -0.041400501480674763 -0.01267253008514242 0 -0.041984612220950235 -0.012361790178778162 0 -0.041552004879655602 -0.01208872744449933 0 -0.041552004879655602 -0.01208872744449933 0 -0.041556735088609978 -0.011282866453187991 0 -0.04070242473457189 -0.011709100692640615 0 -0.041552004879655602 -0.01208872744449933 0 -0.041556735088609978 -0.011282866453187991 0 -0.042540140894357328 -0.011486046637408499 0 -0.041556735088609978 -0.011282866453187991 0 -0.04070242473457189 -0.011709100692640615 0 -0.040016392343266281 -0.011071332829341377 0 -0.039742091877885154 -0.011736984319594228 0 -0.04070242473457189 -0.011709100692640615 0 -0.040016392343266281 -0.011071332829341377 0 -0.043273225347188297 -0.011548725193466463 0 -0.044030742714014852 -0.011314836354560421 0 -0.043619639505446325 -0.01104400360226499 0 -0.043273225347188297 -0.011548725193466463 0 -0.043352633292573654 -0.011943942762978048 0 -0.044030742714014852 -0.011314836354560421 0 -0.043273225347188297 -0.011548725193466463 0 -0.042540140894357328 -0.011486046637408499 0 -0.042513569125069282 -0.01206734373386914 0 -0.043273225347188297 -0.011548725193466463 0 -0.042540140894357328 -0.011486046637408499 0 -0.043619639505446325 -0.01104400360226499 0 -0.042513569125069282 -0.01206734373386914 0 -0.043352633292573654 -0.011943942762978048 0 -0.042394842953870207 -0.01255898183653141 0 -0.041552004879655602 -0.01208872744449933 0 -0.042540140894357328 -0.011486046637408499 0 -0.042513569125069282 -0.01206734373386914 0 -0.043273225347188297 -0.011548725193466463 0 -0.042513569125069282 -0.01206734373386914 0 -0.043352633292573654 -0.011943942762978048 0 -0.043352633292573654 -0.011943942762978048 0 -0.042394842953870207 -0.01255898183653141 0 -0.043667351791159707 -0.01238573552220946 0 -0.042394842953870207 -0.01255898183653141 0 -0.043267003489991678 -0.01297926510203689 0 -0.043667351791159707 -0.01238573552220946 0 -0.041984612220950235 -0.012361790178778162 0 -0.042513569125069282 -0.01206734373386914 0 -0.042394842953870207 -0.01255898183653141 0 -0.042394842953870207 -0.01255898183653141 0 -0.042248473472414581 -0.013320531620610775 0 -0.042832881930056008 -0.013305922478995076 0 -0.042394842953870207 -0.01255898183653141 0 -0.043267003489991678 -0.01297926510203689 0 -0.042832881930056008 -0.013305922478995076 0 -0.043267003489991678 -0.01297926510203689 0 -0.043667351791159707 -0.01238573552220946 0 -0.0439072097868307 -0.013228120161225147 0 -0.04433497783597249 -0.012400218425234101 0 -0.043667351791159707 -0.01238573552220946 0 -0.0439072097868307 -0.013228120161225147 0 -0.045433389750462266 -0.0075761100215532796 0 -0.045112794527282077 -0.0084371416619723073 0 -0.046360539851102285 -0.0028347551332917427 0 -0.046583453042973705 -0.0027672852506597624 0 -0.045939468765886976 -0.0030629613379611099 0 -0.04433497783597249 -0.012400218425234101 0 -0.043667351791159707 -0.01238573552220946 0 -0.044021167103167898 -0.011917181050092913 0 -0.04499997531904755 -6.0333307365753107e-06 0 -0.046607401716266136 -0.00056842000321541994 0 -0.045000001132771195 -0.0024679605528897036 0 -0.046360539851102285 -0.0028347551332917427 0 -0.046583453042973705 -0.0027672852506597624 0 -0.046316188805014827 -0.0025378539219235293 0 -0.046583453042973705 -0.0027672852506597624 0 -0.046316188805014827 -0.0025378539219235293 0 -0.046139894386683436 -0.0029787502486777534 0 -0.046331460178275656 -0.0016386044600813444 0 -0.045000338749483788 -0.0024679008247376227 0 -0.046316188805014827 -0.0025378539219235293 0 -0.046139894386683436 -0.0029787502486777534 0 -0.045000576742593043 -0.0024700466900690874 0 -0.046139894386683436 -0.0029787502486777534 0 -0.045000576742593043 -0.0024700466900690874 0 -0.044999691896819884 -0.0045724542074702564 0 -0.046139894386683436 -0.0029787502486777534 0 -0.046929312615703274 -0.0039836130671276077 0 -0.044999691896819884 -0.0045724542074702564 0 -0.046583453042973705 -0.0027672852506597624 0 -0.046139894386683436 -0.0029787502486777534 0 -0.046929312615703274 -0.0039836130671276077 0 -0.046929312615703274 -0.0039836130671276077 0 -0.044999691896819884 -0.0045724542074702564 0 -0.046552324058719813 -0.0062420602558248368 0 -0.0457369001071391 -0.0078585788289530448 0 -0.045590463399111998 -0.0087398019889356679 0 -0.043352633292573654 -0.011943942762978048 0 -0.043667351791159707 -0.01238573552220946 0 -0.044021167103167898 -0.011917181050092913 0 -0.043352633292573654 -0.011943942762978048 0 -0.044021167103167898 -0.011917181050092913 0 -0.044030742714014852 -0.011314836354560421 0 -0.045433389750462266 -0.0075761100215532796 0 -0.0457369001071391 -0.0078585788289530448 0 -0.04433497783597249 -0.012400218425234101 0 -0.044612182614070232 -0.011632842065373107 0 -0.044021167103167898 -0.011917181050092913 0 -0.044612182614070232 -0.011632842065373107 0 -0.044030742714014852 -0.011314836354560421 0 -0.044477638411131414 -0.011113624322175443 0 -0.044612182614070232 -0.011632842065373107 0 -0.044021167103167898 -0.011917181050092913 0 -0.044030742714014852 -0.011314836354560421 0 -0.044030742714014852 -0.011314836354560421 0 -0.044477638411131414 -0.011113624322175443 0 -0.044310629716878762 -0.010879249443567494 0 -0.044477638411131414 -0.011113624322175443 0 -0.044586736176020575 -0.011281565444536776 0 -0.044529693391195745 -0.011121997028179001 0 -0.044477638411131414 -0.011113624322175443 0 -0.044310629716878762 -0.010879249443567494 0 -0.044529693391195745 -0.011121997028179001 0 -0.044310629716878762 -0.010879249443567494 0 -0.044573982006886899 -0.010954315201945862 0 -0.044529693391195745 -0.011121997028179001 0 -0.044999691896819884 -0.0045724542074702564 0 -0.044999912602459037 -0.0066782148294509749 0 -0.046552324058719813 -0.0062420602558248368 0 -0.044612182614070232 -0.011632842065373107 0 -0.044477638411131414 -0.011113624322175443 0 -0.044649536949314624 -0.011194216006838285 0 -0.044649536949314624 -0.011194216006838285 0 -0.044640354225563082 -0.011339294010856272 0 -0.044586736176020575 -0.011281565444536776 0 -0.044477638411131414 -0.011113624322175443 0 -0.044649536949314624 -0.011194216006838285 0 -0.044586736176020575 -0.011281565444536776 0 -0.045590463399111998 -0.0087398019889356679 0 -0.045254180198182635 -0.0099533782313494436 0 -0.044999912602459037 -0.0066782148294509749 0 -0.046552324058719813 -0.0062420602558248368 0 -0.045863053357578482 -0.008590993506428812 0 -0.044999912602459037 -0.0066782148294509749 0 -0.045863053357578482 -0.008590993506428812 0 -0.044999970137930244 -0.008783266006689161 0 -0.045863053357578482 -0.008590993506428812 0 -0.044999970137930244 -0.008783266006689161 0 -0.045000014466377039 -0.01088846834972731 0 -0.045254180198182635 -0.0099533782313494436 0 -0.045000033213636763 -0.010888263096668613 0 -0.044586736176020575 -0.011281565444536776 0 -0.044619604988201778 -0.011534178204662472 0 -0.044594718177264875 -0.011609155442468114 0 -0.044640354225563082 -0.011339294010856272 0 -0.044586736176020575 -0.011281565444536776 0 -0.044619604988201778 -0.011534178204662472 0 -0.044549470493305821 -0.012300540403799288 0 -0.044619604988201778 -0.011534178204662472 0 -0.044856203876362383 -0.011451091708868159 0 -0.044640354225563082 -0.011339294010856272 0 -0.044619604988201778 -0.011534178204662472 0 -0.044856203876362383 -0.011451091708868159 0 -0.044640354225563082 -0.011339294010856272 0 -0.044856203876362383 -0.011451091708868159 0 -0.044998995775653 -0.010892305923366799 0 -0.044573982006886899 -0.010954315201945862 0 -0.044529693391195745 -0.011121997028179001 0 -0.044668887914425789 -0.011484698775036861 0 -0.044586736176020575 -0.011281565444536776 0 -0.044529693391195745 -0.011121997028179001 0 -0.044594718177264875 -0.011609155442468114 0 -0.044529693391195745 -0.011121997028179001 0 -0.044594718177264875 -0.011609155442468114 0 -0.044668887914425789 -0.011484698775036861 0 -0.044549470493305821 -0.012300540403799288 0 -0.044619604988201778 -0.011534178204662472 0 -0.044594718177264875 -0.011609155442468114 0 -0.044736061723588322 -0.012234000337957939 0 -0.044594718177264875 -0.011609155442468114 0 -0.044668887914425789 -0.011484698775036861 0 -0.044573982006886899 -0.010954315201945862 0 -0.044668887914425789 -0.011484698775036861 0 -0.045038584408524047 -0.011817019402752926 0 -0.044736061723588322 -0.012234000337957939 0 -0.044668887914425789 -0.011484698775036861 0 -0.045038584408524047 -0.011817019402752926 0 -0.045709725113062261 -0.012733638167885029 0 -0.045038584408524047 -0.011817019402752926 0 -0.046031583196655353 -0.011992675732052963 0 -0.045038584408524047 -0.011817019402752926 0 -0.044968658556123711 -0.011038888158991931 0 -0.046031583196655353 -0.011992675732052963 0 -0.044573982006886899 -0.010954315201945862 0 -0.044968658556123711 -0.011038888158991931 0 -0.044141551809147847 -0.010390792944627155 0 -0.044573982006886899 -0.010954315201945862 0 -0.045038584408524047 -0.011817019402752926 0 -0.044968658556123711 -0.011038888158991931 0 -0.042606722087616143 -0.0077294370816574347 0 -0.042469720789414349 -0.0098179417040701773 0 -0.044141551809147847 -0.010390792944627155 0 -0.045995997900701469 -0.011248308102333194 0 -0.042684454149405894 -0.013080098722771672 0 -0.044968658556123711 -0.011038888158991931 0 -0.045666328713344993 -0.011298139872363095 0 -0.044141551809147847 -0.010390792944627155 0 -0.042684454149405894 -0.013080098722771672 0 -0.044434301112755474 -0.0090472724082511554 0 -0.042684454149405894 -0.013080098722771672 0 -0.046831666773282321 -0.011021086872353078 0 -0.044968658556123711 -0.011038888158991931 0 -0.046627447787658732 -0.011423346835997219 0 -0.046031583196655353 -0.011992675732052963 0 -0.047038935630642646 -0.011189582396229102 0 -0.047140622702055886 -0.011389795442432677 0 -0.046749931592892702 -0.011897467868839835 0 -0.042684454149405894 -0.013080098722771672 0 -0.040536998503435055 -0.015251526329235036 0 -0.04629036605061676 -0.01266241914559298 0 -0.046031583196655353 -0.011992675732052963 0 -0.046749931592892702 -0.011897467868839835 0 -0.047038935630642646 -0.011189582396229102 0 -0.046031583196655353 -0.011992675732052963 0 -0.046749931592892702 -0.011897467868839835 0 -0.035962864335381303 -0.018396491526237811 0 -0.036064107240076901 -0.018587437389132141 0 -0.037473803156645814 -0.018372668989964383 0 -0.038575026154651214 -0.020456004144004548 0 -0.037067200267776532 -0.02052326756585492 0 -0.036376574560876729 -0.019202570862282095 0 -0.047898401571819217 -0.012611190433469447 0 -0.047140622702055886 -0.011389795442432677 0 -0.046749931592892702 -0.011897467868839835 0 -0.04200347118137393 -0.017611659631208042 0 -0.040536998503435055 -0.015251526329235036 0 -0.037660879809077195 -0.020667675811889136 0 -0.040536998503435055 -0.015251526329235036 0 -0.038275981677296234 -0.019987610812626764 0 -0.036064107240076901 -0.018587437389132141 0 -0.037473803156645814 -0.018372668989964383 0 -0.038275981677296234 -0.019987610812626764 0 -0.037473803156645814 -0.018372668989964383 0 -0.03879742057790446 -0.018743222276314839 0 -0.037473803156645814 -0.018372668989964383 0 -0.03879742057790446 -0.018743222276314839 0 -0.038691935946604625 -0.017573651366886593 0 -0.039007710065490107 -0.015800946142384822 0 -0.038691935946604625 -0.017573651366886593 0 -0.037441012281426857 -0.017130157196259124 0 -0.037473803156645814 -0.018372668989964383 0 -0.038691935946604625 -0.017573651366886593 0 -0.037441012281426857 -0.017130157196259124 0 -0.042684454149405894 -0.013080098722771672 0 -0.038784776072893365 -0.013284048530705835 0 -0.035962864335381303 -0.018396491526237811 0 -0.037473803156645814 -0.018372668989964383 0 -0.037441012281426857 -0.017130157196259124 0 -0.042606722087616143 -0.0077294370816574347 0 -0.041154721084270159 -0.009048679871735717 0 -0.042469720789414349 -0.0098179417040701773 0 -0.041154721084270159 -0.009048679871735717 0 -0.042469720789414349 -0.0098179417040701773 0 -0.041427597314491728 -0.010423053281118685 0 -0.042469720789414349 -0.0098179417040701773 0 -0.041427597314491728 -0.010423053281118685 0 -0.042647937255554526 -0.010813772643529515 0 -0.039600157802776946 -0.012892288100850151 0 -0.038784776072893365 -0.013284048530705835 0 -0.039928315257778506 -0.009948787880089266 0 -0.041154721084270159 -0.009048679871735717 0 -0.041427597314491728 -0.010423053281118685 0 -0.039928315257778506 -0.009948787880089266 0 -0.040016392343266281 -0.011071332829341377 0 -0.041427597314491728 -0.010423053281118685 0 -0.041556735088609978 -0.011282866453187991 0 -0.040016392343266281 -0.011071332829341377 0 -0.041427597314491728 -0.010423053281118685 0 -0.041556735088609978 -0.011282866453187991 0 -0.041427597314491728 -0.010423053281118685 0 -0.042647937255554526 -0.010813772643529515 0 -0.041556735088609978 -0.011282866453187991 0 -0.042540140894357328 -0.011486046637408499 0 -0.042647937255554526 -0.010813772643529515 0 -0.042540140894357328 -0.011486046637408499 0 -0.042647937255554526 -0.010813772643529515 0 -0.043619639505446325 -0.01104400360226499 0 -0.042647937255554526 -0.010813772643529515 0 -0.043619639505446325 -0.01104400360226499 0 -0.044141551809147847 -0.010390792944627155 0 -0.044030742714014852 -0.011314836354560421 0 -0.044310629716878762 -0.010879249443567494 0 -0.043619639505446325 -0.01104400360226499 0 -0.044310629716878762 -0.010879249443567494 0 -0.043619639505446325 -0.01104400360226499 0 -0.044141551809147847 -0.010390792944627155 0 -0.044310629716878762 -0.010879249443567494 0 -0.044573982006886899 -0.010954315201945862 0 -0.044141551809147847 -0.010390792944627155 0 -0.042469720789414349 -0.0098179417040701773 0 -0.042647937255554526 -0.010813772643529515 0 -0.044141551809147847 -0.010390792944627155 0 -0.034532663950734829 -0.0030489153449699338 0 -0.035168242499787193 5.3571635272392118e-05 0 -0.036479819764172201 -0.0024056511060577142 0 -0.037867976522573135 -0.0022431068961221612 0 -0.036132222621814217 -0.00090426726144226751 0 -0.0339804439958915 0.00060293325552503271 0 -0.03401574027057476 0.00065593791296463498 0 -0.034098053185014195 0.00067717047020188193 0 -0.0339804439958915 0.00060293325552503271 0 -0.03397441709618048 0.00059720960365588138 0 -0.03401574027057476 0.00065593791296463498 0 -0.036479819764172201 -0.0024056511060577142 0 -0.037867976522573135 -0.0022431068961221612 0 -0.037213250685175968 -0.0036225374036769086 0 -0.034532663950734829 -0.0030489153449699338 0 -0.033473826143479636 -0.0090965952155235338 0 -0.033931631834401108 0.00054975129113721212 0 -0.03404410136941876 0.000583253690540905 0 -0.03397441709618048 0.00059720960365588138 0 -0.033423753970650852 0.0010166518478464223 0 -0.033931631834401108 0.00054975129113721212 0 -0.03242567911357578 8.4110501093771558e-05 0 -0.033473826143479636 -0.0090965952155235338 0 -0.032529167893140185 -0.0043812295622009251 0 -0.034039448547362586 -0.0020276975229420176 0 -0.032529167893140185 -0.0043812295622009251 0 -0.034140840332068698 0.00050789126187577899 0 -0.033423753970650852 0.0010166518478464223 0 -0.033931631834401108 0.00054975129113721212 0 -0.034140840332068698 0.00050789126187577899 0 -0.033931631834401108 0.00054975129113721212 0 -0.03397441709618048 0.00059720960365588138 0 -0.034532663950734829 -0.0030489153449699338 0 -0.034801268972538477 -0.0020625052778411759 0 -0.03271348754120651 -0.013120065955094835 0 -0.031860970321639245 -0.013911865445522729 0 -0.030103501544593254 -0.012827609519394651 0 -0.03404410136941876 0.000583253690540905 0 -0.034022242117416009 0.00066865824129184158 0 -0.034054026760007489 0.00078105444358037869 0 -0.03404410136941876 0.000583253690540905 0 -0.034022242117416009 0.00066865824129184158 0 -0.03397441709618048 0.00059720960365588138 0 -0.034022242117416009 0.00066865824129184158 0 -0.03397441709618048 0.00059720960365588138 0 -0.03401574027057476 0.00065593791296463498 0 -0.034022242117416009 0.00066865824129184158 0 -0.034032388775384614 0.00070326453547482051 0 -0.03401574027057476 0.00065593791296463498 0 -0.034032388775384614 0.00070326453547482051 0 -0.034054026760007489 0.00078105444358037869 0 -0.034054935648289993 0.00076428144133942335 0 -0.034022242117416009 0.00066865824129184158 0 -0.034032388775384614 0.00070326453547482051 0 -0.034054026760007489 0.00078105444358037869 0 -0.034054026760007489 0.00078105444358037869 0 -0.034054935648289993 0.00076428144133942335 0 -0.034071933003310587 0.00084147164710523517 0 -0.034054935648289993 0.00076428144133942335 0 -0.034071933003310587 0.00084147164710523517 0 -0.034076365739075368 0.00077914998440298169 0 -0.034032388775384614 0.00070326453547482051 0 -0.034049141857464452 0.00072344525935908355 0 -0.034048112476285738 0.00068653974482627814 0 -0.034032388775384614 0.00070326453547482051 0 -0.034054935648289993 0.00076428144133942335 0 -0.034049141857464452 0.00072344525935908355 0 -0.034054935648289993 0.00076428144133942335 0 -0.034049141857464452 0.00072344525935908355 0 -0.034064646129400945 0.00073409128738775051 0 -0.034049141857464452 0.00072344525935908355 0 -0.034048112476285738 0.00068653974482627814 0 -0.034064646129400945 0.00073409128738775051 0 -0.034048112476285738 0.00068653974482627814 0 -0.03401574027057476 0.00065593791296463498 0 -0.034098053185014195 0.00067717047020188193 0 -0.034032388775384614 0.00070326453547482051 0 -0.034048112476285738 0.00068653974482627814 0 -0.03401574027057476 0.00065593791296463498 0 -0.034048112476285738 0.00068653974482627814 0 -0.034098053185014195 0.00067717047020188193 0 -0.034122442381384795 0.00057352714927837449 0 -0.034098053185014195 0.00067717047020188193 0 -0.034253407511473197 0.00026799559959887791 0 -0.034122442381384795 0.00057352714927837449 0 -0.035168242499787193 5.3571635272392118e-05 0 -0.034341272032558171 0.00023539208681537383 0 -0.036132222621814217 -0.00090426726144226751 0 -0.034436045549273687 -0.0012085826626681102 0 -0.034253407511473197 0.00026799559959887791 0 -0.034436045549273687 -0.0012085826626681102 0 -0.034253407511473197 0.00026799559959887791 0 -0.033066044993560716 -0.00070474973053608991 0 -0.034436045549273687 -0.0012085826626681102 0 -0.034037837526439206 -0.0027557519476863134 0 -0.033066044993560716 -0.00070474973053608991 0 -0.034436045549273687 -0.0012085826626681102 0 -0.03525271057497114 -0.002057061583565539 0 -0.034037837526439206 -0.0027557519476863134 0 -0.036132222621814217 -0.00090426726144226751 0 -0.034436045549273687 -0.0012085826626681102 0 -0.03525271057497114 -0.002057061583565539 0 -0.03525271057497114 -0.002057061583565539 0 -0.035726415828530901 -0.0030756823127666513 0 -0.034037837526439206 -0.0027557519476863134 0 -0.036479819764172201 -0.0024056511060577142 0 -0.036132222621814217 -0.00090426726144226751 0 -0.03525271057497114 -0.002057061583565539 0 -0.036479819764172201 -0.0024056511060577142 0 -0.03525271057497114 -0.002057061583565539 0 -0.035726415828530901 -0.0030756823127666513 0 -0.035726415828530901 -0.0030756823127666513 0 -0.035738318668097541 -0.0043132843523567442 0 -0.034037837526439206 -0.0027557519476863134 0 -0.035738318668097541 -0.0043132843523567442 0 -0.034037837526439206 -0.0027557519476863134 0 -0.035649362957867275 -0.005087329949732702 0 -0.035738318668097541 -0.0043132843523567442 0 -0.035649362957867275 -0.005087329949732702 0 -0.037213250685175968 -0.0036225374036769086 0 -0.035726415828530901 -0.0030756823127666513 0 -0.035738318668097541 -0.0043132843523567442 0 -0.037213250685175968 -0.0036225374036769086 0 -0.048149043209415154 -0.016731692855013379 0 -0.047994632461489196 -0.017296986404459962 0 -0.048441638523068459 -0.017624705308543143 0 -0.041174563207012023 -0.0090772948639418587 0 -0.040602758200793065 -0.015170481872072492 0 -0.047994632461489196 -0.017296986404459962 0 -0.048008104268024078 -0.017570900209890564 0 -0.048441638523068459 -0.017624705308543143 0 -0.047994632461489196 -0.017296986404459962 0 -0.048008104268024078 -0.017570900209890564 0 -0.047793246668031399 -0.017548582043605796 0 -0.050399318014778052 -0.017605674428334779 0 -0.040602758200793065 -0.015170481872072492 0 -0.048008104268024078 -0.017570900209890564 0 -0.048122664812823721 -0.017639159526837506 0 -0.048101823818520899 -0.017770274207647683 0 -0.048008104268024078 -0.017570900209890564 0 -0.047793246668031399 -0.017548582043605796 0 -0.048101823818520899 -0.017770274207647683 0 -0.048464617703014266 -0.01855342885190929 0 -0.048492757988163139 -0.019844284858908698 0 -0.0500306118262768 -0.019905832050107344 0 -0.048384824093139801 -0.018144180747827695 0 -0.045318628294348393 -0.02063683863888292 0 -0.040602758200793065 -0.015170481872072492 0 -0.034485989753583364 -0.017296341658058698 0 -0.048008104268024078 -0.017570900209890564 0 -0.048187333708340663 -0.017602801420348455 0 -0.048122664812823721 -0.017639159526837506 0 -0.040331236783058499 -0.019921463341248884 0 -0.040837961320695754 -0.020587901964120157 0 -0.039470296121945747 -0.020825034776023175 0 -0.048187333708340663 -0.017602801420348455 0 -0.048122664812823721 -0.017639159526837506 0 -0.048101823818520899 -0.017770274207647683 0 -0.040602758200793065 -0.015170481872072492 0 -0.045318628294348393 -0.02063683863888292 0 -0.033062905931900498 -0.024646749883438096 0 -0.033110680335441928 -0.024544161859480027 0 -0.033085207372658805 -0.02468372769803721 0 -0.037713962995480035 -0.017355532864907184 0 -0.037279827257912693 -0.016831415577693021 0 -0.037029109284484732 -0.017314185640868812 0 -0.040602758200793065 -0.015170481872072492 0 -0.036581738550092738 -0.020972571420397879 0 -0.036581738550092738 -0.020972571420397879 0 -0.034485989753583364 -0.017296341658058698 0 -0.036581738550092738 -0.020972571420397879 0 -0.036422637098105566 -0.021319304691886094 0 -0.034485989753583364 -0.017296341658058698 0 -0.031290370922057276 -0.023830238831361338 0 -0.036006416985594931 -0.013929047151441337 0 -0.036737973811943325 -0.013972360345408904 0 -0.037342111080371124 -0.012683426551439045 0 -0.033110680335441928 -0.024544161859480027 0 -0.033418967520547974 -0.024587065764440693 0 -0.033253028868525256 -0.024753723712898055 0 -0.033110680335441928 -0.024544161859480027 0 -0.033149087120653377 -0.024753126976484886 0 -0.033085207372658805 -0.02468372769803721 0 -0.034485989753583364 -0.017296341658058698 0 -0.03535106723885937 -0.0093171403124321286 0 -0.032042955107028578 -0.014692995210613697 0 -0.032293812084161939 -0.0141429116976925 0 -0.032719220750349165 -0.01428206509850225 0 -0.040602758200793065 -0.015170481872072492 0 -0.03535106723885937 -0.0093171403124321286 0 -0.034923480501731066 -0.0073001991491705521 0 -0.03522641783061662 -0.0075442183575298444 0 -0.03444679757203143 -0.0082888977458625904 0 -0.033473826143479636 -0.0090965952155235338 0 -0.03535106723885937 -0.0093171403124321286 0 -0.034532663950734829 -0.0030489153449699338 0 -0.03535106723885937 -0.0093171403124321286 0 -0.036479819764172201 -0.0024056511060577142 0 -0.035726415828530901 -0.0030756823127666513 0 -0.037213250685175968 -0.0036225374036769086 0 -0.033473826143479636 -0.0090965952155235338 0 -0.03022811353992351 -0.013719671692243909 0 -0.032682571991938504 -0.013758612157587209 0 -0.032719220750349165 -0.01428206509850225 0 -0.033337719954001074 -0.014331478436046954 0 -0.032682571991938504 -0.013758612157587209 0 -0.032293812084161939 -0.0141429116976925 0 -0.032719220750349165 -0.01428206509850225 0 -0.032042955107028578 -0.014692995210613697 0 -0.032719220750349165 -0.01428206509850225 0 -0.032851339071647376 -0.014758582865448521 0 -0.032719220750349165 -0.01428206509850225 0 -0.032851339071647376 -0.014758582865448521 0 -0.033337719954001074 -0.014331478436046954 0 -0.031290370922057276 -0.023830238831361338 0 -0.031466428467808005 -0.030105137709125731 0 -0.031290370922057276 -0.023830238831361338 0 -0.029797482929496348 -0.028087340911549762 0 -0.029986266132826588 -0.035215149100315264 0 -0.029516350898291934 -0.035191548426850953 0 -0.029773022056787859 -0.034922129208885162 0 -0.029741781295259 -0.021428717308690479 0 -0.029441770835833169 -0.021416152483957816 0 -0.029774153017501394 -0.021626188744470417 0 -0.030033574977329985 -0.021456750761923687 0 -0.029741781295259 -0.021428717308690479 0 -0.029774153017501394 -0.021626188744470417 0 -0.031290370922057276 -0.023830238831361338 0 -0.03022811353992351 -0.013719671692243909 0 -0.029797482929496348 -0.028087340911549762 0 -0.027723677461881667 -0.022649139002570508 0 -0.026425996894107292 -0.0088097562955470193 0 -0.027196690432165594 -0.01069226702071379 0 -0.029148046549748067 -0.010903836056854172 0 -0.029516350898291934 -0.035191548426850953 0 -0.029088296111919348 -0.035172070238885064 0 -0.029271360985860431 -0.034951332770410057 0 -0.027723677461881667 -0.022649139002570508 0 -0.03022811353992351 -0.013719671692243909 0 -0.026425996894107292 -0.0088097562955470193 0 -0.027196690432165594 -0.01069226702071379 0 -0.025325432322819787 -0.01113756714190639 0 -0.027843503462546805 -0.011918193006158814 0 -0.025325432322819787 -0.01113756714190639 0 -0.026167390312367915 -0.012988862822635828 0 -0.027196690432165594 -0.01069226702071379 0 -0.027843503462546805 -0.011918193006158814 0 -0.029148046549748067 -0.010903836056854172 0 -0.027196690432165594 -0.01069226702071379 0 -0.027843503462546805 -0.011918193006158814 0 -0.025325432322819787 -0.01113756714190639 0 -0.03271348754120651 -0.013120065955094835 0 -0.030103501544593254 -0.012827609519394651 0 -0.029329976107917793 -0.010663243142716114 0 -0.027843503462546805 -0.011918193006158814 0 -0.030103501544593254 -0.012827609519394651 0 -0.029329976107917793 -0.010663243142716114 0 -0.028861891852106129 -0.012239846419557785 0 -0.03022811353992351 -0.013719671692243909 0 -0.021031643304903581 -0.008502818945382809 0 -0.023749700079046008 -0.0086307455509598077 0 -0.022976203249234772 -0.012391305123454445 0 -0.019464573551735455 -0.018180217509462013 0 -0.023049917026000098 -0.016381475608901588 0 -0.021031643304903581 -0.008502818945382809 0 -0.022976203249234772 -0.012391305123454445 0 -0.019916040439042205 -0.0097906867383481932 0 -0.019464573551735455 -0.018180217509462013 0 -0.019044508744540604 -0.018221838863652223 0 -0.027723677461881667 -0.022649139002570508 0 -0.023049917026000098 -0.016381475608901588 0 -0.026425996894107292 -0.0088097562955470193 0 -0.023749700079046008 -0.0086307455509598077 0 -0.025325432322819787 -0.01113756714190639 0 -0.025325432322819787 -0.01113756714190639 0 -0.022976203249234772 -0.012391305123454445 0 -0.026167390312367915 -0.012988862822635828 0 -0.023749700079046008 -0.0086307455509598077 0 -0.025325432322819787 -0.01113756714190639 0 -0.022976203249234772 -0.012391305123454445 0 -0.021096801733966036 -0.0011471701420058896 0 -0.019270426864099518 -0.0011742071244327953 0 -0.018937854072191607 0.00069982527999065377 0 -0.021706104369776758 -0.0071059935715061954 0 -0.018555811908403608 -0.0063803731743209144 0 -0.021096801733966036 -0.0011471701420058896 0 -0.020696437391560667 -0.0022582900737235889 0 -0.019270426864099518 -0.0011742071244327953 0 -0.020696437391560667 -0.0022582900737235889 0 -0.020169549792371139 -0.0033310872568225632 0 -0.019351904622652724 -0.0030573894929023463 0 -0.020696437391560667 -0.0022582900737235889 0 -0.019178461578225416 -0.0021030403482585583 0 -0.018470995736797884 -0.0030274748317465328 0 -0.020690464611176979 -0.0022262912164380494 0 -0.018601038580980098 -0.0032275815270888576 0 -0.020696437391560667 -0.0022582900737235889 0 -0.019270426864099518 -0.0011742071244327953 0 -0.019178461578225416 -0.0021030403482585583 0 -0.021706104369776758 -0.0071059935715061954 0 -0.028244105900916871 -0.0041346424914272088 0 -0.021096801733966036 -0.0011471701420058896 0 -0.020696437391560667 -0.0022582900737235889 0 -0.023079680529782473 -0.0029468569358091531 0 -0.020696437391560667 -0.0022582900737235889 0 -0.020169549792371139 -0.0033310872568225632 0 -0.023079680529782473 -0.0029468569358091531 0 -0.022976203249234772 -0.012391305123454445 0 -0.026167390312367915 -0.012988862822635828 0 -0.02595731297362151 -0.015036825448456054 0 -0.024475786248477252 0.0012640830586196725 0 -0.028244105900916871 -0.0041346424914272088 0 -0.030685525759509742 0.0031173890696564437 0 -0.028110897951017989 0.0039748753205201904 0 -0.032598792198220782 0.0046214953763375052 0 -0.032166222157969437 0.00246322810449942 0 -0.030685525759509742 0.0031173890696564437 0 -0.032598792198220782 0.0046214953763375052 0 -0.030685525759509742 0.0031173890696564437 0 -0.029246334384525213 0.0023471446463008195 0 -0.030753042393965962 0.0017988841029006554 0 -0.032166222157969437 0.00246322810449942 0 -0.030685525759509742 0.0031173890696564437 0 -0.030753042393965962 0.0017988841029006554 0 -0.030685525759509742 0.0031173890696564437 0 -0.029246334384525213 0.0023471446463008195 0 -0.028110897951017989 0.0039748753205201904 0 -0.029246334384525213 0.0023471446463008195 0 -0.028110897951017989 0.0039748753205201904 0 -0.027451222519748155 0.002082965439801676 0 -0.032529167893140185 -0.0043812295622009251 0 -0.029472422835737522 -0.0092360333621646102 0 -0.027843503462546805 -0.011918193006158814 0 -0.030103501544593254 -0.012827609519394651 0 -0.028809948389793734 -0.014526069912609069 0 -0.031860970321639245 -0.013911865445522729 0 -0.030103501544593254 -0.012827609519394651 0 -0.028809948389793734 -0.014526069912609069 0 -0.031302888997867262 -0.0034569615147277471 0 -0.03098629261532743 -0.0035028821195490609 0 -0.030923793797362018 -0.0037580312942249654 0 -0.029472422835737522 -0.0092360333621646102 0 -0.028244105900916871 -0.0041346424914272088 0 -0.028809948389793734 -0.014526069912609069 0 -0.026167390312367915 -0.012988862822635828 0 -0.02595731297362151 -0.015036825448456054 0 -0.027843503462546805 -0.011918193006158814 0 -0.028809948389793734 -0.014526069912609069 0 -0.026167390312367915 -0.012988862822635828 0 -0.032166222157969437 0.00246322810449942 0 -0.032598792198220782 0.0046214953763375052 0 -0.034509340851035866 0.0027693090400386922 0 -0.028244105900916871 -0.0041346424914272088 0 -0.033042445329157254 0.00092167578784586868 0 -0.03098629261532743 -0.0035028821195490609 0 -0.030664183285712215 -0.0035536580945291865 0 -0.030923793797362018 -0.0037580312942249654 0 -0.032529167893140185 -0.0043812295622009251 0 -0.033042445329157254 0.00092167578784586868 0 -0.033492820547630107 0.00080377878292634214 0 -0.033042445329157254 0.00092167578784586868 0 -0.03404410136941876 0.000583253690540905 0 -0.034054026760007489 0.00078105444358037869 0 -0.034134650873579767 0.00092885687174259839 0 -0.034062635353186661 0.0010642052695109671 0 -0.034134650873579767 0.00092885687174259839 0 -0.034064866402617952 0.00090948537558498035 0 -0.034054026760007489 0.00078105444358037869 0 -0.034134650873579767 0.00092885687174259839 0 -0.034064866402617952 0.00090948537558498035 0 -0.034054026760007489 0.00078105444358037869 0 -0.034064866402617952 0.00090948537558498035 0 -0.034071933003310587 0.00084147164710523517 0 -0.034062635353186661 0.0010642052695109671 0 -0.034064866402617952 0.00090948537558498035 0 -0.034071933003310587 0.00084147164710523517 0 -0.034071933003310587 0.00084147164710523517 0 -0.034071689219705686 0.00083328476716909843 0 -0.034063928857142309 0.00076461689696848492 0 -0.034062635353186661 0.0010642052695109671 0 -0.034071933003310587 0.00084147164710523517 0 -0.034071689219705686 0.00083328476716909843 0 -0.034063928857142309 0.00076461689696848492 0 -0.033982835314426391 0.00064263674941512515 0 -0.033953866007604215 0.00070443072298095595 0 -0.034071689219705686 0.00083328476716909843 0 -0.034063928857142309 0.00076461689696848492 0 -0.033982835314426391 0.00064263674941512515 0 -0.034062635353186661 0.0010642052695109671 0 -0.033961454023806265 0.0013626204717489421 0 -0.033982835314426391 0.00064263674941512515 0 -0.034062635353186661 0.0010642052695109671 0 -0.034071689219705686 0.00083328476716909843 0 -0.033982835314426391 0.00064263674941512515 0 -0.033042445329157254 0.00092167578784586868 0 -0.032536069452850869 0.00077791012591316426 0 -0.033961454023806265 0.0013626204717489421 0 -0.033683316940270609 0.00027695381096997865 0 -0.031922685765248059 0.00025643365884444756 0 -0.032166222157969437 0.00246322810449942 0 -0.034509340851035866 0.0027693090400386922 0 -0.031922685765248059 0.00025643365884444756 0 -0.033961454023806265 0.0013626204717489421 0 -0.033982835314426391 0.00064263674941512515 0 -0.033683316940270609 0.00027695381096997865 0 -0.033683316940270609 0.00027695381096997865 0 -0.034017682401371034 0.00089872763981986537 0 -0.033871162159900318 0.00076136645570714485 0 -0.033683316940270609 0.00027695381096997865 0 -0.033953866007604215 0.00070443072298095595 0 -0.033871162159900318 0.00076136645570714485 0 -0.033953866007604215 0.00070443072298095595 0 -0.033930952288050556 0.00090937606454672304 0 -0.033871162159900318 0.00076136645570714485 0 -0.033953866007604215 0.00070443072298095595 0 -0.033930952288050556 0.00090937606454672304 0 -0.03396092253989718 0.0009208353768211851 0 -0.033982835314426391 0.00064263674941512515 0 -0.033683316940270609 0.00027695381096997865 0 -0.033953866007604215 0.00070443072298095595 0 -0.029111696801979631 0.00074645081397975476 0 -0.027451222519748155 0.002082965439801676 0 -0.026179764584536979 0.00042650554925021566 0 -0.029246334384525213 0.0023471446463008195 0 -0.029111696801979631 0.00074645081397975476 0 -0.027451222519748155 0.002082965439801676 0 -0.029246334384525213 0.0023471446463008195 0 -0.029111696801979631 0.00074645081397975476 0 -0.030753042393965962 0.0017988841029006554 0 -0.029111696801979631 0.00074645081397975476 0 -0.031922685765248059 0.00025643365884444756 0 -0.030753042393965962 0.0017988841029006554 0 -0.032166222157969437 0.00246322810449942 0 -0.031922685765248059 0.00025643365884444756 0 -0.030753042393965962 0.0017988841029006554 0 -0.033683316940270609 0.00027695381096997865 0 -0.034182578608951582 0.00083907781966312365 0 -0.034017682401371034 0.00089872763981986537 0 -0.03332929621839438 0.00015013026071732666 0 -0.032442626210002531 -0.00058524377307785113 0 -0.029111696801979631 0.00074645081397975476 0 -0.031922685765248059 0.00025643365884444756 0 -0.0297163145946454 -0.0020751348467660459 0 -0.033683316940270609 0.00027695381096997865 0 -0.031922685765248059 0.00025643365884444756 0 -0.0297163145946454 -0.0020751348467660459 0 -0.029111696801979631 0.00074645081397975476 0 -0.0297163145946454 -0.0020751348467660459 0 -0.026940068548521264 -0.0012255640116726157 0 -0.034182578608951582 0.00083907781966312365 0 -0.034111023691520082 0.00095429506149047295 0 -0.034116294043277873 0.0010112636479262869 0 -0.034182578608951582 0.00083907781966312365 0 -0.034116294043277873 0.0010112636479262869 0 -0.034017682401371034 0.00089872763981986537 0 -0.034116294043277873 0.0010112636479262869 0 -0.034017682401371034 0.00089872763981986537 0 -0.034069557074634868 0.0010464000701030372 0 -0.034116294043277873 0.0010112636479262869 0 -0.034108578973419332 0.0011321992320199813 0 -0.034090982421099723 0.0010240354967135145 0 -0.035530176775816776 0.001857413796026174 0 -0.024342332152274718 0.0063274601054025964 0 -0.034116294043277873 0.0010112636479262869 0 -0.034069557074634868 0.0010464000701030372 0 -0.034108578973419332 0.0011321992320199813 0 -0.034111023691520082 0.00095429506149047295 0 -0.034116294043277873 0.0010112636479262869 0 -0.034090982421099723 0.0010240354967135145 0 -0.033930952288050556 0.00090937606454672304 0 -0.033871162159900318 0.00076136645570714485 0 -0.034045690345918665 0.001110519444081271 0 -0.033930952288050556 0.00090937606454672304 0 -0.034045690345918665 0.001110519444081271 0 -0.033949705698009022 0.0011596096015272039 0 -0.033930952288050556 0.00090937606454672304 0 -0.033949705698009022 0.0011596096015272039 0 -0.033895626811020964 0.0011130297319658681 0 -0.033930952288050556 0.00090937606454672304 0 -0.033895626811020964 0.0011130297319658681 0 -0.03396092253989718 0.0009208353768211851 0 -0.034017682401371034 0.00089872763981986537 0 -0.033871162159900318 0.00076136645570714485 0 -0.034045690345918665 0.001110519444081271 0 -0.034017682401371034 0.00089872763981986537 0 -0.034069557074634868 0.0010464000701030372 0 -0.034045690345918665 0.001110519444081271 0 -0.035530176775816776 0.001857413796026174 0 -0.03314696770465516 0.0023988185081618191 0 -0.034069557074634868 0.0010464000701030372 0 -0.034108578973419332 0.0011321992320199813 0 -0.034045690345918665 0.001110519444081271 0 -0.034108578973419332 0.0011321992320199813 0 -0.034045690345918665 0.001110519444081271 0 -0.034130361732284953 0.0014498362221474709 0 -0.033949705698009022 0.0011596096015272039 0 -0.033710480288845643 0.0013453957243704322 0 -0.034130361732284953 0.0014498362221474709 0 -0.034045690345918665 0.001110519444081271 0 -0.033949705698009022 0.0011596096015272039 0 -0.034130361732284953 0.0014498362221474709 0 -0.033949705698009022 0.0011596096015272039 0 -0.033710480288845643 0.0013453957243704322 0 -0.033895626811020964 0.0011130297319658681 0 -0.033710480288845643 0.0013453957243704322 0 -0.032965407648426419 0.002366658792081366 0 -0.034130361732284953 0.0014498362221474709 0 -0.034034338164817803 0.0013163415116597757 0 -0.033710480288845643 0.0013453957243704322 0 -0.034261925045351478 0.0015253783426185973 0 -0.033710480288845643 0.0013453957243704322 0 -0.034261925045351478 0.0015253783426185973 0 -0.034600266083335524 0.0019068719878344309 0 -0.034034338164817803 0.0013163415116597757 0 -0.033710480288845643 0.0013453957243704322 0 -0.033895626811020964 0.0011130297319658681 0 -0.034261925045351478 0.0015253783426185973 0 -0.034229061623288634 0.0016141134927159112 0 -0.034366497209786642 0.0018824804178006907 0 -0.034034338164817803 0.0013163415116597757 0 -0.034261925045351478 0.0015253783426185973 0 -0.03416389568046304 0.0012555460756866119 0 -0.034261925045351478 0.0015253783426185973 0 -0.03416389568046304 0.0012555460756866119 0 -0.034229061623288634 0.0016141134927159112 0 -0.03416389568046304 0.0012555460756866119 0 -0.034103882396207506 0.00091954104899821668 0 -0.034110196020832685 0.00094668733967748231 0 -0.034034338164817803 0.0013163415116597757 0 -0.03416389568046304 0.0012555460756866119 0 -0.034040097444514077 0.0010608789979198775 0 -0.03416389568046304 0.0012555460756866119 0 -0.034040097444514077 0.0010608789979198775 0 -0.034103882396207506 0.00091954104899821668 0 -0.034034338164817803 0.0013163415116597757 0 -0.033895626811020964 0.0011130297319658681 0 -0.034040097444514077 0.0010608789979198775 0 -0.033895626811020964 0.0011130297319658681 0 -0.034040097444514077 0.0010608789979198775 0 -0.03396092253989718 0.0009208353768211851 0 -0.033953866007604215 0.00070443072298095595 0 -0.03396092253989718 0.0009208353768211851 0 -0.034047812634466761 0.00084417440318071478 0 -0.034063928857142309 0.00076461689696848492 0 -0.033953866007604215 0.00070443072298095595 0 -0.034047812634466761 0.00084417440318071478 0 -0.034047812634466761 0.00084417440318071478 0 -0.034103882396207506 0.00091954104899821668 0 -0.034080373882893124 0.0007695618359975212 0 -0.034040097444514077 0.0010608789979198775 0 -0.034047812634466761 0.00084417440318071478 0 -0.034103882396207506 0.00091954104899821668 0 -0.034040097444514077 0.0010608789979198775 0 -0.03396092253989718 0.0009208353768211851 0 -0.034047812634466761 0.00084417440318071478 0 -0.034103882396207506 0.00091954104899821668 0 -0.034116163996652724 0.000737870729354139 0 -0.034080373882893124 0.0007695618359975212 0 -0.034103882396207506 0.00091954104899821668 0 -0.034116163996652724 0.000737870729354139 0 -0.034110196020832685 0.00094668733967748231 0 -0.034116163996652724 0.000737870729354139 0 -0.034090715781876516 0.00069025967978659792 0 -0.034080373882893124 0.0007695618359975212 0 -0.034116163996652724 0.000737870729354139 0 -0.034090715781876516 0.00069025967978659792 0 -0.034122442381384795 0.00057352714927837449 0 -0.034048112476285738 0.00068653974482627814 0 -0.034090715781876516 0.00069025967978659792 0 -0.034122442381384795 0.00057352714927837449 0 -0.034048112476285738 0.00068653974482627814 0 -0.034090715781876516 0.00069025967978659792 0 -0.034064646129400945 0.00073409128738775051 0 -0.034090715781876516 0.00069025967978659792 0 -0.034064646129400945 0.00073409128738775051 0 -0.034080373882893124 0.0007695618359975212 0 -0.034064646129400945 0.00073409128738775051 0 -0.034076365739075368 0.00077914998440298169 0 -0.034080373882893124 0.0007695618359975212 0 -0.034054935648289993 0.00076428144133942335 0 -0.034064646129400945 0.00073409128738775051 0 -0.034076365739075368 0.00077914998440298169 0 -0.034071933003310587 0.00084147164710523517 0 -0.034063928857142309 0.00076461689696848492 0 -0.034076365739075368 0.00077914998440298169 0 -0.034063928857142309 0.00076461689696848492 0 -0.034076365739075368 0.00077914998440298169 0 -0.034080373882893124 0.0007695618359975212 0 -0.034063928857142309 0.00076461689696848492 0 -0.034047812634466761 0.00084417440318071478 0 -0.034080373882893124 0.0007695618359975212 0 -0.034253407511473197 0.00026799559959887791 0 -0.034126410526529635 0.00064762989362083406 0 -0.033842521092671288 0.00065903689057358981 0 -0.034253407511473197 0.00026799559959887791 0 -0.033842521092671288 0.00065903689057358981 0 -0.03328039534963273 0.00027824852676927082 0 -0.034253407511473197 0.00026799559959887791 0 -0.034122442381384795 0.00057352714927837449 0 -0.034126410526529635 0.00064762989362083406 0 -0.034116163996652724 0.000737870729354139 0 -0.034122442381384795 0.00057352714927837449 0 -0.034126410526529635 0.00064762989362083406 0 -0.034116163996652724 0.000737870729354139 0 -0.034126410526529635 0.00064762989362083406 0 -0.034110196020832685 0.00094668733967748231 0 -0.034126410526529635 0.00064762989362083406 0 -0.034110196020832685 0.00094668733967748231 0 -0.033983397069087817 0.00087902874834098414 0 -0.034126410526529635 0.00064762989362083406 0 -0.033983397069087817 0.00087902874834098414 0 -0.033842521092671288 0.00065903689057358981 0 -0.033983397069087817 0.00087902874834098414 0 -0.033842521092671288 0.00065903689057358981 0 -0.033747163495358244 0.0010068541113221969 0 -0.033712635716442438 0.0013716482330149266 0 -0.034035462360472828 0.0011689720597131026 0 -0.034049430888040397 0.0014820379368333484 0 -0.033747163495358244 0.0010068541113221969 0 -0.033712635716442438 0.0013716482330149266 0 -0.034035462360472828 0.0011689720597131026 0 -0.033983397069087817 0.00087902874834098414 0 -0.033747163495358244 0.0010068541113221969 0 -0.034035462360472828 0.0011689720597131026 0 -0.03416389568046304 0.0012555460756866119 0 -0.034035462360472828 0.0011689720597131026 0 -0.034049430888040397 0.0014820379368333484 0 -0.03416389568046304 0.0012555460756866119 0 -0.034110196020832685 0.00094668733967748231 0 -0.034035462360472828 0.0011689720597131026 0 -0.034110196020832685 0.00094668733967748231 0 -0.033983397069087817 0.00087902874834098414 0 -0.034035462360472828 0.0011689720597131026 0 -0.034049430888040397 0.0014820379368333484 0 -0.034229061623288634 0.0016141134927159112 0 -0.034174549215317103 0.0019935637669441834 0 -0.03416389568046304 0.0012555460756866119 0 -0.034049430888040397 0.0014820379368333484 0 -0.034229061623288634 0.0016141134927159112 0 -0.033712635716442438 0.0013716482330149266 0 -0.034049430888040397 0.0014820379368333484 0 -0.033743809978095174 0.0019148752311093004 0 -0.034049430888040397 0.0014820379368333484 0 -0.033743809978095174 0.0019148752311093004 0 -0.034174549215317103 0.0019935637669441834 0 -0.033712635716442438 0.0013716482330149266 0 -0.033322823025779422 0.0015657196057062843 0 -0.033743809978095174 0.0019148752311093004 0 -0.033322823025779422 0.0015657196057062843 0 -0.033156206809743342 0.0020758555164920997 0 -0.033743809978095174 0.0019148752311093004 0 -0.033712635716442438 0.0013716482330149266 0 -0.033322823025779422 0.0015657196057062843 0 -0.033371443787252139 0.0011182516691873761 0 -0.033747163495358244 0.0010068541113221969 0 -0.033712635716442438 0.0013716482330149266 0 -0.033371443787252139 0.0011182516691873761 0 -0.032995846174908756 0.0012478477975066918 0 -0.032666279268306474 0.0011665053449091683 0 -0.032942086686031269 0.00078884817490091936 0 -0.033371443787252139 0.0011182516691873761 0 -0.032995846174908756 0.0012478477975066918 0 -0.032942086686031269 0.00078884817490091936 0 -0.033322823025779422 0.0015657196057062843 0 -0.033371443787252139 0.0011182516691873761 0 -0.032995846174908756 0.0012478477975066918 0 -0.032995846174908756 0.0012478477975066918 0 -0.032849831184497878 0.0015990169669178439 0 -0.032666279268306474 0.0011665053449091683 0 -0.033322823025779422 0.0015657196057062843 0 -0.032995846174908756 0.0012478477975066918 0 -0.032849831184497878 0.0015990169669178439 0 -0.033322823025779422 0.0015657196057062843 0 -0.032849831184497878 0.0015990169669178439 0 -0.033156206809743342 0.0020758555164920997 0 -0.032849831184497878 0.0015990169669178439 0 -0.032628007007068423 0.0020496523014844406 0 -0.033156206809743342 0.0020758555164920997 0 -0.032849831184497878 0.0015990169669178439 0 -0.032292715833951588 0.0014947321479836689 0 -0.032666279268306474 0.0011665053449091683 0 -0.032849831184497878 0.0015990169669178439 0 -0.032292715833951588 0.0014947321479836689 0 -0.032628007007068423 0.0020496523014844406 0 -0.035897201722682501 -0.0010996724674025293 0 -0.034660653160541427 -0.00081719157142469336 0 -0.035239640071110495 0.00084071070005663879 0 -0.039791602231390791 -0.0063018502435335825 0 -0.03514524707335516 -0.0011816900979616342 0 -0.038710509965749436 -0.006266727284853545 0 -0.043211690493172639 -0.010731398886800485 0 -0.032657143026085883 -0.0029486532611763812 0 -0.042808200074749649 -0.010474000442668047 0 -0.038207633242132021 -0.0068055972721378618 0 -0.035897201722682501 -0.0010996724674025293 0 -0.035824114176917152 -0.0023304190755668039 0 -0.034660653160541427 -0.00081719157142469336 0 -0.043211690493172639 -0.010731398886800485 0 -0.043142688804153555 -0.010768247037502794 0 -0.043065984588111623 -0.010588101466793752 0 -0.038710509965749436 -0.006266727284853545 0 -0.04432007708884745 -0.010579300613689601 0 -0.034660653160541427 -0.00081719157142469336 0 -0.043211690493172639 -0.010731398886800485 0 -0.043142688804153555 -0.010768247037502794 0 -0.043238814236077214 -0.010892577665269385 0 -0.038710509965749436 -0.006266727284853545 0 -0.043211690493172639 -0.010731398886800485 0 -0.04432007708884745 -0.010579300613689601 0 -0.043211690493172639 -0.010731398886800485 0 -0.04432007708884745 -0.010579300613689601 0 -0.043904094004066647 -0.011038070859501923 0 -0.043211690493172639 -0.010731398886800485 0 -0.043238814236077214 -0.010892577665269385 0 -0.043364403110118334 -0.010974085841391375 0 -0.043142688804153555 -0.010768247037502794 0 -0.043238814236077214 -0.010892577665269385 0 -0.043118383575697403 -0.011335098309371823 0 -0.033688805416410735 0.00079961863085455239 0 -0.037656246694745335 -0.0035925997211257105 0 -0.035897201722682501 -0.0010996724674025293 0 -0.035824114176917152 -0.0023304190755668039 0 -0.036215740045240273 -0.0028167917568345424 0 -0.032292715833951588 0.0014947321479836689 0 -0.032666279268306474 0.0011665053449091683 0 -0.032478095108561617 0.00074633893713205017 0 -0.032666279268306474 0.0011665053449091683 0 -0.032478095108561617 0.00074633893713205017 0 -0.032942086686031269 0.00078884817490091936 0 -0.044190225537027339 -0.011553485431837872 0 -0.044121733767144775 -0.012265863281337658 0 -0.045709312391892146 -0.012549854237608061 0 -0.044190225537027339 -0.011553485431837872 0 -0.0445900763565278 -0.011274720762701522 0 -0.045709312391892146 -0.012549854237608061 0 -0.04432007708884745 -0.010579300613689601 0 -0.044190225537027339 -0.011553485431837872 0 -0.0445900763565278 -0.011274720762701522 0 -0.04432007708884745 -0.010579300613689601 0 -0.044190225537027339 -0.011553485431837872 0 -0.043904094004066647 -0.011038070859501923 0 -0.039791602231390791 -0.0063018502435335825 0 -0.037656246694745335 -0.0035925997211257105 0 -0.037656246694745335 -0.0035925997211257105 0 -0.039389692970119912 -0.0063575968389012047 0 -0.043118383575697403 -0.011335098309371823 0 -0.043464040347937494 -0.011842873063783685 0 -0.043142676975138558 -0.01242832828550337 0 -0.043238814236077214 -0.010892577665269385 0 -0.043118383575697403 -0.011335098309371823 0 -0.043367738674451643 -0.011239463912030631 0 -0.043118383575697403 -0.011335098309371823 0 -0.043367738674451643 -0.011239463912030631 0 -0.043464040347937494 -0.011842873063783685 0 -0.043367738674451643 -0.011239463912030631 0 -0.043464040347937494 -0.011842873063783685 0 -0.043710753823386114 -0.011575820252726451 0 -0.043367738674451643 -0.011239463912030631 0 -0.043628909637082373 -0.011148260127367226 0 -0.043710753823386114 -0.011575820252726451 0 -0.043367738674451643 -0.011239463912030631 0 -0.043364403110118334 -0.010974085841391375 0 -0.043628909637082373 -0.011148260127367226 0 -0.043238814236077214 -0.010892577665269385 0 -0.043367738674451643 -0.011239463912030631 0 -0.043364403110118334 -0.010974085841391375 0 -0.043211690493172639 -0.010731398886800485 0 -0.043364403110118334 -0.010974085841391375 0 -0.043628909637082373 -0.011148260127367226 0 -0.043211690493172639 -0.010731398886800485 0 -0.043628909637082373 -0.011148260127367226 0 -0.043904094004066647 -0.011038070859501923 0 -0.044190225537027339 -0.011553485431837872 0 -0.043628909637082373 -0.011148260127367226 0 -0.043710753823386114 -0.011575820252726451 0 -0.044190225537027339 -0.011553485431837872 0 -0.043628909637082373 -0.011148260127367226 0 -0.043904094004066647 -0.011038070859501923 0 -0.043464040347937494 -0.011842873063783685 0 -0.043710753823386114 -0.011575820252726451 0 -0.044121733767144775 -0.012265863281337658 0 -0.044190225537027339 -0.011553485431837872 0 -0.043710753823386114 -0.011575820252726451 0 -0.044121733767144775 -0.012265863281337658 0 -0.043464040347937494 -0.011842873063783685 0 -0.043142676975138558 -0.01242832828550337 0 -0.043647650185453676 -0.012423097941058321 0 -0.043464040347937494 -0.011842873063783685 0 -0.043647650185453676 -0.012423097941058321 0 -0.044121733767144775 -0.012265863281337658 0 -0.043142676975138558 -0.01242832828550337 0 -0.043647650185453676 -0.012423097941058321 0 -0.043887294538717363 -0.013163059129308085 0 -0.043647650185453676 -0.012423097941058321 0 -0.043887294538717363 -0.013163059129308085 0 -0.044121733767144775 -0.012265863281337658 0 -0.043142676975138558 -0.01242832828550337 0 -0.043887294538717363 -0.013163059129308085 0 -0.043149860740788241 -0.013597835453918702 0 -0.044121733767144775 -0.012265863281337658 0 -0.0447105654336847 -0.01306388295406145 0 -0.045709312391892146 -0.012549854237608061 0 -0.0447105654336847 -0.01306388295406145 0 -0.045709312391892146 -0.012549854237608061 0 -0.045015160052983651 -0.014142452254713304 0 -0.043887294538717363 -0.013163059129308085 0 -0.044121733767144775 -0.012265863281337658 0 -0.0447105654336847 -0.01306388295406145 0 -0.043887294538717363 -0.013163059129308085 0 -0.0447105654336847 -0.01306388295406145 0 -0.045015160052983651 -0.014142452254713304 0 -0.032760183031346014 0.0003225250878195227 0 -0.03328039534963273 0.00027824852676927082 0 -0.033066044993560716 -0.00070474973053608991 0 -0.039389692970119912 -0.0063575968389012047 0 -0.04014439932854548 -0.0078672539014508092 0 -0.034253407511473197 0.00026799559959887791 0 -0.03328039534963273 0.00027824852676927082 0 -0.033066044993560716 -0.00070474973053608991 0 -0.03328039534963273 0.00027824852676927082 0 -0.033415787917814369 0.0007543876361360719 0 -0.032942086686031269 0.00078884817490091936 0 -0.033842521092671288 0.00065903689057358981 0 -0.03328039534963273 0.00027824852676927082 0 -0.033415787917814369 0.0007543876361360719 0 -0.033842521092671288 0.00065903689057358981 0 -0.033747163495358244 0.0010068541113221969 0 -0.033415787917814369 0.0007543876361360719 0 -0.033747163495358244 0.0010068541113221969 0 -0.033371443787252139 0.0011182516691873761 0 -0.033415787917814369 0.0007543876361360719 0 -0.033371443787252139 0.0011182516691873761 0 -0.033415787917814369 0.0007543876361360719 0 -0.032942086686031269 0.00078884817490091936 0 -0.032760183031346014 0.0003225250878195227 0 -0.03328039534963273 0.00027824852676927082 0 -0.032942086686031269 0.00078884817490091936 0 -0.032478095108561617 0.00074633893713205017 0 -0.032760183031346014 0.0003225250878195227 0 -0.032942086686031269 0.00078884817490091936 0 -0.040253392007285803 -0.01185194880875636 0 -0.041030435931784785 -0.010289872413946227 0 -0.04182380422163267 -0.01128230324704395 0 -0.041030435931784785 -0.010289872413946227 0 -0.040313561186834296 -0.0093749914774090681 0 -0.041151221434667526 -0.0090895198994361669 0 -0.041030435931784785 -0.010289872413946227 0 -0.041151221434667526 -0.0090895198994361669 0 -0.041739270293193825 -0.0095045586859609545 0 -0.041972014271894453 -0.010230841579383167 0 -0.041739270293193825 -0.0095045586859609545 0 -0.042425118033844376 -0.0096162706615169069 0 -0.041030435931784785 -0.010289872413946227 0 -0.041972014271894453 -0.010230841579383167 0 -0.041739270293193825 -0.0095045586859609545 0 -0.041030435931784785 -0.010289872413946227 0 -0.041972014271894453 -0.010230841579383167 0 -0.04182380422163267 -0.01128230324704395 0 -0.041972014271894453 -0.010230841579383167 0 -0.04182380422163267 -0.01128230324704395 0 -0.042512219674240778 -0.010664654751386341 0 -0.04182380422163267 -0.01128230324704395 0 -0.042512219674240778 -0.010664654751386341 0 -0.042711150260359751 -0.011343626000035467 0 -0.042512219674240778 -0.010664654751386341 0 -0.042922702197895908 -0.010914186801914508 0 -0.042711150260359751 -0.011343626000035467 0 -0.041972014271894453 -0.010230841579383167 0 -0.042512219674240778 -0.010664654751386341 0 -0.042425118033844376 -0.0096162706615169069 0 -0.038207633242132021 -0.0068055972721378618 0 -0.037778848059558431 -0.0046585764212862361 0 -0.042512219674240778 -0.010664654751386341 0 -0.043065984588111623 -0.010588101466793752 0 -0.042425118033844376 -0.0096162706615169069 0 -0.032895874624031624 -0.00056810166696110082 0 -0.032657143026085883 -0.0029486532611763812 0 -0.033021182617509991 0.00066252327485330292 0 -0.032895874624031624 -0.00056810166696110082 0 -0.033523874394399272 -0.00080862244885806047 0 -0.033575338762362059 7.3424572540466962e-05 0 -0.032895874624031624 -0.00056810166696110082 0 -0.033523874394399272 -0.00080862244885806047 0 -0.032657143026085883 -0.0029486532611763812 0 -0.034660653160541427 -0.00081719157142469336 0 -0.033523874394399272 -0.00080862244885806047 0 -0.033575338762362059 7.3424572540466962e-05 0 -0.038710509965749436 -0.006266727284853545 0 -0.034660653160541427 -0.00081719157142469336 0 -0.032657143026085883 -0.0029486532611763812 0 -0.034660653160541427 -0.00081719157142469336 0 -0.033523874394399272 -0.00080862244885806047 0 -0.032657143026085883 -0.0029486532611763812 0 -0.043142688804153555 -0.010768247037502794 0 -0.043065984588111623 -0.010588101466793752 0 -0.042922702197895908 -0.010914186801914508 0 -0.042512219674240778 -0.010664654751386341 0 -0.043065984588111623 -0.010588101466793752 0 -0.042922702197895908 -0.010914186801914508 0 -0.043142688804153555 -0.010768247037502794 0 -0.043118383575697403 -0.011335098309371823 0 -0.042922702197895908 -0.010914186801914508 0 -0.043011356264841857 -0.012908257104402592 0 -0.042732445941330008 -0.0115732508800218 0 -0.043118383575697403 -0.011335098309371823 0 -0.043142676975138558 -0.01242832828550337 0 -0.042711150260359751 -0.011343626000035467 0 -0.043118383575697403 -0.011335098309371823 0 -0.042922702197895908 -0.010914186801914508 0 -0.042711150260359751 -0.011343626000035467 0 -0.043142676975138558 -0.01242832828550337 0 -0.042350250175557172 -0.012997851381273176 0 -0.042711150260359751 -0.011343626000035467 0 -0.043142676975138558 -0.01242832828550337 0 -0.042350250175557172 -0.012997851381273176 0 -0.043149860740788241 -0.013597835453918702 0 -0.041524009762096588 -0.012786992815720656 0 -0.0430880014770266 -0.013785065447361425 0 -0.04360933730202745 -0.013069673053257519 0 -0.042491065038613191 -0.01231943398353502 0 -0.042711150260359751 -0.011343626000035467 0 -0.042491065038613191 -0.01231943398353502 0 -0.041453377971644799 -0.012577745491453128 0 -0.043153143984294637 -0.013843610075107305 0 -0.04360933730202745 -0.013069673053257519 0 -0.042491065038613191 -0.01231943398353502 0 -0.043153143984294637 -0.013843610075107305 0 -0.04182380422163267 -0.01128230324704395 0 -0.042491065038613191 -0.01231943398353502 0 -0.042711150260359751 -0.011343626000035467 0 -0.04182380422163267 -0.01128230324704395 0 -0.042491065038613191 -0.01231943398353502 0 -0.041453377971644799 -0.012577745491453128 0 -0.039716269276242486 -0.013185229622853185 0 -0.041530870173416272 -0.012936770825371804 0 -0.040699331904726486 -0.0140383161103828 0 -0.039918829568410891 -0.012041864912449025 0 -0.039716269276242486 -0.013185229622853185 0 -0.041530870173416272 -0.012936770825371804 0 -0.040253392007285803 -0.01185194880875636 0 -0.04182380422163267 -0.01128230324704395 0 -0.041453377971644799 -0.012577745491453128 0 -0.040058628551176721 -0.011939951328303529 0 -0.041524009762096588 -0.012786992815720656 0 -0.03976945096227457 -0.014552113848926991 0 -0.04050069457564575 -0.015600875359841322 0 -0.040699331904726486 -0.0140383161103828 0 -0.04050069457564575 -0.015600875359841322 0 -0.040699331904726486 -0.0140383161103828 0 -0.041967436229023866 -0.014731975580826551 0 -0.041530870173416272 -0.012936770825371804 0 -0.040699331904726486 -0.0140383161103828 0 -0.041967436229023866 -0.014731975580826551 0 -0.041530870173416272 -0.012936770825371804 0 -0.041967436229023866 -0.014731975580826551 0 -0.043153143984294637 -0.013843610075107305 0 -0.041967436229023866 -0.014731975580826551 0 -0.042869879359921856 -0.015742177545536237 0 -0.041725593683090444 -0.016655956944682557 0 -0.04050069457564575 -0.015600875359841322 0 -0.041967436229023866 -0.014731975580826551 0 -0.041725593683090444 -0.016655956944682557 0 -0.042869879359921856 -0.015742177545536237 0 -0.043008415235763937 -0.014831549975235161 0 -0.044104544981739886 -0.015022993526443471 0 -0.041967436229023866 -0.014731975580826551 0 -0.042869879359921856 -0.015742177545536237 0 -0.043008415235763937 -0.014831549975235161 0 -0.041967436229023866 -0.014731975580826551 0 -0.043008415235763937 -0.014831549975235161 0 -0.043153143984294637 -0.013843610075107305 0 -0.043011356264841857 -0.012908257104402592 0 -0.043008972164832376 -0.0157094447224575 0 -0.043008415235763937 -0.014831549975235161 0 -0.043153143984294637 -0.013843610075107305 0 -0.044104544981739886 -0.015022993526443471 0 -0.042350250175557172 -0.012997851381273176 0 -0.04257441155219327 -0.014995589763773213 0 -0.043149860740788241 -0.013597835453918702 0 -0.04360933730202745 -0.013069673053257519 0 -0.043153143984294637 -0.013843610075107305 0 -0.044104544981739886 -0.015022993526443471 0 -0.042434478211780119 -0.016685004207602702 0 -0.043008972164832376 -0.0157094447224575 0 -0.043008972164832376 -0.0157094447224575 0 -0.043043921414210914 -0.018921969273008946 0 -0.041878005220482337 -0.017606492751424452 0 -0.042906024075675342 -0.017075876546075019 0 -0.043172807383111009 -0.018711561946022477 0 -0.043172807383111009 -0.018711561946022477 0 -0.041842707275159922 -0.01962023663210876 0 -0.042801106328485945 -0.020685499625402538 0 -0.043172807383111009 -0.018711561946022477 0 -0.043871208938415243 -0.020084138118797369 0 -0.042801106328485945 -0.020685499625402538 0 -0.041878005220482337 -0.017606492751424452 0 -0.043172807383111009 -0.018711561946022477 0 -0.041842707275159922 -0.01962023663210876 0 -0.041878005220482337 -0.017606492751424452 0 -0.041842707275159922 -0.01962023663210876 0 -0.040804130507175428 -0.018087385491268933 0 -0.042434478211780119 -0.016685004207602702 0 -0.041188649564191791 -0.017387432373784817 0 -0.041842707275159922 -0.01962023663210876 0 -0.040804130507175428 -0.018087385491268933 0 -0.04071371154126617 -0.019145779128903501 0 -0.04071371154126617 -0.019145779128903501 0 -0.040051650334021492 -0.017966286446498805 0 -0.039870048939263387 -0.020156551620316099 0 -0.040804130507175428 -0.018087385491268933 0 -0.04071371154126617 -0.019145779128903501 0 -0.040051650334021492 -0.017966286446498805 0 -0.041188649564191791 -0.017387432373784817 0 -0.040117148288467797 -0.017942936119451157 0 -0.04050069457564575 -0.015600875359841322 0 -0.041725593683090444 -0.016655956944682557 0 -0.040051650334021492 -0.017966286446498805 0 -0.045955078886594398 -0.015903249675403602 0 -0.04727200480050698 -0.014857227469173525 0 -0.047059462587994157 -0.017214788861990314 0 -0.045955078886594398 -0.015903249675403602 0 -0.044971301533001731 -0.017199266589211362 0 -0.04594081858248375 -0.017142860554853021 0 -0.048149043209415154 -0.016731692855013379 0 -0.04727200480050698 -0.014857227469173525 0 -0.047059462587994157 -0.017214788861990314 0 -0.041174563207012023 -0.0090772948639418587 0 -0.04014439932854548 -0.0078672539014508092 0 -0.045709312391892146 -0.012549854237608061 0 -0.04727200480050698 -0.014857227469173525 0 -0.045015160052983651 -0.014142452254713304 0 -0.045955078886594398 -0.015903249675403602 0 -0.04727200480050698 -0.014857227469173525 0 -0.045015160052983651 -0.014142452254713304 0 -0.045015160052983651 -0.014142452254713304 0 -0.043707181562700051 -0.015136599939539662 0 -0.044705626663491066 -0.015883251297120662 0 -0.044935651750963257 -0.014177536002203809 0 -0.043715597858567053 -0.01479606426717699 0 -0.043887294538717363 -0.013163059129308085 0 -0.045015160052983651 -0.014142452254713304 0 -0.043761348981192535 -0.014431212368476677 0 -0.043887294538717363 -0.013163059129308085 0 -0.043761348981192535 -0.014431212368476677 0 -0.043149860740788241 -0.013597835453918702 0 -0.04257441155219327 -0.014995589763773213 0 -0.043761348981192535 -0.014431212368476677 0 -0.043149860740788241 -0.013597835453918702 0 -0.043707181562700051 -0.015136599939539662 0 -0.044705626663491066 -0.015883251297120662 0 -0.043926798926345274 -0.016928630960982106 0 -0.043008972164832376 -0.0157094447224575 0 -0.043715597858567053 -0.01479606426717699 0 -0.04229578066072618 -0.015968968507337901 0 -0.043707181562700051 -0.015136599939539662 0 -0.043926798926345274 -0.016928630960982106 0 -0.045955078886594398 -0.015903249675403602 0 -0.045015160052983651 -0.014142452254713304 0 -0.044705626663491066 -0.015883251297120662 0 -0.044705626663491066 -0.015883251297120662 0 -0.044971301533001731 -0.017199266589211362 0 -0.043926798926345274 -0.016928630960982106 0 -0.045955078886594398 -0.015903249675403602 0 -0.044705626663491066 -0.015883251297120662 0 -0.044971301533001731 -0.017199266589211362 0 -0.044971301533001731 -0.017199266589211362 0 -0.043926798926345274 -0.016928630960982106 0 -0.044454337932135726 -0.018558868999557648 0 -0.044971301533001731 -0.017199266589211362 0 -0.044454337932135726 -0.018558868999557648 0 -0.04568103081174945 -0.01835551194477587 0 -0.044971301533001731 -0.017199266589211362 0 -0.04568103081174945 -0.01835551194477587 0 -0.04594081858248375 -0.017142860554853021 0 -0.043172807383111009 -0.018711561946022477 0 -0.043926798926345274 -0.016928630960982106 0 -0.044454337932135726 -0.018558868999557648 0 -0.04229578066072618 -0.015968968507337901 0 -0.043172807383111009 -0.018711561946022477 0 -0.043926798926345274 -0.016928630960982106 0 -0.043172807383111009 -0.018711561946022477 0 -0.044454337932135726 -0.018558868999557648 0 -0.043871208938415243 -0.020084138118797369 0 -0.044454337932135726 -0.018558868999557648 0 -0.04568103081174945 -0.01835551194477587 0 -0.045166024450200473 -0.019891813071292636 0 -0.046031979890287178 -0.019554681377241038 0 -0.04568103081174945 -0.01835551194477587 0 -0.045166024450200473 -0.019891813071292636 0 -0.044454337932135726 -0.018558868999557648 0 -0.045166024450200473 -0.019891813071292636 0 -0.043871208938415243 -0.020084138118797369 0 -0.046031979890287178 -0.019554681377241038 0 -0.046713716586751095 -0.018943659991891473 0 -0.046621384234218306 -0.02006998741791732 0 -0.046031979890287178 -0.019554681377241038 0 -0.046713716586751095 -0.018943659991891473 0 -0.04568103081174945 -0.01835551194477587 0 -0.046713716586751095 -0.018943659991891473 0 -0.04568103081174945 -0.01835551194477587 0 -0.047059462587994157 -0.017214788861990314 0 -0.04568103081174945 -0.01835551194477587 0 -0.04594081858248375 -0.017142860554853021 0 -0.047059462587994157 -0.017214788861990314 0 -0.045955078886594398 -0.015903249675403602 0 -0.04594081858248375 -0.017142860554853021 0 -0.047059462587994157 -0.017214788861990314 0 -0.048149043209415154 -0.016731692855013379 0 -0.047994632461489196 -0.017296986404459962 0 -0.047059462587994157 -0.017214788861990314 0 -0.047994632461489196 -0.017296986404459962 0 -0.047059462587994157 -0.017214788861990314 0 -0.047793246668031399 -0.017548582043605796 0 -0.047089067516638848 -0.017202106620071579 0 -0.048384824093139801 -0.018144180747827695 0 -0.047059462587994157 -0.017214788861990314 0 -0.048464617703014266 -0.01855342885190929 0 -0.047581829119570644 -0.018784288418793454 0 -0.048464617703014266 -0.01855342885190929 0 -0.047581829119570644 -0.018784288418793454 0 -0.04800445799917822 -0.019224542725107482 0 -0.046713716586751095 -0.018943659991891473 0 -0.047059462587994157 -0.017214788861990314 0 -0.047581829119570644 -0.018784288418793454 0 -0.046713716586751095 -0.018943659991891473 0 -0.047581829119570644 -0.018784288418793454 0 -0.047489294656176906 -0.019740423489833715 0 -0.046713716586751095 -0.018943659991891473 0 -0.047489294656176906 -0.019740423489833715 0 -0.046621384234218306 -0.02006998741791732 0 -0.048464617703014266 -0.01855342885190929 0 -0.04800445799917822 -0.019224542725107482 0 -0.048492757988163139 -0.019844284858908698 0 -0.047489294656176906 -0.019740423489833715 0 -0.04800445799917822 -0.019224542725107482 0 -0.048492757988163139 -0.019844284858908698 0 -0.047581829119570644 -0.018784288418793454 0 -0.047489294656176906 -0.019740423489833715 0 -0.04800445799917822 -0.019224542725107482 0 -0.047489294656176906 -0.019740423489833715 0 -0.048179165972460331 -0.020595389104281402 0 -0.047115687269376719 -0.020684392286288211 0 -0.047489294656176906 -0.019740423489833715 0 -0.048179165972460331 -0.020595389104281402 0 -0.048492757988163139 -0.019844284858908698 0 -0.047489294656176906 -0.019740423489833715 0 -0.047115687269376719 -0.020684392286288211 0 -0.046621384234218306 -0.02006998741791732 0 -0.046798162120580918 -0.02207785773318225 0 -0.047115687269376719 -0.020684392286288211 0 -0.0483482144933799 -0.021743423108521155 0 -0.048179165972460331 -0.020595389104281402 0 -0.047115687269376719 -0.020684392286288211 0 -0.0483482144933799 -0.021743423108521155 0 -0.047476023630545365 -0.022662069350050551 0 -0.046224418085981753 -0.023514292404613186 0 -0.046224418085981753 -0.023514292404613186 0 -0.044215636110359773 -0.026123943345356497 0 -0.046798162120580918 -0.02207785773318225 0 -0.049112969535022595 -0.022091093540750194 0 -0.045697314452675136 -0.024993032549775997 0 -0.043308702048917104 -0.026875150979877211 0 -0.042961650548359834 -0.027099311667642578 0 -0.043278283317540543 -0.027168839028780738 0 -0.045697314452675136 -0.024993032549775997 0 -0.043438839273907522 -0.024121974901417494 0 -0.042495975611640063 -0.027296572310844029 0 -0.046798162120580918 -0.02207785773318225 0 -0.045697314452675136 -0.024993032549775997 0 -0.043438839273907522 -0.024121974901417494 0 -0.046849400018648804 -0.02090409864884895 0 -0.044917539273822124 -0.022887469409058402 0 -0.046139472077597492 -0.021777212679122495 0 -0.046070679733568251 -0.021056267048686069 0 -0.046588188059913389 -0.020770432035396105 0 -0.046798162120580918 -0.02207785773318225 0 -0.047115687269376719 -0.020684392286288211 0 -0.043438839273907522 -0.024121974901417494 0 -0.046139472077597492 -0.021777212679122495 0 -0.046070679733568251 -0.021056267048686069 0 -0.045526686106495427 -0.021196885436641985 0 -0.046070679733568251 -0.021056267048686069 0 -0.046588188059913389 -0.020770432035396105 0 -0.046010697792487884 -0.020454566064985229 0 -0.046070679733568251 -0.021056267048686069 0 -0.046010697792487884 -0.020454566064985229 0 -0.045526686106495427 -0.021196885436641985 0 -0.047115687269376719 -0.020684392286288211 0 -0.046139472077597492 -0.021777212679122495 0 -0.046588188059913389 -0.020770432035396105 0 -0.046588188059913389 -0.020770432035396105 0 -0.046621384234218306 -0.02006998741791732 0 -0.046010697792487884 -0.020454566064985229 0 -0.047115687269376719 -0.020684392286288211 0 -0.046588188059913389 -0.020770432035396105 0 -0.046621384234218306 -0.02006998741791732 0 -0.046031979890287178 -0.019554681377241038 0 -0.046621384234218306 -0.02006998741791732 0 -0.046010697792487884 -0.020454566064985229 0 -0.046031979890287178 -0.019554681377241038 0 -0.046010697792487884 -0.020454566064985229 0 -0.045166024450200473 -0.019891813071292636 0 -0.045166024450200473 -0.019891813071292636 0 -0.045526686106495427 -0.021196885436641985 0 -0.044548931550355109 -0.021313669750994697 0 -0.045166024450200473 -0.019891813071292636 0 -0.043871208938415243 -0.020084138118797369 0 -0.044548931550355109 -0.021313669750994697 0 -0.046010697792487884 -0.020454566064985229 0 -0.045166024450200473 -0.019891813071292636 0 -0.045526686106495427 -0.021196885436641985 0 -0.043871208938415243 -0.020084138118797369 0 -0.044548931550355109 -0.021313669750994697 0 -0.043274599998466091 -0.022149187183321418 0 -0.044548931550355109 -0.021313669750994697 0 -0.044328247144252049 -0.022458207627893453 0 -0.043274599998466091 -0.022149187183321418 0 -0.046139472077597492 -0.021777212679122495 0 -0.045526686106495427 -0.021196885436641985 0 -0.045103108954389744 -0.02194579395545089 0 -0.045526686106495427 -0.021196885436641985 0 -0.044548931550355109 -0.021313669750994697 0 -0.045103108954389744 -0.02194579395545089 0 -0.044548931550355109 -0.021313669750994697 0 -0.045103108954389744 -0.02194579395545089 0 -0.044328247144252049 -0.022458207627893453 0 -0.046139472077597492 -0.021777212679122495 0 -0.045103108954389744 -0.02194579395545089 0 -0.045061037807177858 -0.022990772825309678 0 -0.044917539273822124 -0.022887469409058402 0 -0.042919281925667199 -0.02521079466963793 0 -0.045103108954389744 -0.02194579395545089 0 -0.045061037807177858 -0.022990772825309678 0 -0.044328247144252049 -0.022458207627893453 0 -0.042919281925667199 -0.02521079466963793 0 -0.043532186207521771 -0.025217634422679526 0 -0.041160010350046225 -0.027115145313189138 0 -0.041658046376798409 -0.028003892863510679 0 -0.042495975611640063 -0.027296572310844029 0 -0.045061037807177858 -0.022990772825309678 0 -0.044328247144252049 -0.022458207627893453 0 -0.044045588154116931 -0.024049503971950888 0 -0.044328247144252049 -0.022458207627893453 0 -0.044045588154116931 -0.024049503971950888 0 -0.043274599998466091 -0.022149187183321418 0 -0.043532186207521771 -0.025217634422679526 0 -0.043421252801381163 -0.021813683594992323 0 -0.040431554440109249 -0.028269241715795611 0 -0.041082944587956499 -0.028268548379724798 0 -0.040947122398750299 -0.029569726094323366 0 -0.041082944587956499 -0.028268548379724798 0 -0.041628931358042361 -0.028605672637261916 0 -0.040947122398750299 -0.029569726094323366 0 -0.041658046376798409 -0.028003892863510679 0 -0.041822974574985322 -0.028392807178282978 0 -0.042163292418164973 -0.028096421770806665 0 -0.041160010350046225 -0.027115145313189138 0 -0.040431554440109249 -0.028269241715795611 0 -0.041082944587956499 -0.028268548379724798 0 -0.041160010350046225 -0.027115145313189138 0 -0.041658046376798409 -0.028003892863510679 0 -0.041082944587956499 -0.028268548379724798 0 -0.041658046376798409 -0.028003892863510679 0 -0.041082944587956499 -0.028268548379724798 0 -0.041628931358042361 -0.028605672637261916 0 -0.041658046376798409 -0.028003892863510679 0 -0.041628931358042361 -0.028605672637261916 0 -0.041822974574985322 -0.028392807178282978 0 -0.041628931358042361 -0.028605672637261916 0 -0.041822974574985322 -0.028392807178282978 0 -0.041800723000466812 -0.028755598477938724 0 -0.042163292418164973 -0.028096421770806665 0 -0.04268131467220352 -0.027688725044073277 0 -0.041800723000466812 -0.028755598477938724 0 -0.03963145754548407 -0.030675514062807451 0 -0.04149315953480124 -0.028438516006781153 0 -0.041800723000466812 -0.028755598477938724 0 -0.041822974574985322 -0.028392807178282978 0 -0.042163292418164973 -0.028096421770806665 0 -0.041800723000466812 -0.028755598477938724 0 -0.043274963348344922 -0.027633961670507846 0 -0.04268131467220352 -0.027688725044073277 0 -0.041800723000466812 -0.028755598477938724 0 -0.042152706297541323 -0.028744987985598942 0 -0.041498648958254857 -0.028977874023843157 0 -0.041658046376798409 -0.028003892863510679 0 -0.042163292418164973 -0.028096421770806665 0 -0.042495975611640063 -0.027296572310844029 0 -0.03963145754548407 -0.030675514062807451 0 -0.039254836297330821 -0.028756194489630463 0 -0.04149315953480124 -0.028438516006781153 0 -0.03963145754548407 -0.030675514062807451 0 -0.039254836297330821 -0.028756194489630463 0 -0.038323964001283045 -0.030610226297857084 0 -0.033298531381263319 -0.032921500711765063 0 -0.034157185919103619 -0.03287484724482688 0 -0.043274963348344922 -0.027633961670507846 0 -0.042944406856951618 -0.027349531385100802 0 -0.04268131467220352 -0.027688725044073277 0 -0.043278283317540543 -0.027168839028780738 0 -0.043274963348344922 -0.027633961670507846 0 -0.042944406856951618 -0.027349531385100802 0 -0.042961650548359834 -0.027099311667642578 0 -0.043278283317540543 -0.027168839028780738 0 -0.042944406856951618 -0.027349531385100802 0 -0.043438839273907522 -0.024121974901417494 0 -0.041160010350046225 -0.027115145313189138 0 -0.042495975611640063 -0.027296572310844029 0 -0.042961650548359834 -0.027099311667642578 0 -0.042944406856951618 -0.027349531385100802 0 -0.042495975611640063 -0.027296572310844029 0 -0.044215636110359773 -0.026123943345356497 0 -0.042782745355214973 -0.027169270116961186 0 -0.042163292418164973 -0.028096421770806665 0 -0.042495975611640063 -0.027296572310844029 0 -0.04268131467220352 -0.027688725044073277 0 -0.042944406856951618 -0.027349531385100802 0 -0.042495975611640063 -0.027296572310844029 0 -0.04268131467220352 -0.027688725044073277 0 -0.04174554658919951 -0.02406489008095564 0 -0.041711635376189694 -0.024465625973848864 0 -0.041376905515993205 -0.02259190137778367 0 -0.041842707275159922 -0.01962023663210876 0 -0.04071371154126617 -0.019145779128903501 0 -0.041376905515993205 -0.02259190137778367 0 -0.04071371154126617 -0.019145779128903501 0 -0.039870048939263387 -0.020156551620316099 0 -0.041376905515993205 -0.02259190137778367 0 -0.040903521677805109 -0.022266929377790397 0 -0.041453028524523435 -0.02267737556590942 0 -0.041376905515993205 -0.02259190137778367 0 -0.043274599998466091 -0.022149187183321418 0 -0.042027907153905822 -0.023306902592377558 0 -0.041842707275159922 -0.01962023663210876 0 -0.041376905515993205 -0.02259190137778367 0 -0.042801106328485945 -0.020685499625402538 0 -0.043871208938415243 -0.020084138118797369 0 -0.042801106328485945 -0.020685499625402538 0 -0.043274599998466091 -0.022149187183321418 0 -0.041376905515993205 -0.02259190137778367 0 -0.042801106328485945 -0.020685499625402538 0 -0.043274599998466091 -0.022149187183321418 0 -0.043274599998466091 -0.022149187183321418 0 -0.042516701068332247 -0.023946573240485266 0 -0.042027907153905822 -0.023306902592377558 0 -0.044132174890481872 -0.024254495998766789 0 -0.043274599998466091 -0.022149187183321418 0 -0.042516701068332247 -0.023946573240485266 0 -0.044132174890481872 -0.024254495998766789 0 -0.042516701068332247 -0.023946573240485266 0 -0.042315349170475684 -0.024744917296350567 0 -0.042516701068332247 -0.023946573240485266 0 -0.041463511927931587 -0.024332836612696241 0 -0.042027907153905822 -0.023306902592377558 0 -0.042516701068332247 -0.023946573240485266 0 -0.042315349170475684 -0.024744917296350567 0 -0.041463511927931587 -0.024332836612696241 0 -0.041376905515993205 -0.02259190137778367 0 -0.042027907153905822 -0.023306902592377558 0 -0.041471644015430117 -0.023617680885155229 0 -0.041463511927931587 -0.024332836612696241 0 -0.042027907153905822 -0.023306902592377558 0 -0.041471644015430117 -0.023617680885155229 0 -0.041376905515993205 -0.02259190137778367 0 -0.041471644015430117 -0.023617680885155229 0 -0.041438252483155982 -0.023882737119334717 0 -0.041471644015430117 -0.023617680885155229 0 -0.041369830120402136 -0.024076343810600313 0 -0.041438252483155982 -0.023882737119334717 0 -0.041463511927931587 -0.024332836612696241 0 -0.041471644015430117 -0.023617680885155229 0 -0.041369830120402136 -0.024076343810600313 0 -0.041463511927931587 -0.024332836612696241 0 -0.041369830120402136 -0.024076343810600313 0 -0.041293663527765527 -0.024457388836415316 0 -0.041369830120402136 -0.024076343810600313 0 -0.041510856312151248 -0.024070742374687055 0 -0.041293663527765527 -0.024457388836415316 0 -0.041888115584528714 -0.024131462779437812 0 -0.041510856312151248 -0.024070742374687055 0 -0.041438252483155982 -0.023882737119334717 0 -0.041369830120402136 -0.024076343810600313 0 -0.041510856312151248 -0.024070742374687055 0 -0.041438252483155982 -0.023882737119334717 0 -0.041903899534923607 -0.023773191745081815 0 -0.041510856312151248 -0.024070742374687055 0 -0.041293663527765527 -0.024457388836415316 0 -0.041888115584528714 -0.024131462779437812 0 -0.04174554658919951 -0.02406489008095564 0 -0.041438252483155982 -0.023882737119334717 0 -0.04174554658919951 -0.02406489008095564 0 -0.041376905515993205 -0.02259190137778367 0 -0.041438252483155982 -0.023882737119334717 0 -0.034374542826354541 -0.02766897428633237 0 -0.037415641028906765 -0.026605774239410674 0 -0.036943831513235117 -0.028818496243093881 0 -0.041251236951701652 -0.027784015276526606 0 -0.038963737990721017 -0.025611124028669968 0 -0.039840854960410531 -0.031236644056467294 0 -0.039604982311423557 -0.031492518429356887 0 -0.039494437991848166 -0.0311172024090722 0 -0.041251236951701652 -0.027784015276526606 0 -0.037732902831744679 -0.02964146982236681 0 -0.039604982311423557 -0.031492518429356887 0 -0.039280008191499835 -0.03093506291023328 0 -0.039494437991848166 -0.0311172024090722 0 -0.041671497011442377 -0.024184028136505296 0 -0.041741136577157806 -0.02446301274430205 0 -0.041494910268226791 -0.024399692247300347 0 -0.041736168829560605 -0.024156356669452414 0 -0.041489186909952895 -0.024445645791145023 0 -0.041741136577157806 -0.02446301274430205 0 -0.041494910268226791 -0.024399692247300347 0 -0.041293663527765527 -0.024457388836415316 0 -0.042054351828979097 -0.024707832010359941 0 -0.041741136577157806 -0.02446301274430205 0 -0.041293663527765527 -0.024457388836415316 0 -0.041671497011442377 -0.024184028136505296 0 -0.041494910268226791 -0.024399692247300347 0 -0.041293608557546678 -0.024447204068383518 0 -0.041494910268226791 -0.024399692247300347 0 -0.041293608557546678 -0.024447204068383518 0 -0.041293663527765527 -0.024457388836415316 0 -0.041293608557546678 -0.024447204068383518 0 -0.041279614225504822 -0.02475010286996077 0 -0.041209717087912413 -0.025360385498548233 0 -0.041463511927931587 -0.024332836612696241 0 -0.041293663527765527 -0.024457388836415316 0 -0.041279614225504822 -0.02475010286996077 0 -0.041293608557546678 -0.024447204068383518 0 -0.041293663527765527 -0.024457388836415316 0 -0.041279614225504822 -0.02475010286996077 0 -0.037415641028906765 -0.026605774239410674 0 -0.038388865368551919 -0.028282338778133503 0 -0.039565108699472419 -0.027573538372571618 0 -0.037415641028906765 -0.026605774239410674 0 -0.036943831513235117 -0.028818496243093881 0 -0.038388865368551919 -0.028282338778133503 0 -0.036943831513235117 -0.028818496243093881 0 -0.038388865368551919 -0.028282338778133503 0 -0.039619810384296829 -0.030116076819613622 0 -0.037732902831744679 -0.02964146982236681 0 -0.03963438061641919 -0.030261783722138034 0 -0.041271909481381375 -0.027637085181743841 0 -0.039565108699472419 -0.027573538372571618 0 -0.039619810384296829 -0.030116076819613622 0 -0.038388865368551919 -0.028282338778133503 0 -0.039565108699472419 -0.027573538372571618 0 -0.039619810384296829 -0.030116076819613622 0 -0.041271909481381375 -0.027637085181743841 0 -0.041017567898139567 -0.030050567295144565 0 -0.039619810384296829 -0.030116076819613622 0 -0.041271909481381375 -0.027637085181743841 0 -0.039565108699472419 -0.027573538372571618 0 -0.041209717087912413 -0.025360385498548233 0 -0.038963737990721017 -0.025611124028669968 0 -0.041229252474376234 -0.025235544524889398 0 -0.037415641028906765 -0.026605774239410674 0 -0.039565108699472419 -0.027573538372571618 0 -0.041209717087912413 -0.025360385498548233 0 -0.041463511927931587 -0.024332836612696241 0 -0.041279614225504822 -0.02475010286996077 0 -0.041209717087912413 -0.025360385498548233 0 -0.042315349170475684 -0.024744917296350567 0 -0.041463511927931587 -0.024332836612696241 0 -0.041209717087912413 -0.025360385498548233 0 -0.041271909481381375 -0.027637085181743841 0 -0.041209717087912413 -0.025360385498548233 0 -0.042571541240173663 -0.026092836602201328 0 -0.044132174890481872 -0.024254495998766789 0 -0.042315349170475684 -0.024744917296350567 0 -0.042571541240173663 -0.026092836602201328 0 -0.043532186207521771 -0.025217634422679526 0 -0.043089444580408448 -0.025515707363556867 0 -0.042315349170475684 -0.024744917296350567 0 -0.041209717087912413 -0.025360385498548233 0 -0.042571541240173663 -0.026092836602201328 0 -0.042571541240173663 -0.026092836602201328 0 -0.043822094094159859 -0.026234394627780221 0 -0.044282111332728823 -0.025525657417977809 0 -0.042021724423640085 -0.027785024700045152 0 -0.040712586535148046 -0.030855311784869364 0 -0.042571541240173663 -0.026092836602201328 0 -0.043822094094159859 -0.026234394627780221 0 -0.043969940582509554 -0.029455918476071426 0 -0.041271909481381375 -0.027637085181743841 0 -0.042571541240173663 -0.026092836602201328 0 -0.043969940582509554 -0.029455918476071426 0 -0.041271909481381375 -0.027637085181743841 0 -0.041017567898139567 -0.030050567295144565 0 -0.042788962396833018 -0.029751265503182796 0 -0.038394871522824996 -0.034013091068024304 0 -0.037529231562178966 -0.035385366964906587 0 -0.037200704872282497 -0.033935792646147052 0 -0.041017567898139567 -0.030050567295144565 0 -0.041239226391263061 -0.031272806929179817 0 -0.042788962396833018 -0.029751265503182796 0 -0.039625444404169839 -0.032816337203861991 0 -0.040712586535148046 -0.030855311784869364 0 -0.038394871522824996 -0.034013091068024304 0 -0.039285471824158771 -0.032194846455468072 0 -0.037658496989329437 -0.032634287849626679 0 -0.038394871522824996 -0.034013091068024304 0 -0.037200704872282497 -0.033935792646147052 0 -0.037658496989329437 -0.032634287849626679 0 -0.039625444404169839 -0.032816337203861991 0 -0.039555644364229099 -0.032179934517560911 0 -0.041239226391263061 -0.031272806929179817 0 -0.039761611014504969 -0.031079624183151057 0 -0.039285471824158771 -0.032194846455468072 0 -0.039761611014504969 -0.031079624183151057 0 -0.039215507130755299 -0.031281523050429291 0 -0.039285471824158771 -0.032194846455468072 0 -0.039761611014504969 -0.031079624183151057 0 -0.039619810384296829 -0.030116076819613622 0 -0.039335434686850815 -0.030832237306355169 0 -0.041017567898139567 -0.030050567295144565 0 -0.041239226391263061 -0.031272806929179817 0 -0.039761611014504969 -0.031079624183151057 0 -0.041017567898139567 -0.030050567295144565 0 -0.039761611014504969 -0.031079624183151057 0 -0.039619810384296829 -0.030116076819613622 0 -0.039280008191499835 -0.03093506291023328 0 -0.039619810384296829 -0.030116076819613622 0 -0.039335434686850815 -0.030832237306355169 0 -0.039280008191499835 -0.03093506291023328 0 -0.039330462294143859 -0.030981505166645665 0 -0.039335434686850815 -0.030832237306355169 0 -0.039330462294143859 -0.030981505166645665 0 -0.039335434686850815 -0.030832237306355169 0 -0.039215507130755299 -0.031281523050429291 0 -0.039761611014504969 -0.031079624183151057 0 -0.039335434686850815 -0.030832237306355169 0 -0.039215507130755299 -0.031281523050429291 0 -0.039215507130755299 -0.031281523050429291 0 -0.039116089492426856 -0.031501044010565936 0 -0.039285471824158771 -0.032194846455468072 0 -0.039215507130755299 -0.031281523050429291 0 -0.039416808360996335 -0.031039239585091024 0 -0.039116089492426856 -0.031501044010565936 0 -0.039330462294143859 -0.030981505166645665 0 -0.039215507130755299 -0.031281523050429291 0 -0.039374216584005771 -0.031088164394621528 0 -0.039374216584005771 -0.031088164394621528 0 -0.039416808360996335 -0.031039239585091024 0 -0.039628389112569669 -0.031014512907332904 0 -0.039952802414161666 -0.030815038819782713 0 -0.039416808360996335 -0.031039239585091024 0 -0.039628389112569669 -0.031014512907332904 0 -0.039215507130755299 -0.031281523050429291 0 -0.039374216584005771 -0.031088164394621528 0 -0.039416808360996335 -0.031039239585091024 0 -0.039330462294143859 -0.030981505166645665 0 -0.039374216584005771 -0.031088164394621528 0 -0.039628389112569669 -0.031014512907332904 0 -0.039330462294143859 -0.030981505166645665 0 -0.039628389112569669 -0.031014512907332904 0 -0.039494437991848166 -0.0311172024090722 0 -0.039280008191499835 -0.03093506291023328 0 -0.039330462294143859 -0.030981505166645665 0 -0.039494437991848166 -0.0311172024090722 0 -0.039840854960410531 -0.031236644056467294 0 -0.039628389112569669 -0.031014512907332904 0 -0.039494437991848166 -0.0311172024090722 0 -0.03236561756032761 -0.034820539621629606 0 -0.031782123988184169 -0.034345358343256679 0 -0.032691041684608027 -0.033854987712834281 0 -0.031629811007734834 -0.03489397573515058 0 -0.031782123988184169 -0.034345358343256679 0 -0.031174228191535001 -0.034642859400288308 0 -0.031629811007734834 -0.03489397573515058 0 -0.03236561756032761 -0.034820539621629606 0 -0.031782123988184169 -0.034345358343256679 0 -0.031782123988184169 -0.034345358343256679 0 -0.031174228191535001 -0.034642859400288308 0 -0.031018167417651472 -0.033913922021060063 0 -0.030561958621287078 -0.034703820953384881 0 -0.031174228191535001 -0.034642859400288308 0 -0.031018167417651472 -0.033913922021060063 0 -0.031629811007734834 -0.03489397573515058 0 -0.031174228191535001 -0.034642859400288308 0 -0.030951906431659702 -0.035074443996638394 0 -0.030561958621287078 -0.034703820953384881 0 -0.031174228191535001 -0.034642859400288308 0 -0.030951906431659702 -0.035074443996638394 0 -0.033298531381263319 -0.032921500711765063 0 -0.036436262886882537 -0.032107748582616641 0 -0.030951906431659702 -0.035074443996638394 0 -0.030723252885765356 -0.035582623968744863 0 -0.032037107663494192 -0.035491274230559221 0 -0.030951906431659702 -0.035074443996638394 0 -0.030679087074516002 -0.034979310558062082 0 -0.030712652723790253 -0.03509044135142763 0 -0.030679087074516002 -0.034979310558062082 0 -0.030712652723790253 -0.03509044135142763 0 -0.030523881963329152 -0.034868656935446066 0 -0.030561958621287078 -0.034703820953384881 0 -0.030951906431659702 -0.035074443996638394 0 -0.030679087074516002 -0.034979310558062082 0 -0.031275514299582932 -0.035506604204747168 0 -0.033298531381263319 -0.032921500711765063 0 -0.031629811007734834 -0.03489397573515058 0 -0.030951906431659702 -0.035074443996638394 0 -0.032037107663494192 -0.035491274230559221 0 -0.031629811007734834 -0.03489397573515058 0 -0.03236561756032761 -0.034820539621629606 0 -0.032037107663494192 -0.035491274230559221 0 -0.03236561756032761 -0.034820539621629606 0 -0.032037107663494192 -0.035491274230559221 0 -0.033327224560551767 -0.035282930410313537 0 -0.036436262886882537 -0.032107748582616641 0 -0.04062062881131398 -0.029692558746685149 0 -0.041628931358042361 -0.028605672637261916 0 -0.041800723000466812 -0.028755598477938724 0 -0.041885775003701477 -0.028691886772594651 0 -0.04149315953480124 -0.028438516006781153 0 -0.041800723000466812 -0.028755598477938724 0 -0.041885775003701477 -0.028691886772594651 0 -0.041766578554508361 -0.028423373026324739 0 -0.04062062881131398 -0.029692558746685149 0 -0.043532186207521771 -0.025217634422679526 0 -0.04062062881131398 -0.029692558746685149 0 -0.044914132101983188 -0.0238272828214359 0 -0.042571541240173663 -0.026092836602201328 0 -0.044282111332728823 -0.025525657417977809 0 -0.044914132101983188 -0.0238272828214359 0 -0.045717497772338272 -0.025916493198252143 0 -0.044282111332728823 -0.025525657417977809 0 -0.043822094094159859 -0.026234394627780221 0 -0.045717497772338272 -0.025916493198252143 0 -0.044282111332728823 -0.025525657417977809 0 -0.045946019880143747 -0.025972722157566235 0 -0.04062062881131398 -0.029692558746685149 0 -0.037934640213549489 -0.031954270372488963 0 -0.037654420755925233 -0.03139124495220616 0 -0.038303696296509648 -0.031396889844409158 0 -0.043822094094159859 -0.026234394627780221 0 -0.046188137098985241 -0.025868785278296572 0 -0.043969940582509554 -0.029455918476071426 0 -0.04062062881131398 -0.029692558746685149 0 -0.040712586535148046 -0.030855311784869364 0 -0.03236561756032761 -0.034820539621629606 0 -0.033327224560551767 -0.035282930410313537 0 -0.032691041684608027 -0.033854987712834281 0 -0.04062062881131398 -0.029692558746685149 0 -0.034633614527046393 -0.033166554897716645 0 -0.037654420755925233 -0.03139124495220616 0 -0.037841958789659493 -0.031095713874670076 0 -0.037340047405407112 -0.030788584589881041 0 -0.035912780087247444 -0.034373272579132107 0 -0.037529231562178966 -0.035385366964906587 0 -0.037200704872282497 -0.033935792646147052 0 -0.037654420755925233 -0.03139124495220616 0 -0.037841958789659493 -0.031095713874670076 0 -0.038303696296509648 -0.031396889844409158 0 -0.036738554677328221 -0.032943665198465068 0 -0.040712586535148046 -0.030855311784869364 0 -0.035912780087247444 -0.034373272579132107 0 -0.037200704872282497 -0.033935792646147052 0 -0.03650739536181543 -0.03324771067944244 0 -0.037200704872282497 -0.033935792646147052 0 -0.03650739536181543 -0.03324771067944244 0 -0.037658496989329437 -0.032634287849626679 0 -0.035912780087247444 -0.034373272579132107 0 -0.033970543405736693 -0.03342654492738073 0 -0.035148900975752843 -0.032929048613100254 0 -0.035912780087247444 -0.034373272579132107 0 -0.03650739536181543 -0.03324771067944244 0 -0.035148900975752843 -0.032929048613100254 0 -0.036738554677328221 -0.032943665198465068 0 -0.034619119919220995 -0.031924270418290546 0 -0.033856749042315892 -0.033263178689557506 0 -0.033970543405736693 -0.03342654492738073 0 -0.035148900975752843 -0.032929048613100254 0 -0.034631059806775749 -0.032082849336088452 0 -0.034619119919220995 -0.031924270418290546 0 -0.032080655784325382 -0.032273996808884597 0 -0.031603371361391366 -0.033276522773589799 0 -0.031199458183799149 -0.032343671982687228 0 -0.031782123988184169 -0.034345358343256679 0 -0.031603371361391366 -0.033276522773589799 0 -0.031018167417651472 -0.033913922021060063 0 -0.034633614527046393 -0.033166554897716645 0 -0.034619119919220995 -0.031924270418290546 0 -0.031782123988184169 -0.034345358343256679 0 -0.032691041684608027 -0.033854987712834281 0 -0.031603371361391366 -0.033276522773589799 0 -0.032691041684608027 -0.033854987712834281 0 -0.032080655784325382 -0.032273996808884597 0 -0.031603371361391366 -0.033276522773589799 0 -0.030561958621287078 -0.034703820953384881 0 -0.031018167417651472 -0.033913922021060063 0 -0.029671403213138988 -0.033663519554364231 0 -0.031603371361391366 -0.033276522773589799 0 -0.031018167417651472 -0.033913922021060063 0 -0.030626971946164594 -0.032921074825575936 0 -0.031018167417651472 -0.033913922021060063 0 -0.030626971946164594 -0.032921074825575936 0 -0.029671403213138988 -0.033663519554364231 0 -0.031603371361391366 -0.033276522773589799 0 -0.030626971946164594 -0.032921074825575936 0 -0.031199458183799149 -0.032343671982687228 0 -0.030626971946164594 -0.032921074825575936 0 -0.031199458183799149 -0.032343671982687228 0 -0.030445601829628112 -0.032033571764253206 0 -0.030626971946164594 -0.032921074825575936 0 -0.030445601829628112 -0.032033571764253206 0 -0.029031732931988356 -0.032272636801646423 0 -0.030626971946164594 -0.032921074825575936 0 -0.029031732931988356 -0.032272636801646423 0 -0.029671403213138988 -0.033663519554364231 0 -0.029031732931988356 -0.032272636801646423 0 -0.027236807366121933 -0.032525447253888007 0 -0.02799395123716121 -0.031601171401363287 0 -0.029031732931988356 -0.032272636801646423 0 -0.027236807366121933 -0.032525447253888007 0 -0.028092786405146671 -0.033699704635545884 0 -0.027236807366121933 -0.032525447253888007 0 -0.02683368102215342 -0.031022048066438865 0 -0.02799395123716121 -0.031601171401363287 0 -0.027236807366121933 -0.032525447253888007 0 -0.028092786405146671 -0.033699704635545884 0 -0.026552824972858064 -0.033925856701852407 0 -0.028092786405146671 -0.033699704635545884 0 -0.026552824972858064 -0.033925856701852407 0 -0.027429923282228989 -0.035144783788872667 0 -0.029031732931988356 -0.032272636801646423 0 -0.028092786405146671 -0.033699704635545884 0 -0.029671403213138988 -0.033663519554364231 0 -0.028092786405146671 -0.033699704635545884 0 -0.029671403213138988 -0.033663519554364231 0 -0.028820062251319542 -0.034754313041076595 0 -0.020110710088310554 -0.036244718677713755 0 -0.019716451639488954 -0.036301072732265349 0 -0.019745675860383453 -0.036089385831166894 0 -0.020102495151066029 -0.036012908595988366 0 -0.019745675860383453 -0.036089385831166894 0 -0.019612697106044991 -0.035855816204212868 0 -0.020102495151066029 -0.036012908595988366 0 -0.020110710088310554 -0.036244718677713755 0 -0.019745675860383453 -0.036089385831166894 0 -0.022691781071187835 -0.034287829998216529 0 -0.02321553866636434 -0.034375723154706148 0 -0.027236807366121933 -0.032525447253888007 0 -0.025101456536492192 -0.032689589270678408 0 -0.02683368102215342 -0.031022048066438865 0 -0.020102495151066029 -0.036012908595988366 0 -0.020110710088310554 -0.036244718677713755 0 -0.020469802015601918 -0.035874107285903643 0 -0.027236807366121933 -0.032525447253888007 0 -0.025101456536492192 -0.032689589270678408 0 -0.026552824972858064 -0.033925856701852407 0 -0.025101456536492192 -0.032689589270678408 0 -0.026552824972858064 -0.033925856701852407 0 -0.024982554414295255 -0.034229612169908212 0 -0.025101456536492192 -0.032689589270678408 0 -0.024982554414295255 -0.034229612169908212 0 -0.022895207578549313 -0.034555234953936066 0 -0.020110710088310554 -0.036244718677713755 0 -0.019753352334158598 -0.036607788594683915 0 -0.019716451639488954 -0.036301072732265349 0 -0.022691781071187835 -0.034287829998216529 0 -0.021250993162961647 -0.035702930348269962 0 -0.024958429147808627 -0.035456713946141194 0 -0.023834610871917558 -0.03626463996445585 0 -0.022895207578549313 -0.034555234953936066 0 -0.024982554414295255 -0.034229612169908212 0 -0.024958429147808627 -0.035456713946141194 0 -0.022895207578549313 -0.034555234953936066 0 -0.024958429147808627 -0.035456713946141194 0 -0.02625605042443023 -0.035226765374595459 0 -0.026245768261541177 -0.036299866039278456 0 -0.026552824972858064 -0.033925856701852407 0 -0.024982554414295255 -0.034229612169908212 0 -0.02625605042443023 -0.035226765374595459 0 -0.024982554414295255 -0.034229612169908212 0 -0.024958429147808627 -0.035456713946141194 0 -0.02625605042443023 -0.035226765374595459 0 -0.026552824972858064 -0.033925856701852407 0 -0.02625605042443023 -0.035226765374595459 0 -0.027429923282228989 -0.035144783788872667 0 -0.02625605042443023 -0.035226765374595459 0 -0.026245768261541177 -0.036299866039278456 0 -0.027429923282228989 -0.035144783788872667 0 -0.026245768261541177 -0.036299866039278456 0 -0.024949545374915127 -0.036894743144561364 0 -0.025452742022182562 -0.038098154658434649 0 -0.026245768261541177 -0.036299866039278456 0 -0.028169154852278545 -0.036607184634820607 0 -0.025452742022182562 -0.038098154658434649 0 -0.024958429147808627 -0.035456713946141194 0 -0.026245768261541177 -0.036299866039278456 0 -0.024949545374915127 -0.036894743144561364 0 -0.023834610871917558 -0.03626463996445585 0 -0.024000822809011731 -0.037749171490487128 0 -0.022868144951908816 -0.038180780421260989 0 -0.024949545374915127 -0.036894743144561364 0 -0.023834610871917558 -0.03626463996445585 0 -0.024000822809011731 -0.037749171490487128 0 -0.024958429147808627 -0.035456713946141194 0 -0.024949545374915127 -0.036894743144561364 0 -0.023834610871917558 -0.03626463996445585 0 -0.024949545374915127 -0.036894743144561364 0 -0.025452742022182562 -0.038098154658434649 0 -0.024000822809011731 -0.037749171490487128 0 -0.030561958621287078 -0.034703820953384881 0 -0.030371833801316743 -0.034761993965822885 0 -0.030523881963329152 -0.034868656935446066 0 -0.030488091956281327 -0.034787532325288979 0 -0.02925081525574626 -0.03565058403164157 0 -0.030561958621287078 -0.034703820953384881 0 -0.028820062251319542 -0.034754313041076595 0 -0.028169154852278545 -0.036607184634820607 0 -0.030561958621287078 -0.034703820953384881 0 -0.029671403213138988 -0.033663519554364231 0 -0.028820062251319542 -0.034754313041076595 0 -0.028092786405146671 -0.033699704635545884 0 -0.028820062251319542 -0.034754313041076595 0 -0.027429923282228989 -0.035144783788872667 0 -0.028820062251319542 -0.034754313041076595 0 -0.027429923282228989 -0.035144783788872667 0 -0.028169154852278545 -0.036607184634820607 0 -0.026245768261541177 -0.036299866039278456 0 -0.027429923282228989 -0.035144783788872667 0 -0.028169154852278545 -0.036607184634820607 0 -0.030371833801316743 -0.034761993965822885 0 -0.030282798015610179 -0.034638868119599667 0 -0.03016099933363469 -0.034503439547653267 0 -0.030371833801316743 -0.034761993965822885 0 -0.030523881963329152 -0.034868656935446066 0 -0.030282798015610179 -0.034638868119599667 0 -0.02925081525574626 -0.03565058403164157 0 -0.027835872113363025 -0.036282373690326067 0 -0.033298531381263319 -0.032921500711765063 0 -0.029101738567878933 -0.03527437356740238 0 -0.030712652723790253 -0.03509044135142763 0 -0.030523881963329152 -0.034868656935446066 0 -0.030282798015610179 -0.034638868119599667 0 -0.030561958621287078 -0.034703820953384881 0 -0.030679087074516002 -0.034979310558062082 0 -0.030523881963329152 -0.034868656935446066 0 -0.030449640325887397 -0.034504710442887845 0 -0.030395738666230406 -0.034593502650227904 0 -0.030316547615080371 -0.03459971872314839 0 -0.030449640325887397 -0.034504710442887845 0 -0.030316547615080371 -0.03459971872314839 0 -0.030282798015610179 -0.034638868119599667 0 -0.03963145754548407 -0.030675514062807451 0 -0.038323964001283045 -0.030610226297857084 0 -0.037353377835017604 -0.032475055466266806 0 -0.030395738666230406 -0.034593502650227904 0 -0.030320511855417266 -0.034615285834989976 0 -0.030369040415407125 -0.034648478836421616 0 -0.043278283317540543 -0.027168839028780738 0 -0.043274963348344922 -0.027633961670507846 0 -0.043561200019073203 -0.027130153192338094 0 -0.034157185919103619 -0.03287484724482688 0 -0.037129176992031845 -0.031155936473353029 0 -0.042152706297541323 -0.028744987985598942 0 -0.037129176992031845 -0.031155936473353029 0 -0.030395738666230406 -0.034593502650227904 0 -0.030320511855417266 -0.034615285834989976 0 -0.030316547615080371 -0.03459971872314839 0 -0.030320511855417266 -0.034615285834989976 0 -0.030231955762805497 -0.034596284499967198 0 -0.030268414529055217 -0.034655516203907881 0 -0.030320511855417266 -0.034615285834989976 0 -0.030369040415407125 -0.034648478836421616 0 -0.030268414529055217 -0.034655516203907881 0 -0.030320511855417266 -0.034615285834989976 0 -0.030231955762805497 -0.034596284499967198 0 -0.030316547615080371 -0.03459971872314839 0 -0.030316547615080371 -0.03459971872314839 0 -0.030282798015610179 -0.034638868119599667 0 -0.030228250396992506 -0.034567576977715217 0 -0.030231955762805497 -0.034596284499967198 0 -0.030316547615080371 -0.03459971872314839 0 -0.030228250396992506 -0.034567576977715217 0 -0.030282798015610179 -0.034638868119599667 0 -0.03016099933363469 -0.034503439547653267 0 -0.030228250396992506 -0.034567576977715217 0 -0.03016099933363469 -0.034503439547653267 0 -0.030228250396992506 -0.034567576977715217 0 -0.030076092866582475 -0.034550733155686193 0 -0.03016099933363469 -0.034503439547653267 0 -0.030076092866582475 -0.034550733155686193 0 -0.029756831188903713 -0.034428806413263555 0 -0.025452742022182562 -0.038098154658434649 0 -0.024000822809011731 -0.037749171490487128 0 -0.023427201824350458 -0.038903505254176587 0 -0.027835872113363025 -0.036282373690326067 0 -0.026484850331725245 -0.036710185947935417 0 -0.030076092866582475 -0.034550733155686193 0 -0.029847424399831873 -0.034639778719398523 0 -0.029756831188903713 -0.034428806413263555 0 -0.030076092866582475 -0.034550733155686193 0 -0.03009439954308735 -0.034660337730767023 0 -0.029847424399831873 -0.034639778719398523 0 -0.030231955762805497 -0.034596284499967198 0 -0.03009439954308735 -0.034660337730767023 0 -0.030268414529055217 -0.034655516203907881 0 -0.030231955762805497 -0.034596284499967198 0 -0.030228250396992506 -0.034567576977715217 0 -0.030076092866582475 -0.034550733155686193 0 -0.030231955762805497 -0.034596284499967198 0 -0.030076092866582475 -0.034550733155686193 0 -0.03009439954308735 -0.034660337730767023 0 -0.029625593900800426 -0.034991647438647563 0 -0.032457617359680523 -0.031408788641117999 0 -0.03009439954308735 -0.034660337730767023 0 -0.030268414529055217 -0.034655516203907881 0 -0.030260662082469868 -0.034748301999954115 0 -0.03009439954308735 -0.034660337730767023 0 -0.029941356256870225 -0.034862193761139623 0 -0.030332538414526999 -0.034838757314657208 0 -0.030145693710794487 -0.035025776699503228 0 -0.032457617359680523 -0.031408788641117999 0 -0.029847424399831873 -0.034639778719398523 0 -0.029941356256870225 -0.034862193761139623 0 -0.02947494797804797 -0.034762471043552928 0 -0.03009439954308735 -0.034660337730767023 0 -0.029847424399831873 -0.034639778719398523 0 -0.029941356256870225 -0.034862193761139623 0 -0.030115365130936243 -0.034584475657716073 0 -0.030414112163780791 -0.034906207150887866 0 -0.029773022056787859 -0.034922129208885162 0 -0.029986266132826588 -0.035215149100315264 0 -0.030414112163780791 -0.034906207150887866 0 -0.029773022056787859 -0.034922129208885162 0 -0.030115365130936243 -0.034584475657716073 0 -0.030414112163780791 -0.034906207150887866 0 -0.030907673395017734 -0.034496112850197054 0 -0.031466428467808005 -0.030105137709125731 0 -0.032457617359680523 -0.031408788641117999 0 -0.033253028868525256 -0.024753723712898055 0 -0.033149087120653377 -0.024753126976484886 0 -0.033064510822471561 -0.024963756937507173 0 -0.033149087120653377 -0.024753126976484886 0 -0.033068852424894934 -0.024841341193017626 0 -0.033064510822471561 -0.024963756937507173 0 -0.033149087120653377 -0.024753126976484886 0 -0.033085207372658805 -0.02468372769803721 0 -0.033068852424894934 -0.024841341193017626 0 -0.033110680335441928 -0.024544161859480027 0 -0.033253028868525256 -0.024753723712898055 0 -0.033149087120653377 -0.024753126976484886 0 -0.033085207372658805 -0.02468372769803721 0 -0.033068852424894934 -0.024841341193017626 0 -0.032968681192345813 -0.024855410276329305 0 -0.033061076582066563 -0.02464444719255281 0 -0.033085207372658805 -0.02468372769803721 0 -0.032968681192345813 -0.024855410276329305 0 -0.036581738550092738 -0.020972571420397879 0 -0.037906949317859942 -0.025050652625825075 0 -0.037482898501864002 -0.028381040364569652 0 -0.036871628646414495 -0.029580126531218519 0 -0.03551399646771574 -0.028330708995366931 0 -0.033068852424894934 -0.024841341193017626 0 -0.032968681192345813 -0.024855410276329305 0 -0.033064510822471561 -0.024963756937507173 0 -0.037906949317859942 -0.025050652625825075 0 -0.032457617359680523 -0.031408788641117999 0 -0.04219161218325701 -0.0231198149384601 0 -0.041831257607054369 -0.023826722463354842 0 -0.04290396108050927 -0.02391364904866233 0 -0.039843340933374799 -0.027257009151040054 0 -0.037906949317859942 -0.025050652625825075 0 -0.037906949317859942 -0.025050652625825075 0 -0.045318628294348393 -0.02063683863888292 0 -0.040837961320695754 -0.020587901964120157 0 -0.040312736074771982 -0.021648560056374253 0 -0.039470296121945747 -0.020825034776023175 0 -0.041831257607054369 -0.023826722463354842 0 -0.043067167296268777 -0.024957589370257716 0 -0.04290396108050927 -0.02391364904866233 0 -0.048179165972460331 -0.020595389104281402 0 -0.0483482144933799 -0.021743423108521155 0 -0.0500306118262768 -0.019905832050107344 0 -0.045094046895726068 -0.023113647099787627 0 -0.043067167296268777 -0.024957589370257716 0 -0.04290396108050927 -0.02391364904866233 0 -0.048179165972460331 -0.020595389104281402 0 -0.048492757988163139 -0.019844284858908698 0 -0.0500306118262768 -0.019905832050107344 0 -0.046224418085981753 -0.023514292404613186 0 -0.039843340933374799 -0.027257009151040054 0 -0.045094046895726068 -0.023113647099787627 0 -0.04219161218325701 -0.0231198149384601 0 -0.04290396108050927 -0.02391364904866233 0 -0.046224418085981753 -0.023514292404613186 0 -0.045318628294348393 -0.02063683863888292 0 -0.043278283317540543 -0.027168839028780738 0 -0.043453386075723563 -0.027018635263622873 0 -0.043561200019073203 -0.027130153192338094 0 -0.043641108045296771 -0.026923887378082458 0 -0.043453386075723563 -0.027018635263622873 0 -0.043561200019073203 -0.027130153192338094 0 -0.043308702048917104 -0.026875150979877211 0 -0.043641108045296771 -0.026923887378082458 0 -0.043453386075723563 -0.027018635263622873 0 -0.043308702048917104 -0.026875150979877211 0 -0.043278283317540543 -0.027168839028780738 0 -0.043453386075723563 -0.027018635263622873 0 -0.030369040415407125 -0.034648478836421616 0 -0.030268414529055217 -0.034655516203907881 0 -0.030260662082469868 -0.034748301999954115 0 -0.039843340933374799 -0.027257009151040054 0 -0.032457617359680523 -0.031408788641117999 0 -0.037129176992031845 -0.031155936473353029 0 -0.032457617359680523 -0.031408788641117999 0 -0.039843340933374799 -0.027257009151040054 0 -0.037129176992031845 -0.031155936473353029 0 -0.036566738908142889 -0.030460282896079674 0 -0.037033238145988211 -0.029578995925285262 0 -0.035919376437381051 -0.030438243833205394 0 -0.02193201895710932 -0.036650803782833065 0 -0.026463686345924869 -0.036764222207340609 0 -0.022119328193996118 -0.039332899720401306 0 -0.022437159709445161 -0.039240010541360483 0 -0.022335884307298 -0.039124207189167648 0 -0.02193201895710932 -0.036650803782833065 0 -0.020201700449540599 -0.039402053171334557 0 -0.018125881501910218 -0.038978555017625885 0 -0.018354278416848661 -0.038731652610687901 0 -0.018858393838478048 -0.038611001567895556 0 -0.028556963659806773 -0.034733719717109417 0 -0.028983956116260579 -0.034800297361386963 0 -0.029215030202076265 -0.034483347765986903 0 -0.018103710221211475 -0.038822487620062698 0 -0.018125881501910218 -0.038978555017625885 0 -0.018354278416848661 -0.038731652610687901 0 -0.018103710221211475 -0.038822487620062698 0 -0.018125881501910218 -0.038978555017625885 0 -0.017938879436161036 -0.038858744659493114 0 -0.018103710221211475 -0.038822487620062698 0 -0.018354278416848661 -0.038731652610687901 0 -0.017993425446584062 -0.038721922206503924 0 -0.018354278416848661 -0.038731652610687901 0 -0.017993425446584062 -0.038721922206503924 0 -0.018141803443800533 -0.038523468715776304 0 -0.017993425446584062 -0.038721922206503924 0 -0.017707441577801755 -0.038576250791536398 0 -0.017644537288697099 -0.038791374909458838 0 -0.017993425446584062 -0.038721922206503924 0 -0.017707441577801755 -0.038576250791536398 0 -0.018141803443800533 -0.038523468715776304 0 -0.017500805027656521 -0.03867124750594788 0 -0.017707441577801755 -0.038576250791536398 0 -0.017644537288697099 -0.038791374909458838 0 -0.017500805027656521 -0.03867124750594788 0 -0.017707441577801755 -0.038576250791536398 0 -0.017485395283867028 -0.038409230446012292 0 -0.017500805027656521 -0.03867124750594788 0 -0.017644537288697099 -0.038791374909458838 0 -0.017509461562478568 -0.038788831362107784 0 -0.017644537288697099 -0.038791374909458838 0 -0.017938879436161036 -0.038858744659493114 0 -0.018034300549577366 -0.039110000877621107 0 -0.019181423108447514 -0.037303142649135104 0 -0.020196977901973036 -0.03318496412546762 0 -0.018103710221211475 -0.038822487620062698 0 -0.017993425446584062 -0.038721922206503924 0 -0.017938879436161036 -0.038858744659493114 0 -0.017993425446584062 -0.038721922206503924 0 -0.017644537288697099 -0.038791374909458838 0 -0.017938879436161036 -0.038858744659493114 0 -0.018125881501910218 -0.038978555017625885 0 -0.017938879436161036 -0.038858744659493114 0 -0.018034300549577366 -0.039110000877621107 0 -0.020196977901973036 -0.03318496412546762 0 -0.015245765646929104 -0.031187680345685836 0 -0.021271979405305421 -0.023887382098983931 0 -0.022762223068605553 -0.024011205811768795 0 -0.022342769703513114 -0.022681004752516019 0 -0.017644537288697099 -0.038791374909458838 0 -0.017677975784790502 -0.038788261803576411 0 -0.017509461562478568 -0.038788831362107784 0 -0.017677975784790502 -0.038788261803576411 0 -0.017509461562478568 -0.038788831362107784 0 -0.017472141930843385 -0.038813744165263994 0 -0.015269536678742465 -0.020247500392778516 0 -0.01145705603899972 -0.025101465863813968 0 -0.015780043964378161 -0.022519445714794754 0 -0.015269536678742465 -0.020247500392778516 0 -0.015847440138209611 -0.020268929665975977 0 -0.015780043964378161 -0.022519445714794754 0 -0.019464573551735455 -0.018180217509462013 0 -0.020196977901973036 -0.03318496412546762 0 -0.028556963659806773 -0.034733719717109417 0 -0.028477176665742811 -0.034814773470864091 0 -0.028983956116260579 -0.034800297361386963 0 -0.027723677461881667 -0.022649139002570508 0 -0.020196977901973036 -0.03318496412546762 0 -0.024277065652367057 -0.024107109089382951 0 -0.022762223068605553 -0.024011205811768795 0 -0.022342769703513114 -0.022681004752516019 0 -0.029088296111919348 -0.035172070238885064 0 -0.028477176665742811 -0.034814773470864091 0 -0.028983956116260579 -0.034800297361386963 0 -0.02193201895710932 -0.036650803782833065 0 -0.020196977901973036 -0.03318496412546762 0 -0.029088296111919348 -0.035172070238885064 0 -0.029271360985860431 -0.034951332770410057 0 -0.028983956116260579 -0.034800297361386963 0 -0.029271360985860431 -0.034951332770410057 0 -0.028983956116260579 -0.034800297361386963 0 -0.029283076522198609 -0.03467893845413126 0 -0.029271360985860431 -0.034951332770410057 0 -0.02947494797804797 -0.034762471043552928 0 -0.029283076522198609 -0.03467893845413126 0 -0.029271360985860431 -0.034951332770410057 0 -0.029773022056787859 -0.034922129208885162 0 -0.02947494797804797 -0.034762471043552928 0 -0.029516350898291934 -0.035191548426850953 0 -0.029271360985860431 -0.034951332770410057 0 -0.029773022056787859 -0.034922129208885162 0 -0.029625593900800426 -0.034991647438647563 0 -0.029694538436337025 -0.034712652070449705 0 -0.030115365130936243 -0.034584475657716073 0 -0.029773022056787859 -0.034922129208885162 0 -0.02947494797804797 -0.034762471043552928 0 -0.029847424399831873 -0.034639778719398523 0 -0.02947494797804797 -0.034762471043552928 0 -0.029584530762099822 -0.034569234956079373 0 -0.02947494797804797 -0.034762471043552928 0 -0.029584530762099822 -0.034569234956079373 0 -0.029283076522198609 -0.03467893845413126 0 -0.028983956116260579 -0.034800297361386963 0 -0.029283076522198609 -0.03467893845413126 0 -0.029215030202076265 -0.034483347765986903 0 -0.029584530762099822 -0.034569234956079373 0 -0.029283076522198609 -0.03467893845413126 0 -0.029215030202076265 -0.034483347765986903 0 -0.020201700449540599 -0.039402053171334557 0 -0.021785406976527769 -0.03803717484976786 0 -0.022335884307298 -0.039124207189167648 0 -0.022767953829269886 -0.038889507298530912 0 -0.022868144951908816 -0.038180780421260989 0 -0.022437159709445161 -0.039240010541360483 0 -0.022335884307298 -0.039124207189167648 0 -0.022767953829269886 -0.038889507298530912 0 -0.018858393838478048 -0.038611001567895556 0 -0.019056503314759877 -0.038268229678143105 0 -0.018740202552759169 -0.038413256104102303 0 -0.029847424399831873 -0.034639778719398523 0 -0.029584530762099822 -0.034569234956079373 0 -0.029756831188903713 -0.034428806413263555 0 -0.022437159709445161 -0.039240010541360483 0 -0.022767953829269886 -0.038889507298530912 0 -0.023427201824350458 -0.038903505254176587 0 -0.026463686345924869 -0.036764222207340609 0 -0.026484850331725245 -0.036710185947935417 0 -0.029584530762099822 -0.034569234956079373 0 -0.029215030202076265 -0.034483347765986903 0 -0.029756831188903713 -0.034428806413263555 0 -0.024000822809011731 -0.037749171490487128 0 -0.023427201824350458 -0.038903505254176587 0 -0.022868144951908816 -0.038180780421260989 0 -0.022767953829269886 -0.038889507298530912 0 -0.023427201824350458 -0.038903505254176587 0 -0.022868144951908816 -0.038180780421260989 0 -0.018858393838478048 -0.038611001567895556 0 -0.020270671148351446 -0.038373422253940075 0 -0.019056503314759877 -0.038268229678143105 0 -0.020270671148351446 -0.038373422253940075 0 -0.019056503314759877 -0.038268229678143105 0 -0.019348607616725015 -0.037820834213173955 0 -0.020270671148351446 -0.038373422253940075 0 -0.019348607616725015 -0.037820834213173955 0 -0.019897949174598219 -0.037114990240284716 0 -0.019056503314759877 -0.038268229678143105 0 -0.019348607616725015 -0.037820834213173955 0 -0.018773764375506038 -0.037858030855384375 0 -0.019348607616725015 -0.037820834213173955 0 -0.018773764375506038 -0.037858030855384375 0 -0.019062849004207055 -0.037298648437460079 0 -0.018773764375506038 -0.037858030855384375 0 -0.018216875259253446 -0.037833739181637731 0 -0.018501354545774059 -0.037346773203819399 0 -0.018216875259253446 -0.037833739181637731 0 -0.01855365550614416 -0.038239399030470668 0 -0.018163946933414048 -0.038254666931717383 0 -0.019056503314759877 -0.038268229678143105 0 -0.018773764375506038 -0.037858030855384375 0 -0.01855365550614416 -0.038239399030470668 0 -0.018773764375506038 -0.037858030855384375 0 -0.018216875259253446 -0.037833739181637731 0 -0.01855365550614416 -0.038239399030470668 0 -0.019056503314759877 -0.038268229678143105 0 -0.01855365550614416 -0.038239399030470668 0 -0.018740202552759169 -0.038413256104102303 0 -0.01855365550614416 -0.038239399030470668 0 -0.018740202552759169 -0.038413256104102303 0 -0.018497586861772365 -0.03850827697864085 0 -0.01855365550614416 -0.038239399030470668 0 -0.018163946933414048 -0.038254666931717383 0 -0.018497586861772365 -0.03850827697864085 0 -0.018354278416848661 -0.038731652610687901 0 -0.018141803443800533 -0.038523468715776304 0 -0.018497586861772365 -0.03850827697864085 0 -0.018163946933414048 -0.038254666931717383 0 -0.018141803443800533 -0.038523468715776304 0 -0.018497586861772365 -0.03850827697864085 0 -0.018858393838478048 -0.038611001567895556 0 -0.018740202552759169 -0.038413256104102303 0 -0.018497586861772365 -0.03850827697864085 0 -0.018354278416848661 -0.038731652610687901 0 -0.018858393838478048 -0.038611001567895556 0 -0.018497586861772365 -0.03850827697864085 0 -0.017707441577801755 -0.038576250791536398 0 -0.017804355342009456 -0.038306697115615705 0 -0.017485395283867028 -0.038409230446012292 0 -0.018163946933414048 -0.038254666931717383 0 -0.018141803443800533 -0.038523468715776304 0 -0.017804355342009456 -0.038306697115615705 0 -0.017707441577801755 -0.038576250791536398 0 -0.018141803443800533 -0.038523468715776304 0 -0.017804355342009456 -0.038306697115615705 0 -0.018163946933414048 -0.038254666931717383 0 -0.017804355342009456 -0.038306697115615705 0 -0.017890639645418233 -0.038012172698915207 0 -0.017804355342009456 -0.038306697115615705 0 -0.017485395283867028 -0.038409230446012292 0 -0.017409376284899965 -0.038009990587262683 0 -0.017804355342009456 -0.038306697115615705 0 -0.017890639645418233 -0.038012172698915207 0 -0.017409376284899965 -0.038009990587262683 0 -0.017890639645418233 -0.038012172698915207 0 -0.017743191174869853 -0.037689710382215164 0 -0.017409376284899965 -0.038009990587262683 0 -0.018216875259253446 -0.037833739181637731 0 -0.017890639645418233 -0.038012172698915207 0 -0.017743191174869853 -0.037689710382215164 0 -0.018216875259253446 -0.037833739181637731 0 -0.018163946933414048 -0.038254666931717383 0 -0.017890639645418233 -0.038012172698915207 0 -0.018216875259253446 -0.037833739181637731 0 -0.017743191174869853 -0.037689710382215164 0 -0.017984028210151555 -0.037340945975240299 0 -0.017743191174869853 -0.037689710382215164 0 -0.017386382142552836 -0.037631838190093983 0 -0.017521463508309972 -0.037252785647097574 0 -0.017743191174869853 -0.037689710382215164 0 -0.017984028210151555 -0.037340945975240299 0 -0.017521463508309972 -0.037252785647097574 0 -0.017984028210151555 -0.037340945975240299 0 -0.017758429880945597 -0.03683431279786889 0 -0.017521463508309972 -0.037252785647097574 0 -0.017984028210151555 -0.037340945975240299 0 -0.018237202539848958 -0.036952395788894664 0 -0.017758429880945597 -0.03683431279786889 0 -0.018216875259253446 -0.037833739181637731 0 -0.017984028210151555 -0.037340945975240299 0 -0.018501354545774059 -0.037346773203819399 0 -0.018773764375506038 -0.037858030855384375 0 -0.018501354545774059 -0.037346773203819399 0 -0.019062849004207055 -0.037298648437460079 0 -0.018501354545774059 -0.037346773203819399 0 -0.01873642415537825 -0.036872596796409932 0 -0.019062849004207055 -0.037298648437460079 0 -0.017984028210151555 -0.037340945975240299 0 -0.018501354545774059 -0.037346773203819399 0 -0.018237202539848958 -0.036952395788894664 0 -0.018501354545774059 -0.037346773203819399 0 -0.018237202539848958 -0.036952395788894664 0 -0.01873642415537825 -0.036872596796409932 0 -0.018237202539848958 -0.036952395788894664 0 -0.01873642415537825 -0.036872596796409932 0 -0.018364110818734073 -0.036665218528875408 0 -0.018237202539848958 -0.036952395788894664 0 -0.018364110818734073 -0.036665218528875408 0 -0.018046155917738518 -0.036662256094265447 0 -0.01873642415537825 -0.036872596796409932 0 -0.018656108756595367 -0.036495843093830208 0 -0.018965316139830535 -0.036655720531273653 0 -0.01873642415537825 -0.036872596796409932 0 -0.018656108756595367 -0.036495843093830208 0 -0.018364110818734073 -0.036665218528875408 0 -0.018656108756595367 -0.036495843093830208 0 -0.018364110818734073 -0.036665218528875408 0 -0.018144456712509128 -0.036368694371025675 0 -0.018364110818734073 -0.036665218528875408 0 -0.018046155917738518 -0.036662256094265447 0 -0.018144456712509128 -0.036368694371025675 0 -0.018046155917738518 -0.036662256094265447 0 -0.017802921339083507 -0.036405424009575728 0 -0.018144456712509128 -0.036368694371025675 0 -0.018046155917738518 -0.036662256094265447 0 -0.017802921339083507 -0.036405424009575728 0 -0.017758429880945597 -0.03683431279786889 0 -0.017802921339083507 -0.036405424009575728 0 -0.017758429880945597 -0.03683431279786889 0 -0.01745798897237729 -0.03648727112095506 0 -0.018237202539848958 -0.036952395788894664 0 -0.018046155917738518 -0.036662256094265447 0 -0.017758429880945597 -0.03683431279786889 0 -0.023671102064375536 -0.036339217325492459 0 -0.021785406976527769 -0.03803717484976786 0 -0.023834610871917558 -0.03626463996445585 0 -0.020270671148351446 -0.038373422253940075 0 -0.019897949174598219 -0.037114990240284716 0 -0.019897949174598219 -0.037114990240284716 0 -0.019062849004207055 -0.037298648437460079 0 -0.019299346657790383 -0.036797244894523601 0 -0.019348607616725015 -0.037820834213173955 0 -0.019897949174598219 -0.037114990240284716 0 -0.019062849004207055 -0.037298648437460079 0 -0.01873642415537825 -0.036872596796409932 0 -0.019062849004207055 -0.037298648437460079 0 -0.019299346657790383 -0.036797244894523601 0 -0.019897949174598219 -0.037114990240284716 0 -0.019299346657790383 -0.036797244894523601 0 -0.019535498619365831 -0.03667968983656477 0 -0.01873642415537825 -0.036872596796409932 0 -0.018965316139830535 -0.036655720531273653 0 -0.019299346657790383 -0.036797244894523601 0 -0.018965316139830535 -0.036655720531273653 0 -0.019299346657790383 -0.036797244894523601 0 -0.01915027823701463 -0.036493133526529158 0 -0.018656108756595367 -0.036495843093830208 0 -0.018965316139830535 -0.036655720531273653 0 -0.01915027823701463 -0.036493133526529158 0 -0.019535498619365831 -0.03667968983656477 0 -0.01950466107252084 -0.036451719429130502 0 -0.01915027823701463 -0.036493133526529158 0 -0.019299346657790383 -0.036797244894523601 0 -0.019535498619365831 -0.03667968983656477 0 -0.01915027823701463 -0.036493133526529158 0 -0.019897949174598219 -0.037114990240284716 0 -0.019535498619365831 -0.03667968983656477 0 -0.019753352334158598 -0.036607788594683915 0 -0.023834610871917558 -0.03626463996445585 0 -0.019897949174598219 -0.037114990240284716 0 -0.022895207578549313 -0.034555234953936066 0 -0.019986804112813721 -0.037082277170829438 0 -0.021250993162961647 -0.035702930348269962 0 -0.019535498619365831 -0.03667968983656477 0 -0.019753352334158598 -0.036607788594683915 0 -0.01950466107252084 -0.036451719429130502 0 -0.019753352334158598 -0.036607788594683915 0 -0.019716451639488954 -0.036301072732265349 0 -0.01950466107252084 -0.036451719429130502 0 -0.01950466107252084 -0.036451719429130502 0 -0.019090136065882335 -0.036210835343956076 0 -0.019408504159957363 -0.036156193557701728 0 -0.019716451639488954 -0.036301072732265349 0 -0.01950466107252084 -0.036451719429130502 0 -0.019408504159957363 -0.036156193557701728 0 -0.01950466107252084 -0.036451719429130502 0 -0.019090136065882335 -0.036210835343956076 0 -0.01915027823701463 -0.036493133526529158 0 -0.018656108756595367 -0.036495843093830208 0 -0.01915027823701463 -0.036493133526529158 0 -0.018768400854361451 -0.036244213014108795 0 -0.019090136065882335 -0.036210835343956076 0 -0.01915027823701463 -0.036493133526529158 0 -0.018768400854361451 -0.036244213014108795 0 -0.019090136065882335 -0.036210835343956076 0 -0.018768400854361451 -0.036244213014108795 0 -0.018696188326452839 -0.035985308160249849 0 -0.019090136065882335 -0.036210835343956076 0 -0.019021081908735749 -0.035954715305020722 0 -0.018696188326452839 -0.035985308160249849 0 -0.018682954458344597 -0.0357494925147092 0 -0.019021081908735749 -0.035954715305020722 0 -0.018958670100442311 -0.035729447232595482 0 -0.018682954458344597 -0.0357494925147092 0 -0.019021081908735749 -0.035954715305020722 0 -0.018696188326452839 -0.035985308160249849 0 -0.019021081908735749 -0.035954715305020722 0 -0.019318756978695881 -0.035901685896416284 0 -0.018958670100442311 -0.035729447232595482 0 -0.019021081908735749 -0.035954715305020722 0 -0.019408504159957363 -0.036156193557701728 0 -0.019318756978695881 -0.035901685896416284 0 -0.019090136065882335 -0.036210835343956076 0 -0.019021081908735749 -0.035954715305020722 0 -0.019408504159957363 -0.036156193557701728 0 -0.019408504159957363 -0.036156193557701728 0 -0.019318756978695881 -0.035901685896416284 0 -0.019745675860383453 -0.036089385831166894 0 -0.019318756978695881 -0.035901685896416284 0 -0.019745675860383453 -0.036089385831166894 0 -0.019612697106044991 -0.035855816204212868 0 -0.019716451639488954 -0.036301072732265349 0 -0.019408504159957363 -0.036156193557701728 0 -0.019745675860383453 -0.036089385831166894 0 -0.017991429820740094 -0.036025281258878043 0 -0.018144456712509128 -0.036368694371025675 0 -0.018383774208300358 -0.036238001300206935 0 -0.017991429820740094 -0.036025281258878043 0 -0.01781357725020697 -0.036170142474025807 0 -0.018144456712509128 -0.036368694371025675 0 -0.017991429820740094 -0.036025281258878043 0 -0.017654429194030676 -0.035969879436673069 0 -0.01781357725020697 -0.036170142474025807 0 -0.017654429194030676 -0.035969879436673069 0 -0.01781357725020697 -0.036170142474025807 0 -0.0175339068078521 -0.036196619519465505 0 -0.017802921339083507 -0.036405424009575728 0 -0.01781357725020697 -0.036170142474025807 0 -0.0175339068078521 -0.036196619519465505 0 -0.017802921339083507 -0.036405424009575728 0 -0.01781357725020697 -0.036170142474025807 0 -0.018144456712509128 -0.036368694371025675 0 -0.018656108756595367 -0.036495843093830208 0 -0.018144456712509128 -0.036368694371025675 0 -0.018383774208300358 -0.036238001300206935 0 -0.018656108756595367 -0.036495843093830208 0 -0.018768400854361451 -0.036244213014108795 0 -0.018383774208300358 -0.036238001300206935 0 -0.018768400854361451 -0.036244213014108795 0 -0.018696188326452839 -0.035985308160249849 0 -0.01847752877260719 -0.036070245040617427 0 -0.018768400854361451 -0.036244213014108795 0 -0.018383774208300358 -0.036238001300206935 0 -0.01847752877260719 -0.036070245040617427 0 -0.018383774208300358 -0.036238001300206935 0 -0.018218145116172202 -0.035923996129384114 0 -0.01847752877260719 -0.036070245040617427 0 -0.017991429820740094 -0.036025281258878043 0 -0.018383774208300358 -0.036238001300206935 0 -0.018218145116172202 -0.035923996129384114 0 -0.018218145116172202 -0.035923996129384114 0 -0.01847752877260719 -0.036070245040617427 0 -0.018386783663776423 -0.035823137080324745 0 -0.018696188326452839 -0.035985308160249849 0 -0.01847752877260719 -0.036070245040617427 0 -0.018386783663776423 -0.035823137080324745 0 -0.018682954458344597 -0.0357494925147092 0 -0.018386783663776423 -0.035823137080324745 0 -0.018368041179484641 -0.035606440018109892 0 -0.018682954458344597 -0.0357494925147092 0 -0.018696188326452839 -0.035985308160249849 0 -0.018386783663776423 -0.035823137080324745 0 -0.018218145116172202 -0.035923996129384114 0 -0.018386783663776423 -0.035823137080324745 0 -0.018013578774497805 -0.035778874182616452 0 -0.018386783663776423 -0.035823137080324745 0 -0.018013578774497805 -0.035778874182616452 0 -0.018130068037135707 -0.035654908245526654 0 -0.018013578774497805 -0.035778874182616452 0 -0.017755515468703072 -0.035693418290036368 0 -0.017867387047061582 -0.035597801698957425 0 -0.017991429820740094 -0.036025281258878043 0 -0.018218145116172202 -0.035923996129384114 0 -0.018013578774497805 -0.035778874182616452 0 -0.017991429820740094 -0.036025281258878043 0 -0.018013578774497805 -0.035778874182616452 0 -0.017760278624175119 -0.035812038689871151 0 -0.017654429194030676 -0.035969879436673069 0 -0.017760278624175119 -0.035812038689871151 0 -0.017507248689075973 -0.035784825532124566 0 -0.017991429820740094 -0.036025281258878043 0 -0.017654429194030676 -0.035969879436673069 0 -0.017760278624175119 -0.035812038689871151 0 -0.017760278624175119 -0.035812038689871151 0 -0.017609312834532858 -0.03569597140643431 0 -0.017755515468703072 -0.035693418290036368 0 -0.017760278624175119 -0.035812038689871151 0 -0.017609312834532858 -0.03569597140643431 0 -0.017507248689075973 -0.035784825532124566 0 -0.018013578774497805 -0.035778874182616452 0 -0.017760278624175119 -0.035812038689871151 0 -0.017755515468703072 -0.035693418290036368 0 -0.017609312834532858 -0.03569597140643431 0 -0.017755515468703072 -0.035693418290036368 0 -0.017587882491013358 -0.035606267424783893 0 -0.017587882491013358 -0.035606267424783893 0 -0.017867387047061582 -0.035597801698957425 0 -0.017748299127348679 -0.035507725820938425 0 -0.017755515468703072 -0.035693418290036368 0 -0.017587882491013358 -0.035606267424783893 0 -0.017867387047061582 -0.035597801698957425 0 -0.018013578774497805 -0.035778874182616452 0 -0.017867387047061582 -0.035597801698957425 0 -0.018130068037135707 -0.035654908245526654 0 -0.017867387047061582 -0.035597801698957425 0 -0.018039583159503044 -0.035489305800761338 0 -0.017748299127348679 -0.035507725820938425 0 -0.017867387047061582 -0.035597801698957425 0 -0.018039583159503044 -0.035489305800761338 0 -0.018130068037135707 -0.035654908245526654 0 -0.018039583159503044 -0.035489305800761338 0 -0.018266337791969144 -0.03533463555116139 0 -0.01785316977723567 -0.035317335793098793 0 -0.018039583159503044 -0.035489305800761338 0 -0.017748299127348679 -0.035507725820938425 0 -0.01785316977723567 -0.035317335793098793 0 -0.017748299127348679 -0.035507725820938425 0 -0.01785316977723567 -0.035317335793098793 0 -0.017398436204622721 -0.03550000760778331 0 -0.017587882491013358 -0.035606267424783893 0 -0.017748299127348679 -0.035507725820938425 0 -0.017398436204622721 -0.03550000760778331 0 -0.018682954458344597 -0.0357494925147092 0 -0.018368041179484641 -0.035606440018109892 0 -0.01875440609547397 -0.03548918437622374 0 -0.018386783663776423 -0.035823137080324745 0 -0.018368041179484641 -0.035606440018109892 0 -0.018130068037135707 -0.035654908245526654 0 -0.018039583159503044 -0.035489305800761338 0 -0.018368041179484641 -0.035606440018109892 0 -0.018130068037135707 -0.035654908245526654 0 -0.018039583159503044 -0.035489305800761338 0 -0.018368041179484641 -0.035606440018109892 0 -0.018266337791969144 -0.03533463555116139 0 -0.018368041179484641 -0.035606440018109892 0 -0.018266337791969144 -0.03533463555116139 0 -0.01875440609547397 -0.03548918437622374 0 -0.01827756726601127 -0.035050114188030362 0 -0.018381281857731004 -0.034554969747085211 0 -0.018601946645769633 -0.035071313623860588 0 -0.018266337791969144 -0.03533463555116139 0 -0.018601946645769633 -0.035071313623860588 0 -0.01875440609547397 -0.03548918437622374 0 -0.018266337791969144 -0.03533463555116139 0 -0.01827756726601127 -0.035050114188030362 0 -0.018601946645769633 -0.035071313623860588 0 -0.018266337791969144 -0.03533463555116139 0 -0.01827756726601127 -0.035050114188030362 0 -0.01785316977723567 -0.035317335793098793 0 -0.014587034333791457 -0.038013873268095424 0 -0.017398436204622721 -0.03550000760778331 0 -0.017775825643803599 -0.035922869007698019 0 -0.014587034333791457 -0.038013873268095424 0 -0.015860638982157192 -0.039842438965518978 0 -0.017775825643803599 -0.035922869007698019 0 -0.016981397672891696 -0.035480904871639865 0 -0.01696602802803536 -0.035941056952284514 0 -0.01785316977723567 -0.035317335793098793 0 -0.017977572058065518 -0.034946588788466952 0 -0.017398436204622721 -0.03550000760778331 0 -0.01827756726601127 -0.035050114188030362 0 -0.01785316977723567 -0.035317335793098793 0 -0.017977572058065518 -0.034946588788466952 0 -0.0093655919691330147 -0.046292551181060661 0 -0.013246757374779684 -0.044203528363869517 0 -0.014587034333791457 -0.038013873268095424 0 -0.015860638982157192 -0.039842438965518978 0 -0.011698072123025396 -0.041185175717701861 0 -0.0055066538682968002 -0.05319599158651768 0 -0.0054162183370038211 -0.05325965931305237 0 -0.0045768640566246901 -0.052744615326710875 0 -0.016981397672891696 -0.035480904871639865 0 -0.013246757374779684 -0.044203528363869517 0 -0.01827756726601127 -0.035050114188030362 0 -0.017977572058065518 -0.034946588788466952 0 -0.018381281857731004 -0.034554969747085211 0 -0.0072437382824949905 -0.052100633161922684 0 -0.0067435675048668174 -0.051212704919983157 0 -0.0084267418442503725 -0.051103165529322071 0 -0.0064482383217221865 -0.052266049037191266 0 -0.0072437382824949905 -0.052100633161922684 0 -0.0067435675048668174 -0.051212704919983157 0 -0.0054162183370038211 -0.05325965931305237 0 -0.0067435675048668174 -0.051212704919983157 0 -0.0048375042405638686 -0.051735322374497517 0 -0.0093655919691330147 -0.046292551181060661 0 -0.0052223628220907986 -0.054084842035924077 0 -0.014983694384654968 -0.048028467747596101 0 -0.014756890544249278 -0.047782774091144897 0 -0.015169499962359098 -0.047713080176413118 0 -0.014384992922206949 -0.048106593572868554 0 -0.014983694384654968 -0.048028467747596101 0 -0.014756890544249278 -0.047782774091144897 0 -0.013246757374779684 -0.044203528363869517 0 -0.010892190771259441 -0.050601501159056303 0 -0.013246757374779684 -0.044203528363869517 0 -0.017903884916628476 -0.040603283909130969 0 -0.018381281857731004 -0.034554969747085211 0 -0.019235944653788035 -0.0341991400688164 0 -0.018966091605152561 -0.034820198249492527 0 -0.018381281857731004 -0.034554969747085211 0 -0.018966091605152561 -0.034820198249492527 0 -0.018601946645769633 -0.035071313623860588 0 -0.019235944653788035 -0.0341991400688164 0 -0.018966091605152561 -0.034820198249492527 0 -0.01954189974648364 -0.034960691980159636 0 -0.019235944653788035 -0.0341991400688164 0 -0.01954189974648364 -0.034960691980159636 0 -0.019965422064465669 -0.03452285310484992 0 -0.01954189974648364 -0.034960691980159636 0 -0.019156887534947029 -0.03529594586956683 0 -0.019775804592830539 -0.035628071706395092 0 -0.018966091605152561 -0.034820198249492527 0 -0.01954189974648364 -0.034960691980159636 0 -0.019156887534947029 -0.03529594586956683 0 -0.019156887534947029 -0.03529594586956683 0 -0.018601946645769633 -0.035071313623860588 0 -0.01875440609547397 -0.03548918437622374 0 -0.018966091605152561 -0.034820198249492527 0 -0.019156887534947029 -0.03529594586956683 0 -0.018601946645769633 -0.035071313623860588 0 -0.019156887534947029 -0.03529594586956683 0 -0.01875440609547397 -0.03548918437622374 0 -0.019260853888280492 -0.035653368462805854 0 -0.01875440609547397 -0.03548918437622374 0 -0.018958670100442311 -0.035729447232595482 0 -0.019260853888280492 -0.035653368462805854 0 -0.019318756978695881 -0.035901685896416284 0 -0.018958670100442311 -0.035729447232595482 0 -0.019260853888280492 -0.035653368462805854 0 -0.018682954458344597 -0.0357494925147092 0 -0.01875440609547397 -0.03548918437622374 0 -0.018958670100442311 -0.035729447232595482 0 -0.019156887534947029 -0.03529594586956683 0 -0.019260853888280492 -0.035653368462805854 0 -0.019775804592830539 -0.035628071706395092 0 -0.019318756978695881 -0.035901685896416284 0 -0.019260853888280492 -0.035653368462805854 0 -0.019612697106044991 -0.035855816204212868 0 -0.019260853888280492 -0.035653368462805854 0 -0.019612697106044991 -0.035855816204212868 0 -0.019775804592830539 -0.035628071706395092 0 -0.020102495151066029 -0.036012908595988366 0 -0.019612697106044991 -0.035855816204212868 0 -0.019775804592830539 -0.035628071706395092 0 -0.020102495151066029 -0.036012908595988366 0 -0.019775804592830539 -0.035628071706395092 0 -0.020302292444716895 -0.035754818091420101 0 -0.019254355478369393 -0.036400986811797285 0 -0.02321553866636434 -0.034375723154706148 0 -0.020102495151066029 -0.036012908595988366 0 -0.020302292444716895 -0.035754818091420101 0 -0.02085652603117634 -0.036050476767076359 0 -0.020302292444716895 -0.035754818091420101 0 -0.02085652603117634 -0.036050476767076359 0 -0.020682953361589373 -0.03564158028180632 0 -0.020302292444716895 -0.035754818091420101 0 -0.020682953361589373 -0.03564158028180632 0 -0.020127909314479681 -0.035379834445072846 0 -0.02085652603117634 -0.036050476767076359 0 -0.020682953361589373 -0.03564158028180632 0 -0.02121988223081445 -0.035774756275326461 0 -0.020682953361589373 -0.03564158028180632 0 -0.021025652521612457 -0.035426305352772934 0 -0.02121988223081445 -0.035774756275326461 0 -0.020682953361589373 -0.03564158028180632 0 -0.021025652521612457 -0.035426305352772934 0 -0.020534299033701714 -0.035110215114915744 0 -0.020682953361589373 -0.03564158028180632 0 -0.020127909314479681 -0.035379834445072846 0 -0.020534299033701714 -0.035110215114915744 0 -0.01954189974648364 -0.034960691980159636 0 -0.019775804592830539 -0.035628071706395092 0 -0.020127909314479681 -0.035379834445072846 0 -0.019775804592830539 -0.035628071706395092 0 -0.020302292444716895 -0.035754818091420101 0 -0.020127909314479681 -0.035379834445072846 0 -0.029031732931988356 -0.032272636801646423 0 -0.028857282485324088 -0.030634009347473162 0 -0.030051719735427578 -0.031233261031181694 0 -0.028857282485324088 -0.030634009347473162 0 -0.030051719735427578 -0.031233261031181694 0 -0.030959289147705609 -0.030199302493634419 0 -0.030445601829628112 -0.032033571764253206 0 -0.029031732931988356 -0.032272636801646423 0 -0.030051719735427578 -0.031233261031181694 0 -0.02321553866636434 -0.034375723154706148 0 -0.027727588890894567 -0.032337353113730573 0 -0.02321553866636434 -0.034375723154706148 0 -0.023140615955376941 -0.035006048106861705 0 -0.02683368102215342 -0.031022048066438865 0 -0.028857282485324088 -0.030634009347473162 0 -0.02799395123716121 -0.031601171401363287 0 -0.02345761664298723 -0.035262764969354515 0 -0.025900263329134365 -0.034355566908920838 0 -0.024905292596317585 -0.033209899569761933 0 -0.029031732931988356 -0.032272636801646423 0 -0.028857282485324088 -0.030634009347473162 0 -0.02799395123716121 -0.031601171401363287 0 -0.02085652603117634 -0.036050476767076359 0 -0.02121988223081445 -0.035774756275326461 0 -0.021411480290986291 -0.035768926109492831 0 -0.021758663423720803 -0.035373263307843274 0 -0.023140615955376941 -0.035006048106861705 0 -0.021025652521612457 -0.035426305352772934 0 -0.021532553810830451 -0.035685945686942722 0 -0.021388525167244397 -0.035207119208933928 0 -0.021532553810830451 -0.035685945686942722 0 -0.022210871123937524 -0.035372355187388238 0 -0.021388525167244397 -0.035207119208933928 0 -0.021025652521612457 -0.035426305352772934 0 -0.02121988223081445 -0.035774756275326461 0 -0.021532553810830451 -0.035685945686942722 0 -0.02121988223081445 -0.035774756275326461 0 -0.021532553810830451 -0.035685945686942722 0 -0.021829097950752132 -0.036158194127443796 0 -0.021532553810830451 -0.035685945686942722 0 -0.021829097950752132 -0.036158194127443796 0 -0.022210871123937524 -0.035372355187388238 0 -0.025900263329134365 -0.034355566908920838 0 -0.028375291378091774 -0.033451116156414426 0 -0.027865060489498616 -0.032863572282662977 0 -0.025900263329134365 -0.034355566908920838 0 -0.024905292596317585 -0.033209899569761933 0 -0.027865060489498616 -0.032863572282662977 0 -0.023140615955376941 -0.035006048106861705 0 -0.025820975763640581 -0.03497370904271991 0 -0.021829097950752132 -0.036158194127443796 0 -0.022210871123937524 -0.035372355187388238 0 -0.024407768298865432 -0.036795291741179161 0 -0.027727588890894567 -0.032337353113730573 0 -0.029758781823306751 -0.031684491419749015 0 -0.023126291998672537 -0.034403658605343689 0 -0.024407768298865432 -0.036795291741179161 0 -0.025009965128695723 -0.034459858572422085 0 -0.023126291998672537 -0.034403658605343689 0 -0.022210871123937524 -0.035372355187388238 0 -0.024407768298865432 -0.036795291741179161 0 -0.023126291998672537 -0.034403658605343689 0 -0.022210871123937524 -0.035372355187388238 0 -0.02146671222901117 -0.034371981143223318 0 -0.021388525167244397 -0.035207119208933928 0 -0.02146671222901117 -0.034371981143223318 0 -0.020968918846639484 -0.034914521059106474 0 -0.022210871123937524 -0.035372355187388238 0 -0.021388525167244397 -0.035207119208933928 0 -0.02146671222901117 -0.034371981143223318 0 -0.023126291998672537 -0.034403658605343689 0 -0.02146671222901117 -0.034371981143223318 0 -0.022405547187922006 -0.032379271301387937 0 -0.02146671222901117 -0.034371981143223318 0 -0.020371290586389826 -0.033464785993488379 0 -0.022405547187922006 -0.032379271301387937 0 -0.023126291998672537 -0.034403658605343689 0 -0.022405547187922006 -0.032379271301387937 0 -0.0244151352906758 -0.033008832308132292 0 -0.023126291998672537 -0.034403658605343689 0 -0.025009965128695723 -0.034459858572422085 0 -0.0244151352906758 -0.033008832308132292 0 -0.020127909314479681 -0.035379834445072846 0 -0.019965422064465669 -0.03452285310484992 0 -0.020534299033701714 -0.035110215114915744 0 -0.01954189974648364 -0.034960691980159636 0 -0.020127909314479681 -0.035379834445072846 0 -0.019965422064465669 -0.03452285310484992 0 -0.020534299033701714 -0.035110215114915744 0 -0.020968918846639484 -0.034914521059106474 0 -0.020576071310130464 -0.034417922782783321 0 -0.021025652521612457 -0.035426305352772934 0 -0.021388525167244397 -0.035207119208933928 0 -0.020968918846639484 -0.034914521059106474 0 -0.021025652521612457 -0.035426305352772934 0 -0.020534299033701714 -0.035110215114915744 0 -0.020968918846639484 -0.034914521059106474 0 -0.02146671222901117 -0.034371981143223318 0 -0.020968918846639484 -0.034914521059106474 0 -0.020576071310130464 -0.034417922782783321 0 -0.019965422064465669 -0.03452285310484992 0 -0.020534299033701714 -0.035110215114915744 0 -0.020576071310130464 -0.034417922782783321 0 -0.02146671222901117 -0.034371981143223318 0 -0.020576071310130464 -0.034417922782783321 0 -0.020371290586389826 -0.033464785993488379 0 -0.019965422064465669 -0.03452285310484992 0 -0.020576071310130464 -0.034417922782783321 0 -0.020371290586389826 -0.033464785993488379 0 -0.017903884916628476 -0.040603283909130969 0 -0.017875901919668032 -0.040805875644685852 0 -0.019235944653788035 -0.0341991400688164 0 -0.019965422064465669 -0.03452285310484992 0 -0.020371290586389826 -0.033464785993488379 0 -0.014983694384654968 -0.048028467747596101 0 -0.01577187535915087 -0.047961508442956151 0 -0.015169499962359098 -0.047713080176413118 0 -0.01577187535915087 -0.047961508442956151 0 -0.016083685749868144 -0.04719877373360714 0 -0.01518989059661509 -0.047226444917075575 0 -0.01577187535915087 -0.047961508442956151 0 -0.015169499962359098 -0.047713080176413118 0 -0.01518989059661509 -0.047226444917075575 0 -0.01577187535915087 -0.047961508442956151 0 -0.016083685749868144 -0.04719877373360714 0 -0.01712199063768223 -0.04780652965821594 0 -0.016083685749868144 -0.04719877373360714 0 -0.015690229044002534 -0.046650827216218174 0 -0.01518989059661509 -0.047226444917075575 0 -0.013585195957467915 -0.047708771766584085 0 -0.012688772868757928 -0.048287047596726099 0 -0.020087898727905566 -0.040014208910751532 0 -0.020756713139534741 -0.03991585192771234 0 -0.01712199063768223 -0.04780652965821594 0 -0.017290467556582416 -0.04693952273756067 0 -0.018770675717787358 -0.047312630770947918 0 -0.022405547187922006 -0.032379271301387937 0 -0.0244151352906758 -0.033008832308132292 0 -0.025087582908075275 -0.031864052082992249 0 -0.017875901919668032 -0.040805875644685852 0 -0.020087898727905566 -0.040014208910751532 0 -0.016083685749868144 -0.04719877373360714 0 -0.01712199063768223 -0.04780652965821594 0 -0.017290467556582416 -0.04693952273756067 0 -0.016083685749868144 -0.04719877373360714 0 -0.017290467556582416 -0.04693952273756067 0 -0.016077864092682657 -0.046656036570679189 0 -0.017290467556582416 -0.04693952273756067 0 -0.016077864092682657 -0.046656036570679189 0 -0.01703250072040181 -0.046111652923729395 0 -0.017290467556582416 -0.04693952273756067 0 -0.01703250072040181 -0.046111652923729395 0 -0.018392514179952336 -0.046349859333324549 0 -0.016077864092682657 -0.046656036570679189 0 -0.014940100374915817 -0.04635750819343492 0 -0.01703250072040181 -0.046111652923729395 0 -0.016977700260322214 -0.046211289504768348 0 -0.016423737737452305 -0.04515457743857846 0 -0.014940100374915817 -0.04635750819343492 0 -0.01703250072040181 -0.046111652923729395 0 -0.015304666712993572 -0.045394028018325649 0 -0.01703250072040181 -0.046111652923729395 0 -0.018034846676324646 -0.045681676891589439 0 -0.017395377230756359 -0.045461765896248764 0 -0.011468784168147346 -0.048821223982149393 0 -0.010087652056862557 -0.047195537361487391 0 -0.0097536273105329249 -0.048687363758776907 0 -0.011468784168147346 -0.048821223982149393 0 -0.0097536273105329249 -0.048687363758776907 0 -0.0097934430832570234 -0.04981435994085559 0 -0.016083685749868144 -0.04719877373360714 0 -0.016077864092682657 -0.046656036570679189 0 -0.015690229044002534 -0.046650827216218174 0 -0.014940100374915817 -0.04635750819343492 0 -0.011468784168147346 -0.048821223982149393 0 -0.011987120727296229 -0.046815608021946273 0 -0.016077864092682657 -0.046656036570679189 0 -0.014940100374915817 -0.04635750819343492 0 -0.015690229044002534 -0.046650827216218174 0 -0.014935628185023113 -0.046344834022122798 0 -0.013585195957467915 -0.047708771766584085 0 -0.014940100374915817 -0.04635750819343492 0 -0.011987120727296229 -0.046815608021946273 0 -0.013078618935273087 -0.046037753017897184 0 -0.011987120727296229 -0.046815608021946273 0 -0.010087652056862557 -0.047195537361487391 0 -0.010877989516294439 -0.046181159898038053 0 -0.011468784168147346 -0.048821223982149393 0 -0.011987120727296229 -0.046815608021946273 0 -0.010087652056862557 -0.047195537361487391 0 -0.010087652056862557 -0.047195537361487391 0 -0.008413855352495881 -0.04796797747840903 0 -0.0080302183468782175 -0.046124441890489011 0 -0.0097536273105329249 -0.048687363758776907 0 -0.008413855352495881 -0.04796797747840903 0 -0.0085516725831881971 -0.049471160922460504 0 -0.010087652056862557 -0.047195537361487391 0 -0.0097536273105329249 -0.048687363758776907 0 -0.008413855352495881 -0.04796797747840903 0 -0.008413855352495881 -0.04796797747840903 0 -0.0073093922921412344 -0.048922140255007289 0 -0.0085516725831881971 -0.049471160922460504 0 -0.008413855352495881 -0.04796797747840903 0 -0.0065839662944433344 -0.046880349895637205 0 -0.0080302183468782175 -0.046124441890489011 0 -0.0054923830125799414 -0.047920690438348346 0 -0.0056461787092059153 -0.046227222220467518 0 -0.0046514035348832229 -0.04624960002298812 0 -0.0065839662944433344 -0.046880349895637205 0 -0.0054923830125799414 -0.047920690438348346 0 -0.0056461787092059153 -0.046227222220467518 0 -0.008413855352495881 -0.04796797747840903 0 -0.0065839662944433344 -0.046880349895637205 0 -0.0073093922921412344 -0.048922140255007289 0 -0.0065839662944433344 -0.046880349895637205 0 -0.0054923830125799414 -0.047920690438348346 0 -0.0073093922921412344 -0.048922140255007289 0 -0.0063887096055386047 -0.049803949554701868 0 -0.0073093922921412344 -0.048922140255007289 0 -0.0075296553197766024 -0.050251042970205245 0 -0.0054923830125799414 -0.047920690438348346 0 -0.0063887096055386047 -0.049803949554701868 0 -0.0073093922921412344 -0.048922140255007289 0 -0.0054923830125799414 -0.047920690438348346 0 -0.0063887096055386047 -0.049803949554701868 0 -0.0047559572270664541 -0.049925938900625133 0 -0.0067435675048668174 -0.051212704919983157 0 -0.0048375042405638686 -0.051735322374497517 0 -0.0047559572270664541 -0.049925938900625133 0 -0.0063887096055386047 -0.049803949554701868 0 -0.0067435675048668174 -0.051212704919983157 0 -0.0047559572270664541 -0.049925938900625133 0 -0.0075296553197766024 -0.050251042970205245 0 -0.0067435675048668174 -0.051212704919983157 0 -0.0084267418442503725 -0.051103165529322071 0 -0.0063887096055386047 -0.049803949554701868 0 -0.0075296553197766024 -0.050251042970205245 0 -0.0067435675048668174 -0.051212704919983157 0 -0.0075296553197766024 -0.050251042970205245 0 -0.0084267418442503725 -0.051103165529322071 0 -0.0085516725831881971 -0.049471160922460504 0 -0.010892190771259441 -0.050601501159056303 0 -0.012688772868757928 -0.048287047596726099 0 -0.0084267418442503725 -0.051103165529322071 0 -0.0097934430832570234 -0.04981435994085559 0 -0.0085516725831881971 -0.049471160922460504 0 -0.014756890544249278 -0.047782774091144897 0 -0.015169499962359098 -0.047713080176413118 0 -0.01518989059661509 -0.047226444917075575 0 -0.0097536273105329249 -0.048687363758776907 0 -0.0097934430832570234 -0.04981435994085559 0 -0.0085516725831881971 -0.049471160922460504 0 -0.0073093922921412344 -0.048922140255007289 0 -0.0075296553197766024 -0.050251042970205245 0 -0.0085516725831881971 -0.049471160922460504 0 -0.039358221417249047 -0.03150534800815457 0 -0.039151045850427293 -0.031382277030927185 0 -0.03890835341727978 -0.031701590852923192 0 -0.039358221417249047 -0.03150534800815457 0 -0.039151045850427293 -0.031382277030927185 0 -0.039465647403628644 -0.031357339756773225 0 -0.039151045850427293 -0.031382277030927185 0 -0.03858222423605813 -0.031529095643771168 0 -0.038794368420543103 -0.031151258001001533 0 -0.039151045850427293 -0.031382277030927185 0 -0.03890835341727978 -0.031701590852923192 0 -0.03858222423605813 -0.031529095643771168 0 -0.03890835341727978 -0.031701590852923192 0 -0.038321516611371176 -0.031882723380750003 0 -0.03858222423605813 -0.031529095643771168 0 -0.03890835341727978 -0.031701590852923192 0 -0.039174641288604713 -0.03174032440474471 0 -0.038891354180433574 -0.031709831056162714 0 -0.03890835341727978 -0.031701590852923192 0 -0.038891354180433574 -0.031709831056162714 0 -0.038321516611371176 -0.031882723380750003 0 -0.039358221417249047 -0.03150534800815457 0 -0.03890835341727978 -0.031701590852923192 0 -0.039174641288604713 -0.03174032440474471 0 -0.039361664103991161 -0.0317784287366146 0 -0.039174641288604713 -0.03174032440474471 0 -0.039218329255458942 -0.03193453665937715 0 -0.039295122139294342 -0.031246311426051637 0 -0.039060669396178152 -0.031616873359742427 0 -0.039174641288604713 -0.03174032440474471 0 -0.039218329255458942 -0.03193453665937715 0 -0.038891354180433574 -0.031709831056162714 0 -0.039416808360996335 -0.031039239585091024 0 -0.03954330932570399 -0.030556547746542286 0 -0.039116089492426856 -0.031501044010565936 0 -0.039955522749274892 -0.030554074808763529 0 -0.039416808360996335 -0.031039239585091024 0 -0.03954330932570399 -0.030556547746542286 0 -0.03954330932570399 -0.030556547746542286 0 -0.039116089492426856 -0.031501044010565936 0 -0.038891354180433574 -0.031709831056162714 0 -0.038891354180433574 -0.031709831056162714 0 -0.03828702867857231 -0.031912322734709259 0 -0.038321516611371176 -0.031882723380750003 0 -0.038891354180433574 -0.031709831056162714 0 -0.03828702867857231 -0.031912322734709259 0 -0.03846483800759376 -0.031875726350119531 0 -0.039116089492426856 -0.031501044010565936 0 -0.038891354180433574 -0.031709831056162714 0 -0.039285471824158771 -0.032194846455468072 0 -0.038891354180433574 -0.031709831056162714 0 -0.03846483800759376 -0.031875726350119531 0 -0.039285471824158771 -0.032194846455468072 0 -0.03846483800759376 -0.031875726350119531 0 -0.039285471824158771 -0.032194846455468072 0 -0.038090325351865399 -0.031987687310324253 0 -0.039285471824158771 -0.032194846455468072 0 -0.037658496989329437 -0.032634287849626679 0 -0.038090325351865399 -0.031987687310324253 0 -0.037658496989329437 -0.032634287849626679 0 -0.038090325351865399 -0.031987687310324253 0 -0.037457038743750379 -0.031617323474008398 0 -0.038090325351865399 -0.031987687310324253 0 -0.037979204227637037 -0.031837841848049574 0 -0.037457038743750379 -0.031617323474008398 0 -0.03828702867857231 -0.031912322734709259 0 -0.03846483800759376 -0.031875726350119531 0 -0.037979204227637037 -0.031837841848049574 0 -0.03846483800759376 -0.031875726350119531 0 -0.038090325351865399 -0.031987687310324253 0 -0.037979204227637037 -0.031837841848049574 0 -0.03828702867857231 -0.031912322734709259 0 -0.037979204227637037 -0.031837841848049574 0 -0.037639874643068852 -0.032111803773717119 0 -0.037979204227637037 -0.031837841848049574 0 -0.037639874643068852 -0.032111803773717119 0 -0.037457038743750379 -0.031617323474008398 0 -0.037466147519552406 -0.032206047884113714 0 -0.036209842964054509 -0.032104855809884349 0 -0.036734545613483917 -0.032836987315404347 0 -0.037466147519552406 -0.032206047884113714 0 -0.037639874643068852 -0.032111803773717119 0 -0.036734545613483917 -0.032836987315404347 0 -0.037466147519552406 -0.032206047884113714 0 -0.037639874643068852 -0.032111803773717119 0 -0.038321516611371176 -0.031882723380750003 0 -0.03828702867857231 -0.031912322734709259 0 -0.037639874643068852 -0.032111803773717119 0 -0.038321516611371176 -0.031882723380750003 0 -0.03858222423605813 -0.031529095643771168 0 -0.037476310709120102 -0.031677812959512039 0 -0.038192456341942391 -0.031076776393409139 0 -0.038321516611371176 -0.031882723380750003 0 -0.03858222423605813 -0.031529095643771168 0 -0.037476310709120102 -0.031677812959512039 0 -0.037476310709120102 -0.031677812959512039 0 -0.037352328153898412 -0.030933128877395574 0 -0.038192456341942391 -0.031076776393409139 0 -0.036654286029371215 -0.031315912787583146 0 -0.037476310709120102 -0.031677812959512039 0 -0.037352328153898412 -0.030933128877395574 0 -0.036654286029371215 -0.031315912787583146 0 -0.037476310709120102 -0.031677812959512039 0 -0.036209842964054509 -0.032104855809884349 0 -0.037466147519552406 -0.032206047884113714 0 -0.037476310709120102 -0.031677812959512039 0 -0.036209842964054509 -0.032104855809884349 0 -0.037466147519552406 -0.032206047884113714 0 -0.038321516611371176 -0.031882723380750003 0 -0.037476310709120102 -0.031677812959512039 0 -0.036209842964054509 -0.032104855809884349 0 -0.033464770033626759 -0.032127561474248174 0 -0.034455838110435573 -0.033272079561256385 0 -0.036654286029371215 -0.031315912787583146 0 -0.036209842964054509 -0.032104855809884349 0 -0.035043513909098711 -0.03107588324705058 0 -0.035043513909098711 -0.03107588324705058 0 -0.033464770033626759 -0.032127561474248174 0 -0.03386020973708407 -0.03007639758860178 0 -0.036209842964054509 -0.032104855809884349 0 -0.035043513909098711 -0.03107588324705058 0 -0.033464770033626759 -0.032127561474248174 0 -0.031134930155864944 -0.031625349683369691 0 -0.033464770033626759 -0.032127561474248174 0 -0.03386020973708407 -0.03007639758860178 0 -0.031134930155864944 -0.031625349683369691 0 -0.030449763063247745 -0.033594548435921606 0 -0.033464770033626759 -0.032127561474248174 0 -0.033464770033626759 -0.032127561474248174 0 -0.032362318368270672 -0.034101476021146 0 -0.034455838110435573 -0.033272079561256385 0 -0.030449763063247745 -0.033594548435921606 0 -0.033464770033626759 -0.032127561474248174 0 -0.032362318368270672 -0.034101476021146 0 -0.032362318368270672 -0.034101476021146 0 -0.032866967234963157 -0.036002180559552142 0 -0.034455838110435573 -0.033272079561256385 0 -0.034127681904462387 -0.034542713447149417 0 -0.031899912865792766 -0.033265903707552225 0 -0.030390169661469756 -0.035191580876128878 0 -0.032866967234963157 -0.036002180559552142 0 -0.028565209782162822 -0.037278397968241075 0 -0.035805865949022117 -0.033129269751163128 0 -0.036120398946021509 -0.033368846349033969 0 -0.034595848727309669 -0.033585689031667983 0 -0.032362318368270672 -0.034101476021146 0 -0.030390169661469756 -0.035191580876128878 0 -0.032866967234963157 -0.036002180559552142 0 -0.030449763063247745 -0.033594548435921606 0 -0.032362318368270672 -0.034101476021146 0 -0.030390169661469756 -0.035191580876128878 0 -0.034127681904462387 -0.034542713447149417 0 -0.036484041967811263 -0.033182042526931708 0 -0.037639874643068852 -0.032111803773717119 0 -0.036734545613483917 -0.032836987315404347 0 -0.036120398946021509 -0.033368846349033969 0 -0.037175706788825494 -0.032116220535586625 0 -0.03672833099564915 -0.031776174487817978 0 -0.035805865949022117 -0.033129269751163128 0 -0.036734545613483917 -0.032836987315404347 0 -0.036120398946021509 -0.033368846349033969 0 -0.032866967234963157 -0.036002180559552142 0 -0.034455838110435573 -0.033272079561256385 0 -0.036734545613483917 -0.032836987315404347 0 -0.036209842964054509 -0.032104855809884349 0 -0.034455838110435573 -0.033272079561256385 0 -0.036734545613483917 -0.032836987315404347 0 -0.037639874643068852 -0.032111803773717119 0 -0.036559264078716319 -0.030531967049187113 0 -0.036929061966673227 -0.031241743173609837 0 -0.037639874643068852 -0.032111803773717119 0 -0.036929061966673227 -0.031241743173609837 0 -0.037457038743750379 -0.031617323474008398 0 -0.036559264078716319 -0.030531967049187113 0 -0.036929061966673227 -0.031241743173609837 0 -0.035928462837995202 -0.031241666163524223 0 -0.036929061966673227 -0.031241743173609837 0 -0.03644707795021318 -0.0320432956880638 0 -0.035928462837995202 -0.031241666163524223 0 -0.036929061966673227 -0.031241743173609837 0 -0.037457038743750379 -0.031617323474008398 0 -0.03644707795021318 -0.0320432956880638 0 -0.037658496989329437 -0.032634287849626679 0 -0.037457038743750379 -0.031617323474008398 0 -0.03644707795021318 -0.0320432956880638 0 -0.03650739536181543 -0.03324771067944244 0 -0.037658496989329437 -0.032634287849626679 0 -0.03644707795021318 -0.0320432956880638 0 -0.03644707795021318 -0.0320432956880638 0 -0.035148900975752843 -0.032929048613100254 0 -0.034651051223618903 -0.031590903463141556 0 -0.03644707795021318 -0.0320432956880638 0 -0.034651051223618903 -0.031590903463141556 0 -0.035928462837995202 -0.031241666163524223 0 -0.035148900975752843 -0.032929048613100254 0 -0.034651051223618903 -0.031590903463141556 0 -0.034145263308245841 -0.032308541541105393 0 -0.03650739536181543 -0.03324771067944244 0 -0.03644707795021318 -0.0320432956880638 0 -0.035148900975752843 -0.032929048613100254 0 -0.034651051223618903 -0.031590903463141556 0 -0.035259439761221492 -0.030752345108126529 0 -0.033812185527239323 -0.029744235751150393 0 -0.034651051223618903 -0.031590903463141556 0 -0.035259439761221492 -0.030752345108126529 0 -0.035928462837995202 -0.031241666163524223 0 -0.03672833099564915 -0.031776174487817978 0 -0.031899912865792766 -0.033265903707552225 0 -0.036559264078716319 -0.030531967049187113 0 -0.035259439761221492 -0.030752345108126529 0 -0.033812185527239323 -0.029744235751150393 0 -0.036559264078716319 -0.030531967049187113 0 -0.035259439761221492 -0.030752345108126529 0 -0.035928462837995202 -0.031241666163524223 0 -0.033812185527239323 -0.029744235751150393 0 -0.03326000920109231 -0.031404609135928963 0 -0.032313234424514461 -0.030710212573106719 0 -0.034651051223618903 -0.031590903463141556 0 -0.033812185527239323 -0.029744235751150393 0 -0.03326000920109231 -0.031404609135928963 0 -0.034619119919220995 -0.031924270418290546 0 -0.030975391872362902 -0.031657003814384563 0 -0.034651051223618903 -0.031590903463141556 0 -0.03326000920109231 -0.031404609135928963 0 -0.034145263308245841 -0.032308541541105393 0 -0.033856749042315892 -0.033263178689557506 0 -0.03313452060731116 -0.032117707418638862 0 -0.031203365604748793 -0.031519159802384615 0 -0.033856749042315892 -0.033263178689557506 0 -0.033978592886532398 -0.033569583564409727 0 -0.031203365604748793 -0.031519159802384615 0 -0.03326000920109231 -0.031404609135928963 0 -0.03313452060731116 -0.032117707418638862 0 -0.034145263308245841 -0.032308541541105393 0 -0.03326000920109231 -0.031404609135928963 0 -0.03313452060731116 -0.032117707418638862 0 -0.031203365604748793 -0.031519159802384615 0 -0.033856749042315892 -0.033263178689557506 0 -0.035148900975752843 -0.032929048613100254 0 -0.034145263308245841 -0.032308541541105393 0 -0.033856749042315892 -0.033263178689557506 0 -0.03313452060731116 -0.032117707418638862 0 -0.034145263308245841 -0.032308541541105393 0 -0.032080655784325382 -0.032273996808884597 0 -0.031199458183799149 -0.032343671982687228 0 -0.031203365604748793 -0.031519159802384615 0 -0.031199458183799149 -0.032343671982687228 0 -0.030445601829628112 -0.032033571764253206 0 -0.031203365604748793 -0.031519159802384615 0 -0.030445601829628112 -0.032033571764253206 0 -0.030051719735427578 -0.031233261031181694 0 -0.031203365604748793 -0.031519159802384615 0 -0.03326000920109231 -0.031404609135928963 0 -0.031203365604748793 -0.031519159802384615 0 -0.032313234424514461 -0.030710212573106719 0 -0.030051719735427578 -0.031233261031181694 0 -0.031203365604748793 -0.031519159802384615 0 -0.030959289147705609 -0.030199302493634419 0 -0.031899912865792766 -0.033265903707552225 0 -0.029758781823306751 -0.031684491419749015 0 -0.033812185527239323 -0.029744235751150393 0 -0.030959289147705609 -0.030199302493634419 0 -0.032313234424514461 -0.030710212573106719 0 -0.031899912865792766 -0.033265903707552225 0 -0.025820975763640581 -0.03497370904271991 0 -0.030915128882009865 -0.032524192708168385 0 -0.028375291378091774 -0.033451116156414426 0 -0.027865060489498616 -0.032863572282662977 0 -0.031203365604748793 -0.031519159802384615 0 -0.030959289147705609 -0.030199302493634419 0 -0.032313234424514461 -0.030710212573106719 0 -0.028565209782162822 -0.037278397968241075 0 -0.024407768298865432 -0.036795291741179161 0 -0.027303543715363664 -0.035160553132908091 0 -0.024407768298865432 -0.036795291741179161 0 -0.025009965128695723 -0.034459858572422085 0 -0.027303543715363664 -0.035160553132908091 0 -0.025009965128695723 -0.034459858572422085 0 -0.027303543715363664 -0.035160553132908091 0 -0.026778507476735436 -0.032834167076829443 0 -0.030390169661469756 -0.035191580876128878 0 -0.028565209782162822 -0.037278397968241075 0 -0.027303543715363664 -0.035160553132908091 0 -0.030449763063247745 -0.033594548435921606 0 -0.030390169661469756 -0.035191580876128878 0 -0.027303543715363664 -0.035160553132908091 0 -0.030449763063247745 -0.033594548435921606 0 -0.027303543715363664 -0.035160553132908091 0 -0.026778507476735436 -0.032834167076829443 0 -0.031134930155864944 -0.031625349683369691 0 -0.030449763063247745 -0.033594548435921606 0 -0.026778507476735436 -0.032834167076829443 0 -0.026587653814483692 -0.033199493390110593 0 -0.028635156286960384 -0.030036570066058189 0 -0.031134930155864944 -0.031625349683369691 0 -0.026778507476735436 -0.032834167076829443 0 -0.030294570093421118 -0.029759752175046013 0 -0.025009965128695723 -0.034459858572422085 0 -0.026778507476735436 -0.032834167076829443 0 -0.0244151352906758 -0.033008832308132292 0 -0.026778507476735436 -0.032834167076829443 0 -0.0244151352906758 -0.033008832308132292 0 -0.025087582908075275 -0.031864052082992249 0 -0.025087582908075275 -0.031864052082992249 0 -0.02574102335954748 -0.032268725394650762 0 -0.025423354802244336 -0.032284804465822006 0 -0.026778507476735436 -0.032834167076829443 0 -0.025087582908075275 -0.031864052082992249 0 -0.02574102335954748 -0.032268725394650762 0 -0.018770675717787358 -0.047312630770947918 0 -0.018392514179952336 -0.046349859333324549 0 -0.019827836597928826 -0.046674622338322688 0 -0.020756713139534741 -0.03991585192771234 0 -0.027416023227896054 -0.03818090605684539 0 -0.017290467556582416 -0.04693952273756067 0 -0.018770675717787358 -0.047312630770947918 0 -0.018392514179952336 -0.046349859333324549 0 -0.01703250072040181 -0.046111652923729395 0 -0.018392514179952336 -0.046349859333324549 0 -0.018034846676324646 -0.045681676891589439 0 -0.018392514179952336 -0.046349859333324549 0 -0.018034846676324646 -0.045681676891589439 0 -0.018774312685501612 -0.045528469028639003 0 -0.018392514179952336 -0.046349859333324549 0 -0.018774312685501612 -0.045528469028639003 0 -0.019260941438213528 -0.045977364537013073 0 -0.018392514179952336 -0.046349859333324549 0 -0.019260941438213528 -0.045977364537013073 0 -0.019827836597928826 -0.046674622338322688 0 -0.019260941438213528 -0.045977364537013073 0 -0.01982697679740297 -0.045765776454400227 0 -0.019827836597928826 -0.046674622338322688 0 -0.025881527471880491 -0.045257838313509526 0 -0.027416023227896054 -0.03818090605684539 0 -0.019260941438213528 -0.045977364537013073 0 -0.01936970933488601 -0.045390086025490314 0 -0.01982697679740297 -0.045765776454400227 0 -0.018774312685501612 -0.045528469028639003 0 -0.019260941438213528 -0.045977364537013073 0 -0.01936970933488601 -0.045390086025490314 0 -0.01936970933488601 -0.045390086025490314 0 -0.01982697679740297 -0.045765776454400227 0 -0.019861982202084277 -0.045115964365276012 0 -0.025881527471880491 -0.045257838313509526 0 -0.026785868830139611 -0.043258216786279093 0 -0.032989596038482373 -0.04196609576146576 0 -0.03341768074455647 -0.041921896444460732 0 -0.033475352510766943 -0.041964734637389645 0 -0.032989596038482373 -0.04196609576146576 0 -0.033111584859602229 -0.042165408699575344 0 -0.032193132797382056 -0.042751136073064189 0 -0.032989596038482373 -0.04196609576146576 0 -0.033111584859602229 -0.042165408699575344 0 -0.03341768074455647 -0.041921896444460732 0 -0.027416023227896054 -0.03818090605684539 0 -0.036259564949978472 -0.035090139028146609 0 -0.035157931135230733 -0.029247706813108204 0 -0.032611235880864946 -0.028128148798642522 0 -0.036816136099175771 -0.028752881821610315 0 -0.033111584859602229 -0.042165408699575344 0 -0.032193132797382056 -0.042751136073064189 0 -0.03352511478183564 -0.042507112193557038 0 -0.035157931135230733 -0.029247706813108204 0 -0.035769230666658047 -0.029931994350182085 0 -0.036582182690386156 -0.029625291851186026 0 -0.035157931135230733 -0.029247706813108204 0 -0.032611235880864946 -0.028128148798642522 0 -0.03386020973708407 -0.03007639758860178 0 -0.030294570093421118 -0.029759752175046013 0 -0.032611235880864946 -0.028128148798642522 0 -0.03386020973708407 -0.03007639758860178 0 -0.031134930155864944 -0.031625349683369691 0 -0.030294570093421118 -0.029759752175046013 0 -0.03386020973708407 -0.03007639758860178 0 -0.028635156286960384 -0.030036570066058189 0 -0.027416023227896054 -0.03818090605684539 0 -0.035043513909098711 -0.03107588324705058 0 -0.03386020973708407 -0.03007639758860178 0 -0.036072264937778695 -0.03063897868055903 0 -0.036654286029371215 -0.031315912787583146 0 -0.035043513909098711 -0.03107588324705058 0 -0.036072264937778695 -0.03063897868055903 0 -0.03386020973708407 -0.03007639758860178 0 -0.036072264937778695 -0.03063897868055903 0 -0.035769230666658047 -0.029931994350182085 0 -0.035157931135230733 -0.029247706813108204 0 -0.03386020973708407 -0.03007639758860178 0 -0.035769230666658047 -0.029931994350182085 0 -0.036776940704814631 -0.030297005871486253 0 -0.037628788441373448 -0.030258341390766757 0 -0.036582182690386156 -0.029625291851186026 0 -0.036776940704814631 -0.030297005871486253 0 -0.037352328153898412 -0.030933128877395574 0 -0.037628788441373448 -0.030258341390766757 0 -0.036072264937778695 -0.03063897868055903 0 -0.035769230666658047 -0.029931994350182085 0 -0.036776940704814631 -0.030297005871486253 0 -0.035769230666658047 -0.029931994350182085 0 -0.036776940704814631 -0.030297005871486253 0 -0.036582182690386156 -0.029625291851186026 0 -0.036654286029371215 -0.031315912787583146 0 -0.036072264937778695 -0.03063897868055903 0 -0.037352328153898412 -0.030933128877395574 0 -0.036072264937778695 -0.03063897868055903 0 -0.036776940704814631 -0.030297005871486253 0 -0.037352328153898412 -0.030933128877395574 0 -0.037352328153898412 -0.030933128877395574 0 -0.038192456341942391 -0.031076776393409139 0 -0.037628788441373448 -0.030258341390766757 0 -0.03858222423605813 -0.031529095643771168 0 -0.038192456341942391 -0.031076776393409139 0 -0.038794368420543103 -0.031151258001001533 0 -0.038192456341942391 -0.031076776393409139 0 -0.03856320682946867 -0.030661600805022601 0 -0.038794368420543103 -0.031151258001001533 0 -0.038192456341942391 -0.031076776393409139 0 -0.03856320682946867 -0.030661600805022601 0 -0.037628788441373448 -0.030258341390766757 0 -0.03856320682946867 -0.030661600805022601 0 -0.038069498970423998 -0.029926120251252384 0 -0.037628788441373448 -0.030258341390766757 0 -0.03856320682946867 -0.030661600805022601 0 -0.038069498970423998 -0.029926120251252384 0 -0.03893769411902448 -0.030598040238835202 0 -0.038069498970423998 -0.029926120251252384 0 -0.039011980095441795 -0.030278778116448735 0 -0.03893769411902448 -0.030598040238835202 0 -0.038069498970423998 -0.029926120251252384 0 -0.037303161147514217 -0.029634379474939725 0 -0.036816136099175771 -0.028752881821610315 0 -0.037303161147514217 -0.029634379474939725 0 -0.037628788441373448 -0.030258341390766757 0 -0.036582182690386156 -0.029625291851186026 0 -0.038069498970423998 -0.029926120251252384 0 -0.037303161147514217 -0.029634379474939725 0 -0.037628788441373448 -0.030258341390766757 0 -0.035157931135230733 -0.029247706813108204 0 -0.036582182690386156 -0.029625291851186026 0 -0.036816136099175771 -0.028752881821610315 0 -0.037303161147514217 -0.029634379474939725 0 -0.036582182690386156 -0.029625291851186026 0 -0.036816136099175771 -0.028752881821610315 0 -0.033111584859602229 -0.042165408699575344 0 -0.03352511478183564 -0.042507112193557038 0 -0.033630146676357019 -0.041654388676207937 0 -0.03352511478183564 -0.042507112193557038 0 -0.033630146676357019 -0.041654388676207937 0 -0.035630231191115122 -0.04040287104898712 0 -0.033111584859602229 -0.042165408699575344 0 -0.033630146676357019 -0.041654388676207937 0 -0.03341768074455647 -0.041921896444460732 0 -0.033630146676357019 -0.041654388676207937 0 -0.03341768074455647 -0.041921896444460732 0 -0.033622780159035658 -0.042009514010103985 0 -0.033630146676357019 -0.041654388676207937 0 -0.033622780159035658 -0.042009514010103985 0 -0.033840487852068744 -0.042234894429042852 0 -0.033622780159035658 -0.042009514010103985 0 -0.033840487852068744 -0.042234894429042852 0 -0.033475352510766943 -0.041964734637389645 0 -0.03341768074455647 -0.041921896444460732 0 -0.033622780159035658 -0.042009514010103985 0 -0.033475352510766943 -0.041964734637389645 0 -0.036835043349483301 -0.038128130345607948 0 -0.035630231191115122 -0.04040287104898712 0 -0.037717107853975015 -0.040125411316596214 0 -0.033769061890778572 -0.041508258132795288 0 -0.035374075702420613 -0.040256129475331678 0 -0.033630146676357019 -0.041654388676207937 0 -0.036835043349483301 -0.038128130345607948 0 -0.035630231191115122 -0.04040287104898712 0 -0.036259564949978472 -0.035090139028146609 0 -0.037901467045159128 -0.035338632700920004 0 -0.03352511478183564 -0.042507112193557038 0 -0.035630231191115122 -0.04040287104898712 0 -0.037717107853975015 -0.040125411316596214 0 -0.038069498970423998 -0.029926120251252384 0 -0.036816136099175771 -0.028752881821610315 0 -0.039011980095441795 -0.030278778116448735 0 -0.039011980095441795 -0.030278778116448735 0 -0.039426483151132632 -0.03103151966590852 0 -0.03893769411902448 -0.030598040238835202 0 -0.037717107853975015 -0.040125411316596214 0 -0.03854164331507947 -0.038043533463123877 0 -0.039210472785540934 -0.037557033240650836 0 -0.036835043349483301 -0.038128130345607948 0 -0.03854164331507947 -0.038043533463123877 0 -0.039069761193098608 -0.037369855842011294 0 -0.036835043349483301 -0.038128130345607948 0 -0.037717107853975015 -0.040125411316596214 0 -0.03854164331507947 -0.038043533463123877 0 -0.038881992486674198 -0.037353688730672706 0 -0.039210472785540934 -0.037557033240650836 0 -0.038979022026448276 -0.037538760876508655 0 -0.03854164331507947 -0.038043533463123877 0 -0.039210472785540934 -0.037557033240650836 0 -0.038979022026448276 -0.037538760876508655 0 -0.039952874667989725 -0.03220795588068643 0 -0.039603198493340208 -0.031407376898240594 0 -0.039426483151132632 -0.03103151966590852 0 -0.039011980095441795 -0.030278778116448735 0 -0.039952874667989725 -0.03220795588068643 0 -0.039426483151132632 -0.03103151966590852 0 -0.037901467045159128 -0.035338632700920004 0 -0.039412095766833036 -0.034923316872792758 0 -0.039603198493340208 -0.031407376898240594 0 -0.039248007899328412 -0.031056432812660479 0 -0.039465647403628644 -0.031357339756773225 0 -0.039603198493340208 -0.031407376898240594 0 -0.039426483151132632 -0.03103151966590852 0 -0.039248007899328412 -0.031056432812660479 0 -0.03856320682946867 -0.030661600805022601 0 -0.03893769411902448 -0.030598040238835202 0 -0.039248007899328412 -0.031056432812660479 0 -0.039426483151132632 -0.03103151966590852 0 -0.03893769411902448 -0.030598040238835202 0 -0.039248007899328412 -0.031056432812660479 0 -0.03856320682946867 -0.030661600805022601 0 -0.039248007899328412 -0.031056432812660479 0 -0.038794368420543103 -0.031151258001001533 0 -0.039151045850427293 -0.031382277030927185 0 -0.039248007899328412 -0.031056432812660479 0 -0.038794368420543103 -0.031151258001001533 0 -0.039151045850427293 -0.031382277030927185 0 -0.039248007899328412 -0.031056432812660479 0 -0.039465647403628644 -0.031357339756773225 0 -0.033429700564591026 -0.041673321880699138 0 -0.02992789523089482 -0.044458603359976867 0 -0.032372635668067258 -0.04143424903641893 0 -0.033360567645493278 -0.042230215225859451 0 -0.032063069095977829 -0.043692687908253779 0 -0.027337552648964987 -0.043159400487428605 0 -0.026815806735226402 -0.044947609158304272 0 -0.033429700564591026 -0.041673321880699138 0 -0.034358448300689591 -0.041017777052840862 0 -0.032372635668067258 -0.04143424903641893 0 -0.033360567645493278 -0.042230215225859451 0 -0.034290311880423897 -0.041107679378895486 0 -0.033360567645493278 -0.042230215225859451 0 -0.034443730666986527 -0.041370337518325549 0 -0.033358180298666607 -0.043679396860991017 0 -0.033360567645493278 -0.042230215225859451 0 -0.034443730666986527 -0.041370337518325549 0 -0.034290311880423897 -0.041107679378895486 0 -0.035054341754285921 -0.040761298021497257 0 -0.034290311880423897 -0.041107679378895486 0 -0.03473428459115184 -0.041155944532109544 0 -0.034290311880423897 -0.041107679378895486 0 -0.034350424037182761 -0.041259933597775425 0 -0.03473428459115184 -0.041155944532109544 0 -0.034443730666986527 -0.041370337518325549 0 -0.034290311880423897 -0.041107679378895486 0 -0.034350424037182761 -0.041259933597775425 0 -0.034350424037182761 -0.041259933597775425 0 -0.03473428459115184 -0.041155944532109544 0 -0.034453015902175893 -0.041375690926542648 0 -0.03473428459115184 -0.041155944532109544 0 -0.035083107617165349 -0.041132618397249784 0 -0.035064843460132243 -0.041162220947166539 0 -0.033429700564591026 -0.041673321880699138 0 -0.036341847492749636 -0.040341241726678904 0 -0.037976443633864716 -0.040181458251213449 0 -0.038170326019527988 -0.040537891236681244 0 -0.037785551046847728 -0.03956989158736221 0 -0.035054341754285921 -0.040761298021497257 0 -0.03473428459115184 -0.041155944532109544 0 -0.035083107617165349 -0.041132618397249784 0 -0.035083107617165349 -0.041132618397249784 0 -0.036127360179856544 -0.04105108413406823 0 -0.035064843460132243 -0.041162220947166539 0 -0.038271526133938569 -0.039413611763491861 0 -0.037032467643958428 -0.039820979139942404 0 -0.038436547394823099 -0.039394994331354433 0 -0.036127360179856544 -0.04105108413406823 0 -0.035041688251644436 -0.042293823502610836 0 -0.036341847492749636 -0.040341241726678904 0 -0.036198265728736585 -0.041227562086138196 0 -0.038436547394823099 -0.039394994331354433 0 -0.037785551046847728 -0.03956989158736221 0 -0.036127360179856544 -0.04105108413406823 0 -0.036127360179856544 -0.04105108413406823 0 -0.035041688251644436 -0.042293823502610836 0 -0.034818673529406735 -0.041523239482453317 0 -0.038881992486674198 -0.037353688730672706 0 -0.038979022026448276 -0.037538760876508655 0 -0.039069761193098608 -0.037369855842011294 0 -0.03854164331507947 -0.038043533463123877 0 -0.038979022026448276 -0.037538760876508655 0 -0.039069761193098608 -0.037369855842011294 0 -0.038881992486674198 -0.037353688730672706 0 -0.038436547394823099 -0.039394994331354433 0 -0.039069761193098608 -0.037369855842011294 0 -0.035041688251644436 -0.042293823502610836 0 -0.034818673529406735 -0.041523239482453317 0 -0.034083431153132102 -0.041864190522019847 0 -0.035374075702420613 -0.040256129475331678 0 -0.037032467643958428 -0.039820979139942404 0 -0.033840487852068744 -0.042234894429042852 0 -0.035041688251644436 -0.042293823502610836 0 -0.034083431153132102 -0.041864190522019847 0 -0.034818673529406735 -0.041523239482453317 0 -0.034453015902175893 -0.041375690926542648 0 -0.034083431153132102 -0.041864190522019847 0 -0.036127360179856544 -0.04105108413406823 0 -0.034818673529406735 -0.041523239482453317 0 -0.035064843460132243 -0.041162220947166539 0 -0.034818673529406735 -0.041523239482453317 0 -0.035064843460132243 -0.041162220947166539 0 -0.034453015902175893 -0.041375690926542648 0 -0.03473428459115184 -0.041155944532109544 0 -0.035064843460132243 -0.041162220947166539 0 -0.034453015902175893 -0.041375690926542648 0 -0.034453015902175893 -0.041375690926542648 0 -0.033775178497174652 -0.041578122005616329 0 -0.034083431153132102 -0.041864190522019847 0 -0.034350424037182761 -0.041259933597775425 0 -0.034453015902175893 -0.041375690926542648 0 -0.033775178497174652 -0.041578122005616329 0 -0.033840487852068744 -0.042234894429042852 0 -0.034083431153132102 -0.041864190522019847 0 -0.033475352510766943 -0.041964734637389645 0 -0.033775178497174652 -0.041578122005616329 0 -0.034083431153132102 -0.041864190522019847 0 -0.033475352510766943 -0.041964734637389645 0 -0.020147150192804299 -0.044349031029578455 0 -0.019623128492024397 -0.044737194627544968 0 -0.019636632216089321 -0.044492367976886563 0 -0.026960742268041973 -0.043060215761669622 0 -0.026785868830139611 -0.043258216786279093 0 -0.020147150192804299 -0.044349031029578455 0 -0.019861982202084277 -0.045115964365276012 0 -0.019623128492024397 -0.044737194627544968 0 -0.020147150192804299 -0.044349031029578455 0 -0.019636632216089321 -0.044492367976886563 0 -0.020015275356462033 -0.044431124305387086 0 -0.019636632216089321 -0.044492367976886563 0 -0.019427479144853484 -0.044314240468108244 0 -0.019221654344788466 -0.044363037098880898 0 -0.019427479144853484 -0.044314240468108244 0 -0.019040010630623209 -0.044263741989340084 0 -0.019221654344788466 -0.044363037098880898 0 -0.019427479144853484 -0.044314240468108244 0 -0.019353407770509225 -0.044268337878238313 0 -0.019573282421384321 -0.044321151980270493 0 -0.019427479144853484 -0.044314240468108244 0 -0.019353407770509225 -0.044268337878238313 0 -0.019040010630623209 -0.044263741989340084 0 -0.019946438937413918 -0.044459482132463334 0 -0.019952596087467189 -0.044546367335865047 0 -0.020147150192804299 -0.044349031029578455 0 -0.020337962447372158 -0.044590551011023424 0 -0.020015275356462033 -0.044431124305387086 0 -0.019952596087467189 -0.044546367335865047 0 -0.019967107406841912 -0.044564172896517852 0 -0.019636632216089321 -0.044492367976886563 0 -0.019427479144853484 -0.044314240468108244 0 -0.020015275356462033 -0.044431124305387086 0 -0.019427479144853484 -0.044314240468108244 0 -0.019573282421384321 -0.044321151980270493 0 -0.020015275356462033 -0.044431124305387086 0 -0.034443730666986527 -0.041370337518325549 0 -0.034350424037182761 -0.041259933597775425 0 -0.033775178497174652 -0.041578122005616329 0 -0.027337552648964987 -0.043159400487428605 0 -0.026960742268041973 -0.043060215761669622 0 -0.020279226360207677 -0.044921310643226846 0 -0.020147150192804299 -0.044349031029578455 0 -0.020337962447372158 -0.044590551011023424 0 -0.020279226360207677 -0.044921310643226846 0 -0.020464039314817748 -0.044751598913535522 0 -0.020337962447372158 -0.044590551011023424 0 -0.020279226360207677 -0.044921310643226846 0 -0.020464039314817748 -0.044751598913535522 0 -0.020618607040626985 -0.045931198700122203 0 -0.019353407770509225 -0.044268337878238313 0 -0.019040010630623209 -0.044263741989340084 0 -0.018452813204914906 -0.044358794972371038 0 -0.019946438937413918 -0.044459482132463334 0 -0.019169130569451378 -0.045611964806245596 0 -0.018921315233045962 -0.044280344673182391 0 -0.018705728830414801 -0.044238501944793236 0 -0.018705980625944335 -0.044295598148719195 0 -0.019040010630623209 -0.044263741989340084 0 -0.018921315233045962 -0.044280344673182391 0 -0.019221654344788466 -0.044363037098880898 0 -0.019040010630623209 -0.044263741989340084 0 -0.018921315233045962 -0.044280344673182391 0 -0.018705980625944335 -0.044295598148719195 0 -0.018705728830414801 -0.044238501944793236 0 -0.018453463418995446 -0.044240324605689628 0 -0.018616563704404222 -0.044348030131238246 0 -0.018921315233045962 -0.044280344673182391 0 -0.018705728830414801 -0.044238501944793236 0 -0.018901031835637017 -0.044382640004347371 0 -0.018705728830414801 -0.044238501944793236 0 -0.018901031835637017 -0.044382640004347371 0 -0.018616563704404222 -0.044348030131238246 0 -0.018901031835637017 -0.044382640004347371 0 -0.018712810258549668 -0.044556148080482583 0 -0.019190770730769482 -0.044624480780781739 0 -0.018901031835637017 -0.044382640004347371 0 -0.018712810258549668 -0.044556148080482583 0 -0.018616563704404222 -0.044348030131238246 0 -0.018901031835637017 -0.044382640004347371 0 -0.019221654344788466 -0.044363037098880898 0 -0.019190770730769482 -0.044624480780781739 0 -0.019636632216089321 -0.044492367976886563 0 -0.019221654344788466 -0.044363037098880898 0 -0.019190770730769482 -0.044624480780781739 0 -0.018921315233045962 -0.044280344673182391 0 -0.018901031835637017 -0.044382640004347371 0 -0.019221654344788466 -0.044363037098880898 0 -0.019623128492024397 -0.044737194627544968 0 -0.019636632216089321 -0.044492367976886563 0 -0.019190770730769482 -0.044624480780781739 0 -0.019623128492024397 -0.044737194627544968 0 -0.019190770730769482 -0.044624480780781739 0 -0.019389504675366313 -0.044962770466394457 0 -0.019861982202084277 -0.045115964365276012 0 -0.019623128492024397 -0.044737194627544968 0 -0.019389504675366313 -0.044962770466394457 0 -0.01936970933488601 -0.045390086025490314 0 -0.019861982202084277 -0.045115964365276012 0 -0.019389504675366313 -0.044962770466394457 0 -0.018774312685501612 -0.045528469028639003 0 -0.01936970933488601 -0.045390086025490314 0 -0.018894291114314708 -0.044954324473272696 0 -0.01936970933488601 -0.045390086025490314 0 -0.019389504675366313 -0.044962770466394457 0 -0.018894291114314708 -0.044954324473272696 0 -0.018712810258549668 -0.044556148080482583 0 -0.019190770730769482 -0.044624480780781739 0 -0.018894291114314708 -0.044954324473272696 0 -0.019190770730769482 -0.044624480780781739 0 -0.019389504675366313 -0.044962770466394457 0 -0.018894291114314708 -0.044954324473272696 0 -0.018712810258549668 -0.044556148080482583 0 -0.018894291114314708 -0.044954324473272696 0 -0.018360261166503227 -0.044687430740304561 0 -0.018894291114314708 -0.044954324473272696 0 -0.018360261166503227 -0.044687430740304561 0 -0.018347587047815521 -0.045091546264864737 0 -0.018774312685501612 -0.045528469028639003 0 -0.018894291114314708 -0.044954324473272696 0 -0.018347587047815521 -0.045091546264864737 0 -0.018034846676324646 -0.045681676891589439 0 -0.018774312685501612 -0.045528469028639003 0 -0.018347587047815521 -0.045091546264864737 0 -0.018034846676324646 -0.045681676891589439 0 -0.018347587047815521 -0.045091546264864737 0 -0.017800090679408284 -0.045229141827890125 0 -0.018347587047815521 -0.045091546264864737 0 -0.017800090679408284 -0.045229141827890125 0 -0.017907605456318112 -0.044889141620598816 0 -0.018360261166503227 -0.044687430740304561 0 -0.018347587047815521 -0.045091546264864737 0 -0.017907605456318112 -0.044889141620598816 0 -0.018360261166503227 -0.044687430740304561 0 -0.017907605456318112 -0.044889141620598816 0 -0.017954353249168057 -0.04462197798250684 0 -0.017954353249168057 -0.04462197798250684 0 -0.018265212082303171 -0.044436315643107113 0 -0.017777126877405777 -0.044437293800857876 0 -0.018360261166503227 -0.044687430740304561 0 -0.017954353249168057 -0.04462197798250684 0 -0.018265212082303171 -0.044436315643107113 0 -0.018712810258549668 -0.044556148080482583 0 -0.018265212082303171 -0.044436315643107113 0 -0.018616563704404222 -0.044348030131238246 0 -0.018712810258549668 -0.044556148080482583 0 -0.018360261166503227 -0.044687430740304561 0 -0.018265212082303171 -0.044436315643107113 0 -0.018265212082303171 -0.044436315643107113 0 -0.018453463418995446 -0.044240324605689628 0 -0.018616563704404222 -0.044348030131238246 0 -0.018265212082303171 -0.044436315643107113 0 -0.018453463418995446 -0.044240324605689628 0 -0.018068562052551508 -0.044244544263289637 0 -0.018265212082303171 -0.044436315643107113 0 -0.018068562052551508 -0.044244544263289637 0 -0.017777126877405777 -0.044437293800857876 0 -0.018453463418995446 -0.044240324605689628 0 -0.018068562052551508 -0.044244544263289637 0 -0.01824131840865769 -0.044107276367562322 0 -0.01824131840865769 -0.044107276367562322 0 -0.017932621484177253 -0.044101790025250893 0 -0.018033991275080444 -0.043885676242051641 0 -0.018068562052551508 -0.044244544263289637 0 -0.01824131840865769 -0.044107276367562322 0 -0.017932621484177253 -0.044101790025250893 0 -0.018068562052551508 -0.044244544263289637 0 -0.017932621484177253 -0.044101790025250893 0 -0.017778965759263778 -0.044233687689505398 0 -0.01824131840865769 -0.044107276367562322 0 -0.018561746526671648 -0.04417730209897535 0 -0.018315156604460772 -0.0439414159779885 0 -0.018453463418995446 -0.044240324605689628 0 -0.01824131840865769 -0.044107276367562322 0 -0.018561746526671648 -0.04417730209897535 0 -0.018315156604460772 -0.0439414159779885 0 -0.018033991275080444 -0.043885676242051641 0 -0.01839493215398921 -0.043760230724004062 0 -0.018561746526671648 -0.04417730209897535 0 -0.018315156604460772 -0.0439414159779885 0 -0.01857398407001843 -0.043827170428703897 0 -0.018315156604460772 -0.0439414159779885 0 -0.01839493215398921 -0.043760230724004062 0 -0.01857398407001843 -0.043827170428703897 0 -0.015229328501966609 -0.045871496795237658 0 -0.015851810327404032 -0.045497454331334321 0 -0.01824131840865769 -0.044107276367562322 0 -0.018315156604460772 -0.0439414159779885 0 -0.018033991275080444 -0.043885676242051641 0 -0.011745428767733592 -0.048222918857061571 0 -0.012022503006150516 -0.047206327832052704 0 -0.010939023654186922 -0.047815175720740587 0 -0.011745428767733592 -0.048222918857061571 0 -0.012022503006150516 -0.047206327832052704 0 -0.013382387157248895 -0.047245665012786646 0 -0.012022503006150516 -0.047206327832052704 0 -0.011421329629593913 -0.046285307271234415 0 -0.010939023654186922 -0.047815175720740587 0 -0.012022503006150516 -0.047206327832052704 0 -0.011421329629593913 -0.046285307271234415 0 -0.012755711146314418 -0.046381865158843717 0 -0.011421329629593913 -0.046285307271234415 0 -0.013107760704541394 -0.044999950637454905 0 -0.012755711146314418 -0.046381865158843717 0 -0.011421329629593913 -0.046285307271234415 0 -0.013107760704541394 -0.044999950637454905 0 -0.010636800421483579 -0.04499990467469038 0 -0.013107760704541394 -0.044999950637454905 0 -0.013818753941119481 -0.046061155801443023 0 -0.012755711146314418 -0.046381865158843717 0 -0.012022503006150516 -0.047206327832052704 0 -0.012755711146314418 -0.046381865158843717 0 -0.013382387157248895 -0.047245665012786646 0 -0.013818753941119481 -0.046061155801443023 0 -0.012755711146314418 -0.046381865158843717 0 -0.013382387157248895 -0.047245665012786646 0 -0.015851810327404032 -0.045497454331334321 0 -0.01678775978611172 -0.04515584296647792 0 -0.018168371817414684 -0.045152632438432941 0 -0.018188568996875546 -0.044779561898645931 0 -0.018541766041547277 -0.044605111446997657 0 -0.013818753941119481 -0.046061155801443023 0 -0.013382387157248895 -0.047245665012786646 0 -0.015146185424313372 -0.046122229653587574 0 -0.01839493215398921 -0.043760230724004062 0 -0.018614270017088517 -0.043648861211844234 0 -0.01857398407001843 -0.043827170428703897 0 -0.01678775978611172 -0.04515584296647792 0 -0.018671488431670224 -0.044004387681224964 0 -0.013818753941119481 -0.046061155801443023 0 -0.015146185424313372 -0.046122229653587574 0 -0.01557843817481757 -0.04499996500686404 0 -0.013107760704541394 -0.044999950637454905 0 -0.013818753941119481 -0.046061155801443023 0 -0.01557843817481757 -0.04499996500686404 0 -0.01678775978611172 -0.04515584296647792 0 -0.015578416815623414 -0.045001269082813419 0 -0.018168371817414684 -0.045152632438432941 0 -0.01684364710630662 -0.044999381710792818 0 -0.017586666194469955 -0.045085082121050835 0 -0.01678775978611172 -0.04515584296647792 0 -0.016837303560652068 -0.045000453104515011 0 -0.015176053881202849 -0.046142130100082279 0 -0.016837380886623159 -0.045000017050261243 0 -0.015578599295988881 -0.04499996673231741 0 -0.018168371817414684 -0.045152632438432941 0 -0.017586666194469955 -0.045085082121050835 0 -0.018188568996875546 -0.044779561898645931 0 -0.017586666194469955 -0.045085082121050835 0 -0.018188568996875546 -0.044779561898645931 0 -0.018081344652932891 -0.044735562589680505 0 -0.018081344652932891 -0.044735562589680505 0 -0.01845986923882649 -0.044395488526583468 0 -0.018333688064127034 -0.044535304179977447 0 -0.018188568996875546 -0.044779561898645931 0 -0.018081344652932891 -0.044735562589680505 0 -0.01845986923882649 -0.044395488526583468 0 -0.018524313568281461 -0.044281486539604009 0 -0.018671488431670224 -0.044004387681224964 0 -0.018561746526671648 -0.04417730209897535 0 -0.01845986923882649 -0.044395488526583468 0 -0.018541766041547277 -0.044605111446997657 0 -0.018188568996875546 -0.044779561898645931 0 -0.01845986923882649 -0.044395488526583468 0 -0.018541766041547277 -0.044605111446997657 0 -0.018705728830414801 -0.044238501944793236 0 -0.018561746526671648 -0.04417730209897535 0 -0.01845986923882649 -0.044395488526583468 0 -0.018705728830414801 -0.044238501944793236 0 -0.018453463418995446 -0.044240324605689628 0 -0.018561746526671648 -0.04417730209897535 0 -0.018705728830414801 -0.044238501944793236 0 -0.01845986923882649 -0.044395488526583468 0 -0.018705980625944335 -0.044295598148719195 0 -0.01845986923882649 -0.044395488526583468 0 -0.018705980625944335 -0.044295598148719195 0 -0.018333688064127034 -0.044535304179977447 0 -0.019040010630623209 -0.044263741989340084 0 -0.018705980625944335 -0.044295598148719195 0 -0.018452813204914906 -0.044358794972371038 0 -0.018705980625944335 -0.044295598148719195 0 -0.018452813204914906 -0.044358794972371038 0 -0.018333688064127034 -0.044535304179977447 0 -0.020618607040626985 -0.045931198700122203 0 -0.020304551887737665 -0.046316833029020621 0 -0.020171153738217092 -0.046170200342062387 0 -0.020279226360207677 -0.044921310643226846 0 -0.020618607040626985 -0.045931198700122203 0 -0.020171153738217092 -0.046170200342062387 0 -0.019169130569451378 -0.045611964806245596 0 -0.019201972179173972 -0.046340544539553774 0 -0.019844369376048231 -0.046351561584302849 0 -0.020376829549398005 -0.046275122612019631 0 -0.020304551887737665 -0.046316833029020621 0 -0.020618607040626985 -0.045931198700122203 0 -0.019844369376048231 -0.046351561584302849 0 -0.020304551887737665 -0.046316833029020621 0 -0.018546434875968482 -0.046487348448325215 0 -0.018495864883455844 -0.046285411164159553 0 -0.01845369247135285 -0.046284148329727659 0 -0.018452813204914906 -0.044358794972371038 0 -0.018333688064127034 -0.044535304179977447 0 -0.017944171209824698 -0.044958066239879552 0 -0.018081344652932891 -0.044735562589680505 0 -0.018333688064127034 -0.044535304179977447 0 -0.017944171209824698 -0.044958066239879552 0 -0.019169130569451378 -0.045611964806245596 0 -0.018155417491665705 -0.045558326361441935 0 -0.017586666194469955 -0.045085082121050835 0 -0.018081344652932891 -0.044735562589680505 0 -0.017944171209824698 -0.044958066239879552 0 -0.01684364710630662 -0.044999381710792818 0 -0.017586666194469955 -0.045085082121050835 0 -0.018351276278884492 -0.045000104695642126 0 -0.017586666194469955 -0.045085082121050835 0 -0.018351276278884492 -0.045000104695642126 0 -0.017944171209824698 -0.044958066239879552 0 -0.018566157574311536 -0.04500004480098576 0 -0.019844369376048231 -0.046351561584302849 0 -0.020057347896402337 -0.045812620623074236 0 -0.018356116042281587 -0.045000077112014675 0 -0.018155417491665705 -0.045558326361441935 0 -0.018562243420191214 -0.044999981860894711 0 -0.018357821211500897 -0.044999983997618724 0 -0.018495864883455844 -0.046285411164159553 0 -0.018564143090586557 -0.044999879628685596 0 -0.019201972179173972 -0.046340544539553774 0 -0.019844369376048231 -0.046351561584302849 0 -0.020376829549398005 -0.046275122612019631 0 -0.020057347896402337 -0.045812620623074236 0 -0.018357821211500897 -0.044999983997618724 0 -0.018495864883455844 -0.046285411164159553 0 -0.01845369247135285 -0.046284148329727659 0 -0.020376829549398005 -0.046275122612019631 0 -0.020973168703033576 -0.046330766791580422 0 -0.020555544925785332 -0.046367532374195781 0 -0.020376829549398005 -0.046275122612019631 0 -0.020924768594953538 -0.045959486671554854 0 -0.020057347896402337 -0.045812620623074236 0 -0.020376829549398005 -0.046275122612019631 0 -0.020924768594953538 -0.045959486671554854 0 -0.020973168703033576 -0.046330766791580422 0 -0.018566157574311536 -0.04500004480098576 0 -0.020057347896402337 -0.045812620623074236 0 -0.021226847357492768 -0.044999595521424775 0 -0.020924768594953538 -0.045959486671554854 0 -0.020057347896402337 -0.045812620623074236 0 -0.021226847357492768 -0.044999595521424775 0 -0.020924768594953538 -0.045959486671554854 0 -0.021226847357492768 -0.044999595521424775 0 -0.021883206843699488 -0.045774672054718364 0 -0.023890725643502097 -0.044999820214759026 0 -0.021226847357492768 -0.044999595521424775 0 -0.021883206843699488 -0.045774672054718364 0 -0.022677728057370908 -0.045979905811661295 0 -0.021883206843699488 -0.045774672054718364 0 -0.021548789384810273 -0.046450365385065431 0 -0.021883206843699488 -0.045774672054718364 0 -0.021323474355992366 -0.046144400449276084 0 -0.021548789384810273 -0.046450365385065431 0 -0.020924768594953538 -0.045959486671554854 0 -0.021883206843699488 -0.045774672054718364 0 -0.021323474355992366 -0.046144400449276084 0 -0.020924768594953538 -0.045959486671554854 0 -0.021323474355992366 -0.046144400449276084 0 -0.020973168703033576 -0.046330766791580422 0 -0.021323474355992366 -0.046144400449276084 0 -0.020973168703033576 -0.046330766791580422 0 -0.021548789384810273 -0.046450365385065431 0 -0.020973168703033576 -0.046330766791580422 0 -0.02133146398299118 -0.046516899878551683 0 -0.020555544925785332 -0.046367532374195781 0 -0.020973168703033576 -0.046330766791580422 0 -0.021548789384810273 -0.046450365385065431 0 -0.02133146398299118 -0.046516899878551683 0 -0.025656966223400909 -0.04629067095812385 0 -0.026381221953019597 -0.045925246457148787 0 -0.026381221953019597 -0.045925246457148787 0 -0.02992789523089482 -0.044458603359976867 0 -0.02133146398299118 -0.046516899878551683 0 -0.020555544925785332 -0.046367532374195781 0 -0.020171153738217092 -0.046170200342062387 0 -0.031743272930830006 -0.046193803394281953 0 -0.033358180298666607 -0.043679396860991017 0 -0.032063069095977829 -0.043692687908253779 0 -0.026381221953019597 -0.045925246457148787 0 -0.026815806735226402 -0.044947609158304272 0 -0.020555544925785332 -0.046367532374195781 0 -0.020304551887737665 -0.046316833029020621 0 -0.020171153738217092 -0.046170200342062387 0 -0.020376829549398005 -0.046275122612019631 0 -0.020555544925785332 -0.046367532374195781 0 -0.020304551887737665 -0.046316833029020621 0 -0.033360567645493278 -0.042230215225859451 0 -0.033358180298666607 -0.043679396860991017 0 -0.032063069095977829 -0.043692687908253779 0 -0.02782904696038857 -0.04495435888147873 0 -0.02840876546429575 -0.044627589777908185 0 -0.027798636206573961 -0.044913236880779514 0 -0.0035916338457839788 -0.044283002799385449 0 -0.0043546470690315111 -0.044113813418675867 0 -0.0040610645406710241 -0.044102305208155591 0 -0.0035916338457839788 -0.044283002799385449 0 -0.0043546470690315111 -0.044113813418675867 0 -0.0036717957501379525 -0.044471869343766089 0 -0.0043546470690315111 -0.044113813418675867 0 -0.0036717957501379525 -0.044471869343766089 0 -0.0053201843007674261 -0.044246598162244855 0 -0.0043546470690315111 -0.044113813418675867 0 -0.0053201843007674261 -0.044246598162244855 0 -0.0050283881732450589 -0.043847543568675769 0 -0.0043546470690315111 -0.044113813418675867 0 -0.0040610645406710241 -0.044102305208155591 0 -0.0050283881732450589 -0.043847543568675769 0 -0.0040610645406710241 -0.044102305208155591 0 -0.0041114225067970366 -0.04408020635767864 0 -0.0037388129327546858 -0.044244959188390727 0 -0.0041114225067970366 -0.04408020635767864 0 -0.0037199417980811646 -0.044212827521148274 0 -0.0050283881732450589 -0.043847543568675769 0 -0.0040610645406710241 -0.044102305208155591 0 -0.0041114225067970366 -0.04408020635767864 0 -0.0050283881732450589 -0.043847543568675769 0 -0.0041114225067970366 -0.04408020635767864 0 -0.0037199417980811646 -0.044212827521148274 0 -0.0037388129327546858 -0.044244959188390727 0 -0.0037199417980811646 -0.044212827521148274 0 -0.0037388129327546858 -0.044244959188390727 0 -0.0035503463180316793 -0.044376620937606005 0 -0.0037388129327546858 -0.044244959188390727 0 -0.0034913741945872189 -0.044352568996776399 0 -0.0034079336780977469 -0.044484840079536542 0 -0.0035916338457839788 -0.044283002799385449 0 -0.0040610645406710241 -0.044102305208155591 0 -0.0034913741945872189 -0.044352568996776399 0 -0.0040610645406710241 -0.044102305208155591 0 -0.0037388129327546858 -0.044244959188390727 0 -0.0034913741945872189 -0.044352568996776399 0 -0.0035916338457839788 -0.044283002799385449 0 -0.0034913741945872189 -0.044352568996776399 0 -0.0033970232904269411 -0.044454266157940805 0 -0.0034913741945872189 -0.044352568996776399 0 -0.0032839549955966177 -0.044596545095441281 0 -0.0032395489589944959 -0.044663520613742257 0 -0.0033970232904269411 -0.044454266157940805 0 -0.0035665796544516407 -0.044217125482855377 0 -0.0032025978641100185 -0.044873738572053477 0 -0.0033970232904269411 -0.044454266157940805 0 -0.0032025978641100185 -0.044873738572053477 0 -0.0032395489589944959 -0.044663520613742257 0 -0.0035916338457839788 -0.044283002799385449 0 -0.0033970232904269411 -0.044454266157940805 0 -0.0035665796544516407 -0.044217125482855377 0 -0.0034913741945872189 -0.044352568996776399 0 -0.0033970232904269411 -0.044454266157940805 0 -0.0032395489589944959 -0.044663520613742257 0 -0.0031906264904514835 -0.044900936683363354 0 -0.003087285318398587 -0.045073283868384946 0 -0.0035665796544516407 -0.044217125482855377 0 -0.0032025978641100185 -0.044873738572053477 0 -0.0034921120757670171 -0.044395677241540712 0 -0.0035073791041137811 -0.04446126658095554 0 -0.0035665796544516407 -0.044217125482855377 0 -0.0037314475906300875 -0.044767226581810801 0 -0.0035073791041137811 -0.04446126658095554 0 -0.0035665796544516407 -0.044217125482855377 0 -0.0034921120757670171 -0.044395677241540712 0 -0.0037238574098057298 -0.044187738430762638 0 -0.004951020253307431 -0.044265241640853201 0 -0.0035916338457839788 -0.044283002799385449 0 -0.0035665796544516407 -0.044217125482855377 0 -0.0036717957501379525 -0.044471869343766089 0 -0.0035665796544516407 -0.044217125482855377 0 -0.0037314475906300875 -0.044767226581810801 0 -0.0061337764766462343 -0.043982195812554636 0 -0.0051056042819696739 -0.045241585315473662 0 -0.0037314475906300875 -0.044767226581810801 0 -0.0061337764766462343 -0.043982195812554636 0 -0.0051056042819696739 -0.045241585315473662 0 -0.0037314475906300875 -0.044767226581810801 0 -0.003592396857549572 -0.045336706179980008 0 -0.0037314475906300875 -0.044767226581810801 0 -0.003592396857549572 -0.045336706179980008 0 -0.0017158203582829878 -0.044526272804047959 0 -0.0065839662944433344 -0.046880349895637205 0 -0.0060028166224366675 -0.045253710218591467 0 -0.0056461787092059153 -0.046227222220467518 0 -0.0060028166224366675 -0.045253710218591467 0 -0.0056461787092059153 -0.046227222220467518 0 -0.0050918116752520937 -0.045549890375097241 0 -0.0065839662944433344 -0.046880349895637205 0 -0.0060028166224366675 -0.045253710218591467 0 -0.0080302183468782175 -0.046124441890489011 0 -0.0051056042819696739 -0.045241585315473662 0 -0.003592396857549572 -0.045336706179980008 0 -0.0062766183452264129 -0.046281808593479551 0 -0.0048056670046720627 -0.045263936821375993 0 -0.007178212857125243 -0.046202440889072917 0 -0.0051056042819696739 -0.045241585315473662 0 -0.0062766183452264129 -0.046281808593479551 0 -0.0061337764766462343 -0.043982195812554636 0 -0.0062766183452264129 -0.046281808593479551 0 -0.0061337764766462343 -0.043982195812554636 0 -0.0079996948538545477 -0.045517399660493271 0 -0.0061337764766462343 -0.043982195812554636 0 -0.0079996948538545477 -0.045517399660493271 0 -0.0096168239564613373 -0.044703124614961058 0 -0.004951020253307431 -0.044265241640853201 0 -0.0080007820130633279 -0.044881379539112178 0 -0.0036717957501379525 -0.044471869343766089 0 -0.0053201843007674261 -0.044246598162244855 0 -0.0061886237691358521 -0.045145360290832326 0 -0.010087652056862557 -0.047195537361487391 0 -0.0062766183452264129 -0.046281808593479551 0 -0.0079996948538545477 -0.045517399660493271 0 -0.009906793969880371 -0.047155003545211897 0 -0.007178212857125243 -0.046202440889072917 0 -0.0079996948538545477 -0.045517399660493271 0 -0.0096169740442294937 -0.045904859748346953 0 -0.0096168239564613373 -0.044703124614961058 0 -0.010087652056862557 -0.047195537361487391 0 -0.0079996948538545477 -0.045517399660493271 0 -0.0096169740442294937 -0.045904859748346953 0 -0.012628756599558854 -0.046076447772173269 0 -0.0080007820130633279 -0.044881379539112178 0 -0.013078618935273087 -0.046037753017897184 0 -0.009683074586901437 -0.044626657446076336 0 -0.0061886237691358521 -0.045145360290832326 0 -0.010087652056862557 -0.047195537361487391 0 -0.0096169740442294937 -0.045904859748346953 0 -0.010877989516294439 -0.046181159898038053 0 -0.010877989516294439 -0.046181159898038053 0 -0.013078618935273087 -0.046037753017897184 0 -0.0096168239564613373 -0.044703124614961058 0 -0.0096169740442294937 -0.045904859748346953 0 -0.010877989516294439 -0.046181159898038053 0 -0.0096168239564613373 -0.044703124614961058 0 -0.011987120727296229 -0.046815608021946273 0 -0.010877989516294439 -0.046181159898038053 0 -0.013078618935273087 -0.046037753017897184 0 -0.013078618935273087 -0.046037753017897184 0 -0.013101909630398697 -0.044556321824034309 0 -0.011507990222564591 -0.044282278214769238 0 -0.013078618935273087 -0.046037753017897184 0 -0.009683074586901437 -0.044626657446076336 0 -0.011507990222564591 -0.044282278214769238 0 -0.0099072219829939526 -0.0434616497909582 0 -0.011507990222564591 -0.044282278214769238 0 -0.011685820234788461 -0.042817806023908139 0 -0.009683074586901437 -0.044626657446076336 0 -0.0099072219829939526 -0.0434616497909582 0 -0.011507990222564591 -0.044282278214769238 0 -0.013101909630398697 -0.044556321824034309 0 -0.011507990222564591 -0.044282278214769238 0 -0.012624205535745076 -0.042090181625535794 0 -0.012084738710077432 -0.043593427860248279 0 -0.011813740065102333 -0.045806021970842575 0 -0.0099072219829939526 -0.0434616497909582 0 -0.011685820234788461 -0.042817806023908139 0 -0.0095139895891264131 -0.04206459215176394 0 -0.0085926199294440817 -0.042290088635750261 0 -0.0076902917492221905 -0.044146994591864205 0 -0.0076744515849057962 -0.040589122402557541 0 -0.0075092607320443238 -0.044186917219763408 0 -0.0064655455019314596 -0.042526153945398916 0 -0.0099072219829939526 -0.0434616497909582 0 -0.0085926199294440817 -0.042290088635750261 0 -0.0076902917492221905 -0.044146994591864205 0 -0.0053201843007674261 -0.044246598162244855 0 -0.0076902917492221905 -0.044146994591864205 0 -0.0050283881732450589 -0.043847543568675769 0 -0.0099072219829939526 -0.0434616497909582 0 -0.0085926199294440817 -0.042290088635750261 0 -0.0095139895891264131 -0.04206459215176394 0 -0.0053201843007674261 -0.044246598162244855 0 -0.0061886237691358521 -0.045145360290832326 0 -0.0076902917492221905 -0.044146994591864205 0 -0.009683074586901437 -0.044626657446076336 0 -0.0099072219829939526 -0.0434616497909582 0 -0.0076902917492221905 -0.044146994591864205 0 -0.009683074586901437 -0.044626657446076336 0 -0.0061886237691358521 -0.045145360290832326 0 -0.0076902917492221905 -0.044146994591864205 0 -0.01703250072040181 -0.046111652923729395 0 -0.017395377230756359 -0.045461765896248764 0 -0.017093687524496175 -0.045279593100847344 0 -0.017800090679408284 -0.045229141827890125 0 -0.017395377230756359 -0.045461765896248764 0 -0.017447077380187987 -0.045089296221688439 0 -0.018034846676324646 -0.045681676891589439 0 -0.017800090679408284 -0.045229141827890125 0 -0.017395377230756359 -0.045461765896248764 0 -0.017395377230756359 -0.045461765896248764 0 -0.017093687524496175 -0.045279593100847344 0 -0.017447077380187987 -0.045089296221688439 0 -0.014940100374915817 -0.04635750819343492 0 -0.013078618935273087 -0.046037753017897184 0 -0.015304666712993572 -0.045394028018325649 0 -0.013078618935273087 -0.046037753017897184 0 -0.013101909630398697 -0.044556321824034309 0 -0.015304666712993572 -0.045394028018325649 0 -0.016942324627306101 -0.044868189602649426 0 -0.017093687524496175 -0.045279593100847344 0 -0.017240416143876384 -0.044932221867284766 0 -0.013101909630398697 -0.044556321824034309 0 -0.012624205535745076 -0.042090181625535794 0 -0.015304666712993572 -0.045394028018325649 0 -0.011813740065102333 -0.045806021970842575 0 -0.016423737737452305 -0.04515457743857846 0 -0.016942324627306101 -0.044868189602649426 0 -0.017240416143876384 -0.044932221867284766 0 -0.017289698024580663 -0.044695602101697901 0 -0.017240416143876384 -0.044932221867284766 0 -0.017547218793103475 -0.044733342946499791 0 -0.017289698024580663 -0.044695602101697901 0 -0.017093687524496175 -0.045279593100847344 0 -0.017240416143876384 -0.044932221867284766 0 -0.017447077380187987 -0.045089296221688439 0 -0.017240416143876384 -0.044932221867284766 0 -0.017447077380187987 -0.045089296221688439 0 -0.017547218793103475 -0.044733342946499791 0 -0.017907605456318112 -0.044889141620598816 0 -0.017447077380187987 -0.045089296221688439 0 -0.017547218793103475 -0.044733342946499791 0 -0.017907605456318112 -0.044889141620598816 0 -0.017954353249168057 -0.04462197798250684 0 -0.017547218793103475 -0.044733342946499791 0 -0.017800090679408284 -0.045229141827890125 0 -0.017907605456318112 -0.044889141620598816 0 -0.017447077380187987 -0.045089296221688439 0 -0.017954353249168057 -0.04462197798250684 0 -0.017547218793103475 -0.044733342946499791 0 -0.017777126877405777 -0.044437293800857876 0 -0.017547218793103475 -0.044733342946499791 0 -0.017482430041480122 -0.044524773471265981 0 -0.017289698024580663 -0.044695602101697901 0 -0.017547218793103475 -0.044733342946499791 0 -0.017482430041480122 -0.044524773471265981 0 -0.017777126877405777 -0.044437293800857876 0 -0.016942324627306101 -0.044868189602649426 0 -0.017289698024580663 -0.044695602101697901 0 -0.017275424823015341 -0.044417680723215877 0 -0.011813740065102333 -0.045806021970842575 0 -0.013525664908226523 -0.047664158603307159 0 -0.017482430041480122 -0.044524773471265981 0 -0.017289698024580663 -0.044695602101697901 0 -0.017275424823015341 -0.044417680723215877 0 -0.0092910662993184213 -0.050484518953565809 0 -0.0089837121798572311 -0.049238631953940029 0 -0.010307239602455326 -0.048338197544386646 0 -0.017275424823015341 -0.044417680723215877 0 -0.017580196523212958 -0.044329356918795568 0 -0.017585800331570475 -0.044042475154360848 0 -0.013525664908226523 -0.047664158603307159 0 -0.012235741041480125 -0.047279942109827201 0 -0.0092910662993184213 -0.050484518953565809 0 -0.0082920780021406605 -0.050816054893964804 0 -0.0085493949269767715 -0.050269772574452115 0 -0.0092910662993184213 -0.050484518953565809 0 -0.0089837121798572311 -0.049238631953940029 0 -0.0085493949269767715 -0.050269772574452115 0 -0.017482430041480122 -0.044524773471265981 0 -0.017275424823015341 -0.044417680723215877 0 -0.017580196523212958 -0.044329356918795568 0 -0.017580196523212958 -0.044329356918795568 0 -0.017778965759263778 -0.044233687689505398 0 -0.017585800331570475 -0.044042475154360848 0 -0.017482430041480122 -0.044524773471265981 0 -0.017580196523212958 -0.044329356918795568 0 -0.017777126877405777 -0.044437293800857876 0 -0.018068562052551508 -0.044244544263289637 0 -0.017778965759263778 -0.044233687689505398 0 -0.017777126877405777 -0.044437293800857876 0 -0.017580196523212958 -0.044329356918795568 0 -0.017778965759263778 -0.044233687689505398 0 -0.017777126877405777 -0.044437293800857876 0 -0.0076744515849057962 -0.040589122402557541 0 -0.0086940992174915702 -0.04132334897451953 0 -0.0091328796522977731 -0.04021737545743323 0 -0.0086940992174915702 -0.04132334897451953 0 -0.0095139895891264131 -0.04206459215176394 0 -0.0091328796522977731 -0.04021737545743323 0 -0.0085926199294440817 -0.042290088635750261 0 -0.0076744515849057962 -0.040589122402557541 0 -0.0086940992174915702 -0.04132334897451953 0 -0.0085926199294440817 -0.042290088635750261 0 -0.0086940992174915702 -0.04132334897451953 0 -0.0095139895891264131 -0.04206459215176394 0 -0.011813740065102333 -0.045806021970842575 0 -0.0082101761923733998 -0.04575600999250562 0 -0.011685820234788461 -0.042817806023908139 0 -0.0095139895891264131 -0.04206459215176394 0 -0.0091328796522977731 -0.04021737545743323 0 -0.0084457837380800659 -0.052232151412203359 0 -0.0082920780021406605 -0.050816054893964804 0 -0.0074131982022393236 -0.050857453600343709 0 -0.0084457837380800659 -0.052232151412203359 0 -0.0092910662993184213 -0.050484518953565809 0 -0.0082920780021406605 -0.050816054893964804 0 -0.0074131982022393236 -0.050857453600343709 0 -0.007774717125540666 -0.050187050790726093 0 -0.007352761084320019 -0.049937463400345383 0 -0.0082920780021406605 -0.050816054893964804 0 -0.0074131982022393236 -0.050857453600343709 0 -0.007774717125540666 -0.050187050790726093 0 -0.0082920780021406605 -0.050816054893964804 0 -0.007774717125540666 -0.050187050790726093 0 -0.0085493949269767715 -0.050269772574452115 0 -0.0084608596984741755 -0.049750492285651406 0 -0.0080391484263528708 -0.050013744691217131 0 -0.0089837121798572311 -0.049238631953940029 0 -0.007774717125540666 -0.050187050790726093 0 -0.0085493949269767715 -0.050269772574452115 0 -0.0086492291194698642 -0.049742806107308336 0 -0.007774717125540666 -0.050187050790726093 0 -0.0077757468395403956 -0.04973678816877871 0 -0.007774717125540666 -0.050187050790726093 0 -0.0077757468395403956 -0.04973678816877871 0 -0.007352761084320019 -0.049937463400345383 0 -0.0077757468395403956 -0.04973678816877871 0 -0.007352761084320019 -0.049937463400345383 0 -0.0071892509614574851 -0.049409946927636922 0 -0.0055056445005885087 -0.041231693385272085 0 -0.0064655455019314596 -0.042526153945398916 0 -0.0082101761923733998 -0.04575600999250562 0 -0.0071012343337594659 -0.043965117273905785 0 -0.0076744515849057962 -0.040589122402557541 0 -0.0091328796522977731 -0.04021737545743323 0 -0.0077429108290379862 -0.038823011500302845 0 -0.0074131982022393236 -0.050857453600343709 0 -0.007352761084320019 -0.049937463400345383 0 -0.0062229963622760232 -0.049286346888753427 0 -0.0073263722388610614 -0.038968252074169339 0 -0.0076744515849057962 -0.040589122402557541 0 -0.0077429108290379862 -0.038823011500302845 0 -0.007352761084320019 -0.049937463400345383 0 -0.0062229963622760232 -0.049286346888753427 0 -0.0060365070948804576 -0.048113404091277227 0 -0.007352761084320019 -0.049937463400345383 0 -0.0061959806177500657 -0.048989711111381395 0 -0.0071892509614574851 -0.049409946927636922 0 -0.0072122521223533112 -0.049805598790672624 0 -0.0061750225771125327 -0.048614446409746458 0 -0.0061959806177500657 -0.048989711111381395 0 -0.0069492615221414828 -0.048935912966243764 0 -0.0067997317397233666 -0.048392265707996242 0 -0.0069492615221414828 -0.048935912966243764 0 -0.0071892509614574851 -0.049409946927636922 0 -0.0076049432036739513 -0.048928900453028515 0 -0.0069492615221414828 -0.048935912966243764 0 -0.0076049432036739513 -0.048928900453028515 0 -0.0067997317397233666 -0.048392265707996242 0 -0.0061959806177500657 -0.048989711111381395 0 -0.0069492615221414828 -0.048935912966243764 0 -0.0071892509614574851 -0.049409946927636922 0 -0.0071892509614574851 -0.049409946927636922 0 -0.0078922571825361873 -0.049414440462741731 0 -0.0076049432036739513 -0.048928900453028515 0 -0.0077757468395403956 -0.04973678816877871 0 -0.0071892509614574851 -0.049409946927636922 0 -0.0078922571825361873 -0.049414440462741731 0 -0.0086492291194698642 -0.049742806107308336 0 -0.0077757468395403956 -0.04973678816877871 0 -0.0078922571825361873 -0.049414440462741731 0 -0.0086492291194698642 -0.049742806107308336 0 -0.0078922571825361873 -0.049414440462741731 0 -0.0084228096037877054 -0.049132921264032098 0 -0.0078922571825361873 -0.049414440462741731 0 -0.0084228096037877054 -0.049132921264032098 0 -0.0076049432036739513 -0.048928900453028515 0 -0.0084228096037877054 -0.049132921264032098 0 -0.0076049432036739513 -0.048928900453028515 0 -0.008574663046605889 -0.048443610768314008 0 -0.0076049432036739513 -0.048928900453028515 0 -0.0076330686934948421 -0.048217190899843644 0 -0.0067997317397233666 -0.048392265707996242 0 -0.0076049432036739513 -0.048928900453028515 0 -0.0076330686934948421 -0.048217190899843644 0 -0.008574663046605889 -0.048443610768314008 0 -0.0076330686934948421 -0.048217190899843644 0 -0.0080488835689435361 -0.047630233022892737 0 -0.008574663046605889 -0.048443610768314008 0 -0.0076330686934948421 -0.048217190899843644 0 -0.0080488835689435361 -0.047630233022892737 0 -0.0071272846341839374 -0.047661587427643898 0 -0.0076330686934948421 -0.048217190899843644 0 -0.0071272846341839374 -0.047661587427643898 0 -0.0067997317397233666 -0.048392265707996242 0 -0.0071272846341839374 -0.047661587427643898 0 -0.006373973370698797 -0.047635504261873358 0 -0.0067997317397233666 -0.048392265707996242 0 -0.005951399265457547 -0.048071481139751529 0 -0.006373973370698797 -0.047635504261873358 0 -0.0067997317397233666 -0.048392265707996242 0 -0.005951399265457547 -0.048071481139751529 0 -0.006373973370698797 -0.047635504261873358 0 -0.0054826091498643157 -0.04745866973522906 0 -0.0061959806177500657 -0.048989711111381395 0 -0.005951399265457547 -0.048071481139751529 0 -0.0067997317397233666 -0.048392265707996242 0 -0.017932621484177253 -0.044101790025250893 0 -0.018033991275080444 -0.043885676242051641 0 -0.017585800331570475 -0.044042475154360848 0 -0.017932621484177253 -0.044101790025250893 0 -0.017778965759263778 -0.044233687689505398 0 -0.017585800331570475 -0.044042475154360848 0 -0.0086492291194698642 -0.049742806107308336 0 -0.0084228096037877054 -0.049132921264032098 0 -0.0097277855396835314 -0.04915155765160055 0 -0.0084228096037877054 -0.049132921264032098 0 -0.0097277855396835314 -0.04915155765160055 0 -0.008574663046605889 -0.048443610768314008 0 -0.0084608596984741755 -0.049750492285651406 0 -0.012235741041480125 -0.047279942109827201 0 -0.0080488835689435361 -0.047630233022892737 0 -0.008574663046605889 -0.048443610768314008 0 -0.0092727063587244567 -0.047508626329117121 0 -0.008574663046605889 -0.048443610768314008 0 -0.0095162285679663301 -0.048226846216404801 0 -0.0092727063587244567 -0.047508626329117121 0 -0.0097277855396835314 -0.04915155765160055 0 -0.008574663046605889 -0.048443610768314008 0 -0.0095162285679663301 -0.048226846216404801 0 -0.015229328501966609 -0.045871496795237658 0 -0.012235741041480125 -0.047279942109827201 0 -0.011745428767733592 -0.048222918857061571 0 -0.010412979245659598 -0.049089917919526861 0 -0.010939023654186922 -0.047815175720740587 0 -0.0097277855396835314 -0.04915155765160055 0 -0.0095162285679663301 -0.048226846216404801 0 -0.010499928867868671 -0.047786895188071242 0 -0.012235741041480125 -0.047279942109827201 0 -0.010464830516603582 -0.048199580423048935 0 -0.0095162285679663301 -0.048226846216404801 0 -0.010499928867868671 -0.047786895188071242 0 -0.0092727063587244567 -0.047508626329117121 0 -0.011421329629593913 -0.046285307271234415 0 -0.010499928867868671 -0.047786895188071242 0 -0.010339020254256228 -0.046706399254494352 0 -0.011450794053024325 -0.046212174101162906 0 -0.010464830516603582 -0.048199580423048935 0 -0.010499928867868671 -0.047786895188071242 0 -0.010339020254256228 -0.046706399254494352 0 -0.0092727063587244567 -0.047508626329117121 0 -0.0092727063587244567 -0.047508626329117121 0 -0.0093687520181753945 -0.046216840719832911 0 -0.008390684589268357 -0.046596666058153692 0 -0.010339020254256228 -0.046706399254494352 0 -0.0092727063587244567 -0.047508626329117121 0 -0.0093687520181753945 -0.046216840719832911 0 -0.0080488835689435361 -0.047630233022892737 0 -0.0092727063587244567 -0.047508626329117121 0 -0.008390684589268357 -0.046596666058153692 0 -0.0093687520181753945 -0.046216840719832911 0 -0.008390684589268357 -0.046596666058153692 0 -0.0081664671448058567 -0.044999921460206628 0 -0.0093687520181753945 -0.046216840719832911 0 -0.010636800421483579 -0.04499990467469038 0 -0.0081664671448058567 -0.044999921460206628 0 -0.011421329629593913 -0.046285307271234415 0 -0.010339020254256228 -0.046706399254494352 0 -0.010636800421483579 -0.04499990467469038 0 -0.010339020254256228 -0.046706399254494352 0 -0.0093687520181753945 -0.046216840719832911 0 -0.010636800421483579 -0.04499990467469038 0 -0.0064802608493730145 -0.046616212015144536 0 -0.0072369646124221627 -0.046649014335914625 0 -0.0064637291081360475 -0.045746838784270612 0 -0.0064802608493730145 -0.046616212015144536 0 -0.006687533558969414 -0.047128837471440539 0 -0.0072369646124221627 -0.046649014335914625 0 -0.0064802608493730145 -0.046616212015144536 0 -0.0064637291081360475 -0.045746838784270612 0 -0.0057913365588194423 -0.046530199630183865 0 -0.0064802608493730145 -0.046616212015144536 0 -0.0060617827500568213 -0.047046046960263758 0 -0.0057913365588194423 -0.046530199630183865 0 -0.006373973370698797 -0.047635504261873358 0 -0.0060617827500568213 -0.047046046960263758 0 -0.0054826091498643157 -0.04745866973522906 0 -0.0064802608493730145 -0.046616212015144536 0 -0.0060617827500568213 -0.047046046960263758 0 -0.006687533558969414 -0.047128837471440539 0 -0.006373973370698797 -0.047635504261873358 0 -0.0060617827500568213 -0.047046046960263758 0 -0.006687533558969414 -0.047128837471440539 0 -0.0071272846341839374 -0.047661587427643898 0 -0.006687533558969414 -0.047128837471440539 0 -0.0072369646124221627 -0.046649014335914625 0 -0.0071272846341839374 -0.047661587427643898 0 -0.006373973370698797 -0.047635504261873358 0 -0.006687533558969414 -0.047128837471440539 0 -0.0080488835689435361 -0.047630233022892737 0 -0.0071272846341839374 -0.047661587427643898 0 -0.0072369646124221627 -0.046649014335914625 0 -0.0080488835689435361 -0.047630233022892737 0 -0.008390684589268357 -0.046596666058153692 0 -0.0072369646124221627 -0.046649014335914625 0 -0.0072369646124221627 -0.046649014335914625 0 -0.0081664671448058567 -0.044999921460206628 0 -0.0064637291081360475 -0.045746838784270612 0 -0.0081658100028857965 -0.04500014233405384 0 -0.0062865657058793351 -0.045812651367025253 0 -0.008390684589268357 -0.046596666058153692 0 -0.0072369646124221627 -0.046649014335914625 0 -0.0081664671448058567 -0.044999921460206628 0 -0.0081660424117368496 -0.045000004414864618 0 -0.0061724802009330169 -0.045864839305472055 0 -0.0054959365578078337 -0.044999941241369475 0 -0.0061724802009330169 -0.045864839305472055 0 -0.0054959365578078337 -0.044999941241369475 0 -0.0050569702706400946 -0.045914771692705122 0 -0.0062865657058793351 -0.045812651367025253 0 -0.0044978101803179417 -0.046565636441018673 0 -0.0061724802009330169 -0.045864839305472055 0 -0.0050569702706400946 -0.045914771692705122 0 -0.0043621506508833971 -0.046606565554386699 0 -0.0054959365578078337 -0.044999941241369475 0 -0.0050569702706400946 -0.045914771692705122 0 -0.0042205076336316212 -0.045656312156469446 0 -0.0044176882155799856 -0.046079380755662203 0 -0.0050569702706400946 -0.045914771692705122 0 -0.0043621506508833971 -0.046606565554386699 0 -0.0044176882155799856 -0.046079380755662203 0 -0.0050569702706400946 -0.045914771692705122 0 -0.0042205076336316212 -0.045656312156469446 0 -0.0054959365578078337 -0.044999941241369475 0 -0.0028252385985079219 -0.044999664724602026 0 -0.0042205076336316212 -0.045656312156469446 0 -0.0028252385985079219 -0.044999664724602026 0 -0.0035073577474412716 -0.045729816629528242 0 -0.0027645860067103006 -0.045456080995666392 0 -0.0028252385985079219 -0.044999664724602026 0 -0.0042205076336316212 -0.045656312156469446 0 -0.0035073577474412716 -0.045729816629528242 0 -0.0040262877098985444 -0.046140010326307587 0 -0.0035073577474412716 -0.045729816629528242 0 -0.0037330785368285407 -0.046641266506290698 0 -0.0042205076336316212 -0.045656312156469446 0 -0.0040262877098985444 -0.046140010326307587 0 -0.0035073577474412716 -0.045729816629528242 0 -0.0044176882155799856 -0.046079380755662203 0 -0.0042205076336316212 -0.045656312156469446 0 -0.0040262877098985444 -0.046140010326307587 0 -0.0035073577474412716 -0.045729816629528242 0 -0.0037330785368285407 -0.046641266506290698 0 -0.0027645860067103006 -0.045456080995666392 0 -0.0027062000515351162 -0.045332682043125933 0 -0.0026613863362281837 -0.045429577222351719 0 -0.0027645860067103006 -0.045456080995666392 0 -0.003179300840777772 -0.045883000418335644 0 -0.0028540348773381111 -0.045545411858879982 0 -0.002715443687730953 -0.045325958356503313 0 -0.0027062000515351162 -0.045332682043125933 0 -0.0026613863362281837 -0.045429577222351719 0 -0.002715443687730953 -0.045325958356503313 0 -0.0027062000515351162 -0.045332682043125933 0 -0.0027366477120204374 -0.045257032047888598 0 -0.0037330785368285407 -0.046641266506290698 0 -0.0043621506508833971 -0.046606565554386699 0 -0.0045886656581951178 -0.047307462318394458 0 -0.0040262877098985444 -0.046140010326307587 0 -0.0037330785368285407 -0.046641266506290698 0 -0.0043621506508833971 -0.046606565554386699 0 -0.0044176882155799856 -0.046079380755662203 0 -0.0040262877098985444 -0.046140010326307587 0 -0.0043621506508833971 -0.046606565554386699 0 -0.0027366477120204374 -0.045257032047888598 0 -0.0027788270216989254 -0.045204898241367232 0 -0.0028918056951058478 -0.045057361606787402 0 -0.0027062000515351162 -0.045332682043125933 0 -0.0027366477120204374 -0.045257032047888598 0 -0.0026991768574319091 -0.045169350987923913 0 -0.003179300840777772 -0.045883000418335644 0 -0.0043345373355963973 -0.04665771384326254 0 -0.0037330785368285407 -0.046641266506290698 0 -0.0045886656581951178 -0.047307462318394458 0 -0.0047437397972210074 -0.047695047174858771 0 -0.002715443687730953 -0.045325958356503313 0 -0.0027788270216989254 -0.045204898241367232 0 -0.0027821493397367052 -0.045164449885019727 0 -0.0027788270216989254 -0.045204898241367232 0 -0.0028918056951058478 -0.045057361606787402 0 -0.0027821493397367052 -0.045164449885019727 0 -0.002715443687730953 -0.045325958356503313 0 -0.0027366477120204374 -0.045257032047888598 0 -0.0027788270216989254 -0.045204898241367232 0 -0.0064637291081360475 -0.045746838784270612 0 -0.0057913365588194423 -0.046530199630183865 0 -0.0043621506508833971 -0.046606565554386699 0 -0.0060617827500568213 -0.047046046960263758 0 -0.0052594230240025587 -0.046848195043742498 0 -0.0057913365588194423 -0.046530199630183865 0 -0.0052594230240025587 -0.046848195043742498 0 -0.0057913365588194423 -0.046530199630183865 0 -0.0043621506508833971 -0.046606565554386699 0 -0.0052594230240025587 -0.046848195043742498 0 -0.0043621506508833971 -0.046606565554386699 0 -0.0047989952538955351 -0.046999879521371093 0 -0.0052594230240025587 -0.046848195043742498 0 -0.0047989952538955351 -0.046999879521371093 0 -0.0049795554723362683 -0.047238923168594606 0 -0.0043621506508833971 -0.046606565554386699 0 -0.0047989952538955351 -0.046999879521371093 0 -0.0045886656581951178 -0.047307462318394458 0 -0.0049795554723362683 -0.047238923168594606 0 -0.0054826091498643157 -0.04745866973522906 0 -0.0047778655271557054 -0.047667957072804135 0 -0.0047989952538955351 -0.046999879521371093 0 -0.0049795554723362683 -0.047238923168594606 0 -0.0045886656581951178 -0.047307462318394458 0 -0.0044753463903209161 -0.047075975021781277 0 -0.0043345373355963973 -0.04665771384326254 0 -0.0049795554723362683 -0.047238923168594606 0 -0.0045886656581951178 -0.047307462318394458 0 -0.0047778655271557054 -0.047667957072804135 0 -0.0060617827500568213 -0.047046046960263758 0 -0.0052594230240025587 -0.046848195043742498 0 -0.0054826091498643157 -0.04745866973522906 0 -0.0052594230240025587 -0.046848195043742498 0 -0.0049795554723362683 -0.047238923168594606 0 -0.0054826091498643157 -0.04745866973522906 0 -0.0061750225771125327 -0.048614446409746458 0 -0.0043345373355963973 -0.04665771384326254 0 -0.0061959806177500657 -0.048989711111381395 0 -0.005951399265457547 -0.048071481139751529 0 -0.0047778655271557054 -0.047667957072804135 0 -0.0027366477120204374 -0.045257032047888598 0 -0.0027088434837406871 -0.045053932453044503 0 -0.0026991768574319091 -0.045169350987923913 0 -0.005951399265457547 -0.048071481139751529 0 -0.0054826091498643157 -0.04745866973522906 0 -0.0047778655271557054 -0.047667957072804135 0 -0.0025510157409333514 -0.045437605995743577 0 -0.0046213878303604733 -0.043669737410532837 0 -0.0060365070948804576 -0.048113404091277227 0 -0.0049311250867552486 -0.047387007566574969 0 -0.0045734707471567866 -0.04620935529743684 0 -0.0046213878303604733 -0.043669737410532837 0 -0.0043345373355963973 -0.04665771384326254 0 -0.0027366477120204374 -0.045257032047888598 0 -0.0031058521604700779 -0.044735918975897987 0 -0.0028918056951058478 -0.045057361606787402 0 -0.0028918056951058478 -0.045057361606787402 0 -0.0027821493397367052 -0.045164449885019727 0 -0.0030107030079024582 -0.044913796424820733 0 -0.0027821493397367052 -0.045164449885019727 0 -0.0030107030079024582 -0.044913796424820733 0 -0.0030197643377861522 -0.044871796127148408 0 -0.0030107030079024582 -0.044913796424820733 0 -0.0031671497280826647 -0.044726120368489358 0 -0.0030197643377861522 -0.044871796127148408 0 -0.0031058521604700779 -0.044735918975897987 0 -0.0028918056951058478 -0.045057361606787402 0 -0.0030107030079024582 -0.044913796424820733 0 -0.0031058521604700779 -0.044735918975897987 0 -0.0030107030079024582 -0.044913796424820733 0 -0.0032170250297363914 -0.044668080941308745 0 -0.0030107030079024582 -0.044913796424820733 0 -0.0032170250297363914 -0.044668080941308745 0 -0.0031671497280826647 -0.044726120368489358 0 -0.0032170250297363914 -0.044668080941308745 0 -0.0031671497280826647 -0.044726120368489358 0 -0.0034079336780977469 -0.044484840079536542 0 -0.0031671497280826647 -0.044726120368489358 0 -0.0032839549955966177 -0.044596545095441281 0 -0.0030197643377861522 -0.044871796127148408 0 -0.0034913741945872189 -0.044352568996776399 0 -0.0032839549955966177 -0.044596545095441281 0 -0.0034079336780977469 -0.044484840079536542 0 -0.0031671497280826647 -0.044726120368489358 0 -0.0032839549955966177 -0.044596545095441281 0 -0.0034079336780977469 -0.044484840079536542 0 -0.0055056445005885087 -0.041231693385272085 0 -0.0046213878303604733 -0.043669737410532837 0 -0.0037199417980811646 -0.044212827521148274 0 -0.0035503463180316793 -0.044376620937606005 0 -0.0033827917272167859 -0.044510097119343561 0 -0.0037388129327546858 -0.044244959188390727 0 -0.0034079336780977469 -0.044484840079536542 0 -0.0035503463180316793 -0.044376620937606005 0 -0.0037199417980811646 -0.044212827521148274 0 -0.0031058521604700779 -0.044735918975897987 0 -0.0033827917272167859 -0.044510097119343561 0 -0.0062229963622760232 -0.049286346888753427 0 -0.0060365070948804576 -0.048113404091277227 0 -0.0049311250867552486 -0.047387007566574969 0 -0.0073263722388610614 -0.038968252074169339 0 -0.0077429108290379862 -0.038823011500302845 0 -0.0069572233706414457 -0.038061254297487093 0 -0.0071012343337594659 -0.043965117273905785 0 -0.0046213878303604733 -0.043669737410532837 0 -0.0034079336780977469 -0.044484840079536542 0 -0.0035503463180316793 -0.044376620937606005 0 -0.0033827917272167859 -0.044510097119343561 0 -0.0031058521604700779 -0.044735918975897987 0 -0.0032170250297363914 -0.044668080941308745 0 -0.0033827917272167859 -0.044510097119343561 0 -0.0032170250297363914 -0.044668080941308745 0 -0.0034079336780977469 -0.044484840079536542 0 -0.0033827917272167859 -0.044510097119343561 0 -0.0032025978641100185 -0.044873738572053477 0 -0.0029901888494603818 -0.044898489518727949 0 -0.0027326790851963578 -0.04499190651129073 0 -0.0029901888494603818 -0.044898489518727949 0 -0.0026062684753399728 -0.045008363319179678 0 -0.0027326790851963578 -0.04499190651129073 0 -0.0032025978641100185 -0.044873738572053477 0 -0.0029901888494603818 -0.044898489518727949 0 -0.0032395489589944959 -0.044663520613742257 0 -0.0032839549955966177 -0.044596545095441281 0 -0.0032395489589944959 -0.044663520613742257 0 -0.0030197643377861522 -0.044871796127148408 0 -0.0029901888494603818 -0.044898489518727949 0 -0.0032395489589944959 -0.044663520613742257 0 -0.0030197643377861522 -0.044871796127148408 0 -0.0029901888494603818 -0.044898489518727949 0 -0.0030197643377861522 -0.044871796127148408 0 -0.0026405778765428477 -0.045166449293358821 0 -0.0027821493397367052 -0.045164449885019727 0 -0.0030197643377861522 -0.044871796127148408 0 -0.0026405778765428477 -0.045166449293358821 0 -0.0029901888494603818 -0.044898489518727949 0 -0.0026405778765428477 -0.045166449293358821 0 -0.0026062684753399728 -0.045008363319179678 0 -0.0026062684753399728 -0.045008363319179678 0 -0.0018647073335645436 -0.045685582750021519 0 -0.0025426638919364393 -0.044961452002030063 0 -0.0026405778765428477 -0.045166449293358821 0 -0.0026062684753399728 -0.045008363319179678 0 -0.0018647073335645436 -0.045685582750021519 0 -0.0026405778765428477 -0.045166449293358821 0 -0.0018647073335645436 -0.045685582750021519 0 -0.0025430140150678238 -0.045417285068403035 0 -0.002715443687730953 -0.045325958356503313 0 -0.0027821493397367052 -0.045164449885019727 0 -0.0025430140150678238 -0.045417285068403035 0 -0.0027821493397367052 -0.045164449885019727 0 -0.0026405778765428477 -0.045166449293358821 0 -0.0025430140150678238 -0.045417285068403035 0 -0.0018647073335645436 -0.045685582750021519 0 -0.0025430140150678238 -0.045417285068403035 0 -0.0022768432740096706 -0.04553316686084434 0 -0.002715443687730953 -0.045325958356503313 0 -0.0025430140150678238 -0.045417285068403035 0 -0.0026613863362281837 -0.045429577222351719 0 -0.0025430140150678238 -0.045417285068403035 0 -0.0026613863362281837 -0.045429577222351719 0 -0.0022768432740096706 -0.04553316686084434 0 -0.0028252385985079219 -0.044999664724602026 0 -0.0022768432740096706 -0.04553316686084434 0 -0.00015685763484891413 -0.044999180588574668 0 -0.0026613863362281837 -0.045429577222351719 0 -0.0027645860067103006 -0.045456080995666392 0 -0.0022768432740096706 -0.04553316686084434 0 -0.0028252385985079219 -0.044999664724602026 0 -0.0027645860067103006 -0.045456080995666392 0 -0.0022768432740096706 -0.04553316686084434 0 -0.0018647073335645436 -0.045685582750021519 0 -0.0022768432740096706 -0.04553316686084434 0 -0.00015685763484891413 -0.044999180588574668 0 -0.0018647073335645436 -0.045685582750021519 0 -0.00015685763484891413 -0.044999180588574668 0 0.0010976998066833143 -0.046348028561564336 0 -0.00015685763484891413 -0.044999180588574668 0 0.0025153405732731482 -0.045000087912592683 0 0.0010976998066833143 -0.046348028561564336 0 0.0025153405732731482 -0.045000087912592683 0 0.0010976998066833143 -0.046348028561564336 0 0.003396569782517764 -0.046348827679585612 0 -0.0024608891133145469 -0.045003735847870013 0 -0.002096899462741423 -0.044882081791228483 0 -0.0025426638919364393 -0.044961452002030063 0 -0.00065576824874433799 -0.045649982576253328 0 0.00083884541264542234 -0.045435089953435655 0 -0.0024608891133145469 -0.045003735847870013 0 -0.0019268231732559439 -0.044514841562296334 0 -0.002096899462741423 -0.044882081791228483 0 -0.0016962504723281205 -0.04569219814461839 0 -0.00065576824874433799 -0.045649982576253328 0 -0.0018647073335645436 -0.045685582750021519 0 -0.0024608891133145469 -0.045003735847870013 0 -0.0025426638919364393 -0.044961452002030063 0 0.00083884541264542234 -0.045435089953435655 0 0.0018296344417017363 -0.045317173273692474 0 0.0051853040411706589 -0.044999956683004612 0 0.003396569782517764 -0.046348827679585612 0 0.0056126873823398784 -0.046241377094091783 0 0.0025153405732731482 -0.045000087912592683 0 0.0051853040411706589 -0.044999956683004612 0 0.003396569782517764 -0.046348827679585612 0 -0.0019268231732559439 -0.044514841562296334 0 -0.0015761861119175942 -0.044755918063833978 0 -0.002096899462741423 -0.044882081791228483 0 -0.0015761861119175942 -0.044755918063833978 0 -0.0011201316281350285 -0.044899471005931828 0 -0.001181254498540166 -0.04430402170577042 0 -0.0019268231732559439 -0.044514841562296334 0 -0.0015761861119175942 -0.044755918063833978 0 -0.001181254498540166 -0.04430402170577042 0 -0.0015761861119175942 -0.044755918063833978 0 -0.001493590626473027 -0.045149610872561072 0 -0.0011201316281350285 -0.044899471005931828 0 -0.0015761861119175942 -0.044755918063833978 0 -0.002096899462741423 -0.044882081791228483 0 -0.001493590626473027 -0.045149610872561072 0 -0.002096899462741423 -0.044882081791228483 0 -0.0019549482285770143 -0.045210402856344957 0 -0.001493590626473027 -0.045149610872561072 0 -0.0019549482285770143 -0.045210402856344957 0 -0.001493590626473027 -0.045149610872561072 0 -0.0015872695256891874 -0.045527089254107637 0 -0.0019549482285770143 -0.045210402856344957 0 -0.0020389209326248658 -0.045468059534622053 0 -0.0015872695256891874 -0.045527089254107637 0 -0.001493590626473027 -0.045149610872561072 0 -0.0015872695256891874 -0.045527089254107637 0 -0.0011252896666292269 -0.045527824368925732 0 -0.0026062684753399728 -0.045008363319179678 0 -0.0025426638919364393 -0.044961452002030063 0 -0.0027326790851963578 -0.04499190651129073 0 -0.0025426638919364393 -0.044961452002030063 0 -0.0023448975718318053 -0.045074895255318076 0 -0.0027326790851963578 -0.04499190651129073 0 -0.002096899462741423 -0.044882081791228483 0 -0.0025426638919364393 -0.044961452002030063 0 -0.0023448975718318053 -0.045074895255318076 0 -0.002096899462741423 -0.044882081791228483 0 -0.0019549482285770143 -0.045210402856344957 0 -0.0023448975718318053 -0.045074895255318076 0 -0.0023448975718318053 -0.045074895255318076 0 -0.0023822594075555456 -0.045410564115432525 0 -0.0020389209326248658 -0.045468059534622053 0 -0.0019549482285770143 -0.045210402856344957 0 -0.0023448975718318053 -0.045074895255318076 0 -0.0020389209326248658 -0.045468059534622053 0 -0.0023448975718318053 -0.045074895255318076 0 -0.0027326790851963578 -0.04499190651129073 0 -0.0023822594075555456 -0.045410564115432525 0 -0.0027326790851963578 -0.04499190651129073 0 -0.002716672412770944 -0.045692092023472262 0 -0.0023822594075555456 -0.045410564115432525 0 -0.0032025978641100185 -0.044873738572053477 0 -0.0027326790851963578 -0.04499190651129073 0 -0.002716672412770944 -0.045692092023472262 0 -0.002716672412770944 -0.045692092023472262 0 -0.0024072921873535152 -0.045844657229517215 0 -0.0023822594075555456 -0.045410564115432525 0 -0.0034921120757670171 -0.044395677241540712 0 -0.0032671775055863519 -0.044561292992964165 0 -0.003193383398847169 -0.044532897364562049 0 -0.003087285318398587 -0.045073283868384946 0 -0.0025760530113770747 -0.045114391333153363 0 -0.0035073791041137811 -0.04446126658095554 0 -0.0034921120757670171 -0.044395677241540712 0 -0.0032671775055863519 -0.044561292992964165 0 -0.002716672412770944 -0.045692092023472262 0 -0.0024072921873535152 -0.045844657229517215 0 -0.0023095782607051251 -0.046160359139694615 0 -0.002254705808736449 -0.046234119966427394 0 -0.0021036296869765977 -0.045786199595010617 0 -0.0019465522496888554 -0.046106675545461648 0 -0.002254705808736449 -0.046234119966427394 0 -0.0019465522496888554 -0.046106675545461648 0 -0.0023039325847584021 -0.046310589004390237 0 -0.0022596200179506418 -0.046093819723123194 0 -0.0025760530113770747 -0.045114391333153363 0 -0.002254705808736449 -0.046234119966427394 0 -0.0021036296869765977 -0.045786199595010617 0 -0.0023494380653721258 -0.046271805425204281 0 -0.0025821706739564535 -0.045239780416865882 0 -0.0025760530113770747 -0.045114391333153363 0 -0.0024072921873535152 -0.045844657229517215 0 -0.0021036296869765977 -0.045786199595010617 0 -0.0023095782607051251 -0.046160359139694615 0 -0.0024072921873535152 -0.045844657229517215 0 -0.0021036296869765977 -0.045786199595010617 0 -0.0023822594075555456 -0.045410564115432525 0 -0.0021036296869765977 -0.045786199595010617 0 -0.0023822594075555456 -0.045410564115432525 0 -0.0020389209326248658 -0.045468059534622053 0 -0.0020389209326248658 -0.045468059534622053 0 -0.0017453980662238096 -0.04582482349918679 0 -0.0015872695256891874 -0.045527089254107637 0 -0.0021036296869765977 -0.045786199595010617 0 -0.0020389209326248658 -0.045468059534622053 0 -0.0017453980662238096 -0.04582482349918679 0 -0.0015872695256891874 -0.045527089254107637 0 -0.0012451828834541155 -0.045851883359204405 0 -0.0011252896666292269 -0.045527824368925732 0 -0.0017453980662238096 -0.04582482349918679 0 -0.0015872695256891874 -0.045527089254107637 0 -0.0012451828834541155 -0.045851883359204405 0 -0.0012451828834541155 -0.045851883359204405 0 -0.0015396550039825261 -0.046252555642351527 0 -0.00073057238941368465 -0.046158546988754191 0 -0.0017453980662238096 -0.04582482349918679 0 -0.0012451828834541155 -0.045851883359204405 0 -0.0015396550039825261 -0.046252555642351527 0 -0.0013019407452104874 -0.046374973741835572 0 -0.00079830035683093692 -0.046129643012377625 0 -0.0015396550039825261 -0.046252555642351527 0 -0.0019465522496888554 -0.046106675545461648 0 -0.0023039325847584021 -0.046310589004390237 0 -0.0021036296869765977 -0.045786199595010617 0 -0.0017453980662238096 -0.04582482349918679 0 -0.0019465522496888554 -0.046106675545461648 0 -0.0017453980662238096 -0.04582482349918679 0 -0.0015396550039825261 -0.046252555642351527 0 -0.0019465522496888554 -0.046106675545461648 0 -0.0012314823543438326 -0.046201466694013121 0 -0.0014229720991638588 -0.046663541656852568 0 -0.001819321399753349 -0.046249128945060815 0 -0.0010124349504519953 -0.0449950942227633 0 -0.0024804762394571613 -0.044919073843412066 0 -0.0013019407452104874 -0.046374973741835572 0 -0.0024804762394571613 -0.044919073843412066 0 -0.0012314823543438326 -0.046201466694013121 0 -0.00093991187808071272 -0.046554654538557484 0 -0.00073057238941368465 -0.046158546988754191 0 -0.0012314823543438326 -0.046201466694013121 0 -0.00093991187808071272 -0.046554654538557484 0 -0.0014229720991638588 -0.046663541656852568 0 -0.0010124349504519953 -0.0449950942227633 0 0.00019206834965094325 -0.046295165816469884 0 -0.00093991187808071272 -0.046554654538557484 0 -0.0014229720991638588 -0.046663541656852568 0 -0.0010218345465389446 -0.047085459258802455 0 -0.00060145419706131959 -0.043610196506745941 0 -0.0023911797934777911 -0.043444175448248683 0 -0.0017885898951696007 -0.045516340797272993 0 -0.00060145419706131959 -0.043610196506745941 0 -0.0017885898951696007 -0.045516340797272993 0 0.0013380557909306399 -0.04541154561457815 0 -0.0023911797934777911 -0.043444175448248683 0 -0.0041652727129518757 -0.0446236206827378 0 -0.0017885898951696007 -0.045516340797272993 0 -0.0023911797934777911 -0.043444175448248683 0 -0.0041652727129518757 -0.0446236206827378 0 -0.0027157468359285462 -0.04170175873679207 0 -0.0046514035348832229 -0.04624960002298812 0 -0.0050918116752520937 -0.045549890375097241 0 -0.0040667140156996047 -0.044463212575594907 0 -0.0056461787092059153 -0.046227222220467518 0 -0.0046514035348832229 -0.04624960002298812 0 -0.0050918116752520937 -0.045549890375097241 0 -0.0048056670046720627 -0.045263936821375993 0 -0.002834310155787442 -0.044685743080073406 0 -0.0035073791041137811 -0.04446126658095554 0 -0.0037314475906300875 -0.044767226581810801 0 -0.0032671775055863519 -0.044561292992964165 0 -0.0060028166224366675 -0.045253710218591467 0 -0.0050918116752520937 -0.045549890375097241 0 -0.0040667140156996047 -0.044463212575594907 0 -0.0046514035348832229 -0.04624960002298812 0 -0.0040667140156996047 -0.044463212575594907 0 -0.0037174253266480379 -0.044420726456987365 0 -0.0035388292516465238 -0.044705133900255163 0 -0.002834310155787442 -0.044685743080073406 0 -0.0044617369060115201 -0.045172150972012756 0 -0.0025397210506158375 -0.044481922918422692 0 -0.00060145419706131959 -0.043610196506745941 0 -0.0023911797934777911 -0.043444175448248683 0 -0.0024991805899639333 -0.041676249378173824 0 -0.002834310155787442 -0.044685743080073406 0 -0.0025397210506158375 -0.044481922918422692 0 -0.002834310155787442 -0.044685743080073406 0 -0.0025760530113770747 -0.045114391333153363 0 -0.0023911797934777911 -0.043444175448248683 0 -0.0027157468359285462 -0.04170175873679207 0 -0.0024991805899639333 -0.041676249378173824 0 -0.0028151043875696163 -0.044868426958811485 0 -0.0023902486858460711 -0.044817655732275953 0 -0.0023375465697987085 -0.044674588000094932 0 -0.0030483013054532142 -0.044881080540150907 0 -0.0024780975065833632 -0.044810846992098474 0 -0.0028718369667757918 -0.044398884324181584 0 -0.002254705808736449 -0.046234119966427394 0 -0.0023039325847584021 -0.046310589004390237 0 -0.0023443135191850706 -0.046267849007195209 0 -0.0025397210506158375 -0.044481922918422692 0 -0.0024804762394571613 -0.044919073843412066 0 -0.0025397210506158375 -0.044481922918422692 0 -0.0025760530113770747 -0.045114391333153363 0 -0.0024804762394571613 -0.044919073843412066 0 -0.0025760530113770747 -0.045114391333153363 0 0.01233312036357957 -0.046375732607539959 0 0.011588279417899916 -0.04526765449233866 0 0.012255009080642513 -0.045578720566690566 0 0.01233312036357957 -0.046375732607539959 0 0.013058382196279222 -0.045976916646170964 0 0.013371099228682798 -0.046594141518141133 0 0.01233312036357957 -0.046375732607539959 0 0.013058382196279222 -0.045976916646170964 0 0.012255009080642513 -0.045578720566690566 0 0.014119687506182655 -0.045806060689063004 0 0.013371099228682798 -0.046594141518141133 0 0.014667076125948171 -0.046767047164662609 0 0.013058382196279222 -0.045976916646170964 0 0.014119687506182655 -0.045806060689063004 0 0.013548779565045986 -0.044915799819472559 0 0.013058382196279222 -0.045976916646170964 0 0.014119687506182655 -0.045806060689063004 0 0.013371099228682798 -0.046594141518141133 0 0.01625425621172211 -0.040183563870245825 0 0.015631976073488135 -0.042402395108735842 0 0.011679795775279526 -0.041962140259540044 0 0.015297273534112737 -0.043585727676465312 0 0.012704276136300508 -0.044782127361680288 0 0.013371099228682798 -0.046594141518141133 0 0.014667076125948171 -0.046767047164662609 0 0.012958791237084866 -0.047923092834836457 0 0.01233312036357957 -0.046375732607539959 0 0.011392485974099378 -0.047092945067592248 0 0.012958791237084866 -0.047923092834836457 0 0.01233312036357957 -0.046375732607539959 0 0.013371099228682798 -0.046594141518141133 0 0.012958791237084866 -0.047923092834836457 0 -0.00035274638276799197 -0.046730641631811898 0 -0.00069095901780281759 -0.046812406881514043 0 -0.00063244523273878769 -0.047143736912841953 0 -0.00093991187808071272 -0.046554654538557484 0 -0.00069095901780281759 -0.046812406881514043 0 -0.0010218345465389446 -0.047085459258802455 0 -0.00035274638276799197 -0.046730641631811898 0 -0.00069095901780281759 -0.046812406881514043 0 -0.00062520600691020993 -0.046487051309327794 0 -0.00093991187808071272 -0.046554654538557484 0 -0.00069095901780281759 -0.046812406881514043 0 -0.00062520600691020993 -0.046487051309327794 0 -0.00093991187808071272 -0.046554654538557484 0 -0.00062520600691020993 -0.046487051309327794 0 -0.00073057238941368465 -0.046158546988754191 0 0.01233312036357957 -0.046375732607539959 0 0.011392485974099378 -0.047092945067592248 0 0.011588279417899916 -0.04526765449233866 0 0.0053828058204932446 -0.047019117213818899 0 0.005578874074246792 -0.045742029153384295 0 -0.00035274638276799197 -0.046730641631811898 0 -0.00062520600691020993 -0.046487051309327794 0 -0.0004189113507968795 -0.046168645035760444 0 -0.00062520600691020993 -0.046487051309327794 0 -0.0004189113507968795 -0.046168645035760444 0 -0.00073057238941368465 -0.046158546988754191 0 0.011588279417899916 -0.04526765449233866 0 0.011506152129866878 -0.045345331369519681 0 0.011265032087168456 -0.046251753438630167 0 0.011588279417899916 -0.04526765449233866 0 0.011506152129866878 -0.045345331369519681 0 0.012255009080642513 -0.045578720566690566 0 -0.0004189113507968795 -0.046168645035760444 0 -0.00073057238941368465 -0.046158546988754191 0 -0.00078027108981996269 -0.045812919214050868 0 -0.0012451828834541155 -0.045851883359204405 0 -0.00073057238941368465 -0.046158546988754191 0 -0.00078027108981996269 -0.045812919214050868 0 -0.0012451828834541155 -0.045851883359204405 0 -0.00078027108981996269 -0.045812919214050868 0 -0.0011252896666292269 -0.045527824368925732 0 -0.00078027108981996269 -0.045812919214050868 0 -0.0008194947591564065 -0.045523042823431663 0 -0.0011252896666292269 -0.045527824368925732 0 0.005578874074246792 -0.045742029153384295 0 0.0053772323516305225 -0.045844549690614196 0 -0.0004189113507968795 -0.046168645035760444 0 -0.00078027108981996269 -0.045812919214050868 0 -0.00048211723993848949 -0.045531901005604801 0 -0.00078027108981996269 -0.045812919214050868 0 -0.0008194947591564065 -0.045523042823431663 0 -0.00048211723993848949 -0.045531901005604801 0 0.011506152129866878 -0.045345331369519681 0 0.013548779565045986 -0.044915799819472559 0 0.014216025723379572 -0.043367983981169443 0 0.01157331802769988 -0.045335167590647409 0 0.012475832439646867 -0.045134031275381112 0 0.011506152129866878 -0.045345331369519681 0 0.011265032087168456 -0.046251753438630167 0 0.010645216441099141 -0.046797652440594202 0 0.011506152129866878 -0.045345331369519681 0 0.012255009080642513 -0.045578720566690566 0 0.013548779565045986 -0.044915799819472559 0 0.013058382196279222 -0.045976916646170964 0 0.012255009080642513 -0.045578720566690566 0 0.013548779565045986 -0.044915799819472559 0 0.014119687506182655 -0.045806060689063004 0 0.013548779565045986 -0.044915799819472559 0 0.014795501819220288 -0.044900663539427475 0 0.013548779565045986 -0.044915799819472559 0 0.014795501819220288 -0.044900663539427475 0 0.01519467050881435 -0.04386289088876081 0 0.013548779565045986 -0.044915799819472559 0 0.014216025723379572 -0.043367983981169443 0 0.01519467050881435 -0.04386289088876081 0 0.010645216441099141 -0.046797652440594202 0 0.010509942100679416 -0.046853129792477799 0 0.01205550606570804 -0.047310242213643071 0 0.011265032087168456 -0.046251753438630167 0 0.010645216441099141 -0.046797652440594202 0 0.010509942100679416 -0.046853129792477799 0 0.011265032087168456 -0.046251753438630167 0 0.010509942100679416 -0.046853129792477799 0 0.010236663454280788 -0.046699077892715567 0 0.010509942100679416 -0.046853129792477799 0 0.010236663454280788 -0.046699077892715567 0 0.0099607470528304543 -0.046414945130638832 0 0.010509942100679416 -0.046853129792477799 0 0.011008754714349823 -0.046471121544837873 0 0.0099607470528304543 -0.046414945130638832 0 0.010509942100679416 -0.046853129792477799 0 0.011008754714349823 -0.046471121544837873 0 0.01205550606570804 -0.047310242213643071 0 -0.001493590626473027 -0.045149610872561072 0 -0.0011252896666292269 -0.045527824368925732 0 -0.00089976878007948572 -0.045231269994548247 0 -0.0008194947591564065 -0.045523042823431663 0 -0.0011252896666292269 -0.045527824368925732 0 -0.00089976878007948572 -0.045231269994548247 0 -0.0008194947591564065 -0.045523042823431663 0 -0.00048211723993848949 -0.045531901005604801 0 -0.00089976878007948572 -0.045231269994548247 0 0.0053772323516305225 -0.045844549690614196 0 0.0047384411617238734 -0.045776619026298045 0 -0.00048211723993848949 -0.045531901005604801 0 -0.00089976878007948572 -0.045231269994548247 0 -0.00049222045415411462 -0.044929032717151735 0 -0.00089976878007948572 -0.045231269994548247 0 -0.00049222045415411462 -0.044929032717151735 0 -0.0011201316281350285 -0.044899471005931828 0 -0.001493590626473027 -0.045149610872561072 0 -0.00089976878007948572 -0.045231269994548247 0 -0.0011201316281350285 -0.044899471005931828 0 -0.00049222045415411462 -0.044929032717151735 0 -0.0011201316281350285 -0.044899471005931828 0 -0.00080570799155831637 -0.044591075591059778 0 -0.00080570799155831637 -0.044591075591059778 0 -0.00043725406853426126 -0.044238354025938322 0 -0.001181254498540166 -0.04430402170577042 0 -0.0011201316281350285 -0.044899471005931828 0 -0.00080570799155831637 -0.044591075591059778 0 -0.001181254498540166 -0.04430402170577042 0 0.0047384411617238734 -0.045776619026298045 0 0.0054924768408887636 -0.044902746673708589 0 0.010236663454280788 -0.046699077892715567 0 0.009060772833986503 -0.045996114216323408 0 0.0099607470528304543 -0.046414945130638832 0 -0.00049222045415411462 -0.044929032717151735 0 -0.00080570799155831637 -0.044591075591059778 0 -0.00043725406853426126 -0.044238354025938322 0 0.0082402695427000062 -0.046083126773247586 0 0.0078574487425376507 -0.044999712156055097 0 0.0090927686904687735 -0.045981577364410831 0 0.0054924768408887636 -0.044902746673708589 0 0.0083892438726627418 -0.045221566764212996 0 0.0054924768408887636 -0.044902746673708589 0 0.0078549227444540924 -0.045000835667613141 0 0.0078228508656213221 -0.04611924870066126 0 0.007855724677734776 -0.045000000310307257 0 0.006619472907883543 -0.045590462944250676 0 0.0054924768408887636 -0.044902746673708589 0 0.0018296344417017363 -0.045317173273692474 0 0.0051853040411706589 -0.044999956683004612 0 0.0056126873823398784 -0.046241377094091783 0 0.006619472907883543 -0.045590462944250676 0 0.0051853040411706589 -0.044999956683004612 0 0.007855724677734776 -0.045000000310307257 0 0.006619472907883543 -0.045590462944250676 0 0.0078228508656213221 -0.04611924870066126 0 0.0056126873823398784 -0.046241377094091783 0 0.006619472907883543 -0.045590462944250676 0 0.011008754714349823 -0.046471121544837873 0 0.0099607470528304543 -0.046414945130638832 0 0.010301367078514938 -0.045972957490597925 0 0.011008754714349823 -0.046471121544837873 0 0.010301367078514938 -0.045972957490597925 0 0.01140022778621377 -0.045710345110459717 0 0.0099607470528304543 -0.046414945130638832 0 0.0090927686904687735 -0.045981577364410831 0 0.010301367078514938 -0.045972957490597925 0 0.009060772833986503 -0.045996114216323408 0 0.0099607470528304543 -0.046414945130638832 0 0.0090927686904687735 -0.045981577364410831 0 0.0090927686904687735 -0.045981577364410831 0 0.01026613691814782 -0.044999881626443382 0 0.010301367078514938 -0.045972957490597925 0 0.0078574487425376507 -0.044999712156055097 0 0.0090927686904687735 -0.045981577364410831 0 0.01026613691814782 -0.044999881626443382 0 0.01026613691814782 -0.044999881626443382 0 0.010301367078514938 -0.045972957490597925 0 0.01140022778621377 -0.045710345110459717 0 0.01140022778621377 -0.045710345110459717 0 0.012764972835717349 -0.045948595536214644 0 0.012675579737061529 -0.044999360289559427 0 0.01026613691814782 -0.044999881626443382 0 0.01140022778621377 -0.045710345110459717 0 0.012675579737061529 -0.044999360289559427 0 0.011008754714349823 -0.046471121544837873 0 0.01140022778621377 -0.045710345110459717 0 0.012764972835717349 -0.045948595536214644 0 0.011008754714349823 -0.046471121544837873 0 0.012764972835717349 -0.045948595536214644 0 0.01205550606570804 -0.047310242213643071 0 0.012764972835717349 -0.045948595536214644 0 0.014938598676209608 -0.045798319325032637 0 0.01205550606570804 -0.047310242213643071 0 0.012764972835717349 -0.045948595536214644 0 0.014578354651789072 -0.045647803600051218 0 0.014938598676209608 -0.045798319325032637 0 0.012764972835717349 -0.045948595536214644 0 0.012675579737061529 -0.044999360289559427 0 0.014578354651789072 -0.045647803600051218 0 0.012675579737061529 -0.044999360289559427 0 0.015085556724563853 -0.044999667353611654 0 0.014578354651789072 -0.045647803600051218 0 0.015085556724563853 -0.044999667353611654 0 0.015471963512020862 -0.045728490742670089 0 0.014578354651789072 -0.045647803600051218 0 0.015085556724563853 -0.044999667353611654 0 0.015471963512020862 -0.045728490742670089 0 0.016653807613305184 -0.045682274093521325 0 0.015085556724563853 -0.044999667353611654 0 0.016653807613305184 -0.045682274093521325 0 0.017495979305977405 -0.044999348473459294 0 0.015471963512020862 -0.045728490742670089 0 0.016653807613305184 -0.045682274093521325 0 0.015645900644861481 -0.04674233945717144 0 0.016653807613305184 -0.045682274093521325 0 0.015645900644861481 -0.04674233945717144 0 0.016727962063661946 -0.047631414059425121 0 0.016727788014561207 -0.046593848095971231 0 0.0169050075793672 -0.045119709462285308 0 0.014930383719130216 -0.045654778901920476 0 0.015119916963118912 -0.044957464541490376 0 0.014600540895711346 -0.045062169120113814 0 0.015299315578647296 -0.046102252936572892 0 0.0169050075793672 -0.045119709462285308 0 0.01472433836153603 -0.04574546334189819 0 0.015299315578647296 -0.046102252936572892 0 0.014578354651789072 -0.045647803600051218 0 0.014930383719130216 -0.045654778901920476 0 0.014938598676209608 -0.045798319325032637 0 0.015471963512020862 -0.045728490742670089 0 0.014578354651789072 -0.045647803600051218 0 0.015645900644861481 -0.04674233945717144 0 0.014930383719130216 -0.045654778901920476 0 0.014938598676209608 -0.045798319325032637 0 0.015119916963118912 -0.044957464541490376 0 0.014938598676209608 -0.045798319325032637 0 0.015119916963118912 -0.044957464541490376 0 0.016079299278265274 -0.043647724698689577 0 0.015119916963118912 -0.044957464541490376 0 0.015664005522145662 -0.04412995640529975 0 0.016079299278265274 -0.043647724698689577 0 0.015119916963118912 -0.044957464541490376 0 0.014600540895711346 -0.045062169120113814 0 0.015664005522145662 -0.04412995640529975 0 0.014600540895711346 -0.045062169120113814 0 0.015241789377501862 -0.043817356695545234 0 0.015664005522145662 -0.04412995640529975 0 0.0169050075793672 -0.045119709462285308 0 0.016674366056660846 -0.041385483343751077 0 0.015664005522145662 -0.04412995640529975 0 0.016088488011010905 -0.04364655995077843 0 0.016455152579152973 -0.043335359457530531 0 0.015664005522145662 -0.04412995640529975 0 0.016088488011010905 -0.04364655995077843 0 0.016079299278265274 -0.043647724698689577 0 0.016088488011010905 -0.04364655995077843 0 0.016079299278265274 -0.043647724698689577 0 0.01601931493431907 -0.043624153781734086 0 0.012475832439646867 -0.045134031275381112 0 0.014032872787668413 -0.045463854037246419 0 0.016079299278265274 -0.043647724698689577 0 0.01519467050881435 -0.04386289088876081 0 0.01601931493431907 -0.043624153781734086 0 0.014216025723379572 -0.043367983981169443 0 0.016079299278265274 -0.043647724698689577 0 0.01519467050881435 -0.04386289088876081 0 0.01485006983219807 -0.045736315812746148 0 0.014032872787668413 -0.045463854037246419 0 0.019294201814292592 -0.044391540322623789 0 0.019305946017728205 -0.045890726526776095 0 0.018041955103967219 -0.044041652217774695 0 0.019294201814292592 -0.044391540322623789 0 0.019305946017728205 -0.045890726526776095 0 0.020077800120313842 -0.045613198691908212 0 0.021979843650710772 -0.046269722609081555 0 0.021932632849634176 -0.044999968103655086 0 0.019905343285360696 -0.045000012667556238 0 0.019305946017728205 -0.045890726526776095 0 0.019904141690633786 -0.045000579884284866 0 0.020077800120313842 -0.045613198691908212 0 0.019904141690633786 -0.045000579884284866 0 0.020077800120313842 -0.045613198691908212 0 0.019255158003679183 -0.045694315954445855 0 0.020559812168271546 -0.046035897717782943 0 0.019905329746027781 -0.045000213865730165 0 0.020077800120313842 -0.045613198691908212 0 0.019084320278478631 -0.046498594902066502 0 0.019255158003679183 -0.045694315954445855 0 0.019084320278478631 -0.046498594902066502 0 0.018400792172667772 -0.046166729036401448 0 0.018074629268555398 -0.046741143672254577 0 0.018400792172667772 -0.046166729036401448 0 0.019255158003679183 -0.045694315954445855 0 0.018251066559674432 -0.04561949704738659 0 0.019084320278478631 -0.046498594902066502 0 0.018400792172667772 -0.046166729036401448 0 0.019255158003679183 -0.045694315954445855 0 0.019904141690633786 -0.045000579884284866 0 0.019255158003679183 -0.045694315954445855 0 0.018251066559674432 -0.04561949704738659 0 0.019904141690633786 -0.045000579884284866 0 0.017495979305977405 -0.044999348473459294 0 0.018251066559674432 -0.04561949704738659 0 0.016653807613305184 -0.045682274093521325 0 0.017495979305977405 -0.044999348473459294 0 0.018251066559674432 -0.04561949704738659 0 0.016653807613305184 -0.045682274093521325 0 0.018251066559674432 -0.04561949704738659 0 0.017612044383283329 -0.046263895386851044 0 0.016653807613305184 -0.045682274093521325 0 0.017086033488512953 -0.046862315385364395 0 0.017612044383283329 -0.046263895386851044 0 0.018400792172667772 -0.046166729036401448 0 0.018251066559674432 -0.04561949704738659 0 0.017612044383283329 -0.046263895386851044 0 0.018400792172667772 -0.046166729036401448 0 0.017612044383283329 -0.046263895386851044 0 0.018074629268555398 -0.046741143672254577 0 0.017086033488512953 -0.046862315385364395 0 0.017612044383283329 -0.046263895386851044 0 0.018074629268555398 -0.046741143672254577 0 0.0169050075793672 -0.045119709462285308 0 0.017675841139146768 -0.044680859807045038 0 0.017086033488512953 -0.046862315385364395 0 0.018074629268555398 -0.046741143672254577 0 0.018270246646846657 -0.047701513709739178 0 0.018290876232571956 -0.03956498733834457 0 0.01681011475866041 -0.040907178915366119 0 0.016558775473717209 -0.039521316615432747 0 0.018476113239847231 -0.042373134248007996 0 0.018290876232571956 -0.03956498733834457 0 0.01681011475866041 -0.040907178915366119 0 0.01681011475866041 -0.040907178915366119 0 0.015245069371457396 -0.039485880980946152 0 0.016558775473717209 -0.039521316615432747 0 0.018270246646846657 -0.047701513709739178 0 0.019752813811496413 -0.047326005486707852 0 0.01945033050338579 -0.048569365489296704 0 0.017675841139146768 -0.044680859807045038 0 0.018343318679387075 -0.040718413638452591 0 0.019084320278478631 -0.046498594902066502 0 0.018270246646846657 -0.047701513709739178 0 0.019752813811496413 -0.047326005486707852 0 0.019084320278478631 -0.046498594902066502 0 0.018074629268555398 -0.046741143672254577 0 0.018270246646846657 -0.047701513709739178 0 0.019294201814292592 -0.044391540322623789 0 0.020077800120313842 -0.045613198691908212 0 0.021345608058570761 -0.042864707451845833 0 0.020077800120313842 -0.045613198691908212 0 0.019084320278478631 -0.046498594902066502 0 0.019752813811496413 -0.047326005486707852 0 0.020215112900905143 -0.045301988888477411 0 0.020572888068384292 -0.045704027831244498 0 0.021345608058570761 -0.042864707451845833 0 0.019990371845601786 -0.040704416805401405 0 0.022076677277774241 -0.039959542442420767 0 0.020572888068384292 -0.045704027831244498 0 0.018343318679387075 -0.040718413638452591 0 0.021345608058570761 -0.042864707451845833 0 0.019990371845601786 -0.040704416805401405 0 0.018791196888077275 -0.04247980588433023 0 0.019990371845601786 -0.040704416805401405 0 0.018791196888077275 -0.04247980588433023 0 0.018001846110724223 -0.04038383331596461 0 0.019294201814292592 -0.044391540322623789 0 0.021345608058570761 -0.042864707451845833 0 0.018791196888077275 -0.04247980588433023 0 0.019294201814292592 -0.044391540322623789 0 0.018791196888077275 -0.04247980588433023 0 0.018041955103967219 -0.044041652217774695 0 0.017162780430054127 -0.035224284604893422 0 0.017201184409447456 -0.035157085164100516 0 0.017207167603840293 -0.035467376428692084 0 0.017162780430054127 -0.035224284604893422 0 0.017168337777727794 -0.034972039907106914 0 0.017201184409447456 -0.035157085164100516 0 0.018449678934158935 -0.036131607975329487 0 0.017310800315498202 -0.035616899551484123 0 0.019990371845601786 -0.040704416805401405 0 0.019736482382330816 -0.037768168787121782 0 0.018001846110724223 -0.04038383331596461 0 0.019736482382330816 -0.037768168787121782 0 0.018001846110724223 -0.04038383331596461 0 0.017205673478603096 -0.038377084494567636 0 0.018343318679387075 -0.040718413638452591 0 0.016449036544999532 -0.03586053589478963 0 0.017162780430054127 -0.035224284604893422 0 0.017307753846475794 -0.035402508392408487 0 0.017310909626470215 -0.035153843926888757 0 0.018449678934158935 -0.036131607975329487 0 0.018343318679387075 -0.040718413638452591 0 0.019990371845601786 -0.040704416805401405 0 0.019736482382330816 -0.037768168787121782 0 0.022076677277774241 -0.039959542442420767 0 0.017162780430054127 -0.035224284604893422 0 0.017310909626470215 -0.035153843926888757 0 0.017168337777727794 -0.034972039907106914 0 0.015655966278882105 -0.037673997623110564 0 0.016772509801873323 -0.036922790918238524 0 0.016133757512707809 -0.03612753831840939 0 0.015655966278882105 -0.037673997623110564 0 0.016772509801873323 -0.036922790918238524 0 0.017115445645974132 -0.038280831244945052 0 0.016449036544999532 -0.03586053589478963 0 0.016661488558551048 -0.035630663197257252 0 0.015655966278882105 -0.037673997623110564 0 0.016558775473717209 -0.039521316615432747 0 0.017115445645974132 -0.038280831244945052 0 0.015245069371457396 -0.039485880980946152 0 0.015655966278882105 -0.037673997623110564 0 0.016558775473717209 -0.039521316615432747 0 0.018290876232571956 -0.03956498733834457 0 0.017115445645974132 -0.038280831244945052 0 0.017919208305939731 -0.036897529237507866 0 0.018290876232571956 -0.03956498733834457 0 0.016558775473717209 -0.039521316615432747 0 0.017115445645974132 -0.038280831244945052 0 0.016674366056660846 -0.041385483343751077 0 0.01672761450283166 -0.038969157093918662 0 0.016772509801873323 -0.036922790918238524 0 0.017115445645974132 -0.038280831244945052 0 0.017919208305939731 -0.036897529237507866 0 0.01672761450283166 -0.038969157093918662 0 0.017072859667848762 -0.035564990903106809 0 0.017919208305939731 -0.036897529237507866 0 0.017191206056008271 -0.035281909708774296 0 0.017011516375343892 -0.035706430980976291 0 0.016772509801873323 -0.036922790918238524 0 0.017919208305939731 -0.036897529237507866 0 0.017011516375343892 -0.035706430980976291 0 0.017191206056008271 -0.035281909708774296 0 0.017011516375343892 -0.035706430980976291 0 0.017203509993420685 -0.034452368215813226 0 0.017011516375343892 -0.035706430980976291 0 0.016828278904024559 -0.034666408442079362 0 0.016133757512707809 -0.03612753831840939 0 0.016828278904024559 -0.034666408442079362 0 0.017036893223121515 -0.034688469814956199 0 0.017238381960852745 -0.034865161516560675 0 0.016816373538848756 -0.034753307383521045 0 0.016661488558551048 -0.035630663197257252 0 0.017011516375343892 -0.035706430980976291 0 0.016828278904024559 -0.034666408442079362 0 0.017203509993420685 -0.034452368215813226 0 0.016828278904024559 -0.034666408442079362 0 0.017036893223121515 -0.034688469814956199 0 0.016953746861041695 -0.034545342128837565 0 0.016772509801873323 -0.036922790918238524 0 0.017011516375343892 -0.035706430980976291 0 0.016133757512707809 -0.03612753831840939 0 0.017238381960852745 -0.034865161516560675 0 0.017168337777727794 -0.034972039907106914 0 0.01710867576780541 -0.034740736488860197 0 0.017310909626470215 -0.035153843926888757 0 0.017238381960852745 -0.034865161516560675 0 0.017168337777727794 -0.034972039907106914 0 0.017036893223121515 -0.034688469814956199 0 0.017238381960852745 -0.034865161516560675 0 0.01710867576780541 -0.034740736488860197 0 0.017036893223121515 -0.034688469814956199 0 0.01710867576780541 -0.034740736488860197 0 0.017037376625135034 -0.03462731155330117 0 0.017036893223121515 -0.034688469814956199 0 0.017037376625135034 -0.03462731155330117 0 0.016953746861041695 -0.034545342128837565 0 0.017037376625135034 -0.03462731155330117 0 0.017086165967206846 -0.034645881081298069 0 0.01703093508910019 -0.034563678227274915 0 0.01710867576780541 -0.034740736488860197 0 0.017037376625135034 -0.03462731155330117 0 0.017086165967206846 -0.034645881081298069 0 0.017168337777727794 -0.034972039907106914 0 0.01710867576780541 -0.034740736488860197 0 0.017127514380386562 -0.034770251183358039 0 0.01710867576780541 -0.034740736488860197 0 0.017086165967206846 -0.034645881081298069 0 0.017127514380386562 -0.034770251183358039 0 0.017127514380386562 -0.034770251183358039 0 0.017148747861468663 -0.034846577231576505 0 0.01712446081138717 -0.034682289632099815 0 0.017086165967206846 -0.034645881081298069 0 0.017127514380386562 -0.034770251183358039 0 0.01712446081138717 -0.034682289632099815 0 0.017086165967206846 -0.034645881081298069 0 0.01712446081138717 -0.034682289632099815 0 0.017108439486800887 -0.034601060265692651 0 0.01712446081138717 -0.034682289632099815 0 0.017108055365494767 -0.034715820514221632 0 0.017140859847197508 -0.034614090280900428 0 0.017148747861468663 -0.034846577231576505 0 0.017108055365494767 -0.034715820514221632 0 0.017098623830654497 -0.034883139268316807 0 0.017148747861468663 -0.034846577231576505 0 0.01712446081138717 -0.034682289632099815 0 0.017108055365494767 -0.034715820514221632 0 0.017148747861468663 -0.034846577231576505 0 0.017201184409447456 -0.035157085164100516 0 0.017098623830654497 -0.034883139268316807 0 0.017168337777727794 -0.034972039907106914 0 0.017148747861468663 -0.034846577231576505 0 0.017201184409447456 -0.035157085164100516 0 0.017168337777727794 -0.034972039907106914 0 0.017127514380386562 -0.034770251183358039 0 0.017148747861468663 -0.034846577231576505 0 0.015698542404550552 -0.044348245121808426 0 0.016430952226950343 -0.043575315125185067 0 0.016260370881656924 -0.045203745044553906 0 0.015698542404550552 -0.044348245121808426 0 0.016430952226950343 -0.043575315125185067 0 0.01601931493431907 -0.043624153781734086 0 0.015698542404550552 -0.044348245121808426 0 0.016260370881656924 -0.045203745044553906 0 0.015110222449880754 -0.045398819016170065 0 0.015698542404550552 -0.044348245121808426 0 0.014795501819220288 -0.044900663539427475 0 0.01519467050881435 -0.04386289088876081 0 0.015698542404550552 -0.044348245121808426 0 0.014795501819220288 -0.044900663539427475 0 0.015110222449880754 -0.045398819016170065 0 0.015698542404550552 -0.044348245121808426 0 0.01519467050881435 -0.04386289088876081 0 0.01601931493431907 -0.043624153781734086 0 0.016430952226950343 -0.043575315125185067 0 0.01601931493431907 -0.043624153781734086 0 0.016455152579152973 -0.043335359457530531 0 0.016088488011010905 -0.04364655995077843 0 0.01601931493431907 -0.043624153781734086 0 0.016455152579152973 -0.043335359457530531 0 0.016430952226950343 -0.043575315125185067 0 0.016455152579152973 -0.043335359457530531 0 0.017367913887272192 -0.042404438933307247 0 0.015664005522145662 -0.04412995640529975 0 0.016455152579152973 -0.043335359457530531 0 0.016439293111168742 -0.042971690531337155 0 0.016455152579152973 -0.043335359457530531 0 0.016439293111168742 -0.042971690531337155 0 0.017367913887272192 -0.042404438933307247 0 0.015241789377501862 -0.043817356695545234 0 0.015360911785609112 -0.040865850268400873 0 0.016439293111168742 -0.042971690531337155 0 0.015241789377501862 -0.043817356695545234 0 0.015664005522145662 -0.04412995640529975 0 0.016439293111168742 -0.042971690531337155 0 0.015360911785609112 -0.040865850268400873 0 0.016439293111168742 -0.042971690531337155 0 0.016847003543181308 -0.041251953200611487 0 0.016439293111168742 -0.042971690531337155 0 0.016847003543181308 -0.041251953200611487 0 0.017367913887272192 -0.042404438933307247 0 0.016430952226950343 -0.043575315125185067 0 0.017367913887272192 -0.042404438933307247 0 0.016260370881656924 -0.045203745044553906 0 0.017367913887272192 -0.042404438933307247 0 0.018014879329158656 -0.041142018718836278 0 0.018594928498532098 -0.04036783742768231 0 0.017304733454774745 -0.042550490397018095 0 0.017264959002032784 -0.042786780773082268 0 0.016847003543181308 -0.041251953200611487 0 0.017367913887272192 -0.042404438933307247 0 0.018014879329158656 -0.041142018718836278 0 0.018014879329158656 -0.041142018718836278 0 0.020096530997755858 -0.037729253304962719 0 0.022215034824041684 -0.037427510031803647 0 0.018208145453292454 -0.040955692834138635 0 0.020051019495398743 -0.03893397639394091 0 0.018014879329158656 -0.041142018718836278 0 0.018781596667941405 -0.038566167437088753 0 0.020096530997755858 -0.037729253304962719 0 0.018014879329158656 -0.041142018718836278 0 0.018781596667941405 -0.038566167437088753 0 0.017598643251763073 -0.039099716392686147 0 0.018781596667941405 -0.038566167437088753 0 0.017598643251763073 -0.039099716392686147 0 0.019213129809387979 -0.036553823196877201 0 0.015360911785609112 -0.040865850268400873 0 0.017598643251763073 -0.039099716392686147 0 0.017789874598748361 -0.0369946076482109 0 0.015360911785609112 -0.040865850268400873 0 0.017191206056008271 -0.035281909708774296 0 0.017789874598748361 -0.0369946076482109 0 0.015360911785609112 -0.040865850268400873 0 0.016847003543181308 -0.041251953200611487 0 0.017598643251763073 -0.039099716392686147 0 0.016847003543181308 -0.041251953200611487 0 0.018014879329158656 -0.041142018718836278 0 0.017598643251763073 -0.039099716392686147 0 0.017789874598748361 -0.0369946076482109 0 0.019213129809387979 -0.036553823196877201 0 0.018947226309500013 -0.034397929734204052 0 0.017191206056008271 -0.035281909708774296 0 0.017789874598748361 -0.0369946076482109 0 0.018947226309500013 -0.034397929734204052 0 0.017598643251763073 -0.039099716392686147 0 0.017789874598748361 -0.0369946076482109 0 0.019213129809387979 -0.036553823196877201 0 0.020096530997755858 -0.037729253304962719 0 0.019213129809387979 -0.036553823196877201 0 0.020784907695878985 -0.036030581718053775 0 0.018781596667941405 -0.038566167437088753 0 0.020096530997755858 -0.037729253304962719 0 0.019213129809387979 -0.036553823196877201 0 0.019213129809387979 -0.036553823196877201 0 0.020784907695878985 -0.036030581718053775 0 0.020361226493516838 -0.034720574967443657 0 0.020784907695878985 -0.036030581718053775 0 0.022215034824041684 -0.037427510031803647 0 0.021922275445487045 -0.034607188915758071 0 0.020096530997755858 -0.037729253304962719 0 0.020784907695878985 -0.036030581718053775 0 0.022215034824041684 -0.037427510031803647 0 0.018328543898018017 -0.040293043202601311 0 0.018594928498532098 -0.04036783742768231 0 0.01625425621172211 -0.040183563870245825 0 0.018014879329158656 -0.041142018718836278 0 0.018328543898018017 -0.040293043202601311 0 0.018594928498532098 -0.04036783742768231 0 0.016260370881656924 -0.045203745044553906 0 0.015110222449880754 -0.045398819016170065 0 0.014667076125948171 -0.046767047164662609 0 0.017264959002032784 -0.042786780773082268 0 0.015297273534112737 -0.043585727676465312 0 0.014119687506182655 -0.045806060689063004 0 0.014795501819220288 -0.044900663539427475 0 0.015110222449880754 -0.045398819016170065 0 0.014119687506182655 -0.045806060689063004 0 0.015110222449880754 -0.045398819016170065 0 0.014667076125948171 -0.046767047164662609 0 0.020051019495398743 -0.03893397639394091 0 0.020552958454382597 -0.038920423000954038 0 0.022215034824041684 -0.037427510031803647 0 0.024102181378149234 -0.035009051657920849 0 0.021922275445487045 -0.034607188915758071 0 0.018328543898018017 -0.040293043202601311 0 0.01625425621172211 -0.040183563870245825 0 0.015631976073488135 -0.042402395108735842 0 0.024102181378149234 -0.035009051657920849 0 0.023120858486098479 -0.033682452947768324 0 0.021922275445487045 -0.034607188915758071 0 0.024102181378149234 -0.035009051657920849 0 0.023120858486098479 -0.033682452947768324 0 0.024247213460824719 -0.033169156220445015 0 0.023235710088410556 -0.03213980349904396 0 0.024247213460824719 -0.033169156220445015 0 0.024303105649746595 -0.031460948531606504 0 0.023120858486098479 -0.033682452947768324 0 0.023235710088410556 -0.03213980349904396 0 0.024247213460824719 -0.033169156220445015 0 0.023120858486098479 -0.033682452947768324 0 0.023235710088410556 -0.03213980349904396 0 0.022053693392990181 -0.032917625682619113 0 0.022053693392990181 -0.032917625682619113 0 0.020544561070107898 -0.033031680774569167 0 0.021434147972557174 -0.03127041724361438 0 0.022053693392990181 -0.032917625682619113 0 0.021922275445487045 -0.034607188915758071 0 0.020544561070107898 -0.033031680774569167 0 0.023120858486098479 -0.033682452947768324 0 0.022053693392990181 -0.032917625682619113 0 0.021922275445487045 -0.034607188915758071 0 0.021922275445487045 -0.034607188915758071 0 0.020361226493516838 -0.034720574967443657 0 0.020544561070107898 -0.033031680774569167 0 0.020784907695878985 -0.036030581718053775 0 0.021922275445487045 -0.034607188915758071 0 0.020361226493516838 -0.034720574967443657 0 0.020361226493516838 -0.034720574967443657 0 0.018947226309500013 -0.034397929734204052 0 0.020544561070107898 -0.033031680774569167 0 0.019213129809387979 -0.036553823196877201 0 0.020361226493516838 -0.034720574967443657 0 0.018947226309500013 -0.034397929734204052 0 0.017191206056008271 -0.035281909708774296 0 0.018947226309500013 -0.034397929734204052 0 0.018074908828512912 -0.03366761369102389 0 0.018074908828512912 -0.03366761369102389 0 0.019218200079194007 -0.03232871294459045 0 0.017945557916163896 -0.032457025256467896 0 0.018947226309500013 -0.034397929734204052 0 0.018074908828512912 -0.03366761369102389 0 0.019218200079194007 -0.03232871294459045 0 0.018947226309500013 -0.034397929734204052 0 0.019218200079194007 -0.03232871294459045 0 0.020544561070107898 -0.033031680774569167 0 0.019218200079194007 -0.03232871294459045 0 0.020544561070107898 -0.033031680774569167 0 0.021434147972557174 -0.03127041724361438 0 0.019218200079194007 -0.03232871294459045 0 0.019764048557480821 -0.030730553921625624 0 0.021434147972557174 -0.03127041724361438 0 0.019218200079194007 -0.03232871294459045 0 0.019764048557480821 -0.030730553921625624 0 0.018208807531227854 -0.031024630932932767 0 0.019218200079194007 -0.03232871294459045 0 0.017945557916163896 -0.032457025256467896 0 0.018208807531227854 -0.031024630932932767 0 0.019764048557480821 -0.030730553921625624 0 0.019187095122835264 -0.02973241187482396 0 0.018208807531227854 -0.031024630932932767 0 0.019187095122835264 -0.02973241187482396 0 0.018208807531227854 -0.031024630932932767 0 0.017948348964788651 -0.028724378211668802 0 0.019764048557480821 -0.030730553921625624 0 0.020643647403716683 -0.029513081049569793 0 0.021434147972557174 -0.03127041724361438 0 0.019764048557480821 -0.030730553921625624 0 0.019187095122835264 -0.02973241187482396 0 0.020643647403716683 -0.029513081049569793 0 0.019187095122835264 -0.02973241187482396 0 0.020643647403716683 -0.029513081049569793 0 0.019835314578964848 -0.028408246630927454 0 0.021953940825398529 -0.029370927314123829 0 0.02304989469741052 -0.030748234606711274 0 0.021434147972557174 -0.03127041724361438 0 0.020643647403716683 -0.029513081049569793 0 0.021953940825398529 -0.029370927314123829 0 0.021434147972557174 -0.03127041724361438 0 0.023787987076215922 -0.02925155396842551 0 0.02304989469741052 -0.030748234606711274 0 0.024303105649746595 -0.031460948531606504 0 0.021953940825398529 -0.029370927314123829 0 0.023787987076215922 -0.02925155396842551 0 0.02304989469741052 -0.030748234606711274 0 0.023235710088410556 -0.03213980349904396 0 0.02304989469741052 -0.030748234606711274 0 0.021434147972557174 -0.03127041724361438 0 0.023235710088410556 -0.03213980349904396 0 0.02304989469741052 -0.030748234606711274 0 0.024303105649746595 -0.031460948531606504 0 0.023235710088410556 -0.03213980349904396 0 0.022053693392990181 -0.032917625682619113 0 0.021434147972557174 -0.03127041724361438 0 0.017218771588975553 -0.034692307939884863 0 0.017096397936976915 -0.034683463893198513 0 0.017039510915182191 -0.034880381263615909 0 0.017096397936976915 -0.034683463893198513 0 0.017173039239381974 -0.034606289083126532 0 0.017082439778591012 -0.034608901947887169 0 0.017218771588975553 -0.034692307939884863 0 0.017096397936976915 -0.034683463893198513 0 0.017173039239381974 -0.034606289083126532 0 0.017218771588975553 -0.034692307939884863 0 0.017173039239381974 -0.034606289083126532 0 0.017304828532688322 -0.034626062724463759 0 0.017173039239381974 -0.034606289083126532 0 0.017140859847197508 -0.034614090280900428 0 0.017210939580030463 -0.034581750311375919 0 0.01712446081138717 -0.034682289632099815 0 0.017140859847197508 -0.034614090280900428 0 0.017108439486800887 -0.034601060265692651 0 0.017173039239381974 -0.034606289083126532 0 0.017140859847197508 -0.034614090280900428 0 0.017108439486800887 -0.034601060265692651 0 0.017173039239381974 -0.034606289083126532 0 0.017108439486800887 -0.034601060265692651 0 0.017082439778591012 -0.034608901947887169 0 0.017108439486800887 -0.034601060265692651 0 0.017082439778591012 -0.034608901947887169 0 0.01703093508910019 -0.034563678227274915 0 0.017082439778591012 -0.034608901947887169 0 0.01703093508910019 -0.034563678227274915 0 0.017018503837787198 -0.034570197897230114 0 0.017086165967206846 -0.034645881081298069 0 0.017108439486800887 -0.034601060265692651 0 0.01703093508910019 -0.034563678227274915 0 0.017037376625135034 -0.03462731155330117 0 0.01703093508910019 -0.034563678227274915 0 0.016953746861041695 -0.034545342128837565 0 0.01703093508910019 -0.034563678227274915 0 0.016954405589241429 -0.034477360385923972 0 0.016953746861041695 -0.034545342128837565 0 0.016954405589241429 -0.034477360385923972 0 0.017018503837787198 -0.034570197897230114 0 0.016974950305075689 -0.034684662740072085 0 0.01703093508910019 -0.034563678227274915 0 0.016954405589241429 -0.034477360385923972 0 0.017018503837787198 -0.034570197897230114 0 0.017096397936976915 -0.034683463893198513 0 0.016974950305075689 -0.034684662740072085 0 0.017039510915182191 -0.034880381263615909 0 0.017373860865529809 -0.032019436988097144 0 0.017779070606077314 -0.031074027431167193 0 0.017305680484262977 -0.029449247594262734 0 0.017238734587775036 -0.033421166772907997 0 0.01700890827971616 -0.032484089500497582 0 0.017096397936976915 -0.034683463893198513 0 0.017082439778591012 -0.034608901947887169 0 0.016974950305075689 -0.034684662740072085 0 0.017082439778591012 -0.034608901947887169 0 0.017018503837787198 -0.034570197897230114 0 0.016974950305075689 -0.034684662740072085 0 0.017373860865529809 -0.032019436988097144 0 0.017779070606077314 -0.031074027431167193 0 0.01745571333846628 -0.031530493143668188 0 0.01745571333846628 -0.031530493143668188 0 0.017462616853717441 -0.031861901169544092 0 0.017275431158947068 -0.032730100515327647 0 0.017462616853717441 -0.031861901169544092 0 0.017275431158947068 -0.032730100515327647 0 0.017451372453283411 -0.032745540003733989 0 0.017275431158947068 -0.032730100515327647 0 0.017266117068420631 -0.033472919944281074 0 0.017451372453283411 -0.032745540003733989 0 0.017373860865529809 -0.032019436988097144 0 0.01745571333846628 -0.031530493143668188 0 0.017275431158947068 -0.032730100515327647 0 0.017238734587775036 -0.033421166772907997 0 0.017095654388688188 -0.034175725979984924 0 0.017373860865529809 -0.032019436988097144 0 0.017275431158947068 -0.032730100515327647 0 0.016878086185937429 -0.034237617661752796 0 0.016954405589241429 -0.034477360385923972 0 0.016974950305075689 -0.034684662740072085 0 0.016878086185937429 -0.034237617661752796 0 0.016828278904024559 -0.034666408442079362 0 0.016887138221933252 -0.034445473254552737 0 0.016953746861041695 -0.034545342128837565 0 0.016954405589241429 -0.034477360385923972 0 0.016887138221933252 -0.034445473254552737 0 0.016953746861041695 -0.034545342128837565 0 0.016954405589241429 -0.034477360385923972 0 0.016887138221933252 -0.034445473254552737 0 0.016878086185937429 -0.034237617661752796 0 0.016828278904024559 -0.034666408442079362 0 0.016887138221933252 -0.034445473254552737 0 0.016878086185937429 -0.034237617661752796 0 0.016828278904024559 -0.034666408442079362 0 0.016878086185937429 -0.034237617661752796 0 0.017203509993420685 -0.034452368215813226 0 0.016878086185937429 -0.034237617661752796 0 0.017266117068420631 -0.033472919944281074 0 0.017203509993420685 -0.034452368215813226 0 0.017275431158947068 -0.032730100515327647 0 0.016878086185937429 -0.034237617661752796 0 0.017266117068420631 -0.033472919944281074 0 0.017191206056008271 -0.035281909708774296 0 0.018074908828512912 -0.03366761369102389 0 0.017203509993420685 -0.034452368215813226 0 0.017266117068420631 -0.033472919944281074 0 0.017579074529907469 -0.033342950315492004 0 0.017203509993420685 -0.034452368215813226 0 0.018074908828512912 -0.03366761369102389 0 0.017579074529907469 -0.033342950315492004 0 0.017203509993420685 -0.034452368215813226 0 0.018074908828512912 -0.03366761369102389 0 0.017579074529907469 -0.033342950315492004 0 0.017945557916163896 -0.032457025256467896 0 0.017579074529907469 -0.033342950315492004 0 0.017451372453283411 -0.032745540003733989 0 0.017945557916163896 -0.032457025256467896 0 0.017266117068420631 -0.033472919944281074 0 0.017579074529907469 -0.033342950315492004 0 0.017451372453283411 -0.032745540003733989 0 0.017462616853717441 -0.031861901169544092 0 0.017451372453283411 -0.032745540003733989 0 0.017945557916163896 -0.032457025256467896 0 0.017462616853717441 -0.031861901169544092 0 0.018208807531227854 -0.031024630932932767 0 0.017090192142616194 -0.030902572563913544 0 0.017462616853717441 -0.031861901169544092 0 0.017945557916163896 -0.032457025256467896 0 0.018208807531227854 -0.031024630932932767 0 0.018208807531227854 -0.031024630932932767 0 0.017090192142616194 -0.030902572563913544 0 0.017948348964788651 -0.028724378211668802 0 0.018832659515843238 -0.028994470455448042 0 0.019262978375892671 -0.027261076595977499 0 0.020704821295758701 -0.027045331380024969 0 0.019392542183880326 -0.026067693068834042 0 0.020240710064255069 -0.025632105522618926 0 0.017830117610067916 -0.030890886975234899 0 0.018832659515843238 -0.028994470455448042 0 0.01745571333846628 -0.031530493143668188 0 0.017462616853717441 -0.031861901169544092 0 0.017090192142616194 -0.030902572563913544 0 0.017779070606077314 -0.031074027431167193 0 0.01745571333846628 -0.031530493143668188 0 0.017090192142616194 -0.030902572563913544 0 0.017779070606077314 -0.031074027431167193 0 0.020704821295758701 -0.027045331380024969 0 0.018630225457663751 -0.028001775043361033 0 0.017779070606077314 -0.031074027431167193 0 0.018630225457663751 -0.028001775043361033 0 0.017305680484262977 -0.029449247594262734 0 0.018630225457663751 -0.028001775043361033 0 0.018338975340374316 -0.026527504256555971 0 0.017305680484262977 -0.029449247594262734 0 0.020704821295758701 -0.027045331380024969 0 0.018630225457663751 -0.028001775043361033 0 0.019392542183880326 -0.026067693068834042 0 0.019392542183880326 -0.026067693068834042 0 0.018338975340374316 -0.026527504256555971 0 0.019282064103118474 -0.025567654223860925 0 0.018630225457663751 -0.028001775043361033 0 0.019392542183880326 -0.026067693068834042 0 0.018338975340374316 -0.026527504256555971 0 0.018338975340374316 -0.026527504256555971 0 0.017305680484262977 -0.029449247594262734 0 0.015394778726319523 -0.026450235730215547 0 0.018338975340374316 -0.026527504256555971 0 0.019282064103118474 -0.025567654223860925 0 0.019235412206211708 -0.025648193150066497 0 0.017666512131443629 -0.026496375908410308 0 0.01941365461089473 -0.027933658903034227 0 0.01700890827971616 -0.032484089500497582 0 0.01941365461089473 -0.027933658903034227 0 0.017039510915182191 -0.034880381263615909 0 0.017447024054302426 -0.035076341184049627 0 0.01735645279026013 -0.035622882115744145 0 0.017218771588975553 -0.034692307939884863 0 0.017039510915182191 -0.034880381263615909 0 0.017444565671757142 -0.034766170025521383 0 0.017039510915182191 -0.034880381263615909 0 0.017444565671757142 -0.034766170025521383 0 0.017447024054302426 -0.035076341184049627 0 0.019874494235264637 -0.02504436283927142 0 0.02017286499222699 -0.024802511019721779 0 0.020564834047943362 -0.024476549497330202 0 0.019874494235264637 -0.02504436283927142 0 0.019282064103118474 -0.025567654223860925 0 0.020073411908940856 -0.024912432832470681 0 0.019874494235264637 -0.02504436283927142 0 0.019282064103118474 -0.025567654223860925 0 0.019793249063053991 -0.025397120682070878 0 0.019392542183880326 -0.026067693068834042 0 0.019793249063053991 -0.025397120682070878 0 0.020240710064255069 -0.025632105522618926 0 0.019392542183880326 -0.026067693068834042 0 0.019282064103118474 -0.025567654223860925 0 0.019793249063053991 -0.025397120682070878 0 0.019874494235264637 -0.02504436283927142 0 0.020028281035958845 -0.025107329696272201 0 0.02017286499222699 -0.024802511019721779 0 0.019793249063053991 -0.025397120682070878 0 0.020028281035958845 -0.025107329696272201 0 0.020122417793193115 -0.025412112026155835 0 0.019874494235264637 -0.02504436283927142 0 0.019793249063053991 -0.025397120682070878 0 0.020028281035958845 -0.025107329696272201 0 0.020122417793193115 -0.025412112026155835 0 0.020173789109808851 -0.025671552683097277 0 0.020103463046145992 -0.025332938017132163 0 0.020122417793193115 -0.025412112026155835 0 0.020240710064255069 -0.025632105522618926 0 0.020173789109808851 -0.025671552683097277 0 0.020028281035958845 -0.025107329696272201 0 0.020122417793193115 -0.025412112026155835 0 0.020103463046145992 -0.025332938017132163 0 0.020704821295758701 -0.027045331380024969 0 0.020240710064255069 -0.025632105522618926 0 0.020460336352677584 -0.025716276674709354 0 0.019793249063053991 -0.025397120682070878 0 0.020122417793193115 -0.025412112026155835 0 0.020240710064255069 -0.025632105522618926 0 0.020240710064255069 -0.025632105522618926 0 0.020460336352677584 -0.025716276674709354 0 0.020173789109808851 -0.025671552683097277 0 0.020460336352677584 -0.025716276674709354 0 0.020173789109808851 -0.025671552683097277 0 0.019876494422710889 -0.026185856277530291 0 0.020173789109808851 -0.025671552683097277 0 0.020062580591739397 -0.025516380138374973 0 0.020103463046145992 -0.025332938017132163 0 0.020173789109808851 -0.025671552683097277 0 0.020062580591739397 -0.025516380138374973 0 0.020019582154439733 -0.025765754542290305 0 0.018811311885267665 -0.024564449348195291 0 0.018852181914910095 -0.024539310583038727 0 0.019094605091502188 -0.024833669578118951 0 0.019453919936304017 -0.025038028056766925 0 0.019821673828245383 -0.024719785153834016 0 0.018811311885267665 -0.024564449348195291 0 0.019551235151422968 -0.024403188489608551 0 0.019094605091502188 -0.024833669578118951 0 0.019551235151422968 -0.024403188489608551 0 0.019775809150015217 -0.025060763905850245 0 0.019094605091502188 -0.024833669578118951 0 0.020062580591739397 -0.025516380138374973 0 0.020103463046145992 -0.025332938017132163 0 0.020109823646479036 -0.025058563847047497 0 0.020028281035958845 -0.025107329696272201 0 0.020103463046145992 -0.025332938017132163 0 0.020109823646479036 -0.025058563847047497 0 0.020028281035958845 -0.025107329696272201 0 0.020109823646479036 -0.025058563847047497 0 0.02017286499222699 -0.024802511019721779 0 0.020109823646479036 -0.025058563847047497 0 0.020430315535318214 -0.024429297019934158 0 0.02017286499222699 -0.024802511019721779 0 0.019821673828245383 -0.024719785153834016 0 0.02034875483091126 -0.024499244598762716 0 0.019551235151422968 -0.024403188489608551 0 0.020430315535318214 -0.024429297019934158 0 0.019775809150015217 -0.025060763905850245 0 0.020430315535318214 -0.024429297019934158 0 0.02017286499222699 -0.024802511019721779 0 0.020564834047943362 -0.024476549497330202 0 0.022022791121751702 -0.026791804711624678 0 0.022334886357120418 -0.02806668624327777 0 0.021207204449135892 -0.027543800186569128 0 0.022022791121751702 -0.026791804711624678 0 0.020930611867689214 -0.026302818247788927 0 0.021679742370706242 -0.0257000591343951 0 0.022022791121751702 -0.026791804711624678 0 0.021207204449135892 -0.027543800186569128 0 0.020930611867689214 -0.026302818247788927 0 0.022022791121751702 -0.026791804711624678 0 0.023353215359348197 -0.027258240208643866 0 0.022723178541965539 -0.026145197396558437 0 0.023353215359348197 -0.027258240208643866 0 0.02379584181050302 -0.026068625718484912 0 0.022723178541965539 -0.026145197396558437 0 0.022022791121751702 -0.026791804711624678 0 0.023353215359348197 -0.027258240208643866 0 0.022334886357120418 -0.02806668624327777 0 0.021953940825398529 -0.029370927314123829 0 0.023787987076215922 -0.02925155396842551 0 0.022334886357120418 -0.02806668624327777 0 0.023787987076215922 -0.02925155396842551 0 0.023353215359348197 -0.027258240208643866 0 0.022334886357120418 -0.02806668624327777 0 0.021953940825398529 -0.029370927314123829 0 0.022334886357120418 -0.02806668624327777 0 0.021207204449135892 -0.027543800186569128 0 0.020643647403716683 -0.029513081049569793 0 0.021953940825398529 -0.029370927314123829 0 0.021207204449135892 -0.027543800186569128 0 0.020643647403716683 -0.029513081049569793 0 0.019835314578964848 -0.028408246630927454 0 0.021207204449135892 -0.027543800186569128 0 0.017948348964788651 -0.028724378211668802 0 0.019835314578964848 -0.028408246630927454 0 0.019876494422710889 -0.026185856277530291 0 0.019187095122835264 -0.02973241187482396 0 0.017948348964788651 -0.028724378211668802 0 0.019835314578964848 -0.028408246630927454 0 0.020173789109808851 -0.025671552683097277 0 0.019876494422710889 -0.026185856277530291 0 0.020019582154439733 -0.025765754542290305 0 0.019262978375892671 -0.027261076595977499 0 0.019837870391089613 -0.02624646146092818 0 0.019876494422710889 -0.026185856277530291 0 0.021207204449135892 -0.027543800186569128 0 0.020930611867689214 -0.026302818247788927 0 0.019835314578964848 -0.028408246630927454 0 0.019876494422710889 -0.026185856277530291 0 0.021207204449135892 -0.027543800186569128 0 0.019970549637885089 -0.025382902954858639 0 0.021560636321162591 -0.025679539279954148 0 0.019640087717968598 -0.025174951814945289 0 0.02043096708940452 -0.024535644595060181 0 0.021679742370706242 -0.0257000591343951 0 0.020930611867689214 -0.026302818247788927 0 0.020116581058040723 -0.02561332641713519 0 0.021679742370706242 -0.0257000591343951 0 0.019876494422710889 -0.026185856277530291 0 0.020930611867689214 -0.026302818247788927 0 0.020116581058040723 -0.02561332641713519 0 0.019453919936304017 -0.025038028056766925 0 0.019970549637885089 -0.025382902954858639 0 0.020062580591739397 -0.025516380138374973 0 0.020019582154439733 -0.025765754542290305 0 0.020116581058040723 -0.02561332641713519 0 0.019876494422710889 -0.026185856277530291 0 0.020019582154439733 -0.025765754542290305 0 0.020116581058040723 -0.02561332641713519 0 0.018852181914910095 -0.024539310583038727 0 0.017865226532620519 -0.024354397379624238 0 0.01833051467905646 -0.024857486177509477 0 0.018955140293376589 -0.024507357295399903 0 0.018966181702268516 -0.024514852631482176 0 0.018852181914910095 -0.024539310583038727 0 0.019640087717968598 -0.025174951814945289 0 0.02043096708940452 -0.024535644595060181 0 0.018811311885267665 -0.024564449348195291 0 0.018852181914910095 -0.024539310583038727 0 0.019640087717968598 -0.025174951814945289 0 0.017865226532620519 -0.024354397379624238 0 0.01780830051533179 -0.024866314387056169 0 0.01833051467905646 -0.024857486177509477 0 0.017865226532620519 -0.024354397379624238 0 0.017328560634484801 -0.024642740005023842 0 0.01780830051533179 -0.024866314387056169 0 0.017865226532620519 -0.024354397379624238 0 0.017328560634484801 -0.024642740005023842 0 0.016875301647029748 -0.024243785433502814 0 0.018966181702268516 -0.024514852631482176 0 0.020695561669903908 -0.024011524036965628 0 0.017328560634484801 -0.024642740005023842 0 0.016875301647029748 -0.024243785433502814 0 0.016984790693100778 -0.02467516853956362 0 0.02043096708940452 -0.024535644595060181 0 0.021679742370706242 -0.0257000591343951 0 0.022768331811300908 -0.024877005581051614 0 0.021679742370706242 -0.0257000591343951 0 0.022723178541965539 -0.026145197396558437 0 0.022768331811300908 -0.024877005581051614 0 0.022022791121751702 -0.026791804711624678 0 0.021679742370706242 -0.0257000591343951 0 0.022723178541965539 -0.026145197396558437 0 0.02379584181050302 -0.026068625718484912 0 0.022723178541965539 -0.026145197396558437 0 0.022768331811300908 -0.024877005581051614 0 0.016875301647029748 -0.024243785433502814 0 0.016532258578646982 -0.024698640686674073 0 0.016133528383014406 -0.024505592645403758 0 0.016875301647029748 -0.024243785433502814 0 0.016984790693100778 -0.02467516853956362 0 0.016532258578646982 -0.024698640686674073 0 0.0087742576538145101 -0.029400171257425264 0 0.016028084910269729 -0.03002418386802164 0 0.016875301647029748 -0.024243785433502814 0 0.016133528383014406 -0.024505592645403758 0 0.015826715196864551 -0.024171854592223332 0 0.015867789303494376 -0.024818656326836695 0 0.016133528383014406 -0.024505592645403758 0 0.015826715196864551 -0.024171854592223332 0 0.0079820627882522151 -0.035517872999649341 0 0.0080884694337859074 -0.035563654462470541 0 0.0080382874863857805 -0.035965108004375163 0 0.0080884694337859074 -0.035563654462470541 0 0.0081093050600602543 -0.035982888102852974 0 0.0080382874863857805 -0.035965108004375163 0 0.016532258578646982 -0.024698640686674073 0 0.016020418900323866 -0.024855064420967059 0 0.016133528383014406 -0.024505592645403758 0 0.016020418900323866 -0.024855064420967059 0 0.015867789303494376 -0.024818656326836695 0 0.016133528383014406 -0.024505592645403758 0 0.0092409922209208163 -0.026841335952052049 0 0.007780888332910677 -0.026407680377466183 0 0.0078689504802993155 -0.027458449417186347 0 0.01110365565875886 -0.025990591416586325 0 0.0087742576538145101 -0.029400171257425264 0 0.0049976384186311727 -0.033143566317614934 0 0.0080571046102334148 -0.026577946590140476 0 0.0069978004661499288 -0.030609370571915307 0 0.0070192541655901683 -0.030629171019417398 0 0.0069987094288836427 -0.030584590831196364 0 0.0087742576538145101 -0.029400171257425264 0 0.0049976384186311727 -0.033143566317614934 0 0.0087742576538145101 -0.029400171257425264 0 0.0080571046102334148 -0.026577946590140476 0 -0.00065963893766943585 -0.034850198456574069 0 -0.0043732502117645672 -0.033810226658067571 0 -0.0023506504000981262 -0.035749130173954341 0 0.0080884694337859074 -0.035563654462470541 0 0.0081093050600602543 -0.035982888102852974 0 0.0083992358183736116 -0.035979060020222053 0 0.0049976384186311727 -0.033143566317614934 0 -0.0034498331218256475 -0.036959282774980763 0 0.0013625762070952055 -0.04019620461485892 0 -0.00029520748163831898 -0.038878748052166137 0 -0.00092744123369689873 -0.039654681115081684 0 0.0049976384186311727 -0.033143566317614934 0 0.0043818615135312183 -0.038022302892100859 0 0.0081093050600602543 -0.035982888102852974 0 0.0083063248706904524 -0.036318498749656487 0 0.0083992358183736116 -0.035979060020222053 0 0.0081093050600602543 -0.035982888102852974 0 0.0080556091101909987 -0.03596878635144049 0 0.0083063248706904524 -0.036318498749656487 0 0.02379584181050302 -0.026068625718484912 0 0.022768331811300908 -0.024877005581051614 0 0.024960423404865574 -0.025239475934555101 0 0.020695561669903908 -0.024011524036965628 0 0.016028084910269729 -0.03002418386802164 0 0.02379584181050302 -0.026068625718484912 0 0.024960423404865574 -0.025239475934555101 0 0.025272793433588524 -0.027744168239425434 0 0.013930751393479573 -0.030333723832053412 0 0.016028084910269729 -0.03002418386802164 0 0.023353215359348197 -0.027258240208643866 0 0.02379584181050302 -0.026068625718484912 0 0.025272793433588524 -0.027744168239425434 0 0.016028084910269729 -0.03002418386802164 0 0.016741142526571932 -0.032435069680723183 0 0.0080556091101909987 -0.03596878635144049 0 0.0081628929445852431 -0.036594635115366439 0 0.0083063248706904524 -0.036318498749656487 0 0.0081628929445852431 -0.036594635115366439 0 0.0083063248706904524 -0.036318498749656487 0 0.0084532293663883776 -0.036583675796121026 0 0.016741142526571932 -0.032435069680723183 0 0.017418222757228964 -0.033013605307757439 0 0.0081628929445852431 -0.036594635115366439 0 0.0083413554413718592 -0.036873394619836936 0 0.0084029692020370066 -0.03696481374217412 0 0.0081628929445852431 -0.036594635115366439 0 0.0084532293663883776 -0.036583675796121026 0 0.0083413554413718592 -0.036873394619836936 0 0.023787987076215922 -0.02925155396842551 0 0.025272793433588524 -0.027744168239425434 0 0.025602885929066021 -0.030384987677077552 0 0.023787987076215922 -0.02925155396842551 0 0.023353215359348197 -0.027258240208643866 0 0.025272793433588524 -0.027744168239425434 0 0.0049342559879560505 -0.040425186415941283 0 0.00084045767281117458 -0.04551716476645714 0 -0.0026338849952871717 -0.042418286300341765 0 0.0069744773066098085 -0.038463481380734445 0 -0.0029705279854217595 -0.046272349569198207 0 0.0048589393785829701 -0.041634540296930429 0 0.0015061932973109082 -0.042580337614103916 0 0.0040120041591960413 -0.039258693831233704 0 0.0086418982531142555 -0.036743268351746163 0 0.0086089917312399677 -0.036560599625199072 0 0.0087306205815968017 -0.036591324237086928 0 0.0069744773066098085 -0.038463481380734445 0 -0.0014275485879151034 -0.043426449257101922 0 0.0086418982531142555 -0.036743268351746163 0 0.0084532293663883776 -0.036583675796121026 0 0.0083413554413718592 -0.036873394619836936 0 0.0069744773066098085 -0.038463481380734445 0 0.0089782752852373571 -0.036451155961460729 0 0.0086418982531142555 -0.036743268351746163 0 0.0084532293663883776 -0.036583675796121026 0 0.0086089917312399677 -0.036560599625199072 0 0.0084532293663883776 -0.036583675796121026 0 0.0086089917312399677 -0.036560599625199072 0 0.0085985122334958745 -0.036319460921127138 0 0.0083063248706904524 -0.036318498749656487 0 0.0084532293663883776 -0.036583675796121026 0 0.0085985122334958745 -0.036319460921127138 0 -0.0035842447425626042 -0.036095857901392601 0 -0.0035689950483695724 -0.037769795374991692 0 -0.001941381735387136 -0.037502423689549799 0 -0.0014275485879151034 -0.043426449257101922 0 0.0032822787065924452 -0.036275269344273296 0 0.0086089917312399677 -0.036560599625199072 0 0.0087306205815968017 -0.036591324237086928 0 0.0085985122334958745 -0.036319460921127138 0 -0.001941381735387136 -0.037502423689549799 0 -0.00092744123369689873 -0.039654681115081684 0 -0.0032225817450206753 -0.039061004666800465 0 -0.0035689950483695724 -0.037769795374991692 0 -0.001941381735387136 -0.037502423689549799 0 -0.0032225817450206753 -0.039061004666800465 0 -0.001941381735387136 -0.037502423689549799 0 -0.00029520748163831898 -0.038878748052166137 0 -0.00092744123369689873 -0.039654681115081684 0 0.0083063248706904524 -0.036318498749656487 0 0.0085985122334958745 -0.036319460921127138 0 0.0083992358183736116 -0.035979060020222053 0 0.0032822787065924452 -0.036275269344273296 0 0.0043818615135312183 -0.038022302892100859 0 -0.0081750943288600858 -0.032805621982721252 0 -0.0087563422665397645 -0.036218681596154031 0 -0.0065402400996876341 -0.036207285198434518 0 -0.0043732502117645672 -0.033810226658067571 0 -0.0081750943288600858 -0.032805621982721252 0 -0.0065402400996876341 -0.036207285198434518 0 -0.0034498331218256475 -0.036959282774980763 0 -0.0052271552650916637 -0.035600071096011106 0 -0.0081750943288600858 -0.032805621982721252 0 -0.0097689330488472444 -0.034525051143190738 0 -0.012012784021331642 -0.031835062649349002 0 -0.0097689330488472444 -0.034525051143190738 0 -0.011601801044559809 -0.035030661122698425 0 -0.012012784021331642 -0.031835062649349002 0 -0.0081750943288600858 -0.032805621982721252 0 -0.0097689330488472444 -0.034525051143190738 0 -0.0087563422665397645 -0.036218681596154031 0 -0.0097689330488472444 -0.034525051143190738 0 -0.011601801044559809 -0.035030661122698425 0 -0.010537345165560767 -0.036455334716456005 0 -0.01143810302773436 -0.040232862403222117 0 -0.015285754524314982 -0.034361072559042818 0 -0.011601801044559809 -0.035030661122698425 0 -0.013180771461364428 -0.035525534119070154 0 -0.012012784021331642 -0.031835062649349002 0 -0.013180771461364428 -0.035525534119070154 0 -0.012012784021331642 -0.031835062649349002 0 -0.014824098344070637 -0.036194749395577049 0 -0.0094852255010964368 -0.051000718006236387 0 -0.0076123078390076251 -0.051674131550362351 0 -0.0084465283014828092 -0.052167177474778358 0 -0.01143810302773436 -0.040232862403222117 0 -0.010930859256849279 -0.045907067150444562 0 -0.0094852255010964368 -0.051000718006236387 0 -0.0093206771989800923 -0.051919149450663234 0 -0.0084465283014828092 -0.052167177474778358 0 -0.0035689950483695724 -0.037769795374991692 0 -0.0032225817450206753 -0.039061004666800465 0 -0.0055381307732773289 -0.038423597444733157 0 -0.0052271552650916637 -0.035600071096011106 0 -0.01143810302773436 -0.040232862403222117 0 -0.013881890757045068 -0.037295087389297384 0 -0.012953644021972764 -0.037766261713300553 0 -0.014364587481075924 -0.036208009949746316 0 -0.017465820826767984 -0.03558920302617842 0 -0.017775825643803599 -0.035922869007698019 0 -0.017231711470923481 -0.035514452920847303 0 -0.016155461962149113 -0.035519621533027547 0 -0.015602225450486734 -0.036255138963475535 0 -0.017398436204622721 -0.03550000760778331 0 -0.017465820826767984 -0.03558920302617842 0 -0.017775825643803599 -0.035922869007698019 0 -0.017587882491013358 -0.035606267424783893 0 -0.017465820826767984 -0.03558920302617842 0 -0.017447032936150259 -0.035629506172531439 0 -0.017587882491013358 -0.035606267424783893 0 -0.017398436204622721 -0.03550000760778331 0 -0.017465820826767984 -0.03558920302617842 0 -0.016170998899083647 -0.038303985685832091 0 -0.014392874106431237 -0.037208589126225475 0 -0.014824098344070637 -0.036194749395577049 0 -0.013881890757045068 -0.037295087389297384 0 -0.014392874106431237 -0.037208589126225475 0 -0.013843482977017161 -0.038104136213893879 0 -0.013881890757045068 -0.037295087389297384 0 -0.014392874106431237 -0.037208589126225475 0 -0.014364587481075924 -0.036208009949746316 0 -0.014392874106431237 -0.037208589126225475 0 -0.014824098344070637 -0.036194749395577049 0 -0.014364587481075924 -0.036208009949746316 0 -0.016170998899083647 -0.038303985685832091 0 -0.014170268188958888 -0.038959996017823198 0 -0.013843482977017161 -0.038104136213893879 0 -0.016170998899083647 -0.038303985685832091 0 -0.014392874106431237 -0.037208589126225475 0 -0.013843482977017161 -0.038104136213893879 0 -0.01186593956881031 -0.03977788754452783 0 -0.013843482977017161 -0.038104136213893879 0 -0.012953644021972764 -0.037766261713300553 0 -0.01186593956881031 -0.03977788754452783 0 -0.014170268188958888 -0.038959996017823198 0 -0.013843482977017161 -0.038104136213893879 0 -0.0093655919691330147 -0.046292551181060661 0 -0.016155461962149113 -0.035519621533027547 0 -0.013881890757045068 -0.037295087389297384 0 -0.013843482977017161 -0.038104136213893879 0 -0.012953644021972764 -0.037766261713300553 0 -0.0055066538682968002 -0.05319599158651768 0 -0.0054162183370038211 -0.05325965931305237 0 -0.0076123078390076251 -0.051674131550362351 0 -0.0055066538682968002 -0.05319599158651768 0 -0.0076123078390076251 -0.051674131550362351 0 -0.007569196308578512 -0.052843490646681791 0 -0.0093655919691330147 -0.046292551181060661 0 -0.010930859256849279 -0.045907067150444562 0 -0.0055066538682968002 -0.05319599158651768 0 -0.0045768640566246901 -0.052744615326710875 0 -0.0031650387934412903 -0.053322750545320777 0 -0.0054658474349911015 -0.05313477064722482 0 -0.005157274685569346 -0.053210104011632307 0 -0.007569196308578512 -0.052843490646681791 0 -0.0084465283014828092 -0.052167177474778358 0 -0.0090474240215899331 -0.052763312857378696 0 -0.0076123078390076251 -0.051674131550362351 0 -0.007569196308578512 -0.052843490646681791 0 -0.0084465283014828092 -0.052167177474778358 0 -0.0031650387934412903 -0.053322750545320777 0 -0.0021976556924382081 -0.052402361156657806 0 -0.00054327523580390761 -0.053042989577620762 0 -0.0021976556924382081 -0.052402361156657806 0 -0.0012224262225659732 -0.052111814852484409 0 -0.0024872630899257521 -0.051433250419590633 0 -0.0035289248329321839 -0.052118510474804522 0 -0.0036455739608538679 -0.050976015900894997 0 -0.0024872630899257521 -0.051433250419590633 0 -0.0021976556924382081 -0.052402361156657806 0 -0.0035289248329321839 -0.052118510474804522 0 -0.0024872630899257521 -0.051433250419590633 0 -0.0031650387934412903 -0.053322750545320777 0 -0.0021976556924382081 -0.052402361156657806 0 -0.0035289248329321839 -0.052118510474804522 0 -0.0054162183370038211 -0.05325965931305237 0 -0.0045768640566246901 -0.052744615326710875 0 -0.0048375042405638686 -0.051735322374497517 0 -0.0045768640566246901 -0.052744615326710875 0 -0.0031650387934412903 -0.053322750545320777 0 -0.0035289248329321839 -0.052118510474804522 0 -0.0045768640566246901 -0.052744615326710875 0 -0.0035289248329321839 -0.052118510474804522 0 -0.0048375042405638686 -0.051735322374497517 0 -0.0035289248329321839 -0.052118510474804522 0 -0.0048375042405638686 -0.051735322374497517 0 -0.0036455739608538679 -0.050976015900894997 0 -0.0035842447425626042 -0.036095857901392601 0 -0.0035689950483695724 -0.037769795374991692 0 -0.0055381307732773289 -0.038423597444733157 0 -0.010421304671833971 -0.052494947530042468 0 -0.0094790634051325137 -0.052561262091332168 0 -0.0093206771989800923 -0.051919149450663234 0 -0.010421304671833971 -0.052494947530042468 0 -0.0094790634051325137 -0.052561262091332168 0 -0.0098692191526683938 -0.052996058610733011 0 -0.0014275485879151034 -0.043426449257101922 0 -0.01143810302773436 -0.040232862403222117 0 -0.010421304671833971 -0.052494947530042468 0 -0.0094852255010964368 -0.051000718006236387 0 -0.0093206771989800923 -0.051919149450663234 0 -0.007569196308578512 -0.052843490646681791 0 -0.0090474240215899331 -0.052763312857378696 0 -0.0092583421105523461 -0.052891123912409396 0 -0.005157274685569346 -0.053210104011632307 0 -0.0057402779161680748 -0.051432940126156103 0 -0.0093206771989800923 -0.051919149450663234 0 -0.0084465283014828092 -0.052167177474778358 0 -0.0089224768715801522 -0.052301499640776912 0 -0.0084465283014828092 -0.052167177474778358 0 -0.0089224768715801522 -0.052301499640776912 0 -0.0090474240215899331 -0.052763312857378696 0 -0.0094790634051325137 -0.052561262091332168 0 -0.0093206771989800923 -0.051919149450663234 0 -0.0089224768715801522 -0.052301499640776912 0 -0.0094790634051325137 -0.052561262091332168 0 -0.0089224768715801522 -0.052301499640776912 0 -0.0090474240215899331 -0.052763312857378696 0 -0.0094790634051325137 -0.052561262091332168 0 -0.0090474240215899331 -0.052763312857378696 0 -0.0092248994796588959 -0.052878138958596679 0 -0.00054327523580390761 -0.053042989577620762 0 -0.0012224262225659732 -0.052111814852484409 0 -0.00039639199920286954 -0.05236084836394992 0 -0.0069768434247367882 -0.052301475112783234 0 -0.0057402779161680748 -0.051432940126156103 0 -0.00054327523580390761 -0.053042989577620762 0 -0.00039639199920286954 -0.05236084836394992 0 0.00024281623750726079 -0.052441164826005179 0 -0.0057402779161680748 -0.051432940126156103 0 -0.00078220939153380588 -0.047776016533738502 0 -0.0021976556924382081 -0.052402361156657806 0 -0.00054327523580390761 -0.053042989577620762 0 -0.0012224262225659732 -0.052111814852484409 0 -0.0012224262225659732 -0.052111814852484409 0 -0.00046428165648704212 -0.051944530609938019 0 -0.00070508044966125242 -0.051338344955705981 0 -0.00039639199920286954 -0.05236084836394992 0 -0.00046428165648704212 -0.051944530609938019 0 -1.3784959203217726e-05 -0.05223088432861489 0 -0.0012224262225659732 -0.052111814852484409 0 -0.00039639199920286954 -0.05236084836394992 0 -0.00046428165648704212 -0.051944530609938019 0 -0.00046428165648704212 -0.051944530609938019 0 -1.3784959203217726e-05 -0.05223088432861489 0 1.7004933699517183e-05 -0.051667091132010311 0 0.00085161152901731341 -0.042008740757393817 0 0.0015061932973109082 -0.042580337614103916 0 0.0040120041591960413 -0.039258693831233704 0 -1.3784959203217726e-05 -0.05223088432861489 0 0.00030350486029081516 -0.052528363197417792 0 1.7004933699517183e-05 -0.051667091132010311 0 -0.00039639199920286954 -0.05236084836394992 0 -1.3784959203217726e-05 -0.05223088432861489 0 0.00024281623750726079 -0.052441164826005179 0 6.8318354773548449e-05 -0.049000099714095878 0 -0.00078220939153380588 -0.047776016533738502 0 -0.0050110722373430325 -0.049560716819383004 0 -0.0026093729994709695 -0.04742790457728694 0 -0.0013185119085805976 -0.048581658114445973 0 -0.0057402779161680748 -0.051432940126156103 0 -0.0029705279854217595 -0.046272349569198207 0 -0.0094790634051325137 -0.052561262091332168 0 -0.0092248994796588959 -0.052878138958596679 0 -0.0098692191526683938 -0.052996058610733011 0 -0.00078220939153380588 -0.047776016533738502 0 -0.0029705279854217595 -0.046272349569198207 0 -0.0014275485879151034 -0.043426449257101922 0 -0.0029705279854217595 -0.046272349569198207 0 0.00091334862709277292 -0.051016760184335513 0 0.0013313511227227744 -0.049076671883138079 0 0.0027665370654174548 -0.05110677422941793 0 0.00030350486029081516 -0.052528363197417792 0 0.00091334862709277292 -0.051016760184335513 0 0.0027665370654174548 -0.05110677422941793 0 -0.00078220939153380588 -0.047776016533738502 0 0.0038771082705825028 -0.044854012050912447 0 0.00091334862709277292 -0.051016760184335513 0 -0.00014382216807050989 -0.050829257487587751 0 4.9579062479955299e-05 -0.049845706446249936 0 0.00030350486029081516 -0.052528363197417792 0 0.00091334862709277292 -0.051016760184335513 0 1.7004933699517183e-05 -0.051667091132010311 0 0.00091334862709277292 -0.051016760184335513 0 1.7004933699517183e-05 -0.051667091132010311 0 -0.00014382216807050989 -0.050829257487587751 0 -0.00046428165648704212 -0.051944530609938019 0 1.7004933699517183e-05 -0.051667091132010311 0 -0.00070508044966125242 -0.051338344955705981 0 1.7004933699517183e-05 -0.051667091132010311 0 -0.00070508044966125242 -0.051338344955705981 0 -0.00014382216807050989 -0.050829257487587751 0 -0.0012224262225659732 -0.052111814852484409 0 -0.00070508044966125242 -0.051338344955705981 0 -0.0015002591842626369 -0.05107304098607951 0 -0.00070508044966125242 -0.051338344955705981 0 -0.0015002591842626369 -0.05107304098607951 0 -0.00095104412546041361 -0.050236661359744958 0 -0.0012224262225659732 -0.052111814852484409 0 -0.0015002591842626369 -0.05107304098607951 0 -0.0024872630899257521 -0.051433250419590633 0 -0.0015002591842626369 -0.05107304098607951 0 -0.00095104412546041361 -0.050236661359744958 0 -0.0025481069373698407 -0.049881439133827248 0 -0.00095104412546041361 -0.050236661359744958 0 -0.00014382216807050989 -0.050829257487587751 0 4.9579062479955299e-05 -0.049845706446249936 0 -0.00070508044966125242 -0.051338344955705981 0 -0.00095104412546041361 -0.050236661359744958 0 -0.00014382216807050989 -0.050829257487587751 0 -0.00095104412546041361 -0.050236661359744958 0 4.9579062479955299e-05 -0.049845706446249936 0 -0.00089149597261393672 -0.04865669810473465 0 -0.00095104412546041361 -0.050236661359744958 0 -0.00089149597261393672 -0.04865669810473465 0 -0.0025481069373698407 -0.049881439133827248 0 0.00091334862709277292 -0.051016760184335513 0 4.9579062479955299e-05 -0.049845706446249936 0 0.0013313511227227744 -0.049076671883138079 0 -0.00089149597261393672 -0.04865669810473465 0 0.0013313511227227744 -0.049076671883138079 0 0.0012036211340920961 -0.047159366734376651 0 4.9579062479955299e-05 -0.049845706446249936 0 -0.00089149597261393672 -0.04865669810473465 0 0.0013313511227227744 -0.049076671883138079 0 -0.0048375042405638686 -0.051735322374497517 0 -0.0036455739608538679 -0.050976015900894997 0 -0.0047559572270664541 -0.049925938900625133 0 -0.0036455739608538679 -0.050976015900894997 0 -0.0025481069373698407 -0.049881439133827248 0 -0.0047559572270664541 -0.049925938900625133 0 -0.0036455739608538679 -0.050976015900894997 0 -0.0024872630899257521 -0.051433250419590633 0 -0.0025481069373698407 -0.049881439133827248 0 -0.0015002591842626369 -0.05107304098607951 0 -0.0024872630899257521 -0.051433250419590633 0 -0.0025481069373698407 -0.049881439133827248 0 -0.00089149597261393672 -0.04865669810473465 0 -0.0025481069373698407 -0.049881439133827248 0 -0.0028558308382747614 -0.04796013692839015 0 -0.0025481069373698407 -0.049881439133827248 0 -0.0047559572270664541 -0.049925938900625133 0 -0.0028558308382747614 -0.04796013692839015 0 -0.0054923830125799414 -0.047920690438348346 0 -0.0047559572270664541 -0.049925938900625133 0 -0.0028558308382747614 -0.04796013692839015 0 -0.0054923830125799414 -0.047920690438348346 0 -0.0028558308382747614 -0.04796013692839015 0 -0.0035747448131548893 -0.046518655831907181 0 -0.0028558308382747614 -0.04796013692839015 0 -0.0017885898951696007 -0.045516340797272993 0 -0.00050385252695831103 -0.047027781160794341 0 -0.0028558308382747614 -0.04796013692839015 0 -0.0017885898951696007 -0.045516340797272993 0 -0.0035747448131548893 -0.046518655831907181 0 -0.0041652727129518757 -0.0446236206827378 0 -0.0017885898951696007 -0.045516340797272993 0 -0.0035747448131548893 -0.046518655831907181 0 -0.0054505880936660291 -0.047900743685694198 0 -0.0044617369060115201 -0.045172150972012756 0 -0.0054923830125799414 -0.047920690438348346 0 -0.0041652727129518757 -0.0446236206827378 0 -0.0035747448131548893 -0.046518655831907181 0 0.0013313511227227744 -0.049076671883138079 0 0.0012036211340920961 -0.047159366734376651 0 0.0021301242279049958 -0.048110312501946285 0 0.0012036211340920961 -0.047159366734376651 0 -0.00050385252695831103 -0.047027781160794341 0 0.0013380557909306399 -0.04541154561457815 0 0.0012036211340920961 -0.047159366734376651 0 0.0013380557909306399 -0.04541154561457815 0 0.003280107043527354 -0.047372331564375272 0 -0.00089149597261393672 -0.04865669810473465 0 0.0012036211340920961 -0.047159366734376651 0 -0.00050385252695831103 -0.047027781160794341 0 -0.00089149597261393672 -0.04865669810473465 0 -0.0028558308382747614 -0.04796013692839015 0 -0.00050385252695831103 -0.047027781160794341 0 -0.0017885898951696007 -0.045516340797272993 0 -0.00050385252695831103 -0.047027781160794341 0 0.0013380557909306399 -0.04541154561457815 0 -0.0010218345465389446 -0.047085459258802455 0 -0.00063244523273878769 -0.047143736912841953 0 -0.0005777978030137884 -0.04752948903705586 0 0.00019206834965094325 -0.046295165816469884 0 0.0015690221186752868 -0.047209672679343742 0 -0.00069095901780281759 -0.046812406881514043 0 -0.0010218345465389446 -0.047085459258802455 0 -0.00063244523273878769 -0.047143736912841953 0 0.0013380557909306399 -0.04541154561457815 0 0.003280107043527354 -0.047372331564375272 0 0.0036115068741841656 -0.047143190936509843 0 -0.00063244523273878769 -0.047143736912841953 0 -0.0005777978030137884 -0.04752948903705586 0 -0.00029702434391284255 -0.047337818246393423 0 0.0012036211340920961 -0.047159366734376651 0 0.003280107043527354 -0.047372331564375272 0 0.0021301242279049958 -0.048110312501946285 0 0.003280107043527354 -0.047372331564375272 0 0.0044072210843256344 -0.047957533076621123 0 0.0027865038319058876 -0.048845664442340245 0 0.0021466508541275794 -0.046972143392549244 0 0.0015690221186752868 -0.047209672679343742 0 0.0038704648480215264 -0.046812576790214118 0 0.0044072210843256344 -0.047957533076621123 0 0.0047753872852813401 -0.047163046649023391 0 0.0038704648480215264 -0.046812576790214118 0 0.0047753872852813401 -0.047163046649023391 0 0.0048281212278643171 -0.046464006719483045 0 0.003280107043527354 -0.047372331564375272 0 0.0038704648480215264 -0.046812576790214118 0 0.0044072210843256344 -0.047957533076621123 0 0.003280107043527354 -0.047372331564375272 0 0.0021301242279049958 -0.048110312501946285 0 0.0027865038319058876 -0.048845664442340245 0 0.0073708114923377484 -0.046604538254127109 0 0.010875172840184952 -0.046175928156931154 0 0.0061163079218093707 -0.049355942128086458 0 0.0073708114923377484 -0.046604538254127109 0 0.0057149972925514313 -0.047358477885340852 0 0.0061163079218093707 -0.049355942128086458 0 0.0073708114923377484 -0.046604538254127109 0 0.0057149972925514313 -0.047358477885340852 0 0.0062786643520605792 -0.046354228621861109 0 0.0044072210843256344 -0.047957533076621123 0 0.0047753872852813401 -0.047163046649023391 0 0.0057149972925514313 -0.047358477885340852 0 0.0047753872852813401 -0.047163046649023391 0 0.0057149972925514313 -0.047358477885340852 0 0.0053229946139707451 -0.046304355266621813 0 0.0047753872852813401 -0.047163046649023391 0 0.0053229946139707451 -0.046304355266621813 0 0.0048281212278643171 -0.046464006719483045 0 0.0057149972925514313 -0.047358477885340852 0 0.0062786643520605792 -0.046354228621861109 0 0.0053229946139707451 -0.046304355266621813 0 0.0059315235696980328 -0.045792409050377583 0 0.0062786643520605792 -0.046354228621861109 0 0.0063241167309560399 -0.044949208886182417 0 0.0059315235696980328 -0.045792409050377583 0 0.0062786643520605792 -0.046354228621861109 0 0.0053229946139707451 -0.046304355266621813 0 0.0038704648480215264 -0.046812576790214118 0 0.0048281212278643171 -0.046464006719483045 0 0.0063241167309560399 -0.044949208886182417 0 0.0015690221186752868 -0.047209672679343742 0 0.0067843168229655302 -0.0477111086092116 0 0.0053229946139707451 -0.046304355266621813 0 0.0048281212278643171 -0.046464006719483045 0 0.0063241167309560399 -0.044949208886182417 0 0.0059315235696980328 -0.045792409050377583 0 0.0053229946139707451 -0.046304355266621813 0 0.0063241167309560399 -0.044949208886182417 0 0.0073708114923377484 -0.046604538254127109 0 0.0063241167309560399 -0.044949208886182417 0 0.0085430791798318494 -0.04497594783143001 0 0.0073708114923377484 -0.046604538254127109 0 0.0062786643520605792 -0.046354228621861109 0 0.0063241167309560399 -0.044949208886182417 0 -0.00035274638276799197 -0.046730641631811898 0 -0.00063244523273878769 -0.047143736912841953 0 -0.00029702434391284255 -0.047337818246393423 0 0.011392485974099378 -0.047092945067592248 0 0.011316581026011786 -0.049004604847015548 0 0.012958791237084866 -0.047923092834836457 0 0.0053828058204932446 -0.047019117213818899 0 0.0067843168229655302 -0.0477111086092116 0 0.0067843168229655302 -0.0477111086092116 0 0.012704276136300508 -0.044782127361680288 0 0.011679795775279526 -0.041962140259540044 0 0.0085430791798318494 -0.04497594783143001 0 0.010875172840184952 -0.046175928156931154 0 0.0063241167309560399 -0.044949208886182417 0 0.011679795775279526 -0.041962140259540044 0 0.0085430791798318494 -0.04497594783143001 0 0.024102181378149234 -0.035009051657920849 0 0.024247213460824719 -0.033169156220445015 0 0.025885787526774562 -0.033148300058301654 0 0.020552958454382597 -0.038920423000954038 0 0.014020176769317957 -0.037334425683409854 0 0.015631976073488135 -0.042402395108735842 0 0.011679795775279526 -0.041962140259540044 0 0.010875172840184952 -0.046175928156931154 0 0.024247213460824719 -0.033169156220445015 0 0.025885787526774562 -0.033148300058301654 0 0.024303105649746595 -0.031460948531606504 0 0.0086518643529791463 -0.035989238592041714 0 0.0083722610591372842 -0.036487898432962351 0 0.0068929159665487372 -0.036980608738614001 0 0.014020176769317957 -0.037334425683409854 0 0.0055692156942129343 -0.043989897633603621 0 0.0073708114923377484 -0.046604538254127109 0 0.0085430791798318494 -0.04497594783143001 0 0.010875172840184952 -0.046175928156931154 0 0.014020176769317957 -0.037334425683409854 0 0.017418222757228964 -0.033013605307757439 0 0.0083947064777830389 -0.036545838485713696 0 0.0074927618864727612 -0.037933174148677591 0 0.0086518643529791463 -0.035989238592041714 0 0.0083722610591372842 -0.036487898432962351 0 0.0084029692020370066 -0.03696481374217412 0 0.0083722610591372842 -0.036487898432962351 0 0.0084029692020370066 -0.03696481374217412 0 0.0082229685066662304 -0.036855972779856652 0 0.025885787526774562 -0.033148300058301654 0 0.024303105649746595 -0.031460948531606504 0 0.025602885929066021 -0.030384987677077552 0 0.023787987076215922 -0.02925155396842551 0 0.024303105649746595 -0.031460948531606504 0 0.025602885929066021 -0.030384987677077552 0 0.0083413554413718592 -0.036873394619836936 0 0.0084029692020370066 -0.03696481374217412 0 0.0082229685066662304 -0.036855972779856652 0 0.007051645253460569 -0.038685586837902811 0 0.0040120041591960413 -0.039258693831233704 0 0.0068929159665487372 -0.036980608738614001 0 0.0069744773066098085 -0.038463481380734445 0 0.0074927618864727612 -0.037933174148677591 0 0.0081057685239165934 -0.036992584455817129 0 0.0083413554413718592 -0.036873394619836936 0 0.0082229685066662304 -0.036855972779856652 0 0.0048589393785829701 -0.041634540296930429 0 0.007051645253460569 -0.038685586837902811 0 0.0040120041591960413 -0.039258693831233704 0 0.0027665370654174548 -0.05110677422941793 0 0.0027865038319058876 -0.048845664442340245 0 0.0061163079218093707 -0.049355942128086458 0 0.0044072210843256344 -0.047957533076621123 0 0.0027865038319058876 -0.048845664442340245 0 0.0061163079218093707 -0.049355942128086458 0 0.0013313511227227744 -0.049076671883138079 0 0.0027665370654174548 -0.05110677422941793 0 0.0027865038319058876 -0.048845664442340245 0 0.0038771082705825028 -0.044854012050912447 0 0.0055692156942129343 -0.043989897633603621 0 0.0013313511227227744 -0.049076671883138079 0 0.0021301242279049958 -0.048110312501946285 0 0.0027865038319058876 -0.048845664442340245 0 0.0044072210843256344 -0.047957533076621123 0 0.0057149972925514313 -0.047358477885340852 0 0.0061163079218093707 -0.049355942128086458 0 0.0083722610591372842 -0.036487898432962351 0 0.007051645253460569 -0.038685586837902811 0 0.0068929159665487372 -0.036980608738614001 0 0.046615376710571602 -0.035571595659104074 0 0.048136154573958909 -0.035378066449306252 0 0.047597800111601495 -0.037250152417131359 0 0.046615376710571602 -0.035571595659104074 0 0.047335025984606149 -0.03446816877206365 0 0.048136154573958909 -0.035378066449306252 0 0.046615376710571602 -0.035571595659104074 0 0.044999919135661474 -0.035435181679536486 0 0.045530628886346819 -0.036738649217355375 0 0.045000108909235011 -0.035435934499150182 0 0.045519905625627154 -0.036877637888720935 0 0.044999919135661474 -0.035435181679536486 0 0.0461134568315959 -0.034301866375950923 0 0.04499992032117793 -0.032978812589976592 0 0.046615376710571602 -0.035571595659104074 0 0.044999919135661474 -0.035435181679536486 0 0.0461134568315959 -0.034301866375950923 0 0.0461134568315959 -0.034301866375950923 0 0.047335025984606149 -0.03446816877206365 0 0.046991943255303426 -0.033217388807446541 0 0.046615376710571602 -0.035571595659104074 0 0.0461134568315959 -0.034301866375950923 0 0.047335025984606149 -0.03446816877206365 0 0.048516683107677726 -0.033817839472247681 0 0.049598269431310425 -0.034760551338518651 0 0.048136154573958909 -0.035378066449306252 0 0.047335025984606149 -0.03446816877206365 0 0.048516683107677726 -0.033817839472247681 0 0.048136154573958909 -0.035378066449306252 0 0.047335025984606149 -0.03446816877206365 0 0.048516683107677726 -0.033817839472247681 0 0.046991943255303426 -0.033217388807446541 0 0.048516683107677726 -0.033817839472247681 0 0.049598269431310425 -0.034760551338518651 0 0.050010996998220827 -0.033155856087596573 0 0.045770983284034693 -0.034615302527337896 0 0.045155032129712655 -0.032406483083109436 0 0.041019778366506963 -0.036628859036465011 0 0.042018722837094381 -0.036612899343942684 0 0.04206610857037963 -0.035793493379162329 0 0.043187246972754091 -0.036153272603673146 0 0.041955266265812342 -0.035570620198069725 0 0.045770983284034693 -0.034615302527337896 0 0.043187246972754091 -0.036153272603673146 0 0.049598269431310425 -0.034760551338518651 0 0.048136154573958909 -0.035378066449306252 0 0.049151034642164963 -0.036374959092298542 0 0.041657359377196508 -0.034495220121748986 0 0.04137574283474927 -0.035685019043219426 0 0.042379907152518978 -0.035116412338102664 0 0.048136154573958909 -0.035378066449306252 0 0.047597800111601495 -0.037250152417131359 0 0.049151034642164963 -0.036374959092298542 0 0.04408937230444699 -0.037716176804292567 0 0.043187246972754091 -0.036153272603673146 0 0.040224543100864416 -0.038202643807919913 0 0.041095187879331752 -0.037479994647354763 0 0.040915021029462255 -0.03809368500537106 0 0.040224543100864416 -0.038202643807919913 0 0.040915021029462255 -0.03809368500537106 0 0.040523077377787237 -0.038582179704884666 0 0.041415721560150456 -0.037401026688682018 0 0.04108035310561494 -0.038711581007869665 0 0.042671420806483285 -0.036947074436914418 0 0.041019778366506963 -0.036628859036465011 0 0.041415721560150456 -0.037401026688682018 0 0.042018722837094381 -0.036612899343942684 0 0.041019778366506963 -0.036628859036465011 0 0.040915021029462255 -0.03809368500537106 0 0.041415721560150456 -0.037401026688682018 0 0.043187246972754091 -0.036153272603673146 0 0.041076854141753175 -0.038313963376291241 0 0.040915021029462255 -0.03809368500537106 0 0.041415721560150456 -0.037401026688682018 0 0.04108035310561494 -0.038711581007869665 0 0.037520701104476521 -0.041262635068650071 0 0.037675977801101157 -0.041049708499973907 0 0.038362461874848652 -0.038661791760158416 0 0.037520701104476521 -0.041262635068650071 0 0.037675977801101157 -0.041049708499973907 0 0.037974570009613594 -0.040925391649569515 0 0.04108035310561494 -0.038711581007869665 0 0.040523077377787237 -0.038582179704884666 0 0.0402992507616221 -0.039127147544138596 0 0.039322484685952203 -0.039877997169935647 0 0.039743968162392132 -0.040117295200160677 0 0.04108035310561494 -0.038711581007869665 0 0.0402992507616221 -0.039127147544138596 0 0.039837106074658304 -0.040101846254716286 0 0.037520701104476521 -0.041262635068650071 0 0.039837106074658304 -0.040101846254716286 0 0.037974570009613594 -0.040925391649569515 0 0.040523077377787237 -0.038582179704884666 0 0.0402992507616221 -0.039127147544138596 0 0.040062287938033486 -0.038900040486409555 0 0.040224543100864416 -0.038202643807919913 0 0.040523077377787237 -0.038582179704884666 0 0.040062287938033486 -0.038900040486409555 0 0.040915021029462255 -0.03809368500537106 0 0.04108035310561494 -0.038711581007869665 0 0.040523077377787237 -0.038582179704884666 0 0.04408937230444699 -0.037716176804292567 0 0.043549320448524394 -0.039135214746893521 0 0.040224543100864416 -0.038202643807919913 0 0.040062287938033486 -0.038900040486409555 0 0.039209494966415188 -0.039378147787632801 0 0.039871428731411453 -0.039360452721999381 0 0.040062287938033486 -0.038900040486409555 0 0.039209494966415188 -0.039378147787632801 0 0.0402992507616221 -0.039127147544138596 0 0.039871428731411453 -0.039360452721999381 0 0.039837106074658304 -0.040101846254716286 0 0.043549320448524394 -0.039135214746893521 0 0.040152487943841207 -0.039465787520365725 0 0.039871428731411453 -0.039360452721999381 0 0.039209494966415188 -0.039378147787632801 0 0.039837106074658304 -0.040101846254716286 0 0.0402992507616221 -0.039127147544138596 0 0.039871428731411453 -0.039360452721999381 0 0.040062287938033486 -0.038900040486409555 0 0.046615376710571602 -0.035571595659104074 0 0.047597800111601495 -0.037250152417131359 0 0.045530628886346819 -0.036738649217355375 0 0.047597800111601495 -0.037250152417131359 0 0.045530628886346819 -0.036738649217355375 0 0.046055221070967309 -0.038110075407406269 0 0.045519905625627154 -0.036877637888720935 0 0.043549320448524394 -0.039135214746893521 0 0.04500030494080999 -0.035435263638861098 0 0.045495778438002274 -0.036986543401171662 0 0.044999286503414886 -0.037312031303827285 0 0.045495778438002274 -0.036986543401171662 0 0.044931739335147387 -0.038433152600565824 0 0.045581190605758784 -0.038891434385534482 0 0.045495778438002274 -0.036986543401171662 0 0.044999286503414886 -0.037312031303827285 0 0.044931739335147387 -0.038433152600565824 0 0.044999286503414886 -0.037312031303827285 0 0.044931739335147387 -0.038433152600565824 0 0.04499903998364569 -0.039186943419737705 0 0.043436960709292351 -0.040034390142697641 0 0.044368415253191788 -0.039456171835673785 0 0.04031138430243205 -0.039829503043552927 0 0.044931739335147387 -0.038433152600565824 0 0.045581190605758784 -0.038891434385534482 0 0.044368415253191788 -0.039456171835673785 0 0.043549320448524394 -0.039135214746893521 0 0.044159173005512906 -0.03911982037015304 0 0.044931739335147387 -0.038433152600565824 0 0.04499903998364569 -0.039186943419737705 0 0.044368415253191788 -0.039456171835673785 0 0.04499903998364569 -0.039186943419737705 0 0.044368415253191788 -0.039456171835673785 0 0.04031138430243205 -0.039829503043552927 0 0.04499903998364569 -0.039186943419737705 0 0.04031138430243205 -0.039829503043552927 0 0.039987045807135468 -0.039688325161192341 0 0.044999978503795723 -0.039187523023769801 0 0.04346462630658391 -0.040232073591339568 0 0.044999890580598487 -0.039186998385332059 0 0.046763451768903383 -0.040647569459692959 0 0.04499996324472557 -0.041718431176496304 0 0.039837106074658304 -0.040101846254716286 0 0.039987045807135468 -0.039688325161192341 0 0.03845941774596446 -0.040667947785070213 0 0.039209494966415188 -0.039378147787632801 0 0.039837106074658304 -0.040101846254716286 0 0.04031138430243205 -0.039829503043552927 0 0.039837106074658304 -0.040101846254716286 0 0.04031138430243205 -0.039829503043552927 0 0.039987045807135468 -0.039688325161192341 0 0.046763451768903383 -0.040647569459692959 0 0.046997645235834544 -0.042170784567127091 0 0.04499996324472557 -0.041718431176496304 0 0.046763451768903383 -0.040647569459692959 0 0.046997645235834544 -0.042170784567127091 0 0.048191544293080972 -0.04194200738791018 0 0.043178764062513662 -0.045825657358962789 0 0.045000788152189906 -0.044996400904798645 0 0.041236636382520862 -0.045000579278568001 0 0.04499996324472557 -0.041718431176496304 0 0.046744855031981197 -0.043655217552361708 0 0.044999797150622592 -0.044249055006869292 0 0.046997645235834544 -0.042170784567127091 0 0.046744855031981197 -0.043655217552361708 0 0.048177581839216284 -0.043140355560960124 0 0.046997645235834544 -0.042170784567127091 0 0.04499996324472557 -0.041718431176496304 0 0.046744855031981197 -0.043655217552361708 0 0.043178764062513662 -0.045825657358962789 0 0.045000788152189906 -0.044996400904798645 0 0.044998017164421429 -0.044255981494189529 0 0.044757797621136013 -0.044712944880258114 0 0.044999898685180895 -0.04424994406232044 0 0.041236636382520862 -0.045000579278568001 0 0.041008900465207471 -0.046468911993570054 0 0.03899433261561018 -0.046856728948764678 0 0.044757797621136013 -0.044712944880258114 0 0.045175838272443182 -0.044838877151212583 0 0.043178764062513662 -0.045825657358962789 0 0.041236636382520862 -0.045000579278568001 0 0.041008900465207471 -0.046468911993570054 0 0.046997645235834544 -0.042170784567127091 0 0.048177581839216284 -0.043140355560960124 0 0.048191544293080972 -0.04194200738791018 0 0.048177581839216284 -0.043140355560960124 0 0.048191544293080972 -0.04194200738791018 0 0.04932225348984489 -0.042867933878305182 0 0.043529701063338318 -0.041623428765713545 0 0.041130537862129397 -0.043694022604297549 0 0.045175838272443182 -0.044838877151212583 0 0.041130537862129397 -0.043694022604297549 0 0.037846400570210874 -0.041276753863005645 0 0.037735997376237243 -0.041313636674160402 0 0.037729738803280857 -0.042385836721458243 0 0.037846400570210874 -0.041276753863005645 0 0.037729738803280857 -0.042385836721458243 0 0.037514586251355772 -0.043034959732114249 0 0.04346462630658391 -0.040232073591339568 0 0.043529701063338318 -0.041623428765713545 0 0.039987045807135468 -0.039688325161192341 0 0.037846400570210874 -0.041276753863005645 0 0.03845941774596446 -0.040667947785070213 0 0.039837106074658304 -0.040101846254716286 0 0.03845941774596446 -0.040667947785070213 0 0.037974570009613594 -0.040925391649569515 0 0.03845941774596446 -0.040667947785070213 0 0.037974570009613594 -0.040925391649569515 0 0.037735997376237243 -0.041313636674160402 0 0.037846400570210874 -0.041276753863005645 0 0.03845941774596446 -0.040667947785070213 0 0.037735997376237243 -0.041313636674160402 0 0.037675977801101157 -0.041049708499973907 0 0.037735997376237243 -0.041313636674160402 0 0.038051263755917018 -0.041277292047365285 0 0.037675977801101157 -0.041049708499973907 0 0.037974570009613594 -0.040925391649569515 0 0.037735997376237243 -0.041313636674160402 0 0.037735997376237243 -0.041313636674160402 0 0.037729738803280857 -0.042385836721458243 0 0.038051263755917018 -0.041277292047365285 0 0.038640869540010572 -0.042524967164466486 0 0.037729738803280857 -0.042385836721458243 0 0.038051263755917018 -0.041277292047365285 0 0.038640869540010572 -0.042524967164466486 0 0.039173136734707986 -0.040350440309169712 0 0.038051263755917018 -0.041277292047365285 0 0.038640869540010572 -0.042524967164466486 0 0.037749742436747308 -0.04323364308725422 0 0.036756735901839338 -0.044341229082560635 0 0.038640869540010572 -0.042524967164466486 0 0.037749742436747308 -0.04323364308725422 0 0.037729738803280857 -0.042385836721458243 0 0.037749742436747308 -0.04323364308725422 0 0.037729738803280857 -0.042385836721458243 0 0.037395830102486698 -0.043370668724665759 0 0.041236636382520862 -0.045000579278568001 0 0.037515297736629108 -0.04593250012640495 0 0.036041637670159499 -0.044999656100683801 0 0.041236636382520862 -0.045000579278568001 0 0.03899433261561018 -0.046856728948764678 0 0.037515297736629108 -0.04593250012640495 0 0.041130537862129397 -0.043694022604297549 0 0.036961101728421604 -0.044925360155314793 0 0.037460059122841741 -0.043291515525424137 0 0.037395830102486698 -0.043370668724665759 0 0.036913534718538185 -0.043919271941253106 0 0.037729738803280857 -0.042385836721458243 0 0.037514586251355772 -0.043034959732114249 0 0.037395830102486698 -0.043370668724665759 0 0.041130537862129397 -0.043694022604297549 0 0.037900886079278037 -0.043852443712665598 0 0.037749742436747308 -0.04323364308725422 0 0.037395830102486698 -0.043370668724665759 0 0.037037621437152543 -0.043815352579943588 0 0.037037621437152543 -0.043815352579943588 0 0.036913534718538185 -0.043919271941253106 0 0.03611695745312804 -0.04446441350264798 0 0.037749742436747308 -0.04323364308725422 0 0.037037621437152543 -0.043815352579943588 0 0.036756418316307271 -0.044040208549344338 0 0.037395830102486698 -0.043370668724665759 0 0.037037621437152543 -0.043815352579943588 0 0.036913534718538185 -0.043919271941253106 0 0.036961101728421604 -0.044925360155314793 0 0.036042599438872509 -0.045000115699177279 0 0.034416876800943734 -0.045013036693814353 0 0.036040883184718271 -0.044996782073219645 0 0.033627751964915735 -0.04499953022614054 0 0.036913534718538185 -0.043919271941253106 0 0.036040883184718271 -0.044996782073219645 0 0.03611695745312804 -0.04446441350264798 0 0.034416876800943734 -0.045013036693814353 0 0.036040883184718271 -0.044996782073219645 0 0.03611695745312804 -0.04446441350264798 0 0.037037621437152543 -0.043815352579943588 0 0.03611695745312804 -0.04446441350264798 0 0.036756418316307271 -0.044040208549344338 0 0.03611695745312804 -0.04446441350264798 0 0.036756418316307271 -0.044040208549344338 0 0.035950132273780237 -0.044543713875915381 0 0.03611695745312804 -0.04446441350264798 0 0.035950132273780237 -0.044543713875915381 0 0.034900199306851114 -0.044888647439191944 0 0.034416876800943734 -0.045013036693814353 0 0.03611695745312804 -0.04446441350264798 0 0.034900199306851114 -0.044888647439191944 0 0.035950132273780237 -0.044543713875915381 0 0.034900199306851114 -0.044888647439191944 0 0.035022166927869636 -0.045130798948157344 0 0.04455010808292828 -0.043533084301969602 0 0.042105751984820639 -0.04307979727101998 0 0.044857065470293535 -0.041241652939995849 0 0.035950132273780237 -0.044543713875915381 0 0.035022166927869636 -0.045130798948157344 0 0.036756735901839338 -0.044341229082560635 0 0.040396830118894021 -0.044396378215447903 0 0.039137553391769976 -0.043540305067528651 0 0.037749742436747308 -0.04323364308725422 0 0.036756418316307271 -0.044040208549344338 0 0.036756735901839338 -0.044341229082560635 0 0.036756418316307271 -0.044040208549344338 0 0.035950132273780237 -0.044543713875915381 0 0.036756735901839338 -0.044341229082560635 0 0.0385266464422526 -0.042700009887630966 0 0.039137553391769976 -0.043540305067528651 0 0.038640869540010572 -0.042524967164466486 0 0.042105751984820639 -0.04307979727101998 0 0.043179002583699617 -0.040675001769192171 0 0.042105751984820639 -0.04307979727101998 0 0.043179002583699617 -0.040675001769192171 0 0.044857065470293535 -0.041241652939995849 0 0.043179002583699617 -0.040675001769192171 0 0.044913132640597299 -0.038889980920569937 0 0.044857065470293535 -0.041241652939995849 0 0.043179002583699617 -0.040675001769192171 0 0.044913132640597299 -0.038889980920569937 0 0.043622142104885242 -0.038174210970802126 0 0.043622142104885242 -0.038174210970802126 0 0.044956573420223744 -0.036801096967919444 0 0.043319531039516523 -0.035950145509437405 0 0.044913132640597299 -0.038889980920569937 0 0.043622142104885242 -0.038174210970802126 0 0.044956573420223744 -0.036801096967919444 0 0.043622142104885242 -0.038174210970802126 0 0.041666510896235555 -0.039481995849969538 0 0.043319531039516523 -0.035950145509437405 0 0.043179002583699617 -0.040675001769192171 0 0.043622142104885242 -0.038174210970802126 0 0.041666510896235555 -0.039481995849969538 0 0.038640869540010572 -0.042524967164466486 0 0.043179002583699617 -0.040675001769192171 0 0.041666510896235555 -0.039481995849969538 0 0.038640869540010572 -0.042524967164466486 0 0.041666510896235555 -0.039481995849969538 0 0.039173136734707986 -0.040350440309169712 0 0.041666510896235555 -0.039481995849969538 0 0.039173136734707986 -0.040350440309169712 0 0.038362461874848652 -0.038661791760158416 0 0.039322484685952203 -0.039877997169935647 0 0.04062294198112279 -0.037843998283793104 0 0.039173136734707986 -0.040350440309169712 0 0.038051263755917018 -0.041277292047365285 0 0.038362461874848652 -0.038661791760158416 0 0.037675977801101157 -0.041049708499973907 0 0.038051263755917018 -0.041277292047365285 0 0.038362461874848652 -0.038661791760158416 0 0.041415721560150456 -0.037401026688682018 0 0.042671420806483285 -0.036947074436914418 0 0.042018722837094381 -0.036612899343942684 0 0.042671420806483285 -0.036947074436914418 0 0.042018722837094381 -0.036612899343942684 0 0.042858413700736855 -0.03604071627211565 0 0.04062294198112279 -0.037843998283793104 0 0.043156752509056109 -0.036073787930128082 0 0.042671420806483285 -0.036947074436914418 0 0.042858413700736855 -0.03604071627211565 0 0.043319531039516523 -0.035950145509437405 0 0.041666510896235555 -0.039481995849969538 0 0.038362461874848652 -0.038661791760158416 0 0.043319531039516523 -0.035950145509437405 0 0.042858413700736855 -0.03604071627211565 0 0.043205127043638568 -0.034777318134487138 0 0.043319531039516523 -0.035950145509437405 0 0.042858413700736855 -0.03604071627211565 0 0.04206610857037963 -0.035793493379162329 0 0.043205127043638568 -0.034777318134487138 0 0.041955266265812342 -0.035570620198069725 0 0.043249677923414755 -0.034794293883697203 0 0.042018722837094381 -0.036612899343942684 0 0.042858413700736855 -0.03604071627211565 0 0.04206610857037963 -0.035793493379162329 0 0.042469014421791844 -0.034290707034452597 0 0.042997376988324183 -0.033424597340055519 0 0.041969095610599541 -0.033029815748155292 0 0.042379907152518978 -0.035116412338102664 0 0.042469014421791844 -0.034290707034452597 0 0.043205127043638568 -0.034777318134487138 0 0.041657359377196508 -0.034495220121748986 0 0.042469014421791844 -0.034290707034452597 0 0.041969095610599541 -0.033029815748155292 0 0.041657359377196508 -0.034495220121748986 0 0.042379907152518978 -0.035116412338102664 0 0.042469014421791844 -0.034290707034452597 0 0.042469014421791844 -0.034290707034452597 0 0.043205127043638568 -0.034777318134487138 0 0.042997376988324183 -0.033424597340055519 0 0.043205127043638568 -0.034777318134487138 0 0.044170942668270277 -0.03319171993493971 0 0.042997376988324183 -0.033424597340055519 0 0.043205127043638568 -0.034777318134487138 0 0.044034886121153236 -0.034573595352143792 0 0.044170942668270277 -0.03319171993493971 0 0.044034886121153236 -0.034573595352143792 0 0.045112853995627082 -0.033748485337221933 0 0.044170942668270277 -0.03319171993493971 0 0.045112853995627082 -0.033748485337221933 0 0.045029940103410632 -0.035131444317922256 0 0.046326005649440102 -0.033949561629314638 0 0.044034886121153236 -0.034573595352143792 0 0.045112853995627082 -0.033748485337221933 0 0.045029940103410632 -0.035131444317922256 0 0.044956573420223744 -0.036801096967919444 0 0.045029940103410632 -0.035131444317922256 0 0.043319531039516523 -0.035950145509437405 0 0.044956573420223744 -0.036801096967919444 0 0.045029940103410632 -0.035131444317922256 0 0.04618846446320788 -0.035734566631212557 0 0.044034886121153236 -0.034573595352143792 0 0.045029940103410632 -0.035131444317922256 0 0.043319531039516523 -0.035950145509437405 0 0.043205127043638568 -0.034777318134487138 0 0.044034886121153236 -0.034573595352143792 0 0.043319531039516523 -0.035950145509437405 0 0.046928435063308495 -0.036279292410998712 0 0.04618846446320788 -0.035734566631212557 0 0.047242330759470846 -0.035405268328442333 0 0.046928435063308495 -0.036279292410998712 0 0.047242330759470846 -0.035405268328442333 0 0.047363373500559455 -0.036458036597487455 0 0.046928435063308495 -0.036279292410998712 0 0.04618846446320788 -0.035734566631212557 0 0.046291054845376704 -0.037329057119675553 0 0.045029940103410632 -0.035131444317922256 0 0.04618846446320788 -0.035734566631212557 0 0.046326005649440102 -0.033949561629314638 0 0.04618846446320788 -0.035734566631212557 0 0.046326005649440102 -0.033949561629314638 0 0.047242330759470846 -0.035405268328442333 0 0.046326005649440102 -0.033949561629314638 0 0.047242330759470846 -0.035405268328442333 0 0.047729278190800653 -0.033851775629296768 0 0.044842220686642655 -0.034800753585923494 0 0.043592608679128377 -0.032047541214123343 0 0.047242330759470846 -0.035405268328442333 0 0.047719247990586688 -0.036135235627298541 0 0.047729278190800653 -0.033851775629296768 0 0.041864022447625084 -0.031035639170755094 0 0.042059121548139893 -0.033739205722720676 0 0.039496158650743698 -0.030262682752101887 0 0.041864022447625084 -0.031035639170755094 0 0.04425333599385433 -0.031740996980932551 0 0.042059121548139893 -0.033739205722720676 0 0.04425333599385433 -0.031740996980932551 0 0.044849073970286507 -0.034321874983216268 0 0.042059121548139893 -0.033739205722720676 0 0.047719247990586688 -0.036135235627298541 0 0.046967581594979796 -0.03656109509935563 0 0.04575942368530151 -0.036466302790410576 0 0.044849073970286507 -0.034321874983216268 0 0.042059121548139893 -0.033739205722720676 0 0.04575942368530151 -0.036466302790410576 0 0.044842220686642655 -0.034800753585923494 0 0.045627636817140244 -0.036239349526956892 0 0.047242330759470846 -0.035405268328442333 0 0.047719247990586688 -0.036135235627298541 0 0.047363373500559455 -0.036458036597487455 0 0.047719247990586688 -0.036135235627298541 0 0.047363373500559455 -0.036458036597487455 0 0.046967581594979796 -0.03656109509935563 0 0.047363373500559455 -0.036458036597487455 0 0.046967581594979796 -0.03656109509935563 0 0.047306229802459951 -0.036870368554658153 0 0.046967581594979796 -0.03656109509935563 0 0.046823022964321857 -0.036599545840077977 0 0.047306229802459951 -0.036870368554658153 0 0.046823022964321857 -0.036599545840077977 0 0.047306229802459951 -0.036870368554658153 0 0.04711376507088625 -0.036782208448073915 0 0.047306229802459951 -0.036870368554658153 0 0.04711376507088625 -0.036782208448073915 0 0.04761641903007291 -0.037452166604595001 0 0.046967581594979796 -0.03656109509935563 0 0.04575942368530151 -0.036466302790410576 0 0.046307805432723267 -0.036449153594126378 0 0.046967581594979796 -0.03656109509935563 0 0.046823022964321857 -0.036599545840077977 0 0.046307805432723267 -0.036449153594126378 0 0.04575942368530151 -0.036466302790410576 0 0.046307805432723267 -0.036449153594126378 0 0.046119235672566483 -0.036488276332011238 0 0.040905686642932725 -0.041944352621324094 0 0.034739357908975914 -0.042650493186943902 0 0.046458944183775948 -0.036404958018526556 0 0.047087744999572675 -0.036419170013971248 0 0.046041396999790402 -0.036214579385152462 0 0.046307805432723267 -0.036449153594126378 0 0.046119235672566483 -0.036488276332011238 0 0.046458944183775948 -0.036404958018526556 0 0.046823022964321857 -0.036599545840077977 0 0.046307805432723267 -0.036449153594126378 0 0.046458944183775948 -0.036404958018526556 0 0.046119235672566483 -0.036488276332011238 0 0.046458944183775948 -0.036404958018526556 0 0.046041396999790402 -0.036214579385152462 0 0.030537439420209048 -0.050652756237176931 0 0.03011226956575391 -0.049541968231981308 0 0.028903848830767926 -0.0497217272696759 0 0.047204783243067566 -0.036689394339422386 0 0.04711376507088625 -0.036782208448073915 0 0.04761641903007291 -0.037452166604595001 0 0.040905686642932725 -0.041944352621324094 0 0.045549397394103637 -0.040715333783812507 0 0.048965610215864791 -0.038391740073111767 0 0.047784473293025008 -0.038362795516649811 0 0.04761641903007291 -0.037452166604595001 0 0.047087744999572675 -0.036419170013971248 0 0.04711376507088625 -0.036782208448073915 0 0.046840938118245266 -0.036527844692024108 0 0.040905686642932725 -0.041944352621324094 0 0.043154995012780688 -0.038426212245965971 0 0.046458944183775948 -0.036404958018526556 0 0.047087744999572675 -0.036419170013971248 0 0.046840938118245266 -0.036527844692024108 0 0.046823022964321857 -0.036599545840077977 0 0.046458944183775948 -0.036404958018526556 0 0.046840938118245266 -0.036527844692024108 0 0.046823022964321857 -0.036599545840077977 0 0.04711376507088625 -0.036782208448073915 0 0.046840938118245266 -0.036527844692024108 0 0.048965610215864791 -0.038391740073111767 0 0.047703114009536397 -0.039529673827924564 0 0.047906755121341071 -0.041594604562914944 0 0.047144177813492422 -0.038082569846965508 0 0.046291054845376704 -0.037329057119675553 0 0.046369517699971448 -0.039449426124259938 0 0.047703114009536397 -0.039529673827924564 0 0.047144177813492422 -0.038082569846965508 0 0.046369517699971448 -0.039449426124259938 0 0.048965610215864791 -0.038391740073111767 0 0.047703114009536397 -0.039529673827924564 0 0.047784473293025008 -0.038362795516649811 0 0.047703114009536397 -0.039529673827924564 0 0.047144177813492422 -0.038082569846965508 0 0.047784473293025008 -0.038362795516649811 0 0.047144177813492422 -0.038082569846965508 0 0.047784473293025008 -0.038362795516649811 0 0.04761641903007291 -0.037452166604595001 0 0.047144177813492422 -0.038082569846965508 0 0.04761641903007291 -0.037452166604595001 0 0.047188001489861735 -0.036978858080047528 0 0.047306229802459951 -0.036870368554658153 0 0.04761641903007291 -0.037452166604595001 0 0.047188001489861735 -0.036978858080047528 0 0.047144177813492422 -0.038082569846965508 0 0.047188001489861735 -0.036978858080047528 0 0.046291054845376704 -0.037329057119675553 0 0.046928435063308495 -0.036279292410998712 0 0.047188001489861735 -0.036978858080047528 0 0.046291054845376704 -0.037329057119675553 0 0.046928435063308495 -0.036279292410998712 0 0.047363373500559455 -0.036458036597487455 0 0.047188001489861735 -0.036978858080047528 0 0.047363373500559455 -0.036458036597487455 0 0.047306229802459951 -0.036870368554658153 0 0.047188001489861735 -0.036978858080047528 0 0.044956573420223744 -0.036801096967919444 0 0.04618846446320788 -0.035734566631212557 0 0.046291054845376704 -0.037329057119675553 0 0.044913132640597299 -0.038889980920569937 0 0.044956573420223744 -0.036801096967919444 0 0.046291054845376704 -0.037329057119675553 0 0.044913132640597299 -0.038889980920569937 0 0.046369517699971448 -0.039449426124259938 0 0.044857065470293535 -0.041241652939995849 0 0.044913132640597299 -0.038889980920569937 0 0.046291054845376704 -0.037329057119675553 0 0.046369517699971448 -0.039449426124259938 0 0.046369517699971448 -0.039449426124259938 0 0.044857065470293535 -0.041241652939995849 0 0.046176320709948114 -0.042437763377175045 0 0.046369517699971448 -0.039449426124259938 0 0.047906755121341071 -0.041594604562914944 0 0.046176320709948114 -0.042437763377175045 0 0.047703114009536397 -0.039529673827924564 0 0.046369517699971448 -0.039449426124259938 0 0.047906755121341071 -0.041594604562914944 0 0.03957086682819777 -0.045843314686095538 0 0.036798442104523835 -0.04557485373862849 0 0.047906755121341071 -0.041594604562914944 0 0.046176320709948114 -0.042437763377175045 0 0.046832996864936437 -0.044396113348334217 0 0.031175567038742344 -0.049118098078448739 0 0.031893725097344922 -0.047428701211859568 0 0.030298201035318609 -0.048396376503306797 0 0.04455010808292828 -0.043533084301969602 0 0.046176320709948114 -0.042437763377175045 0 0.046832996864936437 -0.044396113348334217 0 0.04455010808292828 -0.043533084301969602 0 0.044857065470293535 -0.041241652939995849 0 0.046176320709948114 -0.042437763377175045 0 0.040396830118894021 -0.044396378215447903 0 0.036798442104523835 -0.04557485373862849 0 0.034900199306851114 -0.044888647439191944 0 0.035022166927869636 -0.045130798948157344 0 0.034220671802492789 -0.045159001707600781 0 0.036798442104523835 -0.04557485373862849 0 0.032321160689245024 -0.045750744208646728 0 0.034416876800943734 -0.045013036693814353 0 0.034900199306851114 -0.044888647439191944 0 0.034220671802492789 -0.045159001707600781 0 0.036798442104523835 -0.04557485373862849 0 0.02908883464677928 -0.046751410551772572 0 0.032189233946077173 -0.047718468710095302 0 0.031718017725925966 -0.046176771408454269 0 0.030354728896126771 -0.046850322290535408 0 0.032189233946077173 -0.047718468710095302 0 0.031718017725925966 -0.046176771408454269 0 0.03327952647795876 -0.04515163280010636 0 0.031208931214726163 -0.044999691991947956 0 0.031718017725925966 -0.046176771408454269 0 0.030354728896126771 -0.046850322290535408 0 0.031208931214726163 -0.044999691991947956 0 0.031718017725925966 -0.046176771408454269 0 0.03327952647795876 -0.04515163280010636 0 0.031208931214726163 -0.044999691991947956 0 0.03327952647795876 -0.04515163280010636 0 0.033627751964915735 -0.04499953022614054 0 0.034416876800943734 -0.045013036693814353 0 0.034220671802492789 -0.045159001707600781 0 0.03327952647795876 -0.04515163280010636 0 0.034416876800943734 -0.045013036693814353 0 0.03327952647795876 -0.04515163280010636 0 0.033627751964915735 -0.04499953022614054 0 0.028792669557793686 -0.044999999507088551 0 0.029032608608827316 -0.046577912090780563 0 0.027957023327993456 -0.046599353745101137 0 0.028792669557793686 -0.044999999507088551 0 0.030354728896126771 -0.046850322290535408 0 0.029032608608827316 -0.046577912090780563 0 0.031208931214726163 -0.044999691991947956 0 0.028792669557793686 -0.044999999507088551 0 0.030354728896126771 -0.046850322290535408 0 0.031893725097344922 -0.047428701211859568 0 0.030354728896126771 -0.046850322290535408 0 0.030298201035318609 -0.048396376503306797 0 0.030354728896126771 -0.046850322290535408 0 0.029032608608827316 -0.046577912090780563 0 0.029022278561338957 -0.047831860794149549 0 0.029022278561338957 -0.047831860794149549 0 0.027639853878250482 -0.047959462928481161 0 0.027957023327993456 -0.046599353745101137 0 0.029032608608827316 -0.046577912090780563 0 0.029022278561338957 -0.047831860794149549 0 0.027957023327993456 -0.046599353745101137 0 0.029022278561338957 -0.047831860794149549 0 0.030298201035318609 -0.048396376503306797 0 0.029385395503767096 -0.04926155898722178 0 0.029022278561338957 -0.047831860794149549 0 0.028335279448552606 -0.048898642371222108 0 0.029385395503767096 -0.04926155898722178 0 0.029022278561338957 -0.047831860794149549 0 0.028335279448552606 -0.048898642371222108 0 0.027639853878250482 -0.047959462928481161 0 0.030354728896126771 -0.046850322290535408 0 0.029022278561338957 -0.047831860794149549 0 0.030298201035318609 -0.048396376503306797 0 0.040905686642932725 -0.041944352621324094 0 0.03957086682819777 -0.045843314686095538 0 0.030537439420209048 -0.050652756237176931 0 0.031175567038742344 -0.049118098078448739 0 0.03011226956575391 -0.049541968231981308 0 0.031175567038742344 -0.049118098078448739 0 0.030298201035318609 -0.048396376503306797 0 0.03011226956575391 -0.049541968231981308 0 0.030298201035318609 -0.048396376503306797 0 0.03011226956575391 -0.049541968231981308 0 0.029385395503767096 -0.04926155898722178 0 0.03011226956575391 -0.049541968231981308 0 0.029385395503767096 -0.04926155898722178 0 0.028903848830767926 -0.0497217272696759 0 0.028335279448552606 -0.048898642371222108 0 0.029385395503767096 -0.04926155898722178 0 0.02868562679127264 -0.0499508398238631 0 0.028166605209399374 -0.049869832391631987 0 0.034739357908975914 -0.042650493186943902 0 0.028335279448552606 -0.048898642371222108 0 0.02868562679127264 -0.0499508398238631 0 0.027153950669888662 -0.049117721196415914 0 0.026573018840799333 -0.038549970565091213 0 0.026302321960358532 -0.03848733145571677 0 0.026277996335563786 -0.038442400508458673 0 0.034739357908975914 -0.042650493186943902 0 0.026178538646067111 -0.043595621551578638 0 0.026302321960358532 -0.03848733145571677 0 0.026277996335563786 -0.038442400508458673 0 0.026241954421097266 -0.038462990843317446 0 0.026241954421097266 -0.038462990843317446 0 0.026220334179684467 -0.038496079633957347 0 0.026239197930873589 -0.038455516981540143 0 0.023512177926106506 -0.043300298668341022 0 0.020481010878716538 -0.038626669109348644 0 0.026277996335563786 -0.038442400508458673 0 0.026241954421097266 -0.038462990843317446 0 0.026220334179684467 -0.038496079633957347 0 0.026241954421097266 -0.038462990843317446 0 0.026239197930873589 -0.038455516981540143 0 0.026235905740343447 -0.038438473140122595 0 0.026302321960358532 -0.03848733145571677 0 0.026241954421097266 -0.038462990843317446 0 0.026235905740343447 -0.038438473140122595 0 0.026178538646067111 -0.043595621551578638 0 0.023512177926106506 -0.043300298668341022 0 0.027153950669888662 -0.049117721196415914 0 0.025634964866491465 -0.048282611967708042 0 0.02655058946791403 -0.048106280925194651 0 0.02655058946791403 -0.048106280925194651 0 0.025674546396980632 -0.048008803388104822 0 0.026459227098379393 -0.047084402944538577 0 0.025621161029808097 -0.048272407139657407 0 0.025674546396980632 -0.048008803388104822 0 0.025262584677264187 -0.047335445396365944 0 0.025634964866491465 -0.048282611967708042 0 0.02655058946791403 -0.048106280925194651 0 0.025674546396980632 -0.048008803388104822 0 0.023512177926106506 -0.043300298668341022 0 0.023561898892825901 -0.044730416454434797 0 0.028335279448552606 -0.048898642371222108 0 0.027153950669888662 -0.049117721196415914 0 0.027639853878250482 -0.047959462928481161 0 0.027153950669888662 -0.049117721196415914 0 0.02655058946791403 -0.048106280925194651 0 0.027639853878250482 -0.047959462928481161 0 0.02655058946791403 -0.048106280925194651 0 0.027639853878250482 -0.047959462928481161 0 0.026459227098379393 -0.047084402944538577 0 0.027639853878250482 -0.047959462928481161 0 0.027957023327993456 -0.046599353745101137 0 0.026459227098379393 -0.047084402944538577 0 0.025674546396980632 -0.048008803388104822 0 0.026459227098379393 -0.047084402944538577 0 0.025262584677264187 -0.047335445396365944 0 0.026459227098379393 -0.047084402944538577 0 0.025212209740488396 -0.04635078630533615 0 0.025262584677264187 -0.047335445396365944 0 0.026459227098379393 -0.047084402944538577 0 0.026376240328772109 -0.0449998815422466 0 0.025212209740488396 -0.04635078630533615 0 0.027957023327993456 -0.046599353745101137 0 0.026459227098379393 -0.047084402944538577 0 0.026376240328772109 -0.0449998815422466 0 0.028792669557793686 -0.044999999507088551 0 0.027957023327993456 -0.046599353745101137 0 0.026376240328772109 -0.0449998815422466 0 0.021979843650710772 -0.046269722609081555 0 0.021932632849634176 -0.044999968103655086 0 0.023959697134950914 -0.044999999082363989 0 0.021979843650710772 -0.046269722609081555 0 0.023959697134950914 -0.044999999082363989 0 0.023982087935068744 -0.047500069630738669 0 0.02396232163632905 -0.04500334605682927 0 0.020163862347004884 -0.045839859418936958 0 0.026376240328772109 -0.0449998815422466 0 0.023960058089050985 -0.04499992781373701 0 0.025212209740488396 -0.04635078630533615 0 0.023960058089050985 -0.04499992781373701 0 0.025212209740488396 -0.04635078630533615 0 0.024133809822666021 -0.047396190971752544 0 0.025212209740488396 -0.04635078630533615 0 0.025262584677264187 -0.047335445396365944 0 0.024133809822666021 -0.047396190971752544 0 0.020559812168271546 -0.046035897717782943 0 0.020163862347004884 -0.045839859418936958 0 0.019305946017728205 -0.045890726526776095 0 0.016127921698423694 -0.044570928879211741 0 0.018041955103967219 -0.044041652217774695 0 0.016127921698423694 -0.044570928879211741 0 0.017274684284126571 -0.042414900768431713 0 0.01575279508979047 -0.040531708599612047 0 0.016127921698423694 -0.044570928879211741 0 0.018041955103967219 -0.044041652217774695 0 0.017274684284126571 -0.042414900768431713 0 0.018791196888077275 -0.04247980588433023 0 0.018041955103967219 -0.044041652217774695 0 0.017274684284126571 -0.042414900768431713 0 0.023512177926106506 -0.043300298668341022 0 0.020163862347004884 -0.045839859418936958 0 0.025621161029808097 -0.048272407139657407 0 0.025262584677264187 -0.047335445396365944 0 0.024133809822666021 -0.047396190971752544 0 0.017031636922656749 -0.044290860263954485 0 0.015782869616354063 -0.041702933930798679 0 0.01665449121125882 -0.039985563763276014 0 0.020163862347004884 -0.045839859418936958 0 0.015690243712507844 -0.039887477310028736 0 0.014540899585073146 -0.042739074774083979 0 0.017031636922656749 -0.044290860263954485 0 0.015782869616354063 -0.041702933930798679 0 0.014540899585073146 -0.042739074774083979 0 0.015782869616354063 -0.041702933930798679 0 0.014943525397826483 -0.039842788321423822 0 0.015782869616354063 -0.041702933930798679 0 0.01665449121125882 -0.039985563763276014 0 0.014943525397826483 -0.039842788321423822 0 0.017274684284126571 -0.042414900768431713 0 0.01575279508979047 -0.040531708599612047 0 0.018001846110724223 -0.04038383331596461 0 0.018791196888077275 -0.04247980588433023 0 0.017274684284126571 -0.042414900768431713 0 0.018001846110724223 -0.04038383331596461 0 0.01575279508979047 -0.040531708599612047 0 0.017205673478603096 -0.038377084494567636 0 0.016014888670391556 -0.03633277126646528 0 0.01575279508979047 -0.040531708599612047 0 0.018001846110724223 -0.04038383331596461 0 0.017205673478603096 -0.038377084494567636 0 0.019736482382330816 -0.037768168787121782 0 0.016963342252272785 -0.036926125439260986 0 0.017207167603840293 -0.035467376428692084 0 0.019736482382330816 -0.037768168787121782 0 0.017205673478603096 -0.038377084494567636 0 0.016963342252272785 -0.036926125439260986 0 0.017205673478603096 -0.038377084494567636 0 0.016963342252272785 -0.036926125439260986 0 0.016014888670391556 -0.03633277126646528 0 0.017207167603840293 -0.035467376428692084 0 0.016014888670391556 -0.03633277126646528 0 0.016591882528177879 -0.035269316841923581 0 0.016963342252272785 -0.036926125439260986 0 0.017207167603840293 -0.035467376428692084 0 0.016014888670391556 -0.03633277126646528 0 0.016014888670391556 -0.03633277126646528 0 0.015212457808251032 -0.037263661715035673 0 0.015731706043524699 -0.038337034787604411 0 0.026227402759958076 -0.03834323705510273 0 0.026179839523347605 -0.03829393045793883 0 0.026177239652861704 -0.03819262146466932 0 0.016014888670391556 -0.03633277126646528 0 0.015212457808251032 -0.037263661715035673 0 0.015740040454431364 -0.035158375407951206 0 0.020718093487577079 -0.038294819234796468 0 0.020371749083648652 -0.034549738263413655 0 0.023331453115025453 -0.03407111504061875 0 0.020371749083648652 -0.034549738263413655 0 0.014943525397826483 -0.039842788321423822 0 0.015212457808251032 -0.037263661715035673 0 0.015731706043524699 -0.038337034787604411 0 0.01665449121125882 -0.039985563763276014 0 0.016014888670391556 -0.03633277126646528 0 0.015731706043524699 -0.038337034787604411 0 0.020481010878716538 -0.038626669109348644 0 0.020718093487577079 -0.038294819234796468 0 0.015690243712507844 -0.039887477310028736 0 0.016174428539487924 -0.03671711438624746 0 0.01665449121125882 -0.039985563763276014 0 0.014943525397826483 -0.039842788321423822 0 0.015731706043524699 -0.038337034787604411 0 0.026239197930873589 -0.038455516981540143 0 0.026235905740343447 -0.038438473140122595 0 0.026217313989702888 -0.038385402810917221 0 0.026239197930873589 -0.038455516981540143 0 0.026227402759958076 -0.03834323705510273 0 0.026217313989702888 -0.038385402810917221 0 0.026235905740343447 -0.038438473140122595 0 0.026217313989702888 -0.038385402810917221 0 0.026194800940804886 -0.0383749896667318 0 0.026302321960358532 -0.03848733145571677 0 0.026235905740343447 -0.038438473140122595 0 0.026194800940804886 -0.0383749896667318 0 0.046119235672566483 -0.036488276332011238 0 0.046041396999790402 -0.036214579385152462 0 0.046282039237872059 -0.036694477008415986 0 0.025906682808844821 -0.040061468520549384 0 0.029951884063534093 -0.0344249533786119 0 0.026573018840799333 -0.038549970565091213 0 0.026302321960358532 -0.03848733145571677 0 0.026350853666984787 -0.038727074592817622 0 0.034739357908975914 -0.042650493186943902 0 0.029951884063534093 -0.0344249533786119 0 0.029951884063534093 -0.0344249533786119 0 0.034599995016993991 -0.032234856024760068 0 0.04575942368530151 -0.036466302790410576 0 0.046282039237872059 -0.036694477008415986 0 0.046874229205693889 -0.03498709647382009 0 0.04575942368530151 -0.036466302790410576 0 0.046119235672566483 -0.036488276332011238 0 0.046282039237872059 -0.036694477008415986 0 0.02171068126241257 -0.028896531058661856 0 0.020908181596688839 -0.029519103788186597 0 0.021532549229109965 -0.030235163302907191 0 0.026227402759958076 -0.03834323705510273 0 0.026217313989702888 -0.038385402810917221 0 0.026179839523347605 -0.03829393045793883 0 0.029951884063534093 -0.0344249533786119 0 0.023331453115025453 -0.03407111504061875 0 0.026217313989702888 -0.038385402810917221 0 0.026194800940804886 -0.0383749896667318 0 0.026179839523347605 -0.03829393045793883 0 0.020908181596688839 -0.029519103788186597 0 0.020796825261640495 -0.030262736885022821 0 0.020081223987094294 -0.030171987278155801 0 0.020908181596688839 -0.029519103788186597 0 0.020796825261640495 -0.030262736885022821 0 0.021532549229109965 -0.030235163302907191 0 0.020796825261640495 -0.030262736885022821 0 0.021532549229109965 -0.030235163302907191 0 0.020716987855005 -0.030992718053311712 0 0.020796825261640495 -0.030262736885022821 0 0.020716987855005 -0.030992718053311712 0 0.020321056815846648 -0.030719270152866934 0 0.044849073970286507 -0.034321874983216268 0 0.04575942368530151 -0.036466302790410576 0 0.046874229205693889 -0.03498709647382009 0 0.04425333599385433 -0.031740996980932551 0 0.044849073970286507 -0.034321874983216268 0 0.046874229205693889 -0.03498709647382009 0 0.034599995016993991 -0.032234856024760068 0 0.034506031597368314 -0.031141015997261916 0 0.04425333599385433 -0.031740996980932551 0 0.046874229205693889 -0.03498709647382009 0 0.046955814645744894 -0.03092699875864879 0 0.020716987855005 -0.030992718053311712 0 0.020413539085930965 -0.03207238483783894 0 0.021409186422104706 -0.031683329417704895 0 0.021532549229109965 -0.030235163302907191 0 0.020716987855005 -0.030992718053311712 0 0.021409186422104706 -0.031683329417704895 0 0.0169281604409443 -0.034630003109069094 0 0.016590602387643896 -0.034850652705353508 0 0.016691741732139949 -0.034794480308825752 0 0.020321056815846648 -0.030719270152866934 0 0.01966726290357898 -0.03146966502774648 0 0.020081223987094294 -0.030171987278155801 0 0.0169281604409443 -0.034630003109069094 0 0.016971386901703859 -0.034725984814753766 0 0.016691741732139949 -0.034794480308825752 0 0.020716987855005 -0.030992718053311712 0 0.01966726290357898 -0.03146966502774648 0 0.020413539085930965 -0.03207238483783894 0 0.018140185158787063 -0.032700727221491664 0 0.020371749083648652 -0.034549738263413655 0 0.020716987855005 -0.030992718053311712 0 0.020321056815846648 -0.030719270152866934 0 0.01966726290357898 -0.03146966502774648 0 0.0169281604409443 -0.034630003109069094 0 0.01709008518600352 -0.034642991564839201 0 0.016971386901703859 -0.034725984814753766 0 0.017108055365494767 -0.034715820514221632 0 0.017140859847197508 -0.034614090280900428 0 0.01709008518600352 -0.034642991564839201 0 0.017108055365494767 -0.034715820514221632 0 0.01709008518600352 -0.034642991564839201 0 0.016971386901703859 -0.034725984814753766 0 0.017108055365494767 -0.034715820514221632 0 0.016971386901703859 -0.034725984814753766 0 0.017098623830654497 -0.034883139268316807 0 0.016971386901703859 -0.034725984814753766 0 0.017001849194398972 -0.0349935137194601 0 0.016691741732139949 -0.034794480308825752 0 0.017001849194398972 -0.0349935137194601 0 0.016591882528177879 -0.035269316841923581 0 0.016691741732139949 -0.034794480308825752 0 0.017201184409447456 -0.035157085164100516 0 0.017001849194398972 -0.0349935137194601 0 0.017098623830654497 -0.034883139268316807 0 0.016971386901703859 -0.034725984814753766 0 0.017001849194398972 -0.0349935137194601 0 0.017098623830654497 -0.034883139268316807 0 0.017201184409447456 -0.035157085164100516 0 0.017207167603840293 -0.035467376428692084 0 0.017001849194398972 -0.0349935137194601 0 0.017207167603840293 -0.035467376428692084 0 0.017001849194398972 -0.0349935137194601 0 0.016591882528177879 -0.035269316841923581 0 0.016014888670391556 -0.03633277126646528 0 0.016591882528177879 -0.035269316841923581 0 0.015740040454431364 -0.035158375407951206 0 0.016591882528177879 -0.035269316841923581 0 0.015740040454431364 -0.035158375407951206 0 0.016691741732139949 -0.034794480308825752 0 0.020796825261640495 -0.030262736885022821 0 0.020321056815846648 -0.030719270152866934 0 0.020081223987094294 -0.030171987278155801 0 0.020371749083648652 -0.034549738263413655 0 0.016888929149617295 -0.035789682257012533 0 0.019038525678701537 -0.033012207631225914 0 0.020354797840583163 -0.033027385893725274 0 0.020029018330940888 -0.034013530860012041 0 0.019038525678701537 -0.033012207631225914 0 0.019302878415140005 -0.034675631718359357 0 0.020029018330940888 -0.034013530860012041 0 0.019038525678701537 -0.033012207631225914 0 0.020413539085930965 -0.03207238483783894 0 0.020354797840583163 -0.033027385893725274 0 0.017218771588975553 -0.034692307939884863 0 0.017304828532688322 -0.034626062724463759 0 0.017444565671757142 -0.034766170025521383 0 0.017444305449937657 -0.034572073866953323 0 0.017304828532688322 -0.034626062724463759 0 0.017444565671757142 -0.034766170025521383 0 0.017444305449937657 -0.034572073866953323 0 0.017304828532688322 -0.034626062724463759 0 0.017210939580030463 -0.034581750311375919 0 0.0169281604409443 -0.034630003109069094 0 0.017444305449937657 -0.034572073866953323 0 0.017210939580030463 -0.034581750311375919 0 0.017173039239381974 -0.034606289083126532 0 0.017304828532688322 -0.034626062724463759 0 0.017210939580030463 -0.034581750311375919 0 0.017140859847197508 -0.034614090280900428 0 0.01709008518600352 -0.034642991564839201 0 0.017210939580030463 -0.034581750311375919 0 0.0169281604409443 -0.034630003109069094 0 0.01709008518600352 -0.034642991564839201 0 0.017210939580030463 -0.034581750311375919 0 0.01966726290357898 -0.03146966502774648 0 0.019038525678701537 -0.033012207631225914 0 0.020413539085930965 -0.03207238483783894 0 0.018140185158787063 -0.032700727221491664 0 0.018247430259839374 -0.033971926287972042 0 0.034506031597368314 -0.031141015997261916 0 0.030978162862636393 -0.031201773047526443 0 0.021113188141717341 -0.032535848271749303 0 0.021409186422104706 -0.031683329417704895 0 0.021393658353198401 -0.033348610720727062 0 0.020413539085930965 -0.03207238483783894 0 0.021113188141717341 -0.032535848271749303 0 0.021409186422104706 -0.031683329417704895 0 0.020413539085930965 -0.03207238483783894 0 0.021113188141717341 -0.032535848271749303 0 0.020354797840583163 -0.033027385893725274 0 0.046955814645744894 -0.03092699875864879 0 0.044733190878006361 -0.028692736679837204 0 0.047033630267597701 -0.026744870598836276 0 0.04425333599385433 -0.031740996980932551 0 0.046955814645744894 -0.03092699875864879 0 0.044733190878006361 -0.028692736679837204 0 0.044805730941488549 -0.026832905582493381 0 0.047033630267597701 -0.026744870598836276 0 0.043966369421533591 -0.025088688260067386 0 0.044733190878006361 -0.028692736679837204 0 0.044805730941488549 -0.026832905582493381 0 0.0434964960372375 -0.026775776994280912 0 0.044733190878006361 -0.028692736679837204 0 0.044805730941488549 -0.026832905582493381 0 0.047033630267597701 -0.026744870598836276 0 0.044805730941488549 -0.026832905582493381 0 0.043966369421533591 -0.025088688260067386 0 0.0434964960372375 -0.026775776994280912 0 0.023205890540277611 -0.032150190485273109 0 0.030978162862636393 -0.031201773047526443 0 0.021113188141717341 -0.032535848271749303 0 0.020354797840583163 -0.033027385893725274 0 0.021381170131808343 -0.033479789241697991 0 0.020354797840583163 -0.033027385893725274 0 0.021381170131808343 -0.033479789241697991 0 0.020029018330940888 -0.034013530860012041 0 0.021381170131808343 -0.033479789241697991 0 0.020251952264263455 -0.034961288599269641 0 0.021266249602330756 -0.035941715890574759 0 0.021381170131808343 -0.033479789241697991 0 0.020251952264263455 -0.034961288599269641 0 0.020029018330940888 -0.034013530860012041 0 0.030978162862636393 -0.031201773047526443 0 0.026931357354291204 -0.027365599050840388 0 0.032806345228571072 -0.030398448935687099 0 0.031578957879840198 -0.025244043014101852 0 0.03316484785594985 -0.025301143157914579 0 0.047033630267597701 -0.026744870598836276 0 0.043966369421533591 -0.025088688260067386 0 0.044117782900755249 -0.023246489111837434 0 0.047033630267597701 -0.026744870598836276 0 0.044117782900755249 -0.023246489111837434 0 0.045699695148733913 -0.021545081400520937 0 0.030978162862636393 -0.031201773047526443 0 0.039471438929619872 -0.023138514855093807 0 0.039471438929619872 -0.023138514855093807 0 0.026931357354291204 -0.027365599050840388 0 0.020251952264263455 -0.034961288599269641 0 0.021266249602330756 -0.035941715890574759 0 0.019064427827385037 -0.03593262501848582 0 0.035958294805895907 -0.021739367648869797 0 0.03606640291824216 -0.021758127777690005 0 0.036103747753443056 -0.021377467398852192 0 0.026931357354291204 -0.027365599050840388 0 0.020587597053200107 -0.030825031343164076 0 0.0237068220404105 -0.025076807500636584 0 0.023432955100013763 -0.025058710738862486 0 0.023538897984529454 -0.025200750954732391 0 0.020251952264263455 -0.034961288599269641 0 0.019064427827385037 -0.03593262501848582 0 0.019302878415140005 -0.034675631718359357 0 0.019038525678701537 -0.033012207631225914 0 0.019302878415140005 -0.034675631718359357 0 0.018202489647404674 -0.03511090223283183 0 0.019064427827385037 -0.03593262501848582 0 0.019302878415140005 -0.034675631718359357 0 0.018202489647404674 -0.03511090223283183 0 0.020251952264263455 -0.034961288599269641 0 0.019302878415140005 -0.034675631718359357 0 0.020029018330940888 -0.034013530860012041 0 0.017444305449937657 -0.034572073866953323 0 0.017444565671757142 -0.034766170025521383 0 0.018202489647404674 -0.03511090223283183 0 0.018247430259839374 -0.033971926287972042 0 0.018169634649996547 -0.035049697977904415 0 0.017444565671757142 -0.034766170025521383 0 0.018202489647404674 -0.03511090223283183 0 0.017447024054302426 -0.035076341184049627 0 0.018202489647404674 -0.03511090223283183 0 0.017447024054302426 -0.035076341184049627 0 0.01735645279026013 -0.035622882115744145 0 0.023432955100013763 -0.025058710738862486 0 0.023106252632565112 -0.025062091140702836 0 0.023335637092251487 -0.025229969029602308 0 0.019064427827385037 -0.03593262501848582 0 0.018202489647404674 -0.03511090223283183 0 0.01735645279026013 -0.035622882115744145 0 0.020587597053200107 -0.030825031343164076 0 0.01941365461089473 -0.027933658903034227 0 0.01941365461089473 -0.027933658903034227 0 0.021732470841107691 -0.024952252293630087 0 0.019282064103118474 -0.025567654223860925 0 0.019235412206211708 -0.025648193150066497 0 0.019986657485665645 -0.025019334545494078 0 0.019282064103118474 -0.025567654223860925 0 0.019986657485665645 -0.025019334545494078 0 0.020073411908940856 -0.024912432832470681 0 0.019986657485665645 -0.025019334545494078 0 0.020788371666015208 -0.024434411972701686 0 0.020073411908940856 -0.024912432832470681 0 0.023335637092251487 -0.025229969029602308 0 0.023538897984529454 -0.025200750954732391 0 0.02353635510780203 -0.0253305445432895 0 0.023432955100013763 -0.025058710738862486 0 0.023335637092251487 -0.025229969029602308 0 0.023538897984529454 -0.025200750954732391 0 0.021732470841107691 -0.024952252293630087 0 0.022008613453285832 -0.025081101372643744 0 0.020788371666015208 -0.024434411972701686 0 0.020564834047943362 -0.024476549497330202 0 0.021100452675250264 -0.024216329014086432 0 0.020788371666015208 -0.024434411972701686 0 0.021100452675250264 -0.024216329014086432 0 0.021434822253047846 -0.023987796018325836 0 0.019874494235264637 -0.02504436283927142 0 0.020073411908940856 -0.024912432832470681 0 0.020564834047943362 -0.024476549497330202 0 0.020788371666015208 -0.024434411972701686 0 0.020073411908940856 -0.024912432832470681 0 0.020564834047943362 -0.024476549497330202 0 0.020430315535318214 -0.024429297019934158 0 0.020564834047943362 -0.024476549497330202 0 0.021490631531926055 -0.023909248083336606 0 0.020564834047943362 -0.024476549497330202 0 0.021100452675250264 -0.024216329014086432 0 0.021490631531926055 -0.023909248083336606 0 0.021100452675250264 -0.024216329014086432 0 0.021490631531926055 -0.023909248083336606 0 0.021434822253047846 -0.023987796018325836 0 0.021490631531926055 -0.023909248083336606 0 0.023391399691194008 -0.022916084393792644 0 0.021614380923314649 -0.024203448610735132 0 0.020430315535318214 -0.024429297019934158 0 0.021490631531926055 -0.023909248083336606 0 0.021614380923314649 -0.024203448610735132 0 0.032057043599942547 -0.019940257536881886 0 0.03387723930268121 -0.022033388378348569 0 0.027619589106393561 -0.01918473353767116 0 0.023391399691194008 -0.022916084393792644 0 0.028197542612935764 -0.021592302392312017 0 0.027619589106393561 -0.01918473353767116 0 0.030889409180756541 -0.021857763795081298 0 0.028197542612935764 -0.021592302392312017 0 0.026002488359640252 -0.021946198978882878 0 0.022398446594876994 -0.021812344944265007 0 0.021490631531926055 -0.023909248083336606 0 0.021434822253047846 -0.023987796018325836 0 0.023391399691194008 -0.022916084393792644 0 0.027619589106393561 -0.01918473353767116 0 0.023825550607854299 -0.014843834658098354 0 0.023391399691194008 -0.022916084393792644 0 0.032057043599942547 -0.019940257536881886 0 0.026002488359640252 -0.021946198978882878 0 0.036101523450571403 -0.021348283083774275 0 0.03607617485775632 -0.021244427901039607 0 0.036218991944773349 -0.02120803023576592 0 0.036101523450571403 -0.021348283083774275 0 0.036034735918479416 -0.021254155079725761 0 0.03607617485775632 -0.021244427901039607 0 0.03607617485775632 -0.021244427901039607 0 0.035978405355329826 -0.021336791372281602 0 0.036218991944773349 -0.02120803023576592 0 0.037679096135774671 -0.020655133785715082 0 0.037396011718473024 -0.021029761554184775 0 0.03607617485775632 -0.021244427901039607 0 0.035978405355329826 -0.021336791372281602 0 0.036103747753443056 -0.021377467398852192 0 0.036034735918479416 -0.021254155079725761 0 0.03607617485775632 -0.021244427901039607 0 0.036103747753443056 -0.021377467398852192 0 0.02353635510780203 -0.0253305445432895 0 0.023667617993103122 -0.02539006954167335 0 0.023673612782312392 -0.025270027076534151 0 0.026002488359640252 -0.021946198978882878 0 0.030441780729003116 -0.022766456810797687 0 0.022008613453285832 -0.025081101372643744 0 0.026002488359640252 -0.021946198978882878 0 0.023538897984529454 -0.025200750954732391 0 0.02353635510780203 -0.0253305445432895 0 0.023673612782312392 -0.025270027076534151 0 0.026931357354291204 -0.027365599050840388 0 0.030441780729003116 -0.022766456810797687 0 0.0237068220404105 -0.025076807500636584 0 0.023538897984529454 -0.025200750954732391 0 0.023673612782312392 -0.025270027076534151 0 0.039471438929619872 -0.023138514855093807 0 0.037679096135774671 -0.020655133785715082 0 0.040254183600256919 -0.021322036954208607 0 0.03982333699786151 -0.020626817872194208 0 0.040015844616733298 -0.021139989690324365 0 0.035958294805895907 -0.021739367648869797 0 0.035978405355329826 -0.021336791372281602 0 0.036103747753443056 -0.021377467398852192 0 0.03982333699786151 -0.020626817872194208 0 0.039628784552273089 -0.020751728338267602 0 0.039302137991215964 -0.0204647578598517 0 0.040015844616733298 -0.021139989690324365 0 0.039628784552273089 -0.020751728338267602 0 0.040171003043119165 -0.021854335687264696 0 0.039628784552273089 -0.020751728338267602 0 0.03927471011242932 -0.020648025852054105 0 0.039302137991215964 -0.0204647578598517 0 0.03982333699786151 -0.020626817872194208 0 0.040015844616733298 -0.021139989690324365 0 0.039628784552273089 -0.020751728338267602 0 0.039628784552273089 -0.020751728338267602 0 0.03927471011242932 -0.020648025852054105 0 0.040171003043119165 -0.021854335687264696 0 0.040605123613707175 -0.02218764639822126 0 0.039520765718436698 -0.022851885874667917 0 0.038980498096776194 -0.021575775202952563 0 0.040605123613707175 -0.02218764639822126 0 0.039417897840780022 -0.020932635691658617 0 0.038980498096776194 -0.021575775202952563 0 0.039912208978991413 -0.021459902550924004 0 0.039283860814874672 -0.020367332973068569 0 0.03927471011242932 -0.020648025852054105 0 0.039302137991215964 -0.0204647578598517 0 0.039138959744508664 -0.020248893993490134 0 0.040605123613707175 -0.02218764639822126 0 0.039417897840780022 -0.020932635691658617 0 0.039138959744508664 -0.020248893993490134 0 0.03982333699786151 -0.020626817872194208 0 0.039302137991215964 -0.0204647578598517 0 0.038887069654809869 -0.020352033467602157 0 0.03982333699786151 -0.020626817872194208 0 0.038513513637707414 -0.020384692342570721 0 0.038887069654809869 -0.020352033467602157 0 0.039302137991215964 -0.0204647578598517 0 0.038887069654809869 -0.020352033467602157 0 0.039138959744508664 -0.020248893993490134 0 0.038887069654809869 -0.020352033467602157 0 0.038663087262758161 -0.020518339127262107 0 0.038125956409909637 -0.020745711998606729 0 0.038513513637707414 -0.020384692342570721 0 0.038887069654809869 -0.020352033467602157 0 0.038125956409909637 -0.020745711998606729 0 0.038887069654809869 -0.020352033467602157 0 0.039138959744508664 -0.020248893993490134 0 0.038663087262758161 -0.020518339127262107 0 0.039138959744508664 -0.020248893993490134 0 0.038663087262758161 -0.020518339127262107 0 0.039067377060875243 -0.020483965490085094 0 0.038663087262758161 -0.020518339127262107 0 0.038156624112017493 -0.021263689315462023 0 0.039067377060875243 -0.020483965490085094 0 0.038663087262758161 -0.020518339127262107 0 0.038156624112017493 -0.021263689315462023 0 0.038125956409909637 -0.020745711998606729 0 0.038156624112017493 -0.021263689315462023 0 0.038125956409909637 -0.020745711998606729 0 0.037434275887974912 -0.02152954259593368 0 0.037672469201403144 -0.021047164090844752 0 0.038125956409909637 -0.020745711998606729 0 0.037434275887974912 -0.02152954259593368 0 0.037396011718473024 -0.021029761554184775 0 0.036953654683413432 -0.021628577585921443 0 0.036101523450571403 -0.021348283083774275 0 0.036612878084722342 -0.021729759137651381 0 0.036801585248781861 -0.02163014515412693 0 0.038513513637707414 -0.020384692342570721 0 0.037672469201403144 -0.021047164090844752 0 0.036801585248781861 -0.02163014515412693 0 0.037672469201403144 -0.021047164090844752 0 0.036801585248781861 -0.02163014515412693 0 0.037434275887974912 -0.02152954259593368 0 0.036101523450571403 -0.021348283083774275 0 0.036218991944773349 -0.02120803023576592 0 0.036801585248781861 -0.02163014515412693 0 0.038513513637707414 -0.020384692342570721 0 0.037672469201403144 -0.021047164090844752 0 0.038125956409909637 -0.020745711998606729 0 0.039067377060875243 -0.020483965490085094 0 0.040535401660886525 -0.020280368294003426 0 0.040314689967361164 -0.022031750161909204 0 0.040535401660886525 -0.020280368294003426 0 0.042210050420881925 -0.020865973238848028 0 0.040314689967361164 -0.022031750161909204 0 0.038156624112017493 -0.021263689315462023 0 0.039067377060875243 -0.020483965490085094 0 0.040314689967361164 -0.022031750161909204 0 0.039067377060875243 -0.020483965490085094 0 0.040535401660886525 -0.020280368294003426 0 0.039094470456537314 -0.019971528712705775 0 0.039138959744508664 -0.020248893993490134 0 0.039067377060875243 -0.020483965490085094 0 0.039094470456537314 -0.019971528712705775 0 0.040535401660886525 -0.020280368294003426 0 0.041098157935030959 -0.018963112852193584 0 0.039094470456537314 -0.019971528712705775 0 0.036613769748840092 -0.020214338039271661 0 0.037864708201905441 -0.021131799220489571 0 0.039094470456537314 -0.019971528712705775 0 0.038836779032163295 -0.019507188008410035 0 0.039147206787823755 -0.019882292756422497 0 0.036613769748840092 -0.020214338039271661 0 0.037864708201905441 -0.021131799220489571 0 0.035917548916671906 -0.02158019895764807 0 0.039417897840780022 -0.020932635691658617 0 0.039094470456537314 -0.019971528712705775 0 0.038980498096776194 -0.021575775202952563 0 0.037864708201905441 -0.021131799220489571 0 0.039094470456537314 -0.019971528712705775 0 0.038980498096776194 -0.021575775202952563 0 0.039417897840780022 -0.020932635691658617 0 0.039138959744508664 -0.020248893993490134 0 0.039094470456537314 -0.019971528712705775 0 0.039520765718436698 -0.022851885874667917 0 0.038980498096776194 -0.021575775202952563 0 0.037474381859320179 -0.022870027314474888 0 0.037864708201905441 -0.021131799220489571 0 0.037474381859320179 -0.022870027314474888 0 0.035917548916671906 -0.02158019895764807 0 0.037864708201905441 -0.021131799220489571 0 0.038980498096776194 -0.021575775202952563 0 0.037474381859320179 -0.022870027314474888 0 0.037509254369547787 -0.022963333844087528 0 0.035868798087708022 -0.021951909302400704 0 0.037474381859320179 -0.022870027314474888 0 0.036710914274463602 -0.02464991381735385 0 0.03678605497199644 -0.023125651733317851 0 0.037474381859320179 -0.022870027314474888 0 0.038011840765664585 -0.024891774500496094 0 0.036710914274463602 -0.02464991381735385 0 0.038011840765664585 -0.024891774500496094 0 0.03781285753888592 -0.02720440506426185 0 0.036710914274463602 -0.02464991381735385 0 0.042446082749025449 -0.02946387002985296 0 0.041647876392794991 -0.027342887440452657 0 0.038011840765664585 -0.024891774500496094 0 0.039148178705640531 -0.02581244152041047 0 0.03781285753888592 -0.02720440506426185 0 0.038011840765664585 -0.024891774500496094 0 0.039148178705640531 -0.02581244152041047 0 0.039075109258837656 -0.024123000516346443 0 0.037474381859320179 -0.022870027314474888 0 0.038011840765664585 -0.024891774500496094 0 0.039075109258837656 -0.024123000516346443 0 0.039520765718436698 -0.022851885874667917 0 0.037474381859320179 -0.022870027314474888 0 0.039075109258837656 -0.024123000516346443 0 0.03927471011242932 -0.020648025852054105 0 0.040171003043119165 -0.021854335687264696 0 0.040262165761341735 -0.023639838725210673 0 0.039520765718436698 -0.022851885874667917 0 0.039075109258837656 -0.024123000516346443 0 0.041225251532435572 -0.025135081328633724 0 0.039912208978991413 -0.021459902550924004 0 0.040768977319839264 -0.024427323029322049 0 0.040605123613707175 -0.02218764639822126 0 0.039520765718436698 -0.022851885874667917 0 0.041225251532435572 -0.025135081328633724 0 0.044117782900755249 -0.023246489111837434 0 0.040171003043119165 -0.021854335687264696 0 0.04211659870511214 -0.023650116781998125 0 0.044117782900755249 -0.023246489111837434 0 0.045699695148733913 -0.021545081400520937 0 0.040171003043119165 -0.021854335687264696 0 0.039471438929619872 -0.023138514855093807 0 0.041783735918035178 -0.02139615473091332 0 0.040254183600256919 -0.021322036954208607 0 0.040015844616733298 -0.021139989690324365 0 0.040171003043119165 -0.021854335687264696 0 0.040171003043119165 -0.021854335687264696 0 0.04211659870511214 -0.023650116781998125 0 0.040262165761341735 -0.023639838725210673 0 0.043966369421533591 -0.025088688260067386 0 0.044117782900755249 -0.023246489111837434 0 0.04211659870511214 -0.023650116781998125 0 0.04211659870511214 -0.023650116781998125 0 0.042305977728295106 -0.025521257545975593 0 0.040262165761341735 -0.023639838725210673 0 0.043966369421533591 -0.025088688260067386 0 0.042305977728295106 -0.025521257545975593 0 0.0434964960372375 -0.026775776994280912 0 0.043966369421533591 -0.025088688260067386 0 0.04211659870511214 -0.023650116781998125 0 0.042305977728295106 -0.025521257545975593 0 0.039148178705640531 -0.02581244152041047 0 0.039075109258837656 -0.024123000516346443 0 0.041225251532435572 -0.025135081328633724 0 0.039148178705640531 -0.02581244152041047 0 0.041225251532435572 -0.025135081328633724 0 0.039828890349188913 -0.027481913639496449 0 0.041225251532435572 -0.025135081328633724 0 0.039828890349188913 -0.027481913639496449 0 0.04169676029279358 -0.028467567113081828 0 0.040768977319839264 -0.024427323029322049 0 0.041556737644680042 -0.028185269277131043 0 0.042305977728295106 -0.025521257545975593 0 0.040262165761341735 -0.023639838725210673 0 0.04169676029279358 -0.028467567113081828 0 0.044733190878006361 -0.028692736679837204 0 0.04169676029279358 -0.028467567113081828 0 0.0434964960372375 -0.026775776994280912 0 0.042305977728295106 -0.025521257545975593 0 0.04169676029279358 -0.028467567113081828 0 0.0434964960372375 -0.026775776994280912 0 0.041864022447625084 -0.031035639170755094 0 0.04425333599385433 -0.031740996980932551 0 0.04169676029279358 -0.028467567113081828 0 0.04425333599385433 -0.031740996980932551 0 0.044733190878006361 -0.028692736679837204 0 0.04169676029279358 -0.028467567113081828 0 0.039828890349188913 -0.027481913639496449 0 0.04169676029279358 -0.028467567113081828 0 0.039496158650743698 -0.030262682752101887 0 0.041864022447625084 -0.031035639170755094 0 0.04169676029279358 -0.028467567113081828 0 0.039496158650743698 -0.030262682752101887 0 0.043592608679128377 -0.032047541214123343 0 0.042446082749025449 -0.02946387002985296 0 0.046326005649440102 -0.033949561629314638 0 0.047729278190800653 -0.033851775629296768 0 0.047101135993261954 -0.031739788349989938 0 0.046326005649440102 -0.033949561629314638 0 0.047101135993261954 -0.031739788349989938 0 0.045937348001829421 -0.032069013858084611 0 0.047101135993261954 -0.031739788349989938 0 0.045937348001829421 -0.032069013858084611 0 0.046406888188312026 -0.029905103921608514 0 0.039828890349188913 -0.027481913639496449 0 0.039496158650743698 -0.030262682752101887 0 0.03781285753888592 -0.02720440506426185 0 0.039148178705640531 -0.02581244152041047 0 0.039828890349188913 -0.027481913639496449 0 0.03781285753888592 -0.02720440506426185 0 0.044844228358409795 -0.031308851877562771 0 0.045080912089402028 -0.032421632559810738 0 0.04559971957881967 -0.030800918197929288 0 0.045937348001829421 -0.032069013858084611 0 0.045080912089402028 -0.032421632559810738 0 0.04559971957881967 -0.030800918197929288 0 0.045112853995627082 -0.033748485337221933 0 0.046326005649440102 -0.033949561629314638 0 0.045937348001829421 -0.032069013858084611 0 0.045112853995627082 -0.033748485337221933 0 0.045937348001829421 -0.032069013858084611 0 0.045080912089402028 -0.032421632559810738 0 0.044844228358409795 -0.031308851877562771 0 0.045080912089402028 -0.032421632559810738 0 0.044170942668270277 -0.03319171993493971 0 0.045112853995627082 -0.033748485337221933 0 0.045080912089402028 -0.032421632559810738 0 0.044170942668270277 -0.03319171993493971 0 0.044170942668270277 -0.03319171993493971 0 0.042997376988324183 -0.033424597340055519 0 0.043965392851926993 -0.031909924904572687 0 0.044844228358409795 -0.031308851877562771 0 0.044170942668270277 -0.03319171993493971 0 0.043965392851926993 -0.031909924904572687 0 0.044201531444880648 -0.029991111627956119 0 0.045155032129712655 -0.032406483083109436 0 0.043040995017492145 -0.032344364780385167 0 0.042925597858742143 -0.031257270405826654 0 0.04219163380538378 -0.032767299776761502 0 0.042997376988324183 -0.033424597340055519 0 0.043040995017492145 -0.032344364780385167 0 0.04219163380538378 -0.032767299776761502 0 0.04237409590459975 -0.032829605912707172 0 0.045155032129712655 -0.032406483083109436 0 0.042997376988324183 -0.033424597340055519 0 0.043040995017492145 -0.032344364780385167 0 0.043965392851926993 -0.031909924904572687 0 0.044201531444880648 -0.029991111627956119 0 0.044510014172645045 -0.029724415514975747 0 0.042925597858742143 -0.031257270405826654 0 0.044277804701162958 -0.030683535472844262 0 0.044761585358136839 -0.029473341108332718 0 0.043040995017492145 -0.032344364780385167 0 0.042925597858742143 -0.031257270405826654 0 0.043965392851926993 -0.031909924904572687 0 0.042925597858742143 -0.031257270405826654 0 0.044277804701162958 -0.030683535472844262 0 0.043965392851926993 -0.031909924904572687 0 0.044844228358409795 -0.031308851877562771 0 0.044277804701162958 -0.030683535472844262 0 0.043965392851926993 -0.031909924904572687 0 0.044844228358409795 -0.031308851877562771 0 0.044277804701162958 -0.030683535472844262 0 0.044853405577683733 -0.030146342555467283 0 0.044853405577683733 -0.030146342555467283 0 0.044761585358136839 -0.029473341108332718 0 0.045231984383624538 -0.029295001058392275 0 0.044853405577683733 -0.030146342555467283 0 0.045231984383624538 -0.029295001058392275 0 0.045459760890556394 -0.029766260287672496 0 0.044277804701162958 -0.030683535472844262 0 0.044853405577683733 -0.030146342555467283 0 0.044761585358136839 -0.029473341108332718 0 0.045208859007830712 -0.028964345774424066 0 0.044761585358136839 -0.029473341108332718 0 0.045724696458500913 -0.029167046229947299 0 0.044761585358136839 -0.029473341108332718 0 0.045501314191427743 -0.028916104731063208 0 0.045590641840811963 -0.029090957961477103 0 0.044761585358136839 -0.029473341108332718 0 0.045501314191427743 -0.028916104731063208 0 0.045231984383624538 -0.029295001058392275 0 0.045501314191427743 -0.028916104731063208 0 0.046083352401656265 -0.028507525606344623 0 0.045590641840811963 -0.029090957961477103 0 0.045501314191427743 -0.028916104731063208 0 0.045231984383624538 -0.029295001058392275 0 0.045609182524922735 -0.028714157778874521 0 0.045231984383624538 -0.029295001058392275 0 0.045551100690969383 -0.028981731591500869 0 0.045609182524922735 -0.028714157778874521 0 0.045231984383624538 -0.029295001058392275 0 0.045551100690969383 -0.028981731591500869 0 0.045459760890556394 -0.029766260287672496 0 0.045551100690969383 -0.028981731591500869 0 0.045459760890556394 -0.029766260287672496 0 0.045871801774413953 -0.028688685218863558 0 0.044844228358409795 -0.031308851877562771 0 0.044853405577683733 -0.030146342555467283 0 0.045459760890556394 -0.029766260287672496 0 0.044844228358409795 -0.031308851877562771 0 0.045459760890556394 -0.029766260287672496 0 0.04559971957881967 -0.030800918197929288 0 0.045459760890556394 -0.029766260287672496 0 0.04559971957881967 -0.030800918197929288 0 0.046406888188312026 -0.029905103921608514 0 0.045937348001829421 -0.032069013858084611 0 0.04559971957881967 -0.030800918197929288 0 0.046406888188312026 -0.029905103921608514 0 0.036710914274463602 -0.02464991381735385 0 0.03678605497199644 -0.023125651733317851 0 0.036373481013489625 -0.023046815700044996 0 0.041647876392794991 -0.027342887440452657 0 0.040644951713960674 -0.025848724944371522 0 0.045459760890556394 -0.029766260287672496 0 0.046406888188312026 -0.029905103921608514 0 0.045871801774413953 -0.028688685218863558 0 0.036373481013489625 -0.023046815700044996 0 0.036603836407105822 -0.022815807499439917 0 0.036487142811541015 -0.022819199174858359 0 0.037474381859320179 -0.022870027314474888 0 0.03678605497199644 -0.023125651733317851 0 0.036603836407105822 -0.022815807499439917 0 0.03678605497199644 -0.023125651733317851 0 0.036373481013489625 -0.023046815700044996 0 0.036603836407105822 -0.022815807499439917 0 0.040644951713960674 -0.025848724944371522 0 0.044537077353965948 -0.025095246172799953 0 0.045871801774413953 -0.028688685218863558 0 0.045695100216472648 -0.028601612850548019 0 0.045705983128004571 -0.028439511322289324 0 0.045551100690969383 -0.028981731591500869 0 0.045871801774413953 -0.028688685218863558 0 0.045695100216472648 -0.028601612850548019 0 0.036373481013489625 -0.023046815700044996 0 0.036487142811541015 -0.022819199174858359 0 0.036493319132891264 -0.022840956553395256 0 0.04204324521613173 -0.021796530263002246 0 0.043561705939809361 -0.021669508418703777 0 0.045470328722073114 -0.024294309657350424 0 0.039214377916109336 -0.021305002518548291 0 0.044537077353965948 -0.025095246172799953 0 0.036613769748840092 -0.020214338039271661 0 0.035917548916671906 -0.02158019895764807 0 0.034465853663228484 -0.020448575368925175 0 0.038836779032163295 -0.019507188008410035 0 0.039214377916109336 -0.021305002518548291 0 0.041098157935030959 -0.018963112852193584 0 0.043130333059018387 -0.018580300214901535 0 0.042068728523997942 -0.019739081681112491 0 0.035868798087708022 -0.021951909302400704 0 0.039214377916109336 -0.021305002518548291 0 0.040535401660886525 -0.020280368294003426 0 0.041098157935030959 -0.018963112852193584 0 0.042068728523997942 -0.019739081681112491 0 0.040535401660886525 -0.020280368294003426 0 0.042068728523997942 -0.019739081681112491 0 0.042210050420881925 -0.020865973238848028 0 0.042068728523997942 -0.019739081681112491 0 0.043368520243486461 -0.019958261983783185 0 0.042210050420881925 -0.020865973238848028 0 0.043130333059018387 -0.018580300214901535 0 0.043368520243486461 -0.019958261983783185 0 0.044847708085558963 -0.019725767571990096 0 0.039214377916109336 -0.021305002518548291 0 0.04672129520818414 -0.022589023062371698 0 0.043130333059018387 -0.018580300214901535 0 0.042068728523997942 -0.019739081681112491 0 0.043368520243486461 -0.019958261983783185 0 0.043368520243486461 -0.019958261983783185 0 0.042210050420881925 -0.020865973238848028 0 0.044379468054525653 -0.021046796505004101 0 0.042210050420881925 -0.020865973238848028 0 0.044379468054525653 -0.021046796505004101 0 0.042938371445880308 -0.022388312199326372 0 0.046176924746318279 -0.020792594837031404 0 0.045610271355591564 -0.021203374486396278 0 0.046290456075597175 -0.021673081148254478 0 0.045478806477157539 -0.02053247422583843 0 0.046176924746318279 -0.020792594837031404 0 0.045008252196230329 -0.019823066477856886 0 0.045478806477157539 -0.02053247422583843 0 0.046176924746318279 -0.020792594837031404 0 0.045610271355591564 -0.021203374486396278 0 0.045478806477157539 -0.02053247422583843 0 0.044379468054525653 -0.021046796505004101 0 0.044847708085558963 -0.019725767571990096 0 0.045478806477157539 -0.02053247422583843 0 0.045610271355591564 -0.021203374486396278 0 0.044379468054525653 -0.021046796505004101 0 0.043368520243486461 -0.019958261983783185 0 0.044379468054525653 -0.021046796505004101 0 0.044847708085558963 -0.019725767571990096 0 0.044908100895759195 -0.019794658054266258 0 0.04672129520818414 -0.022589023062371698 0 0.044537077353965948 -0.025095246172799953 0 0.04672129520818414 -0.022589023062371698 0 0.048302473499251486 -0.023802903080124768 0 0.050054221170811798 -0.025295616714840929 0 0.048325594901764593 -0.025509613324678306 0 0.047342708199499407 -0.022319321013424334 0 0.04672129520818414 -0.022589023062371698 0 0.048302473499251486 -0.023802903080124768 0 0.048325594901764593 -0.025509613324678306 0 0.047372506979757374 -0.024791992800336653 0 0.050054221170811798 -0.025295616714840929 0 0.048325594901764593 -0.025509613324678306 0 0.049435906359497017 -0.027218202333419997 0 0.047052883779120432 -0.02755401310452428 0 0.046005313139538387 -0.028431192414606291 0 0.046034139381448042 -0.028323056864911496 0 0.048325594901764593 -0.025509613324678306 0 0.047052883779120432 -0.02755401310452428 0 0.049435906359497017 -0.027218202333419997 0 0.046867894527373354 -0.027681518448975061 0 0.048280914103640028 -0.027658950002323376 0 0.045705983128004571 -0.028439511322289324 0 0.046005313139538387 -0.028431192414606291 0 0.045779463334033571 -0.028461224865439439 0 0.044537077353965948 -0.025095246172799953 0 0.048280914103640028 -0.027658950002323376 0 0.051217749333531147 -0.027017203685484138 0 0.050054221170811798 -0.025295616714840929 0 0.049435906359497017 -0.027218202333419997 0 0.046005313139538387 -0.028431192414606291 0 0.045779463334033571 -0.028461224865439439 0 0.046034139381448042 -0.028323056864911496 0 0.045695100216472648 -0.028601612850548019 0 0.045705983128004571 -0.028439511322289324 0 0.045779463334033571 -0.028461224865439439 0 0.045501314191427743 -0.028916104731063208 0 0.045609182524922735 -0.028714157778874521 0 0.046034139381448042 -0.028323056864911496 0 0.045695100216472648 -0.028601612850548019 0 0.045779463334033571 -0.028461224865439439 0 0.045609182524922735 -0.028714157778874521 0 0.045779463334033571 -0.028461224865439439 0 0.045609182524922735 -0.028714157778874521 0 0.046034139381448042 -0.028323056864911496 0 0.045551100690969383 -0.028981731591500869 0 0.045695100216472648 -0.028601612850548019 0 0.045609182524922735 -0.028714157778874521 0 0.045501314191427743 -0.028916104731063208 0 0.046034139381448042 -0.028323056864911496 0 0.046083352401656265 -0.028507525606344623 0 0.047052883779120432 -0.02755401310452428 0 0.046034139381448042 -0.028323056864911496 0 0.046083352401656265 -0.028507525606344623 0 0.047052883779120432 -0.02755401310452428 0 0.046083352401656265 -0.028507525606344623 0 0.046289568367330829 -0.027776545032677468 0 0.046083352401656265 -0.028507525606344623 0 0.046289568367330829 -0.027776545032677468 0 0.045998656002595534 -0.028752714456243982 0 0.046289568367330829 -0.027776545032677468 0 0.045838554077670485 -0.028126004304314712 0 0.045998656002595534 -0.028752714456243982 0 0.046289568367330829 -0.027776545032677468 0 0.04590516376354406 -0.026612230896853883 0 0.045838554077670485 -0.028126004304314712 0 0.046553473910308271 -0.026642401505310009 0 0.04647482460354168 -0.024992816930530948 0 0.04590516376354406 -0.026612230896853883 0 0.046289568367330829 -0.027776545032677468 0 0.046553473910308271 -0.026642401505310009 0 0.04590516376354406 -0.026612230896853883 0 0.047052883779120432 -0.02755401310452428 0 0.046553473910308271 -0.026642401505310009 0 0.047062828261164397 -0.025925586313174161 0 0.047052883779120432 -0.02755401310452428 0 0.046289568367330829 -0.027776545032677468 0 0.046553473910308271 -0.026642401505310009 0 0.048325594901764593 -0.025509613324678306 0 0.047052883779120432 -0.02755401310452428 0 0.047062828261164397 -0.025925586313174161 0 0.048325594901764593 -0.025509613324678306 0 0.047372506979757374 -0.024791992800336653 0 0.047062828261164397 -0.025925586313174161 0 0.047372506979757374 -0.024791992800336653 0 0.047062828261164397 -0.025925586313174161 0 0.04647482460354168 -0.024992816930530948 0 0.046553473910308271 -0.026642401505310009 0 0.047062828261164397 -0.025925586313174161 0 0.04647482460354168 -0.024992816930530948 0 0.04647482460354168 -0.024992816930530948 0 0.046086406680866734 -0.022773613782867928 0 0.046949381821434662 -0.022046225522622181 0 0.048302473499251486 -0.023802903080124768 0 0.047372506979757374 -0.024791992800336653 0 0.046949381821434662 -0.022046225522622181 0 0.047372506979757374 -0.024791992800336653 0 0.04647482460354168 -0.024992816930530948 0 0.046949381821434662 -0.022046225522622181 0 0.047342708199499407 -0.022319321013424334 0 0.046861102677349276 -0.021997613320716942 0 0.044999430926539206 -0.022986192841299161 0 0.046086406680866734 -0.022773613782867928 0 0.045688151701700597 -0.024592449049135462 0 0.04647482460354168 -0.024992816930530948 0 0.046086406680866734 -0.022773613782867928 0 0.045688151701700597 -0.024592449049135462 0 0.04647482460354168 -0.024992816930530948 0 0.045688151701700597 -0.024592449049135462 0 0.04590516376354406 -0.026612230896853883 0 0.044999430926539206 -0.022986192841299161 0 0.045688151701700597 -0.024592449049135462 0 0.044999169792817567 -0.025498156209486197 0 0.044999169792817567 -0.025498156209486197 0 0.04590516376354406 -0.026612230896853883 0 0.044999358441525993 -0.028010540389935001 0 0.045688151701700597 -0.024592449049135462 0 0.044999169792817567 -0.025498156209486197 0 0.04590516376354406 -0.026612230896853883 0 0.04590516376354406 -0.026612230896853883 0 0.045838554077670485 -0.028126004304314712 0 0.044999358441525993 -0.028010540389935001 0 0.045838554077670485 -0.028126004304314712 0 0.044999358441525993 -0.028010540389935001 0 0.04572810950259338 -0.029078456879988897 0 0.044999358441525993 -0.028010540389935001 0 0.044999875915394935 -0.03051850293376597 0 0.04572810950259338 -0.029078456879988897 0 0.044999875915394935 -0.03051850293376597 0 0.04572810950259338 -0.029078456879988897 0 0.045741368985298056 -0.029643244979780662 0 0.04572810950259338 -0.029078456879988897 0 0.045860449792252608 -0.029246047594218484 0 0.045741368985298056 -0.029643244979780662 0 0.045838554077670485 -0.028126004304314712 0 0.04572810950259338 -0.029078456879988897 0 0.045998656002595534 -0.028752714456243982 0 0.046083352401656265 -0.028507525606344623 0 0.045998656002595534 -0.028752714456243982 0 0.045590641840811963 -0.029090957961477103 0 0.044761585358136839 -0.029473341108332718 0 0.045590641840811963 -0.029090957961477103 0 0.045724696458500913 -0.029167046229947299 0 0.045998656002595534 -0.028752714456243982 0 0.045590641840811963 -0.029090957961477103 0 0.045724696458500913 -0.029167046229947299 0 0.04572810950259338 -0.029078456879988897 0 0.045998656002595534 -0.028752714456243982 0 0.045860449792252608 -0.029246047594218484 0 0.045998656002595534 -0.028752714456243982 0 0.045724696458500913 -0.029167046229947299 0 0.045860449792252608 -0.029246047594218484 0 0.045724696458500913 -0.029167046229947299 0 0.045860449792252608 -0.029246047594218484 0 0.045815810055364656 -0.029063838582949527 0 0.045860449792252608 -0.029246047594218484 0 0.045815810055364656 -0.029063838582949527 0 0.045741368985298056 -0.029643244979780662 0 0.045208859007830712 -0.028964345774424066 0 0.045724696458500913 -0.029167046229947299 0 0.045815810055364656 -0.029063838582949527 0 0.045208859007830712 -0.028964345774424066 0 0.045815810055364656 -0.029063838582949527 0 0.045325909338131166 -0.028729533344781101 0 0.048516683107677726 -0.033817839472247681 0 0.048376768001587682 -0.032354135181764561 0 0.050010996998220827 -0.033155856087596573 0 0.04746531731302308 -0.030683212500648805 0 0.045155032129712655 -0.032406483083109436 0 0.048516683107677726 -0.033817839472247681 0 0.048376768001587682 -0.032354135181764561 0 0.046991943255303426 -0.033217388807446541 0 0.046991943255303426 -0.033217388807446541 0 0.04499992032117793 -0.032978812589976592 0 0.046731823982610617 -0.031472984800052908 0 0.0461134568315959 -0.034301866375950923 0 0.046991943255303426 -0.033217388807446541 0 0.04499992032117793 -0.032978812589976592 0 0.044999949483665896 -0.030521948118600983 0 0.04499992032117793 -0.032978812589976592 0 0.046731823982610617 -0.031472984800052908 0 0.045000210552496971 -0.030521638299782813 0 0.046083642229022545 -0.030535771372282892 0 0.04746531731302308 -0.030683212500648805 0 0.046083642229022545 -0.030535771372282892 0 0.048376768001587682 -0.032354135181764561 0 0.046991943255303426 -0.033217388807446541 0 0.046731823982610617 -0.031472984800052908 0 0.047521482656330126 -0.01308472809113469 0 0.048574837671119399 -0.014639753445757056 0 0.046177413673902663 -0.014257478350351507 0 0.047521482656330126 -0.01308472809113469 0 0.046471650786839992 -0.012110560419526469 0 0.046177413673902663 -0.014257478350351507 0 0.044999857932778498 -0.012938015073301303 0 0.046471650786839992 -0.012110560419526469 0 0.046177413673902663 -0.014257478350351507 0 0.044999857932778498 -0.012938015073301303 0 0.046471650786839992 -0.012110560419526469 0 0.04499992289974504 -0.010425892402705484 0 0.046471650786839992 -0.012110560419526469 0 0.047966948769004716 -0.011765371085051071 0 0.047527790129911603 -0.010385635805240691 0 0.047521482656330126 -0.01308472809113469 0 0.046471650786839992 -0.012110560419526469 0 0.047966948769004716 -0.011765371085051071 0 0.047966948769004716 -0.011765371085051071 0 0.049133245209272647 -0.012691186267232592 0 0.049290187875800535 -0.010658873432986085 0 0.047521482656330126 -0.01308472809113469 0 0.047966948769004716 -0.011765371085051071 0 0.049133245209272647 -0.012691186267232592 0 0.049769187730397506 -0.010904706670433025 0 0.050174792640929194 -0.010480493941796688 0 0.049290187875800535 -0.010658873432986085 0 0.049133245209272647 -0.012691186267232592 0 0.050830583115061084 -0.012244488415098616 0 0.049290187875800535 -0.010658873432986085 0 0.050838830526213387 -0.01209161588350767 0 0.049206120324545952 -0.010512801054257502 0 0.049133245209272647 -0.012691186267232592 0 0.050464118036799663 -0.013983926874881855 0 0.050830583115061084 -0.012244488415098616 0 0.049133245209272647 -0.012691186267232592 0 0.050464118036799663 -0.013983926874881855 0 0.048574837671119399 -0.014639753445757056 0 0.047521482656330126 -0.01308472809113469 0 0.049133245209272647 -0.012691186267232592 0 0.048574837671119399 -0.014639753445757056 0 0.048574837671119399 -0.014639753445757056 0 0.050126768271339085 -0.01685265261237524 0 0.047037718126792985 -0.016079260681628661 0 0.050464118036799663 -0.013983926874881855 0 0.048574837671119399 -0.014639753445757056 0 0.050126768271339085 -0.01685265261237524 0 0.046732800878678295 -0.02316640880616545 0 0.046490905098835841 -0.02154046917897803 0 0.045415514521553048 -0.023460032807244308 0 0.050126768271339085 -0.01685265261237524 0 0.047037718126792985 -0.016079260681628661 0 0.047549303718927176 -0.020036697675361356 0 0.047037718126792985 -0.016079260681628661 0 0.04499936301937775 -0.015450485266747853 0 0.046216389126313213 -0.018159157644259467 0 0.047037718126792985 -0.016079260681628661 0 0.046216389126313213 -0.018159157644259467 0 0.047549303718927176 -0.020036697675361356 0 0.048574837671119399 -0.014639753445757056 0 0.047037718126792985 -0.016079260681628661 0 0.046177413673902663 -0.014257478350351507 0 0.047037718126792985 -0.016079260681628661 0 0.046177413673902663 -0.014257478350351507 0 0.04499936301937775 -0.015450485266747853 0 0.044999857932778498 -0.012938015073301303 0 0.046177413673902663 -0.014257478350351507 0 0.04499936301937775 -0.015450485266747853 0 0.044999892146406199 -0.017963465536394732 0 0.046216389126313213 -0.018159157644259467 0 0.046626162778383766 -0.020909266472006003 0 0.04499936301937775 -0.015450485266747853 0 0.044999892146406199 -0.017963465536394732 0 0.046216389126313213 -0.018159157644259467 0 0.046216389126313213 -0.018159157644259467 0 0.046626162778383766 -0.020909266472006003 0 0.047549303718927176 -0.020036697675361356 0 0.044999892146406199 -0.017963465536394732 0 0.044999499766903844 -0.020474400441147594 0 0.046626162778383766 -0.020909266472006003 0 0.044999499766903844 -0.020474400441147594 0 0.046626162778383766 -0.020909266472006003 0 0.045713120693147535 -0.021790866405928561 0 0.046086406680866734 -0.022773613782867928 0 0.046626162778383766 -0.020909266472006003 0 0.045713120693147535 -0.021790866405928561 0 0.044999430926539206 -0.022986192841299161 0 0.046086406680866734 -0.022773613782867928 0 0.045713120693147535 -0.021790866405928561 0 0.044999430926539206 -0.022986192841299161 0 0.044999499766903844 -0.020474400441147594 0 0.045713120693147535 -0.021790866405928561 0 0.046949381821434662 -0.022046225522622181 0 0.046751672129343287 -0.021350222412223483 0 0.046290456075597175 -0.021673081148254478 0 0.046176924746318279 -0.020792594837031404 0 0.046949381821434662 -0.022046225522622181 0 0.046290456075597175 -0.021673081148254478 0 0.046086406680866734 -0.022773613782867928 0 0.046626162778383766 -0.020909266472006003 0 0.046949381821434662 -0.022046225522622181 0 0.046626162778383766 -0.020909266472006003 0 0.046949381821434662 -0.022046225522622181 0 0.046751672129343287 -0.021350222412223483 0 0.046751672129343287 -0.021350222412223483 0 0.047549303718927176 -0.020036697675361356 0 0.046490905098835841 -0.02154046917897803 0 0.046626162778383766 -0.020909266472006003 0 0.046751672129343287 -0.021350222412223483 0 0.047549303718927176 -0.020036697675361356 0 0.046732800878678295 -0.02316640880616545 0 0.047549303718927176 -0.020036697675361356 0 0.046490905098835841 -0.02154046917897803 0 0.048321336174325109 -0.020520613941336203 0 0.047686482699295242 -0.019966196390663944 0 0.045414200730930103 -0.022155294657829699 0 0.045456475090993299 -0.021962800376813474 0 0.044403549423840186 -0.023037171295975576 0 0.046751672129343287 -0.021350222412223483 0 0.045414200730930103 -0.022155294657829699 0 0.045456475090993299 -0.021962800376813474 0 0.046490905098835841 -0.02154046917897803 0 0.045414200730930103 -0.022155294657829699 0 0.045415514521553048 -0.023460032807244308 0 0.045414200730930103 -0.022155294657829699 0 0.0438247197833622 -0.023035788887028744 0 0.04448618897344607 -0.02380787236848337 0 0.045414200730930103 -0.022155294657829699 0 0.043098068091897493 -0.022513118426842851 0 0.0438247197833622 -0.023035788887028744 0 0.045267551066837629 -0.022284782847147303 0 0.04381513335407268 -0.022815433453211322 0 0.046751672129343287 -0.021350222412223483 0 0.046490905098835841 -0.02154046917897803 0 0.045414200730930103 -0.022155294657829699 0 0.046751672129343287 -0.021350222412223483 0 0.045456475090993299 -0.021962800376813474 0 0.046290456075597175 -0.021673081148254478 0 0.045610271355591564 -0.021203374486396278 0 0.044379468054525653 -0.021046796505004101 0 0.045456475090993299 -0.021962800376813474 0 0.044379468054525653 -0.021046796505004101 0 0.045456475090993299 -0.021962800376813474 0 0.042938371445880308 -0.022388312199326372 0 0.045610271355591564 -0.021203374486396278 0 0.045456475090993299 -0.021962800376813474 0 0.046290456075597175 -0.021673081148254478 0 0.043968871404347167 -0.021812592744288858 0 0.043114940895808508 -0.02262261252127222 0 0.041309952166606198 -0.021433215612804587 0 0.042210050420881925 -0.020865973238848028 0 0.042938371445880308 -0.022388312199326372 0 0.040314689967361164 -0.022031750161909204 0 0.043452131662137287 -0.022057921530741501 0 0.040801010698461489 -0.021731111014104187 0 0.045305141350658926 -0.022034224489926944 0 0.043452131662137287 -0.022057921530741501 0 0.045456475090993299 -0.021962800376813474 0 0.043968871404347167 -0.021812592744288858 0 0.044403549423840186 -0.023037171295975576 0 0.043114940895808508 -0.02262261252127222 0 0.044403549423840186 -0.023037171295975576 0 0.042067509281089398 -0.023599764188690794 0 0.043968871404347167 -0.021812592744288858 0 0.043114940895808508 -0.02262261252127222 0 0.044403549423840186 -0.023037171295975576 0 0.043098068091897493 -0.022513118426842851 0 0.042815547630003982 -0.02409884490523332 0 0.042690381627536945 -0.024436645088767129 0 0.042767937677378076 -0.023141848295103146 0 0.043098068091897493 -0.022513118426842851 0 0.042815547630003982 -0.02409884490523332 0 0.04381513335407268 -0.022815433453211322 0 0.04227313086021546 -0.023963874084008806 0 0.043098068091897493 -0.022513118426842851 0 0.0438247197833622 -0.023035788887028744 0 0.042696946410026242 -0.023102814944094864 0 0.042767937677378076 -0.023141848295103146 0 0.043098068091897493 -0.022513118426842851 0 0.042696946410026242 -0.023102814944094864 0 0.042767937677378076 -0.023141848295103146 0 0.042696946410026242 -0.023102814944094864 0 0.042774932075234064 -0.023157628953978555 0 0.039534033613060508 -0.013717787383907791 0 0.039774187855611119 -0.014550349889523554 0 0.042696946410026242 -0.023102814944094864 0 0.042399996634680415 -0.022539057935711499 0 0.042686210349095338 -0.022876860277096317 0 0.037466472834662867 -0.0056137255217057662 0 0.037271321669897071 -0.0064858107211855183 0 0.036742322555989318 -0.0058640854408830443 0 0.039534033613060508 -0.013717787383907791 0 0.041976240340350655 -0.016627591138180266 0 0.042399996634680415 -0.022539057935711499 0 0.042087147014054201 -0.022716252909548984 0 0.041675621290938519 -0.022159527578831186 0 0.037466472834662867 -0.0056137255217057662 0 0.038937179609492015 -0.0059643097557008683 0 0.037979467728943839 -0.0065070053985860051 0 0.0438247197833622 -0.023035788887028744 0 0.043688100217918961 -0.023748191599270427 0 0.04448618897344607 -0.02380787236848337 0 0.0438247197833622 -0.023035788887028744 0 0.042696946410026242 -0.023102814944094864 0 0.043688100217918961 -0.023748191599270427 0 0.042696946410026242 -0.023102814944094864 0 0.042399996634680415 -0.022539057935711499 0 0.042087147014054201 -0.022716252909548984 0 0.042415962128087376 -0.022734807986844432 0 0.043513194606771978 -0.024222842673564168 0 0.045414200730930103 -0.022155294657829699 0 0.04448618897344607 -0.02380787236848337 0 0.045415514521553048 -0.023460032807244308 0 0.04448618897344607 -0.02380787236848337 0 0.045415514521553048 -0.023460032807244308 0 0.044969073650827564 -0.024146371690558843 0 0.048321336174325109 -0.020520613941336203 0 0.047810288635147108 -0.016603148342190125 0 0.050464118036799663 -0.013983926874881855 0 0.050126768271339085 -0.01685265261237524 0 0.051894025919673854 -0.014438264393392524 0 0.045415514521553048 -0.023460032807244308 0 0.045487384234594509 -0.024823231201336941 0 0.044969073650827564 -0.024146371690558843 0 0.046732800878678295 -0.02316640880616545 0 0.045415514521553048 -0.023460032807244308 0 0.045487384234594509 -0.024823231201336941 0 0.043688100217918961 -0.023748191599270427 0 0.04448618897344607 -0.02380787236848337 0 0.044566641482073711 -0.024520984352167138 0 0.043513194606771978 -0.024222842673564168 0 0.041976240340350655 -0.016627591138180266 0 0.04448618897344607 -0.02380787236848337 0 0.044969073650827564 -0.024146371690558843 0 0.044566641482073711 -0.024520984352167138 0 0.045487384234594509 -0.024823231201336941 0 0.044969073650827564 -0.024146371690558843 0 0.044566641482073711 -0.024520984352167138 0 0.047810288635147108 -0.016603148342190125 0 0.041976240340350655 -0.016627591138180266 0 0.046083805061152575 -0.014784473765520518 0 0.04356711566522356 -0.014039716144852029 0 0.045219332072160251 -0.01585547441868072 0 0.038702319668499921 -0.0065629613573080789 0 0.03939541471278217 -0.0064501168733803295 0 0.038462866091855341 -0.007483973744856905 0 0.038937179609492015 -0.0059643097557008683 0 0.038702319668499921 -0.0065629613573080789 0 0.037979467728943839 -0.0065070053985860051 0 0.041976240340350655 -0.016627591138180266 0 0.046717984676007664 -0.011146386943591295 0 0.038937179609492015 -0.0059643097557008683 0 0.038702319668499921 -0.0065629613573080789 0 0.03939541471278217 -0.0064501168733803295 0 0.050464118036799663 -0.013983926874881855 0 0.052137276484306716 -0.013763738241214251 0 0.050830583115061084 -0.012244488415098616 0 0.049864859338546112 -0.011323250752368579 0 0.049769187730397506 -0.010904706670433025 0 0.050048226019558328 -0.01086550934985798 0 0.050464118036799663 -0.013983926874881855 0 0.051685568679246098 -0.014336461657038124 0 0.052137276484306716 -0.013763738241214251 0 0.051215995055780367 -0.014886207587574706 0 0.047810288635147108 -0.016603148342190125 0 0.047810288635147108 -0.016603148342190125 0 0.046717984676007664 -0.011146386943591295 0 0.046717984676007664 -0.011146386943591295 0 0.050838830526213387 -0.01209161588350767 0 0.05001403556262507 -0.010806700324939167 0 0.049651234039542677 -0.010004888598270621 0 0.049769187730397506 -0.010904706670433025 0 0.050048226019558328 -0.01086550934985798 0 0.050174792640929194 -0.010480493941796688 0 0.050048226019558328 -0.01086550934985798 0 0.050482330226450718 -0.010257530821062063 0 0.049984443481009597 -0.0096201774589787306 0 0.049864859338546112 -0.011323250752368579 0 0.050048226019558328 -0.01086550934985798 0 0.050482330226450718 -0.010257530821062063 0 0.046717984676007664 -0.011146386943591295 0 0.044501109245071106 -0.0089103056085432907 0 0.050048226019558328 -0.01086550934985798 0 0.049984443481009597 -0.0096201774589787306 0 0.049164046433271831 -0.0097075616394574297 0 0.038462866091855341 -0.007483973744856905 0 0.037412293691278325 -0.0073000491239814972 0 0.037979467728943839 -0.0065070053985860051 0 0.037412293691278325 -0.0073000491239814972 0 0.037271321669897071 -0.0064858107211855183 0 0.036625492101602992 -0.0069011663797842841 0 0.037466472834662867 -0.0056137255217057662 0 0.037271321669897071 -0.0064858107211855183 0 0.037979467728943839 -0.0065070053985860051 0 0.037271321669897071 -0.0064858107211855183 0 0.036625492101602992 -0.0069011663797842841 0 0.036742322555989318 -0.0058640854408830443 0 0.037412293691278325 -0.0073000491239814972 0 0.037271321669897071 -0.0064858107211855183 0 0.037979467728943839 -0.0065070053985860051 0 0.038702319668499921 -0.0065629613573080789 0 0.038462866091855341 -0.007483973744856905 0 0.037979467728943839 -0.0065070053985860051 0 0.036644776966853629 -0.0050785881625967835 0 0.036501186959114612 -0.004316376794389544 0 0.037092163171092617 -0.0051718519979635155 0 0.037092163171092617 -0.0051718519979635155 0 0.037435165367694846 -0.0056299168839260214 0 0.036957021221475761 -0.0056745995709461001 0 0.036644776966853629 -0.0050785881625967835 0 0.037092163171092617 -0.0051718519979635155 0 0.036957021221475761 -0.0056745995709461001 0 0.036644776966853629 -0.0050785881625967835 0 0.036308444988990357 -0.0048234120427998748 0 0.036742322555989318 -0.0058640854408830443 0 0.036644776966853629 -0.0050785881625967835 0 0.036957021221475761 -0.0056745995709461001 0 0.036742322555989318 -0.0058640854408830443 0 0.036464064668976157 -0.0061139135109613682 0 0.03668485921304919 -0.0057054032827951297 0 0.036452374271511719 -0.0046065477457450602 0 0.036308444988990357 -0.0048234120427998748 0 0.036399275980758213 -0.0044783117081473225 0 0.037412293691278325 -0.0073000491239814972 0 0.036625492101602992 -0.0069011663797842841 0 0.036502241935301688 -0.007797428705134178 0 0.036464064668976157 -0.0061139135109613682 0 0.037028228488302437 -0.0048196186631649209 0 0.036644776966853629 -0.0050785881625967835 0 0.036452374271511719 -0.0046065477457450602 0 0.036308444988990357 -0.0048234120427998748 0 0.036501186959114612 -0.004316376794389544 0 0.036180060005095216 -0.0036051774376642245 0 0.035465317312209046 -0.0035344020830284819 0 0.036452374271511719 -0.0046065477457450602 0 0.036501186959114612 -0.004316376794389544 0 0.036399275980758213 -0.0044783117081473225 0 0.036039748156749915 -0.0040045868816246119 0 0.037028228488302437 -0.0048196186631649209 0 0.036644776966853629 -0.0050785881625967835 0 0.036452374271511719 -0.0046065477457450602 0 0.036501186959114612 -0.004316376794389544 0 0.036501186959114612 -0.004316376794389544 0 0.036516502250117336 -0.0038194313704519051 0 0.036180060005095216 -0.0036051774376642245 0 0.036501186959114612 -0.004316376794389544 0 0.036516502250117336 -0.0038194313704519051 0 0.037703509710253165 -0.0049209368768406737 0 0.036350370770362593 -0.0037509736086706966 0 0.036189142472475837 -0.0033238415825064603 0 0.036149147638471955 -0.0036268033378524223 0 0.036516502250117336 -0.0038194313704519051 0 0.036350370770362593 -0.0037509736086706966 0 0.036149147638471955 -0.0036268033378524223 0 0.036578844356743717 -0.003899684635477687 0 0.036882604248398412 -0.0041918882897176574 0 0.036189142472475837 -0.0033238415825064603 0 0.036535474356283286 -0.0036032084602287667 0 0.036570664552242213 -0.0028410640469285001 0 0.036189142472475837 -0.0033238415825064603 0 0.036535474356283286 -0.0036032084602287667 0 0.036149147638471955 -0.0036268033378524223 0 0.036535474356283286 -0.0036032084602287667 0 0.036511587058195009 -0.0041391057018840818 0 0.036149147638471955 -0.0036268033378524223 0 0.036535474356283286 -0.0036032084602287667 0 0.036511587058195009 -0.0041391057018840818 0 0.037030626715073622 -0.0039917896940475052 0 0.038263834129985491 -0.0056208242002404873 0 0.037696174716437617 -0.0054256341048331191 0 0.037906107119333399 -0.0057630688159685901 0 0.038263834129985491 -0.0056208242002404873 0 0.037703509710253165 -0.0049209368768406737 0 0.037696174716437617 -0.0054256341048331191 0 0.03691878554284507 -0.0060314043164165316 0 0.036882604248398412 -0.0041918882897176574 0 0.036501186959114612 -0.004316376794389544 0 0.037092163171092617 -0.0051718519979635155 0 0.037703509710253165 -0.0049209368768406737 0 0.037092163171092617 -0.0051718519979635155 0 0.037703509710253165 -0.0049209368768406737 0 0.037696174716437617 -0.0054256341048331191 0 0.037696174716437617 -0.0054256341048331191 0 0.037435165367694846 -0.0056299168839260214 0 0.037906107119333399 -0.0057630688159685901 0 0.037092163171092617 -0.0051718519979635155 0 0.037696174716437617 -0.0054256341048331191 0 0.037435165367694846 -0.0056299168839260214 0 0.037435165367694846 -0.0056299168839260214 0 0.037424007399131855 -0.00605242144303683 0 0.036957021221475761 -0.0056745995709461001 0 0.037435165367694846 -0.0056299168839260214 0 0.037424007399131855 -0.00605242144303683 0 0.037906107119333399 -0.0057630688159685901 0 0.038153049980423834 -0.0056818960218963759 0 0.038126200690927439 -0.0063214746852630422 0 0.03865933687071664 -0.0063026114882613771 0 0.037424007399131855 -0.00605242144303683 0 0.037906107119333399 -0.0057630688159685901 0 0.038126200690927439 -0.0063214746852630422 0 0.038153049980423834 -0.0056818960218963759 0 0.037906107119333399 -0.0057630688159685901 0 0.038126200690927439 -0.0063214746852630422 0 0.03691878554284507 -0.0060314043164165316 0 0.037930703309126818 -0.0056786256061049298 0 0.038126200690927439 -0.0063214746852630422 0 0.037560549128367364 -0.0066727306418193017 0 0.038392527617334811 -0.0071466306814272186 0 0.037424007399131855 -0.00605242144303683 0 0.038126200690927439 -0.0063214746852630422 0 0.037560549128367364 -0.0066727306418193017 0 0.040770725822283062 -0.014579336597995178 0 0.039774187855611119 -0.014550349889523554 0 0.037424007399131855 -0.00605242144303683 0 0.037560549128367364 -0.0066727306418193017 0 0.036878404372401259 -0.0060691957000225975 0 0.042649341219831736 -0.023081686545164029 0 0.042686210349095338 -0.022876860277096317 0 0.042776909480562293 -0.023072048256998965 0 0.037424007399131855 -0.00605242144303683 0 0.036957021221475761 -0.0056745995709461001 0 0.036878404372401259 -0.0060691957000225975 0 0.036957021221475761 -0.0056745995709461001 0 0.036742322555989318 -0.0058640854408830443 0 0.036878404372401259 -0.0060691957000225975 0 0.037466472834662867 -0.0056137255217057662 0 0.036742322555989318 -0.0058640854408830443 0 0.036878404372401259 -0.0060691957000225975 0 0.042696946410026242 -0.023102814944094864 0 0.042686210349095338 -0.022876860277096317 0 0.042774932075234064 -0.023157628953978555 0 0.042686210349095338 -0.022876860277096317 0 0.042774932075234064 -0.023157628953978555 0 0.042776909480562293 -0.023072048256998965 0 0.042767937677378076 -0.023141848295103146 0 0.042774932075234064 -0.023157628953978555 0 0.042829686972109419 -0.023395110460795808 0 0.042774932075234064 -0.023157628953978555 0 0.042776909480562293 -0.023072048256998965 0 0.042904022953118681 -0.023180666063804495 0 0.042776909480562293 -0.023072048256998965 0 0.042904022953118681 -0.023180666063804495 0 0.042604535327124798 -0.022992543275852834 0 0.04028798968410479 -0.027772065137030694 0 0.042690381627536945 -0.024436645088767129 0 0.039703022079284653 -0.025573838425538578 0 0.04028798968410479 -0.027772065137030694 0 0.039703022079284653 -0.025573838425538578 0 0.036885479270995572 -0.026486019098035087 0 0.042904022953118681 -0.023180666063804495 0 0.042829686972109419 -0.023395110460795808 0 0.042815547630003982 -0.02409884490523332 0 0.041586964177577096 -0.025362627783646289 0 0.04253594898056879 -0.024432141999758558 0 0.04028798968410479 -0.027772065137030694 0 0.042815547630003982 -0.02409884490523332 0 0.042690381627536945 -0.024436645088767129 0 0.042774932075234064 -0.023157628953978555 0 0.042904022953118681 -0.023180666063804495 0 0.042829686972109419 -0.023395110460795808 0 0.042767937677378076 -0.023141848295103146 0 0.042829686972109419 -0.023395110460795808 0 0.042815547630003982 -0.02409884490523332 0 0.043114940895808508 -0.02262261252127222 0 0.042067509281089398 -0.023599764188690794 0 0.041778404471936162 -0.022604950238730812 0 0.042067509281089398 -0.023599764188690794 0 0.041778404471936162 -0.022604950238730812 0 0.04054648533220423 -0.022717419611144006 0 0.042067509281089398 -0.023599764188690794 0 0.04054648533220423 -0.022717419611144006 0 0.03838748905530992 -0.023797986699621423 0 0.04227313086021546 -0.023963874084008806 0 0.038617118715190149 -0.02369658243613993 0 0.042690381627536945 -0.024436645088767129 0 0.039703022079284653 -0.025573838425538578 0 0.03838748905530992 -0.023797986699621423 0 0.038156624112017493 -0.021263689315462023 0 0.039079636983896195 -0.022235190535778559 0 0.041309952166606198 -0.021433215612804587 0 0.04054648533220423 -0.022717419611144006 0 0.039079636983896195 -0.022235190535778559 0 0.041309952166606198 -0.021433215612804587 0 0.03833355811534913 -0.021280070830986215 0 0.040801010698461489 -0.021731111014104187 0 0.04054648533220423 -0.022717419611144006 0 0.039079636983896195 -0.022235190535778559 0 0.03838748905530992 -0.023797986699621423 0 0.043114940895808508 -0.02262261252127222 0 0.041778404471936162 -0.022604950238730812 0 0.041309952166606198 -0.021433215612804587 0 0.041778404471936162 -0.022604950238730812 0 0.04054648533220423 -0.022717419611144006 0 0.041309952166606198 -0.021433215612804587 0 0.03387723930268121 -0.022033388378348569 0 0.035930114178172178 -0.024186907298530905 0 0.036612878084722342 -0.021729759137651381 0 0.037079972498438897 -0.022298095795961457 0 0.035941617580364849 -0.024166192208057331 0 0.030712728044875987 -0.023540843861396248 0 0.030889409180756541 -0.021857763795081298 0 0.035941617580364849 -0.024166192208057331 0 0.030712728044875987 -0.023540843861396248 0 0.030889409180756541 -0.021857763795081298 0 0.029458976544803724 -0.022588072279449516 0 0.036801585248781861 -0.02163014515412693 0 0.037434275887974912 -0.02152954259593368 0 0.037079972498438897 -0.022298095795961457 0 0.036612878084722342 -0.021729759137651381 0 0.036801585248781861 -0.02163014515412693 0 0.037079972498438897 -0.022298095795961457 0 0.038156624112017493 -0.021263689315462023 0 0.037434275887974912 -0.02152954259593368 0 0.037079972498438897 -0.022298095795961457 0 0.038156624112017493 -0.021263689315462023 0 0.039079636983896195 -0.022235190535778559 0 0.037079972498438897 -0.022298095795961457 0 0.039079636983896195 -0.022235190535778559 0 0.037079972498438897 -0.022298095795961457 0 0.03838748905530992 -0.023797986699621423 0 0.037079972498438897 -0.022298095795961457 0 0.035941617580364849 -0.024166192208057331 0 0.03838748905530992 -0.023797986699621423 0 0.035941617580364849 -0.024166192208057331 0 0.03838748905530992 -0.023797986699621423 0 0.036885479270995572 -0.026486019098035087 0 0.039703022079284653 -0.025573838425538578 0 0.03838748905530992 -0.023797986699621423 0 0.036885479270995572 -0.026486019098035087 0 0.035941617580364849 -0.024166192208057331 0 0.033476408803642076 -0.026357979997942815 0 0.036885479270995572 -0.026486019098035087 0 0.035941617580364849 -0.024166192208057331 0 0.033476408803642076 -0.026357979997942815 0 0.031268965556579383 -0.025171254030508416 0 0.030712728044875987 -0.023540843861396248 0 0.035941617580364849 -0.024166192208057331 0 0.031268965556579383 -0.025171254030508416 0 0.030712728044875987 -0.023540843861396248 0 0.031268965556579383 -0.025171254030508416 0 0.029612872889808531 -0.024491123623975892 0 0.033476408803642076 -0.026357979997942815 0 0.031268965556579383 -0.025171254030508416 0 0.030635095044107257 -0.027426927729049342 0 0.030635095044107257 -0.027426927729049342 0 0.032468114029428861 -0.028779197306081389 0 0.030561763433495613 -0.030343740958226215 0 0.032468114029428861 -0.028779197306081389 0 0.030561763433495613 -0.030343740958226215 0 0.035335829365232961 -0.031105369937397286 0 0.033476408803642076 -0.026357979997942815 0 0.030635095044107257 -0.027426927729049342 0 0.032468114029428861 -0.028779197306081389 0 0.033476408803642076 -0.026357979997942815 0 0.034488809674701401 -0.027894147103095315 0 0.032468114029428861 -0.028779197306081389 0 0.034488809674701401 -0.027894147103095315 0 0.032468114029428861 -0.028779197306081389 0 0.035335829365232961 -0.031105369937397286 0 0.041586964177577096 -0.025362627783646289 0 0.038315480732728009 -0.028050127989865729 0 0.034488809674701401 -0.027894147103095315 0 0.036885479270995572 -0.026486019098035087 0 0.035335829365232961 -0.031105369937397286 0 0.04028798968410479 -0.027772065137030694 0 0.036885479270995572 -0.026486019098035087 0 0.035335829365232961 -0.031105369937397286 0 0.033476408803642076 -0.026357979997942815 0 0.034488809674701401 -0.027894147103095315 0 0.036885479270995572 -0.026486019098035087 0 0.042649341219831736 -0.023081686545164029 0 0.042776909480562293 -0.023072048256998965 0 0.042604535327124798 -0.022992543275852834 0 0.040770725822283062 -0.014579336597995178 0 0.036823848607014084 -0.017848534237608099 0 0.030561763433495613 -0.030343740958226215 0 0.035335829365232961 -0.031105369937397286 0 0.029851790123667343 -0.033406903395123068 0 0.042649341219831736 -0.023081686545164029 0 0.042604535327124798 -0.022992543275852834 0 0.04226515400523926 -0.023004496368983274 0 0.038315480732728009 -0.028050127989865729 0 0.036823848607014084 -0.017848534237608099 0 0.036823848607014084 -0.017848534237608099 0 0.029777778852858941 -0.023715838950604556 0 0.029851790123667343 -0.033406903395123068 0 0.027539408750987118 -0.031244946638127328 0 0.025714935996120881 -0.032089623772223561 0 0.037788455627989173 -0.0075970766164560714 0 0.039031464608981728 -0.0078759061147552715 0 0.038835628080570686 -0.0070959612605224513 0 0.036823848607014084 -0.017848534237608099 0 0.040455498299543306 -0.0078899956129580891 0 0.025755933703632373 -0.028743310076624767 0 0.029777778852858941 -0.023715838950604556 0 0.030561763433495613 -0.030343740958226215 0 0.029851790123667343 -0.033406903395123068 0 0.027539408750987118 -0.031244946638127328 0 0.0253390064812796 -0.021756813681386895 0 0.025416437300237536 -0.021409017195194061 0 0.023243827851140413 -0.02104349286150211 0 0.028915839186777714 -0.015108835780877286 0 0.031066354810234915 -0.014049397966442091 0 0.029186818805630527 -0.013867418713722766 0 0.030251375898408737 -0.018151151017485278 0 0.034335773553270728 -0.0096537714453089844 0 0.039319847411507278 -0.0076848753320237287 0 0.039031464608981728 -0.0078759061147552715 0 0.038835628080570686 -0.0070959612605224513 0 0.039319847411507278 -0.0076848753320237287 0 0.039383397316404195 -0.0070879544846154012 0 0.038835628080570686 -0.0070959612605224513 0 0.027539408750987118 -0.031244946638127328 0 0.025867458400576263 -0.032031679240747415 0 0.024953310701378219 -0.031754162957656054 0 0.027382237484602962 -0.023110483330765645 0 0.028577045776680479 -0.022542923062226845 0 0.027577556744449859 -0.022239379765480086 0 0.030251375898408737 -0.018151151017485278 0 0.029777778852858941 -0.023715838950604556 0 0.029777778852858941 -0.023715838950604556 0 0.026765051578251021 -0.024828526598772112 0 0.030251375898408737 -0.018151151017485278 0 0.026765051578251021 -0.024828526598772112 0 0.026765051578251021 -0.024828526598772112 0 0.02499600854050844 -0.028294126275763869 0 0.027539408750987118 -0.031244946638127328 0 0.024953310701378219 -0.031754162957656054 0 0.025660559267652806 -0.028127365159773196 0 0.030561763433495613 -0.030343740958226215 0 0.027539408750987118 -0.031244946638127328 0 0.028489195422884552 -0.028624268613169242 0 0.027539408750987118 -0.031244946638127328 0 0.025660559267652806 -0.028127365159773196 0 0.028489195422884552 -0.028624268613169242 0 0.025660559267652806 -0.028127365159773196 0 0.028489195422884552 -0.028624268613169242 0 0.028480365021956083 -0.025817884173026086 0 0.030635095044107257 -0.027426927729049342 0 0.030561763433495613 -0.030343740958226215 0 0.028489195422884552 -0.028624268613169242 0 0.030635095044107257 -0.027426927729049342 0 0.028489195422884552 -0.028624268613169242 0 0.028480365021956083 -0.025817884173026086 0 0.025660559267652806 -0.028127365159773196 0 0.028480365021956083 -0.025817884173026086 0 0.025749715270635073 -0.024862038245386357 0 0.031268965556579383 -0.025171254030508416 0 0.030635095044107257 -0.027426927729049342 0 0.028480365021956083 -0.025817884173026086 0 0.028480365021956083 -0.025817884173026086 0 0.029612872889808531 -0.024491123623975892 0 0.028035636785153698 -0.023466638601507019 0 0.031268965556579383 -0.025171254030508416 0 0.028480365021956083 -0.025817884173026086 0 0.029612872889808531 -0.024491123623975892 0 0.028480365021956083 -0.025817884173026086 0 0.025749715270635073 -0.024862038245386357 0 0.028035636785153698 -0.023466638601507019 0 0.024690715137373382 -0.026785844277737211 0 0.025749715270635073 -0.024862038245386357 0 0.022734898331499102 -0.025171088370590938 0 0.02499600854050844 -0.028294126275763869 0 0.025774407785900965 -0.024766028158248032 0 0.025749715270635073 -0.024862038245386357 0 0.023391399691194008 -0.022916084393792644 0 0.022734898331499102 -0.025171088370590938 0 0.025749715270635073 -0.024862038245386357 0 0.023391399691194008 -0.022916084393792644 0 0.028035636785153698 -0.023466638601507019 0 0.023391399691194008 -0.022916084393792644 0 0.028197542612935764 -0.021592302392312017 0 0.028035636785153698 -0.023466638601507019 0 0.028197542612935764 -0.021592302392312017 0 0.029458976544803724 -0.022588072279449516 0 0.028035636785153698 -0.023466638601507019 0 0.030889409180756541 -0.021857763795081298 0 0.028197542612935764 -0.021592302392312017 0 0.029458976544803724 -0.022588072279449516 0 0.030712728044875987 -0.023540843861396248 0 0.029612872889808531 -0.024491123623975892 0 0.028035636785153698 -0.023466638601507019 0 0.030712728044875987 -0.023540843861396248 0 0.029458976544803724 -0.022588072279449516 0 0.028035636785153698 -0.023466638601507019 0 0.020430315535318214 -0.024429297019934158 0 0.021614380923314649 -0.024203448610735132 0 0.020854079992606377 -0.025189331667988479 0 0.021614380923314649 -0.024203448610735132 0 0.022734898331499102 -0.025171088370590938 0 0.020854079992606377 -0.025189331667988479 0 0.023391399691194008 -0.022916084393792644 0 0.021614380923314649 -0.024203448610735132 0 0.022734898331499102 -0.025171088370590938 0 0.022734898331499102 -0.025171088370590938 0 0.020854079992606377 -0.025189331667988479 0 0.021377701006316335 -0.027110447808907517 0 0.024305747425670474 -0.028289410446181457 0 0.024690715137373382 -0.026785844277737211 0 0.021377701006316335 -0.027110447808907517 0 0.024690715137373382 -0.026785844277737211 0 0.022734898331499102 -0.025171088370590938 0 0.021377701006316335 -0.027110447808907517 0 0.026765051578251021 -0.024828526598772112 0 0.021598276389098909 -0.023845790211704149 0 0.025416437300237536 -0.021409017195194061 0 0.022587594184159166 -0.020658954858299879 0 0.023243827851140413 -0.02104349286150211 0 0.0253390064812796 -0.021756813681386895 0 0.023243827851140413 -0.02104349286150211 0 0.02384310774256581 -0.022472680950129831 0 0.023923290377642729 -0.022504006671773248 0 0.02552697215857502 -0.0169737918266561 0 0.030251375898408737 -0.018151151017485278 0 0.02552697215857502 -0.0169737918266561 0 0.023243827851140413 -0.02104349286150211 0 0.022159829843810416 -0.021972439121645017 0 0.023739719702933693 -0.02238570579955514 0 0.022587594184159166 -0.020658954858299879 0 0.023243827851140413 -0.02104349286150211 0 0.022159829843810416 -0.021972439121645017 0 0.024118873153834684 -0.016995588611378922 0 0.02552697215857502 -0.0169737918266561 0 0.022159829843810416 -0.021972439121645017 0 0.021827546177007523 -0.02328353329894603 0 0.023739719702933693 -0.02238570579955514 0 0.026465293012524344 -0.010790336743076332 0 0.026604019325540032 -0.010867694792526228 0 0.026650670872594671 -0.010773599168576861 0 0.026465293012524344 -0.010790336743076332 0 0.026491756455267922 -0.010932284085140916 0 0.026604019325540032 -0.010867694792526228 0 0.026491756455267922 -0.010932284085140916 0 0.026604019325540032 -0.010867694792526228 0 0.026613492390203001 -0.010987598408785354 0 0.026604019325540032 -0.010867694792526228 0 0.026753380995847457 -0.010897703243167694 0 0.026613492390203001 -0.010987598408785354 0 0.026604019325540032 -0.010867694792526228 0 0.026650670872594671 -0.010773599168576861 0 0.026753380995847457 -0.010897703243167694 0 0.02552697215857502 -0.0169737918266561 0 0.031005499486131047 -0.0096220792365299419 0 0.031066354810234915 -0.014049397966442091 0 0.029387108529901854 -0.012947684097978994 0 0.029873487172395009 -0.010786819280219295 0 0.035568227083037376 -0.0080164638204540326 0 0.035545144707618721 -0.0078718236277583141 0 0.035444558046092596 -0.0078471093561187609 0 0.031066354810234915 -0.014049397966442091 0 0.029387108529901854 -0.012947684097978994 0 0.029186818805630527 -0.013867418713722766 0 0.039383397316404195 -0.0070879544846154012 0 0.038835628080570686 -0.0070959612605224513 0 0.03865933687071664 -0.0063026114882613771 0 0.034335773553270728 -0.0096537714453089844 0 0.037386930097918866 -0.0070586669854682208 0 0.033052485764490248 -0.010314609440326718 0 0.034335773553270728 -0.0096537714453089844 0 0.033052485764490248 -0.010314609440326718 0 0.031005499486131047 -0.0096220792365299419 0 0.03558518733568479 -0.0079513424716373248 0 0.035568227083037376 -0.0080164638204540326 0 0.035545144707618721 -0.0078718236277583141 0 0.03558518733568479 -0.0079513424716373248 0 0.035545144707618721 -0.0078718236277583141 0 0.035614559544091678 -0.0078016814347909276 0 0.038126200690927439 -0.0063214746852630422 0 0.038493117551017149 -0.0067189648203947079 0 0.03865933687071664 -0.0063026114882613771 0 0.038493117551017149 -0.0067189648203947079 0 0.038835628080570686 -0.0070959612605224513 0 0.03865933687071664 -0.0063026114882613771 0 0.038126200690927439 -0.0063214746852630422 0 0.038392527617334811 -0.0071466306814272186 0 0.038493117551017149 -0.0067189648203947079 0 0.038392527617334811 -0.0071466306814272186 0 0.038493117551017149 -0.0067189648203947079 0 0.038835628080570686 -0.0070959612605224513 0 0.03691878554284507 -0.0060314043164165316 0 0.037386930097918866 -0.0070586669854682208 0 0.035444558046092596 -0.0078471093561187609 0 0.035517538881480154 -0.0077518939412213423 0 0.035440880262042694 -0.007656778480993805 0 0.035334411840873457 -0.0077003619025197987 0 0.035444558046092596 -0.0078471093561187609 0 0.035440880262042694 -0.007656778480993805 0 0.035545144707618721 -0.0078718236277583141 0 0.035614559544091678 -0.0078016814347909276 0 0.035517538881480154 -0.0077518939412213423 0 0.035545144707618721 -0.0078718236277583141 0 0.035444558046092596 -0.0078471093561187609 0 0.035517538881480154 -0.0077518939412213423 0 0.031005499486131047 -0.0096220792365299419 0 0.036263958788175468 -0.0053032537770226649 0 0.035614559544091678 -0.0078016814347909276 0 0.035517538881480154 -0.0077518939412213423 0 0.035559877167100448 -0.0075979613484417731 0 0.033215516366304286 -0.0085310936441652819 0 0.032645462597891105 -0.0069526455007509229 0 0.033676728864303625 -0.0065248491791239953 0 0.035517538881480154 -0.0077518939412213423 0 0.035559877167100448 -0.0075979613484417731 0 0.035440880262042694 -0.007656778480993805 0 0.036263958788175468 -0.0053032537770226649 0 0.036142238207800249 -0.0058594162903955263 0 0.036263958788175468 -0.0053032537770226649 0 0.032921417395889954 -0.0069577677090657333 0 0.03691878554284507 -0.0060314043164165316 0 0.036142238207800249 -0.0058594162903955263 0 0.037624752461863413 -0.003785533796334584 0 0.037030626715073622 -0.0039917896940475052 0 0.037057550605214026 -0.0034916594728808268 0 0.036535474356283286 -0.0036032084602287667 0 0.037030626715073622 -0.0039917896940475052 0 0.037057550605214026 -0.0034916594728808268 0 0.037057550605214026 -0.0034916594728808268 0 0.037407825147186755 -0.0030228094965213093 0 0.036570664552242213 -0.0028410640469285001 0 0.036535474356283286 -0.0036032084602287667 0 0.037057550605214026 -0.0034916594728808268 0 0.036570664552242213 -0.0028410640469285001 0 0.03733203808898513 -0.0026485500319945242 0 0.037205027474009326 -0.002233301003138349 0 0.037477192565551633 -0.0023706121993671806 0 0.036263958788175468 -0.0053032537770226649 0 0.037251784187808272 -0.0023008992367809637 0 0.037624752461863413 -0.003785533796334584 0 0.037057550605214026 -0.0034916594728808268 0 0.037407825147186755 -0.0030228094965213093 0 0.037205027474009326 -0.002233301003138349 0 0.037477192565551633 -0.0023706121993671806 0 0.037564709100777957 -0.0021045923488611129 0 0.03733203808898513 -0.0026485500319945242 0 0.037477192565551633 -0.0023706121993671806 0 0.037625880120791662 -0.0025121343399605606 0 0.032921417395889954 -0.0069577677090657333 0 0.03254829381132187 -0.0065598939287323894 0 0.037656854093158415 -0.0023648523762910805 0 0.037621088896262797 -0.0024963488540522341 0 0.037987775217132008 -0.0022676706461592535 0 0.037656854093158415 -0.0023648523762910805 0 0.037987775217132008 -0.0022676706461592535 0 0.037821175209819598 -0.0020669582993021623 0 0.037477192565551633 -0.0023706121993671806 0 0.037656854093158415 -0.0023648523762910805 0 0.037564709100777957 -0.0021045923488611129 0 0.037477192565551633 -0.0023706121993671806 0 0.037656854093158415 -0.0023648523762910805 0 0.037625880120791662 -0.0025121343399605606 0 0.034784947307216929 -0.0033253255504641713 0 0.032921417395889954 -0.0069577677090657333 0 0.026508121416217639 -0.011189969133958907 0 0.026389094294634593 -0.011153488682944525 0 0.026410806342587904 -0.011082665208307606 0 0.026491756455267922 -0.010932284085140916 0 0.026613492390203001 -0.010987598408785354 0 0.026410806342587904 -0.011082665208307606 0 0.026508121416217639 -0.011189969133958907 0 0.026613492390203001 -0.010987598408785354 0 0.026410806342587904 -0.011082665208307606 0 0.031005499486131047 -0.0096220792365299419 0 0.032921417395889954 -0.0069577677090657333 0 0.026753380995847457 -0.010897703243167694 0 0.026740078382927225 -0.01110434968645151 0 0.026613492390203001 -0.010987598408785354 0 0.026740078382927225 -0.01110434968645151 0 0.026508121416217639 -0.011189969133958907 0 0.026613492390203001 -0.010987598408785354 0 0.037778460072764954 -0.0017311088494575395 0 0.038040264017172525 -0.0018567393972815927 0 0.038015647107349351 -0.0014286477121098391 0 0.038040264017172525 -0.0018567393972815927 0 0.038015647107349351 -0.0014286477121098391 0 0.038164885599849256 -0.0016409157361766586 0 0.037987775217132008 -0.0022676706461592535 0 0.038040264017172525 -0.0018567393972815927 0 0.037821175209819598 -0.0020669582993021623 0 0.037987775217132008 -0.0022676706461592535 0 0.038040264017172525 -0.0018567393972815927 0 0.038170956962158033 -0.0019653529315364613 0 0.037778460072764954 -0.0017311088494575395 0 0.038040264017172525 -0.0018567393972815927 0 0.037821175209819598 -0.0020669582993021623 0 0.037778460072764954 -0.0017311088494575395 0 0.037821175209819598 -0.0020669582993021623 0 0.037564709100777957 -0.0021045923488611129 0 0.037656854093158415 -0.0023648523762910805 0 0.037821175209819598 -0.0020669582993021623 0 0.037564709100777957 -0.0021045923488611129 0 0.037778460072764954 -0.0017311088494575395 0 0.037564709100777957 -0.0021045923488611129 0 0.037378356862744821 -0.0017637067360258059 0 0.037205027474009326 -0.002233301003138349 0 0.037564709100777957 -0.0021045923488611129 0 0.037378356862744821 -0.0017637067360258059 0 0.037034215939180409 -0.0018722275401020991 0 0.036273513122225147 -0.0015537115169568115 0 0.036570664552242213 -0.0028410640469285001 0 0.037251784187808272 -0.0023008992367809637 0 0.037091325618412808 -0.0020466907246070158 0 0.037407825147186755 -0.0030228094965213093 0 0.037034215939180409 -0.0018722275401020991 0 0.036570664552242213 -0.0028410640469285001 0 0.037205027474009326 -0.002233301003138349 0 0.037034215939180409 -0.0018722275401020991 0 0.037378356862744821 -0.0017637067360258059 0 0.036958715837415973 -0.0013157547912015072 0 0.035988951750861468 -5.2064742405012442e-06 0 0.036273513122225147 -0.0015537115169568115 0 0.037034215939180409 -0.0018722275401020991 0 0.036958715837415973 -0.0013157547912015072 0 0.036273513122225147 -0.0015537115169568115 0 0.037034215939180409 -0.0018722275401020991 0 0.036958715837415973 -0.0013157547912015072 0 0.037378356862744821 -0.0017637067360258059 0 0.037778460072764954 -0.0017311088494575395 0 0.037378356862744821 -0.0017637067360258059 0 0.037595365363827252 -0.0010583228541317469 0 0.036958715837415973 -0.0013157547912015072 0 0.037378356862744821 -0.0017637067360258059 0 0.037595365363827252 -0.0010583228541317469 0 0.037200358789602879 0.00085871113975729955 0 0.036356310001669959 0.0012091545290620555 0 0.035988951750861468 -5.2064742405012442e-06 0 0.036958715837415973 -0.0013157547912015072 0 0.037595365363827252 -0.0010583228541317469 0 0.035988951750861468 -5.2064742405012442e-06 0 0.037099900935321804 -0.00011092966974649372 0 0.036061879117337277 -5.9799241963469636e-06 0 0.036356310001669959 0.0012091545290620555 0 0.036679792550331741 0.0021573478458133243 0 0.035821737091873584 0.0019652849547631781 0 0.037200358789602879 0.00085871113975729955 0 0.036356310001669959 0.0012091545290620555 0 0.036679792550331741 0.0021573478458133243 0 0.037200358789602879 0.00085871113975729955 0 0.037461811850761945 0.0024055048580362707 0 0.036679792550331741 0.0021573478458133243 0 0.037200358789602879 0.00085871113975729955 0 0.038611159844030025 0.00096046425278107587 0 0.037461811850761945 0.0024055048580362707 0 0.037099900935321804 -0.00011092966974649372 0 0.039220621279326399 -0.00013335720975567129 0 0.037778460072764954 -0.0017311088494575395 0 0.037595365363827252 -0.0010583228541317469 0 0.038015647107349351 -0.0014286477121098391 0 0.038611159844030025 0.00096046425278107587 0 0.038623566488937777 0.0026237063652716349 0 0.037461811850761945 0.0024055048580362707 0 0.038611159844030025 0.00096046425278107587 0 0.038623566488937777 0.0026237063652716349 0 0.039402315615234558 0.0019234991563031551 0 0.037461811850761945 0.0024055048580362707 0 0.037476414502918373 0.0038232051430403735 0 0.037164840853948382 0.0037171495179541452 0 0.038623566488937777 0.0026237063652716349 0 0.037461811850761945 0.0024055048580362707 0 0.037476414502918373 0.0038232051430403735 0 0.037476414502918373 0.0038232051430403735 0 0.037265974903855033 0.0044182693841142099 0 0.037164840853948382 0.0037171495179541452 0 0.036889652348134343 0.003811456499921575 0 0.038939090577119778 0.00469536589186935 0 0.037476414502918373 0.0038232051430403735 0 0.037265974903855033 0.0044182693841142099 0 0.036560528547043468 0.0051615727378796876 0 0.038623566488937777 0.0026237063652716349 0 0.037476414502918373 0.0038232051430403735 0 0.039089923461825764 0.003691357329015679 0 0.03657224481550031 0.0048547698563176237 0 0.037265974903855033 0.0044182693841142099 0 0.036359159412238641 0.0046760061102987362 0 0.03657224481550031 0.0048547698563176237 0 0.037265974903855033 0.0044182693841142099 0 0.036560528547043468 0.0051615727378796876 0 0.038521294927362136 0.005681221633210682 0 0.036797463662631931 0.0056146007899636882 0 0.037265974903855033 0.0044182693841142099 0 0.037117691181935981 0.0040753512385579534 0 0.037164840853948382 0.0037171495179541452 0 0.039885872798143096 0.0069672193751675066 0 0.040599655055117895 0.0063479807811598213 0 0.040513125333708974 0.0067845466696272484 0 0.038521294927362136 0.005681221633210682 0 0.03900048187079936 0.0052093089479602834 0 0.039885872798143096 0.0069672193751675066 0 0.040516429899107857 0.0057285140700174377 0 0.038886710818376878 0.0056863404535471554 0 0.039885872798143096 0.0069672193751675066 0 0.040516429899107857 0.0057285140700174377 0 0.040599655055117895 0.0063479807811598213 0 0.039885872798143096 0.0069672193751675066 0 0.038886710818376878 0.0056863404535471554 0 0.037261639549896641 0.0066132684658509874 0 0.040763805448301493 0.0062920467968579034 0 0.040900451315056215 0.0060666736499874188 0 0.040728867117798995 0.0060006336972680758 0 0.040900451315056215 0.0060666736499874188 0 0.040728867117798995 0.0060006336972680758 0 0.040808027316732269 0.005991620672125296 0 0.040516429899107857 0.0057285140700174377 0 0.040599655055117895 0.0063479807811598213 0 0.040728867117798995 0.0060006336972680758 0 0.040763805448301493 0.0062920467968579034 0 0.040599655055117895 0.0063479807811598213 0 0.040728867117798995 0.0060006336972680758 0 0.040763805448301493 0.0062920467968579034 0 0.040599655055117895 0.0063479807811598213 0 0.040724678401417531 0.0065237526010386085 0 0.040513125333708974 0.0067845466696272484 0 0.040724678401417531 0.0065237526010386085 0 0.040831536995135018 0.0066774746339037499 0 0.040599655055117895 0.0063479807811598213 0 0.040513125333708974 0.0067845466696272484 0 0.040724678401417531 0.0065237526010386085 0 0.040724678401417531 0.0065237526010386085 0 0.040873332848701344 0.0064997178498333993 0 0.040831536995135018 0.0066774746339037499 0 0.040763805448301493 0.0062920467968579034 0 0.040900451315056215 0.0060666736499874188 0 0.040873332848701344 0.0064997178498333993 0 0.040900451315056215 0.0060666736499874188 0 0.040873332848701344 0.0064997178498333993 0 0.041064602213188139 0.006473511566577753 0 0.040763805448301493 0.0062920467968579034 0 0.040724678401417531 0.0065237526010386085 0 0.040873332848701344 0.0064997178498333993 0 0.040970160268123293 0.0066000709969449975 0 0.040873332848701344 0.0064997178498333993 0 0.041064602213188139 0.006473511566577753 0 0.040970160268123293 0.0066000709969449975 0 0.040873332848701344 0.0064997178498333993 0 0.040831536995135018 0.0066774746339037499 0 0.03999871993125162 0.0056729015172786558 0 0.039738609911345125 0.0048414747714827597 0 0.03641089039209322 0.0032701292326309437 0 0.036804065900100234 0.0039019811800940379 0 0.035337186936164507 0.0031462881184062268 0 0.038808543143691844 0.0044971651570341999 0 0.038965847482872372 0.0045130537013475412 0 0.038386216366464818 0.004198411732128894 0 0.040970160268123293 0.0066000709969449975 0 0.040831536995135018 0.0066774746339037499 0 0.041106613225253073 0.0067377102701067244 0 0.037664746896779844 0.0044385476904292591 0 0.037626284414653481 0.0022560989432002395 0 0.03641089039209322 0.0032701292326309437 0 0.036804065900100234 0.0039019811800940379 0 0.036796269613117563 0.0035006424984559536 0 0.03641089039209322 0.0032701292326309437 0 0.036796269613117563 0.0035006424984559536 0 0.036804674954092016 0.0030095253258405402 0 0.039198097758075638 0.0046420296644435945 0 0.038808543143691844 0.0044971651570341999 0 0.038965847482872372 0.0045130537013475412 0 0.03900048187079936 0.0052093089479602834 0 0.03999871993125162 0.0056729015172786558 0 0.037117691181935981 0.0040753512385579534 0 0.036804065900100234 0.0039019811800940379 0 0.037164840853948382 0.0037171495179541452 0 0.03900048187079936 0.0052093089479602834 0 0.037664746896779844 0.0044385476904292591 0 0.036804065900100234 0.0039019811800940379 0 0.036796269613117563 0.0035006424984559536 0 0.037164840853948382 0.0037171495179541452 0 0.036796269613117563 0.0035006424984559536 0 0.037164840853948382 0.0037171495179541452 0 0.036804674954092016 0.0030095253258405402 0 0.037461811850761945 0.0024055048580362707 0 0.036804674954092016 0.0030095253258405402 0 0.036679792550331741 0.0021573478458133243 0 0.037461811850761945 0.0024055048580362707 0 0.037164840853948382 0.0037171495179541452 0 0.036804674954092016 0.0030095253258405402 0 0.03641089039209322 0.0032701292326309437 0 0.036239923661153334 0.0027634511809542179 0 0.035337186936164507 0.0031462881184062268 0 0.036239923661153334 0.0027634511809542179 0 0.036679792550331741 0.0021573478458133243 0 0.035821737091873584 0.0019652849547631781 0 0.036804674954092016 0.0030095253258405402 0 0.036239923661153334 0.0027634511809542179 0 0.036679792550331741 0.0021573478458133243 0 0.03641089039209322 0.0032701292326309437 0 0.036804674954092016 0.0030095253258405402 0 0.036239923661153334 0.0027634511809542179 0 0.036239923661153334 0.0027634511809542179 0 0.035337186936164507 0.0031462881184062268 0 0.035821737091873584 0.0019652849547631781 0 0.037626284414653481 0.0022560989432002395 0 0.036283628646579025 3.6085735388812946e-05 0 0.035337186936164507 0.0031462881184062268 0 0.035821737091873584 0.0019652849547631781 0 0.034986499442980531 0.0010196917051175252 0 0.038284026708293263 0.0010208865227770187 0 0.037592489291033891 -0.00017420576844239213 0 0.037780691881722367 -0.00086099852658648554 0 0.037562350065567109 0.00097940521947978724 0 0.037626284414653481 0.0022560989432002395 0 0.037525815168101363 0.00027926897795746544 0 0.038284026708293263 0.0010208865227770187 0 0.037592489291033891 -0.00017420576844239213 0 0.037151933260055794 0.00040600013064851203 0 0.036829998980435597 0.00062747423157504369 0 0.036774427572774049 0.0001728974726237437 0 0.037174290487292878 -4.2987671530371126e-05 0 0.037151933260055794 0.00040600013064851203 0 0.036774427572774049 0.0001728974726237437 0 0.037174290487292878 -4.2987671530371126e-05 0 0.036774427572774049 0.0001728974726237437 0 0.036873710025427005 -0.00018647506274787422 0 0.037174290487292878 -4.2987671530371126e-05 0 0.037151933260055794 0.00040600013064851203 0 0.037525815168101363 0.00027926897795746544 0 0.037174290487292878 -4.2987671530371126e-05 0 0.037525815168101363 0.00027926897795746544 0 0.037592489291033891 -0.00017420576844239213 0 0.037482033837280437 0.00065292073495725259 0 0.037258072428842687 0.001131774463766442 0 0.03842280675944694 0.0010890235642349901 0 0.037525815168101363 0.00027926897795746544 0 0.037482033837280437 0.00065292073495725259 0 0.038284026708293263 0.0010208865227770187 0 0.037482033837280437 0.00065292073495725259 0 0.037179172964546363 0.00070278270129640592 0 0.037258072428842687 0.001131774463766442 0 0.037151933260055794 0.00040600013064851203 0 0.037525815168101363 0.00027926897795746544 0 0.037482033837280437 0.00065292073495725259 0 0.037151933260055794 0.00040600013064851203 0 0.037179172964546363 0.00070278270129640592 0 0.036829998980435597 0.00062747423157504369 0 0.037151933260055794 0.00040600013064851203 0 0.037482033837280437 0.00065292073495725259 0 0.037179172964546363 0.00070278270129640592 0 0.037179172964546363 0.00070278270129640592 0 0.036829998980435597 0.00062747423157504369 0 0.037258072428842687 0.001131774463766442 0 0.038914009857249542 0.0035473083149706532 0 0.039738609911345125 0.0048414747714827597 0 0.041043195077574049 0.0061119132633210725 0 0.041021243291787683 0.0060931136192597128 0 0.040961991748759634 0.0061122475540300548 0 0.041043195077574049 0.0061119132633210725 0 0.041067156367329306 0.0060948851313956266 0 0.041078370304289208 0.0060967776973618604 0 0.041043195077574049 0.0061119132633210725 0 0.041021243291787683 0.0060931136192597128 0 0.041067156367329306 0.0060948851313956266 0 0.041021243291787683 0.0060931136192597128 0 0.041067156367329306 0.0060948851313956266 0 0.041053587372449629 0.0060696416568745753 0 0.039738609911345125 0.0048414747714827597 0 0.041047097613754788 0.0065619317406486561 0 0.037258072428842687 0.001131774463766442 0 0.03853811837843734 0.0015746297763415415 0 0.03842280675944694 0.0010890235642349901 0 0.038808543143691844 0.0044971651570341999 0 0.038419613953959583 0.0043480045476898283 0 0.038386216366464818 0.004198411732128894 0 0.040970160268123293 0.0066000709969449975 0 0.041106613225253073 0.0067377102701067244 0 0.041064602213188139 0.006473511566577753 0 0.039738609911345125 0.0048414747714827597 0 0.037626284414653481 0.0022560989432002395 0 0.041021243291787683 0.0060931136192597128 0 0.040961991748759634 0.0061122475540300548 0 0.040986256494223751 0.0060707596690010015 0 0.040961991748759634 0.0061122475540300548 0 0.040936541345717684 0.0060524405425732633 0 0.040986256494223751 0.0060707596690010015 0 0.040902231024609839 0.0059964862188760107 0 0.041047097613754788 0.0065619317406486561 0 0.040936541345717684 0.0060524405425732633 0 0.040986256494223751 0.0060707596690010015 0 0.040969659252971066 0.0059997041759639394 0 0.041053587372449629 0.0060696416568745753 0 0.040969659252971066 0.0059997041759639394 0 0.041207014342050333 0.0059719605457704992 0 0.041021243291787683 0.0060931136192597128 0 0.040986256494223751 0.0060707596690010015 0 0.041053587372449629 0.0060696416568745753 0 0.041053587372449629 0.0060696416568745753 0 0.041207014342050333 0.0059719605457704992 0 0.04111063596966353 0.0060784052785890141 0 0.041067156367329306 0.0060948851313956266 0 0.041053587372449629 0.0060696416568745753 0 0.04111063596966353 0.0060784052785890141 0 0.040986256494223751 0.0060707596690010015 0 0.041053587372449629 0.0060696416568745753 0 0.040969659252971066 0.0059997041759639394 0 0.041041330110558515 0.0058045452177757084 0 0.040969659252971066 0.0059997041759639394 0 0.040897115941316495 0.0058465044079706293 0 0.041041330110558515 0.0058045452177757084 0 0.040969659252971066 0.0059997041759639394 0 0.041207014342050333 0.0059719605457704992 0 0.041041330110558515 0.0058045452177757084 0 0.041207014342050333 0.0059719605457704992 0 0.041231952077060145 0.005325676806639759 0 0.040900451315056215 0.0060666736499874188 0 0.040969659252971066 0.0059997041759639394 0 0.040897115941316495 0.0058465044079706293 0 0.040900451315056215 0.0060666736499874188 0 0.040936541345717684 0.0060524405425732633 0 0.040969659252971066 0.0059997041759639394 0 0.041574313134070395 0.0045090131409707759 0 0.041494701634898559 0.0046929316803936017 0 0.041343664923835774 0.0047674806798430041 0 0.041374446448676445 0.0047517797985744048 0 0.041494701634898559 0.0046929316803936017 0 0.041343664923835774 0.0047674806798430041 0 0.041251066580667663 0.0052530908716497317 0 0.041249753060943736 0.0053362818939245325 0 0.041374446448676445 0.0047517797985744048 0 0.041368972380572855 0.0048372678288001007 0 0.041494701634898559 0.0046929316803936017 0 0.041251066580667663 0.0052530908716497317 0 0.041377283546007324 0.0059363934231781339 0 0.041368972380572855 0.0048372678288001007 0 0.041494701634898559 0.0046929316803936017 0 0.041558028109111453 0.0049267132114065365 0 0.041494701634898559 0.0046929316803936017 0 0.041558028109111453 0.0049267132114065365 0 0.041901211611978954 0.0048719817871288309 0 0.041558028109111453 0.0049267132114065365 0 0.041636803924279264 0.0051435906710235926 0 0.041738053193667614 0.0050153242030157533 0 0.041067156367329306 0.0060948851313956266 0 0.04111063596966353 0.0060784052785890141 0 0.041078370304289208 0.0060967776973618604 0 0.041368972380572855 0.0048372678288001007 0 0.041558028109111453 0.0049267132114065365 0 0.041400212289420507 0.0050648756314912498 0 0.041377283546007324 0.0059363934231781339 0 0.039970330111451763 0.003223034408861064 0 0.038914009857249542 0.0035473083149706532 0 0.039970330111451763 0.003223034408861064 0 0.036829998980435597 0.00062747423157504369 0 0.037258072428842687 0.001131774463766442 0 0.036167480211692409 0.00073930071161394477 0 0.036829998980435597 0.00062747423157504369 0 0.036167480211692409 0.00073930071161394477 0 0.036451804699059474 0.00041866987758481681 0 0.039970330111451763 0.003223034408861064 0 0.039696033514375083 -0.00065421443756033559 0 0.036167480211692409 0.00073930071161394477 0 0.036071785290161744 0.00020147084135657499 0 0.036451804699059474 0.00041866987758481681 0 0.036238133872279248 -4.7217126042567136e-05 0 0.036073349341292651 0.00018642523966811307 0 0.036096675727084145 -0.00026760551678845222 0 0.036238133872279248 -4.7217126042567136e-05 0 0.036073349341292651 0.00018642523966811307 0 0.036382105533725777 0.00014420179262261186 0 0.039696033514375083 -0.00065421443756033559 0 0.037693319805178038 -0.00027554912755693798 0 0.036071785290161744 0.00020147084135657499 0 0.036451804699059474 0.00041866987758481681 0 0.036382105533725777 0.00014420179262261186 0 0.036238133872279248 -4.7217126042567136e-05 0 0.036382105533725777 0.00014420179262261186 0 0.036467231028698067 -0.00027590587393193383 0 0.036382105533725777 0.00014420179262261186 0 0.036774427572774049 0.0001728974726237437 0 0.036467231028698067 -0.00027590587393193383 0 0.036451804699059474 0.00041866987758481681 0 0.036382105533725777 0.00014420179262261186 0 0.036774427572774049 0.0001728974726237437 0 0.036829998980435597 0.00062747423157504369 0 0.036451804699059474 0.00041866987758481681 0 0.036774427572774049 0.0001728974726237437 0 0.039696033514375083 -0.00065421443756033559 0 0.042792093674605729 0.00016674157016265633 0 0.039970330111451763 0.003223034408861064 0 0.042792093674605729 0.00016674157016265633 0 0.041558028109111453 0.0049267132114065365 0 0.041400212289420507 0.0050648756314912498 0 0.041636803924279264 0.0051435906710235926 0 0.043211554249351899 -0.0025645444327792224 0 0.043365738545121192 -0.0025889234041098484 0 0.043237460980318845 -0.002491218491117349 0 0.040000555826629765 0.00043655687797638224 0 0.040174157048232316 0.001354703083524911 0 0.042050421010198236 0.0010441039803174559 0 0.041852256974921648 -0.0022592506260396116 0 0.039347734448311127 -0.0015974651407391165 0 0.043405819686494124 -0.0024928770701149916 0 0.043399607490128424 -0.0023866826971141552 0 0.043237460980318845 -0.002491218491117349 0 0.043365738545121192 -0.0025889234041098484 0 0.043405819686494124 -0.0024928770701149916 0 0.043237460980318845 -0.002491218491117349 0 0.039664658410272176 -0.0030448944907219369 0 0.040296649227559489 -0.0022111248989225766 0 0.040090659276117567 -0.0033640206934245002 0 0.036370571482965186 -0.0010546826550689424 0 0.035963001620171312 -0.00045181501061203647 0 0.03570911367798342 -0.0021225261993154548 0 0.039347734448311127 -0.0015974651407391165 0 0.037841509529228386 -0.0025195209573885885 0 0.036370571482965186 -0.0010546826550689424 0 0.037057628823758182 -0.00060807489868022161 0 0.036721619100604876 -0.0017530798337941182 0 0.036370571482965186 -0.0010546826550689424 0 0.036721619100604876 -0.0017530798337941182 0 0.03570911367798342 -0.0021225261993154548 0 0.036370571482965186 -0.0010546826550689424 0 0.036467231028698067 -0.00027590587393193383 0 0.037057628823758182 -0.00060807489868022161 0 0.036370571482965186 -0.0010546826550689424 0 0.035963001620171312 -0.00045181501061203647 0 0.036467231028698067 -0.00027590587393193383 0 0.036073349341292651 0.00018642523966811307 0 0.035962119350757403 -0.00044581191736917054 0 0.036096675727084145 -0.00026760551678845222 0 0.035963001620171312 -0.00045181501061203647 0 0.036096675727084145 -0.00026760551678845222 0 0.036467231028698067 -0.00027590587393193383 0 0.039696033514375083 -0.00065421443756033559 0 0.039347734448311127 -0.0015974651407391165 0 0.036238133872279248 -4.7217126042567136e-05 0 0.036096675727084145 -0.00026760551678845222 0 0.036467231028698067 -0.00027590587393193383 0 0.039347734448311127 -0.0015974651407391165 0 0.03883228965581776 -0.0016651981936384992 0 0.036774427572774049 0.0001728974726237437 0 0.036467231028698067 -0.00027590587393193383 0 0.036873710025427005 -0.00018647506274787422 0 0.036467231028698067 -0.00027590587393193383 0 0.036873710025427005 -0.00018647506274787422 0 0.037057628823758182 -0.00060807489868022161 0 0.037174290487292878 -4.2987671530371126e-05 0 0.037592489291033891 -0.00017420576844239213 0 0.037057628823758182 -0.00060807489868022161 0 0.037057628823758182 -0.00060807489868022161 0 0.037780691881722367 -0.00086099852658648554 0 0.036721619100604876 -0.0017530798337941182 0 0.037174290487292878 -4.2987671530371126e-05 0 0.036873710025427005 -0.00018647506274787422 0 0.037057628823758182 -0.00060807489868022161 0 0.037592489291033891 -0.00017420576844239213 0 0.037057628823758182 -0.00060807489868022161 0 0.037780691881722367 -0.00086099852658648554 0 0.035821737091873584 0.0019652849547631781 0 0.034986499442980531 0.0010196917051175252 0 0.035806019509040769 0.0010757917142979634 0 0.036356310001669959 0.0012091545290620555 0 0.035821737091873584 0.0019652849547631781 0 0.035806019509040769 0.0010757917142979634 0 0.034986499442980531 0.0010196917051175252 0 0.035806019509040769 0.0010757917142979634 0 0.035988951750861468 -5.2064742405012442e-06 0 0.036356310001669959 0.0012091545290620555 0 0.035806019509040769 0.0010757917142979634 0 0.035988951750861468 -5.2064742405012442e-06 0 0.034986499442980531 0.0010196917051175252 0 0.035988951750861468 -5.2064742405012442e-06 0 0.035168019750681859 -0.001763508964087225 0 0.036283628646579025 3.6085735388812946e-05 0 0.036237255114466189 -0.0021025518845233593 0 0.037780691881722367 -0.00086099852658648554 0 0.036721619100604876 -0.0017530798337941182 0 0.03718476802740623 -0.0026065991115734291 0 0.036721619100604876 -0.0017530798337941182 0 0.03718476802740623 -0.0026065991115734291 0 0.036400330469915462 -0.0031030224330465686 0 0.035988951750861468 -5.2064742405012442e-06 0 0.035168019750681859 -0.001763508964087225 0 0.036273513122225147 -0.0015537115169568115 0 0.035168019750681859 -0.001763508964087225 0 0.036273513122225147 -0.0015537115169568115 0 0.036570664552242213 -0.0028410640469285001 0 0.036189142472475837 -0.0033238415825064603 0 0.035168019750681859 -0.001763508964087225 0 0.036570664552242213 -0.0028410640469285001 0 0.036350370770362593 -0.0037509736086706966 0 0.03718476802740623 -0.0026065991115734291 0 0.036400330469915462 -0.0031030224330465686 0 0.036350370770362593 -0.0037509736086706966 0 0.036189142472475837 -0.0033238415825064603 0 0.035168019750681859 -0.001763508964087225 0 0.036297401537837365 -0.0035779832397391065 0 0.036237255114466189 -0.0021025518845233593 0 0.036400330469915462 -0.0031030224330465686 0 0.036180060005095216 -0.0036051774376642245 0 0.035465317312209046 -0.0035344020830284819 0 0.036400330469915462 -0.0031030224330465686 0 0.035465317312209046 -0.0035344020830284819 0 0.03570911367798342 -0.0021225261993154548 0 0.036516502250117336 -0.0038194313704519051 0 0.036400330469915462 -0.0031030224330465686 0 0.036180060005095216 -0.0036051774376642245 0 0.036516502250117336 -0.0038194313704519051 0 0.036350370770362593 -0.0037509736086706966 0 0.036400330469915462 -0.0031030224330465686 0 0.037028228488302437 -0.0048196186631649209 0 0.037841509529228386 -0.0025195209573885885 0 0.039869643474757868 -0.0044909283064946169 0 0.040090659276117567 -0.0033640206934245002 0 0.039039467939857533 -0.0038711162974248516 0 0.039664658410272176 -0.0030448944907219369 0 0.040090659276117567 -0.0033640206934245002 0 0.039039467939857533 -0.0038711162974248516 0 0.036721619100604876 -0.0017530798337941182 0 0.036400330469915462 -0.0031030224330465686 0 0.03570911367798342 -0.0021225261993154548 0 0.04360166161973264 -0.0023728936281274277 0 0.043513538018410687 -0.002329929606091778 0 0.043521014012921314 -0.0023953390332625175 0 0.050759737925322825 -0.0081966354629664628 0 0.051520075221705285 -0.0087984555915714482 0 0.050552345583543899 -0.0091236837112218007 0 0.047601864964521824 -0.0056867542471620604 0 0.042267949692833394 -0.0061744696676684797 0 0.050759737925322825 -0.0081966354629664628 0 0.050552345583543899 -0.0091236837112218007 0 0.050003356160534723 -0.00873276082144658 0 0.043399607490128424 -0.0023866826971141552 0 0.043513538018410687 -0.002329929606091778 0 0.043521014012921314 -0.0023953390332625175 0 0.041852256974921648 -0.0022592506260396116 0 0.042267949692833394 -0.0061744696676684797 0 0.037412293691278325 -0.0073000491239814972 0 0.036502241935301688 -0.007797428705134178 0 0.037591179149507721 -0.0085517761967771801 0 0.037028228488302437 -0.0048196186631649209 0 0.042267949692833394 -0.0061744696676684797 0 0.044501109245071106 -0.0089103056085432907 0 0.042267949692833394 -0.0061744696676684797 0 0.038462866091855341 -0.007483973744856905 0 0.037412293691278325 -0.0073000491239814972 0 0.037591179149507721 -0.0085517761967771801 0 0.050482330226450718 -0.010257530821062063 0 0.051520075221705285 -0.0087984555915714482 0 0.050552345583543899 -0.0091236837112218007 0 0.050482330226450718 -0.010257530821062063 0 0.050552345583543899 -0.0091236837112218007 0 0.049984443481009597 -0.0096201774589787306 0 0.049984443481009597 -0.0096201774589787306 0 0.049164046433271831 -0.0097075616394574297 0 0.049361997974092041 -0.0086952368521253792 0 0.049984443481009597 -0.0096201774589787306 0 0.049361997974092041 -0.0086952368521253792 0 0.050003356160534723 -0.00873276082144658 0 0.050552345583543899 -0.0091236837112218007 0 0.049984443481009597 -0.0096201774589787306 0 0.050003356160534723 -0.00873276082144658 0 0.049651234039542677 -0.010004888598270621 0 0.049253724002553789 -0.0089516413060869039 0 0.049164046433271831 -0.0097075616394574297 0 0.049361997974092041 -0.0086952368521253792 0 0.048412736492080818 -0.0083597055033690013 0 0.049361997974092041 -0.0086952368521253792 0 0.049321448274936244 -0.0080821158350660519 0 0.048933923834125377 -0.0080449843501435823 0 0.049321448274936244 -0.0080821158350660519 0 0.048933923834125377 -0.0080449843501435823 0 0.049168167768283311 -0.0078093552751371774 0 0.049361997974092041 -0.0086952368521253792 0 0.048933923834125377 -0.0080449843501435823 0 0.048412736492080818 -0.0083597055033690013 0 0.048933923834125377 -0.0080449843501435823 0 0.048412736492080818 -0.0083597055033690013 0 0.048686645589013727 -0.0078093218156943959 0 0.049361997974092041 -0.0086952368521253792 0 0.050003356160534723 -0.00873276082144658 0 0.049685881172219767 -0.008285625485169144 0 0.049361997974092041 -0.0086952368521253792 0 0.049321448274936244 -0.0080821158350660519 0 0.049685881172219767 -0.008285625485169144 0 0.050003356160534723 -0.00873276082144658 0 0.049685881172219767 -0.008285625485169144 0 0.050117323665185308 -0.008132708657210469 0 0.049321448274936244 -0.0080821158350660519 0 0.049685881172219767 -0.008285625485169144 0 0.049605634512202415 -0.0078596314957359893 0 0.049685881172219767 -0.008285625485169144 0 0.04983203820913748 -0.0079152659023597818 0 0.049605634512202415 -0.0078596314957359893 0 0.049685881172219767 -0.008285625485169144 0 0.050117323665185308 -0.008132708657210469 0 0.04983203820913748 -0.0079152659023597818 0 0.050759737925322825 -0.0081966354629664628 0 0.050003356160534723 -0.00873276082144658 0 0.050117323665185308 -0.008132708657210469 0 0.050759737925322825 -0.0081966354629664628 0 0.050117323665185308 -0.008132708657210469 0 0.050078172097145754 -0.0076202987263242518 0 0.043663581749256518 -0.0024147718307044033 0 0.043685645588409906 -0.0024650356815396879 0 0.043645850712178712 -0.0024502861820239244 0 0.047601864964521824 -0.0056867542471620604 0 0.047265628764204502 -0.005325981652152232 0 0.050117323665185308 -0.008132708657210469 0 0.04995325613080831 -0.0075158108275409441 0 0.050078172097145754 -0.0076202987263242518 0 0.047265628764204502 -0.005325981652152232 0 0.046677853072825244 -0.0027970222884850806 0 0.04995325613080831 -0.0075158108275409441 0 0.04952280923647534 -0.0073206323513983615 0 0.049361690848232713 -0.006373051006662963 0 0.04995325613080831 -0.0075158108275409441 0 0.050086687383682639 -0.0076157499046343386 0 0.049361690848232713 -0.006373051006662963 0 0.050117323665185308 -0.008132708657210469 0 0.04995325613080831 -0.0075158108275409441 0 0.04983203820913748 -0.0079152659023597818 0 0.047837387444381041 -0.0057556899567096113 0 0.047265628764204502 -0.005325981652152232 0 0.04995325613080831 -0.0075158108275409441 0 0.04983203820913748 -0.0079152659023597818 0 0.049742042852108023 -0.0076672504815889645 0 0.04983203820913748 -0.0079152659023597818 0 0.049605634512202415 -0.0078596314957359893 0 0.049742042852108023 -0.0076672504815889645 0 0.049321448274936244 -0.0080821158350660519 0 0.049605634512202415 -0.0078596314957359893 0 0.049380842665772556 -0.0077111129122238563 0 0.049605634512202415 -0.0078596314957359893 0 0.049568278418389795 -0.0076597432213610182 0 0.049742042852108023 -0.0076672504815889645 0 0.049605634512202415 -0.0078596314957359893 0 0.049568278418389795 -0.0076597432213610182 0 0.049380842665772556 -0.0077111129122238563 0 0.049568278418389795 -0.0076597432213610182 0 0.049480612050081162 -0.0075317648749386222 0 0.049380842665772556 -0.0077111129122238563 0 0.049568278418389795 -0.0076597432213610182 0 0.04963218507688711 -0.0075283661705992629 0 0.049742042852108023 -0.0076672504815889645 0 0.049568278418389795 -0.0076597432213610182 0 0.04963218507688711 -0.0075283661705992629 0 0.049480612050081162 -0.0075317648749386222 0 0.049480612050081162 -0.0075317648749386222 0 0.04952280923647534 -0.0073206323513983615 0 0.049308940841573556 -0.0074926304011521888 0 0.04963218507688711 -0.0075283661705992629 0 0.049480612050081162 -0.0075317648749386222 0 0.04952280923647534 -0.0073206323513983615 0 0.04995325613080831 -0.0075158108275409441 0 0.04963218507688711 -0.0075283661705992629 0 0.049742042852108023 -0.0076672504815889645 0 0.04995325613080831 -0.0075158108275409441 0 0.04963218507688711 -0.0075283661705992629 0 0.04952280923647534 -0.0073206323513983615 0 0.043663581749256518 -0.0024147718307044033 0 0.043645850712178712 -0.0024502861820239244 0 0.043623234937471986 -0.0024229039075512786 0 0.048412736492080818 -0.0083597055033690013 0 0.048383909580979108 -0.0076027724253847941 0 0.048686645589013727 -0.0078093218156943959 0 0.048057883008998888 -0.0067463236895088071 0 0.048399696558320195 -0.0057975220383151612 0 0.048383909580979108 -0.0076027724253847941 0 0.048842597332951508 -0.0075039110138088059 0 0.04863871050972237 -0.0072890271252798655 0 0.048383909580979108 -0.0076027724253847941 0 0.048686645589013727 -0.0078093218156943959 0 0.048842597332951508 -0.0075039110138088059 0 0.048933923834125377 -0.0080449843501435823 0 0.048686645589013727 -0.0078093218156943959 0 0.048961745068964613 -0.0077006164567165834 0 0.048686645589013727 -0.0078093218156943959 0 0.048842597332951508 -0.0075039110138088059 0 0.048961745068964613 -0.0077006164567165834 0 0.048842597332951508 -0.0075039110138088059 0 0.049022828538647437 -0.0075228738887361674 0 0.049126107540914239 -0.0073022602530378802 0 0.049022828538647437 -0.0075228738887361674 0 0.049161127306777158 -0.0075835191414690122 0 0.049126107540914239 -0.0073022602530378802 0 0.049022828538647437 -0.0075228738887361674 0 0.048961745068964613 -0.0077006164567165834 0 0.049161127306777158 -0.0075835191414690122 0 0.048842597332951508 -0.0075039110138088059 0 0.049022828538647437 -0.0075228738887361674 0 0.048961745068964613 -0.0077006164567165834 0 0.048933923834125377 -0.0080449843501435823 0 0.048961745068964613 -0.0077006164567165834 0 0.049168167768283311 -0.0078093552751371774 0 0.048961745068964613 -0.0077006164567165834 0 0.049168167768283311 -0.0078093552751371774 0 0.049161127306777158 -0.0075835191414690122 0 0.049321448274936244 -0.0080821158350660519 0 0.049168167768283311 -0.0078093552751371774 0 0.049380842665772556 -0.0077111129122238563 0 0.049168167768283311 -0.0078093552751371774 0 0.049380842665772556 -0.0077111129122238563 0 0.049161127306777158 -0.0075835191414690122 0 0.049161127306777158 -0.0075835191414690122 0 0.049308940841573556 -0.0074926304011521888 0 0.049126107540914239 -0.0073022602530378802 0 0.049480612050081162 -0.0075317648749386222 0 0.049380842665772556 -0.0077111129122238563 0 0.049308940841573556 -0.0074926304011521888 0 0.049380842665772556 -0.0077111129122238563 0 0.049161127306777158 -0.0075835191414690122 0 0.049308940841573556 -0.0074926304011521888 0 0.04952280923647534 -0.0073206323513983615 0 0.049126107540914239 -0.0073022602530378802 0 0.049361690848232713 -0.006373051006662963 0 0.049126107540914239 -0.0073022602530378802 0 0.04863871050972237 -0.0072890271252798655 0 0.049361690848232713 -0.006373051006662963 0 0.04952280923647534 -0.0073206323513983615 0 0.049308940841573556 -0.0074926304011521888 0 0.049126107540914239 -0.0073022602530378802 0 0.048842597332951508 -0.0075039110138088059 0 0.049126107540914239 -0.0073022602530378802 0 0.04863871050972237 -0.0072890271252798655 0 0.048090936759197934 -0.0027030523747958637 0 0.047936990928864415 -0.0017510877194669588 0 0.04887108192640275 -0.0017483807349410075 0 0.048399696558320195 -0.0057975220383151612 0 0.046677853072825244 -0.0027970222884850806 0 0.047936990928864415 -0.0017510877194669588 0 0.04887108192640275 -0.0017483807349410075 0 0.048267477714675627 -0.00077566324473185143 0 0.046677853072825244 -0.0027970222884850806 0 0.046499960908213053 -0.00014545540119820336 0 0.047936990928864415 -0.0017510877194669588 0 0.048267477714675627 -0.00077566324473185143 0 0.047339914116129256 -0.0011295654367213777 0 0.043685645588409906 -0.0024650356815396879 0 0.043645850712178712 -0.0024502861820239244 0 0.043616082291948528 -0.0024704523943406827 0 0.043616082291948528 -0.0024704523943406827 0 0.043509951918866682 -0.0024613068647052045 0 0.043503688707863246 -0.0025453067256759406 0 0.043607460404293752 -0.0024685494614960194 0 0.043493726421655325 -0.002461719486761894 0 0.043616082291948528 -0.0024704523943406827 0 0.043576856175201968 -0.0024330376244164555 0 0.043509951918866682 -0.0024613068647052045 0 0.043645850712178712 -0.0024502861820239244 0 0.043616082291948528 -0.0024704523943406827 0 0.043576856175201968 -0.0024330376244164555 0 0.04360166161973264 -0.0023728936281274277 0 0.043623234937471986 -0.0024229039075512786 0 0.043576856175201968 -0.0024330376244164555 0 0.043645850712178712 -0.0024502861820239244 0 0.043623234937471986 -0.0024229039075512786 0 0.043576856175201968 -0.0024330376244164555 0 0.04360166161973264 -0.0023728936281274277 0 0.043576856175201968 -0.0024330376244164555 0 0.043521014012921314 -0.0023953390332625175 0 0.043576856175201968 -0.0024330376244164555 0 0.043521014012921314 -0.0023953390332625175 0 0.043509951918866682 -0.0024613068647052045 0 0.04360166161973264 -0.0023728936281274277 0 0.043663581749256518 -0.0024147718307044033 0 0.043623234937471986 -0.0024229039075512786 0 0.043399607490128424 -0.0023866826971141552 0 0.043521014012921314 -0.0023953390332625175 0 0.043509951918866682 -0.0024613068647052045 0 0.043405819686494124 -0.0024928770701149916 0 0.043399607490128424 -0.0023866826971141552 0 0.043509951918866682 -0.0024613068647052045 0 0.043405819686494124 -0.0024928770701149916 0 0.043509951918866682 -0.0024613068647052045 0 0.043503688707863246 -0.0025453067256759406 0 0.041636803924279264 0.0051435906710235926 0 0.041877655951439843 0.0051034749365515553 0 0.041738053193667614 0.0050153242030157533 0 0.043365738545121192 -0.0025889234041098484 0 0.043405819686494124 -0.0024928770701149916 0 0.043503688707863246 -0.0025453067256759406 0 0.042792093674605729 0.00016674157016265633 0 0.042635547322396897 0.0013421965043461449 0 0.043485604352139433 -0.0024052329131553822 0 0.043570872757872844 -0.002422479600149133 0 0.043572969450965192 -0.0024477975251676527 0 0.042792093674605729 0.00016674157016265633 0 0.043493726421655325 -0.002461719486761894 0 0.043570872757872844 -0.002422479600149133 0 0.043572969450965192 -0.0024477975251676527 0 0.043598638558886293 -0.0024522751210253771 0 0.043572969450965192 -0.0024477975251676527 0 0.043598638558886293 -0.0024522751210253771 0 0.043613463153841285 -0.0024609432354280375 0 0.042635547322396897 0.0013421965043461449 0 0.043110429830712296 0.002199194602869083 0 0.043616082291948528 -0.0024704523943406827 0 0.043570872757872844 -0.002422479600149133 0 0.043598638558886293 -0.0024522751210253771 0 0.043616082291948528 -0.0024704523943406827 0 0.043598638558886293 -0.0024522751210253771 0 0.043613463153841285 -0.0024609432354280375 0 0.041877655951439843 0.0051034749365515553 0 0.042072076735030078 0.0050569035073091103 0 0.041901211611978954 0.0048719817871288309 0 0.042530191424777604 0.0056844920049859129 0 0.041901211611978954 0.0048719817871288309 0 0.042730839018295552 0.0048709150265993572 0 0.043110429830712296 0.002199194602869083 0 0.041988650651750781 0.0058906710438170274 0 0.041558028109111453 0.0049267132114065365 0 0.041738053193667614 0.0050153242030157533 0 0.041901211611978954 0.0048719817871288309 0 0.041877655951439843 0.0051034749365515553 0 0.041738053193667614 0.0050153242030157533 0 0.041901211611978954 0.0048719817871288309 0 0.041494701634898559 0.0046929316803936017 0 0.041901211611978954 0.0048719817871288309 0 0.041893142089055181 0.0044610481570830241 0 0.042447983348776183 0.0040334035496643232 0 0.041893142089055181 0.0044610481570830241 0 0.042730839018295552 0.0048709150265993572 0 0.041901211611978954 0.0048719817871288309 0 0.041893142089055181 0.0044610481570830241 0 0.042730839018295552 0.0048709150265993572 0 0.042447983348776183 0.0040334035496643232 0 0.041893142089055181 0.0044610481570830241 0 0.041829048108197361 0.0040897824273725594 0 0.041574313134070395 0.0045090131409707759 0 0.041494701634898559 0.0046929316803936017 0 0.041893142089055181 0.0044610481570830241 0 0.041574313134070395 0.0045090131409707759 0 0.041893142089055181 0.0044610481570830241 0 0.041829048108197361 0.0040897824273725594 0 0.04326960670668388 0.0034652089372864754 0 0.043465724851964843 0.0042594794858499957 0 0.044656856230658654 0.0030828239108447566 0 0.042447983348776183 0.0040334035496643232 0 0.04326960670668388 0.0034652089372864754 0 0.043465724851964843 0.0042594794858499957 0 0.042730839018295552 0.0048709150265993572 0 0.043465724851964843 0.0042594794858499957 0 0.043573421138182959 0.0049667314626404722 0 0.042447983348776183 0.0040334035496643232 0 0.042730839018295552 0.0048709150265993572 0 0.043465724851964843 0.0042594794858499957 0 0.043465724851964843 0.0042594794858499957 0 0.044237811954092716 0.0045166108970604996 0 0.044656856230658654 0.0030828239108447566 0 0.043465724851964843 0.0042594794858499957 0 0.043573421138182959 0.0049667314626404722 0 0.044237811954092716 0.0045166108970604996 0 0.043573421138182959 0.0049667314626404722 0 0.043317699951670306 0.0056256496424137116 0 0.044271467945704086 0.0055642444992123393 0 0.043573421138182959 0.0049667314626404722 0 0.044271467945704086 0.0055642444992123393 0 0.044237811954092716 0.0045166108970604996 0 0.044056341024546766 0.0031716482944632294 0 0.045668181458501093 0.0016054529431094515 0 0.042530191424777604 0.0056844920049859129 0 0.042730839018295552 0.0048709150265993572 0 0.043317699951670306 0.0056256496424137116 0 0.042730839018295552 0.0048709150265993572 0 0.043573421138182959 0.0049667314626404722 0 0.043317699951670306 0.0056256496424137116 0 0.045018757503422067 0.00017130211381384438 0 0.045351637908624481 0.00062319734214696433 0 0.045019097248773003 0.00067636457183336478 0 0.043685645588409906 -0.0024650356815396879 0 0.043616082291948528 -0.0024704523943406827 0 0.043613463153841285 -0.0024609432354280375 0 0.043110429830712296 0.002199194602869083 0 0.044056341024546766 0.0031716482944632294 0 0.046677853072825244 -0.0027970222884850806 0 0.043110429830712296 0.002199194602869083 0 0.045019097248773003 0.00067636457183336478 0 0.044847071104402107 0.00045449981661799575 0 0.044684977031780281 0.00073635043010685777 0 0.045018757503422067 0.00017130211381384438 0 0.045019097248773003 0.00067636457183336478 0 0.044847071104402107 0.00045449981661799575 0 0.046499960908213053 -0.00014545540119820336 0 0.045668181458501093 0.0016054529431094515 0 0.048267477714675627 -0.00077566324473185143 0 0.047074008737580303 -0.00034468317743299487 0 0.047663482944821464 0.00014840452908080248 0 0.048267477714675627 -0.00077566324473185143 0 0.047074008737580303 -0.00034468317743299487 0 0.047339914116129256 -0.0011295654367213777 0 0.047074008737580303 -0.00034468317743299487 0 0.046310517710077652 -0.00045187135887939111 0 0.047339914116129256 -0.0011295654367213777 0 0.047074008737580303 -0.00034468317743299487 0 0.046310517710077652 -0.00045187135887939111 0 0.046372917948398207 0.00030387158630616322 0 0.047440975261470113 -0.0023685352273141577 0 0.046801855496001792 -0.00082768430337515591 0 0.046310517710077652 -0.00045187135887939111 0 0.046372917948398207 0.00030387158630616322 0 0.045884092650962521 0.00099195356319776648 0 0.045668181458501093 0.0016054529431094515 0 0.045778469853450299 0.0028319175678417872 0 0.046372917948398207 0.00030387158630616322 0 0.047032365778126195 0.00021873470417131519 0 0.046570523212418655 0.00095986559297512046 0 0.047136928281448318 7.8742955366345211e-05 0 0.045668181458501093 0.0016054529431094515 0 0.044271467945704086 0.0055642444992123393 0 0.04518600636204996 0.0042714270824685575 0 0.044237811954092716 0.0045166108970604996 0 0.047074008737580303 -0.00034468317743299487 0 0.046372917948398207 0.00030387158630616322 0 0.047663482944821464 0.00014840452908080248 0 0.04518600636204996 0.0042714270824685575 0 0.044237811954092716 0.0045166108970604996 0 0.044656856230658654 0.0030828239108447566 0 0.046372917948398207 0.00030387158630616322 0 0.046570523212418655 0.00095986559297512046 0 0.045884092650962521 0.00099195356319776648 0 0.046570523212418655 0.00095986559297512046 0 0.046053902646775786 0.0011554822449757775 0 0.045884092650962521 0.00099195356319776648 0 0.046570523212418655 0.00095986559297512046 0 0.046053902646775786 0.0011554822449757775 0 0.0460186472411203 0.0018013351936323049 0 0.04518600636204996 0.0042714270824685575 0 0.0460186472411203 0.0018013351936323049 0 0.044656856230658654 0.0030828239108447566 0 0.045778469853450299 0.0028319175678417872 0 0.046072118881393287 0.0018175390425660826 0 0.046053902646775786 0.0011554822449757775 0 0.0460186472411203 0.0018013351936323049 0 0.045982617505320081 0.001124517773890731 0 0.044999557893845174 -0.00094705103877488583 0 0.046112483512254797 0.00073041193416371723 0 0.045965398206223425 0.0011443928028436543 0 0.044999557893845174 -0.00094705103877488583 0 0.046112483512254797 0.00073041193416371723 0 0.045926148963521145 -0.0018387700916092586 0 0.046112483512254797 0.00073041193416371723 0 0.045982617505320081 0.001124517773890731 0 0.045884092650962521 0.00099195356319776648 0 0.046112483512254797 0.00073041193416371723 0 0.046004903742597671 0.0014075874051301649 0 0.045965398206223425 0.0011443928028436543 0 0.046112483512254797 0.00073041193416371723 0 0.046004903742597671 0.0014075874051301649 0 0.045982617505320081 0.001124517773890731 0 0.0460186472411203 0.0018013351936323049 0 0.046004903742597671 0.0014075874051301649 0 0.045982617505320081 0.001124517773890731 0 0.046112483512254797 0.00073041193416371723 0 0.047713997677243762 -0.0025241150741806251 0 0.045926148963521145 -0.0018387700916092586 0 0.047713997677243762 -0.0025241150741806251 0 0.045926148963521145 -0.0018387700916092586 0 0.046333212692727319 -0.003021670679106454 0 0.046139501934361768 0.0006783027306903023 0 0.046801855496001792 -0.00082768430337515591 0 0.046053902646775786 0.0011554822449757775 0 0.045982617505320081 0.001124517773890731 0 0.045884092650962521 0.00099195356319776648 0 0.044999557893845174 -0.00094705103877488583 0 0.045926148963521145 -0.0018387700916092586 0 0.044999906436065114 -0.0031752464331062462 0 0.045926148963521145 -0.0018387700916092586 0 0.044999906436065114 -0.0031752464331062462 0 0.046333212692727319 -0.003021670679106454 0 0.044999906436065114 -0.0031752464331062462 0 0.046333212692727319 -0.003021670679106454 0 0.046745342276212097 -0.004362989932965574 0 0.047713997677243762 -0.0025241150741806251 0 0.046333212692727319 -0.003021670679106454 0 0.046745342276212097 -0.004362989932965574 0 0.048645453827380739 -0.0048135157249452809 0 0.047713997677243762 -0.0025241150741806251 0 0.046745342276212097 -0.004362989932965574 0 0.048645453827380739 -0.0048135157249452809 0 0.046745342276212097 -0.004362989932965574 0 0.047381817797501474 -0.0061958378601781883 0 0.046745342276212097 -0.004362989932965574 0 0.045000079900489813 -0.0054018650528103755 0 0.047381817797501474 -0.0061958378601781883 0 0.044999906436065114 -0.0031752464331062462 0 0.046745342276212097 -0.004362989932965574 0 0.045000079900489813 -0.0054018650528103755 0 0.044999956872365972 -0.0054021670696860619 0 0.044999971682426448 -0.0079140419018376394 0 0.047275280034672164 -0.0064043403943879083 0 0.044999898910268704 -0.0054018948414259376 0 0.047573373670911717 -0.0065001938886158706 0 0.044999971682426448 -0.0079140419018376394 0 0.047275280034672164 -0.0064043403943879083 0 0.046849449377618958 -0.0086603202441758818 0 0.047275280034672164 -0.0064043403943879083 0 0.048090400809796693 -0.0078022497137100397 0 0.046849449377618958 -0.0086603202441758818 0 0.047573373670911717 -0.0065001938886158706 0 0.048429121955296188 -0.005940974753906556 0 0.047275280034672164 -0.0064043403943879083 0 0.049410839463710117 -0.0073704668570497229 0 0.048090400809796693 -0.0078022497137100397 0 0.048645453827380739 -0.0048135157249452809 0 0.047381817797501474 -0.0061958378601781883 0 0.049653758333591473 -0.0069840702108188686 0 0.046310517710077652 -0.00045187135887939111 0 0.047339914116129256 -0.0011295654367213777 0 0.04712060813984436 -0.0023456776958872411 0 0.047936990928864415 -0.0017510877194669588 0 0.047339914116129256 -0.0011295654367213777 0 0.04712060813984436 -0.0023456776958872411 0 0.047440975261470113 -0.0023685352273141577 0 0.048429121955296188 -0.005940974753906556 0 0.048412736492080818 -0.0083597055033690013 0 0.048383909580979108 -0.0076027724253847941 0 0.047720871918329848 -0.0069262853360814161 0 0.049984442139353422 -0.0091379370321432226 0 0.049410839463710117 -0.0073704668570497229 0 0.048996859577273136 -0.008583815865641253 0 0.049253724002553789 -0.0089516413060869039 0 0.048429121955296188 -0.005940974753906556 0 0.048383909580979108 -0.0076027724253847941 0 0.048664330365458683 -0.0072666222116530123 0 0.047720871918329848 -0.0069262853360814161 0 0.048399696558320195 -0.0057975220383151612 0 0.048429121955296188 -0.005940974753906556 0 0.048090936759197934 -0.0027030523747958637 0 0.047936990928864415 -0.0017510877194669588 0 0.04712060813984436 -0.0023456776958872411 0 0.049410839463710117 -0.0073704668570497229 0 0.048090400809796693 -0.0078022497137100397 0 0.048996859577273136 -0.008583815865641253 0 0.048090400809796693 -0.0078022497137100397 0 0.048092927890535951 -0.0090493334198617128 0 0.048996859577273136 -0.008583815865641253 0 0.048090400809796693 -0.0078022497137100397 0 0.048092927890535951 -0.0090493334198617128 0 0.046849449377618958 -0.0086603202441758818 0 0.048092927890535951 -0.0090493334198617128 0 0.049256658459650215 -0.0096750775407079669 0 0.047527790129911603 -0.010385635805240691 0 0.048092927890535951 -0.0090493334198617128 0 0.048996859577273136 -0.008583815865641253 0 0.049256658459650215 -0.0096750775407079669 0 0.050174792640929194 -0.010480493941796688 0 0.049984442139353422 -0.0091379370321432226 0 0.049256658459650215 -0.0096750775407079669 0 0.049984442139353422 -0.0091379370321432226 0 0.048996859577273136 -0.008583815865641253 0 0.049256658459650215 -0.0096750775407079669 0 0.050174792640929194 -0.010480493941796688 0 0.049256658459650215 -0.0096750775407079669 0 0.049290187875800535 -0.010658873432986085 0 0.047966948769004716 -0.011765371085051071 0 0.049290187875800535 -0.010658873432986085 0 0.047527790129911603 -0.010385635805240691 0 0.049256658459650215 -0.0096750775407079669 0 0.049290187875800535 -0.010658873432986085 0 0.047527790129911603 -0.010385635805240691 0 0.046471650786839992 -0.012110560419526469 0 0.047527790129911603 -0.010385635805240691 0 0.04499992289974504 -0.010425892402705484 0 0.044999971682426448 -0.0079140419018376394 0 0.04499992289974504 -0.010425892402705484 0 0.046849449377618958 -0.0086603202441758818 0 0.048092927890535951 -0.0090493334198617128 0 0.047527790129911603 -0.010385635805240691 0 0.046849449377618958 -0.0086603202441758818 0 0.047527790129911603 -0.010385635805240691 0 0.04499992289974504 -0.010425892402705484 0 0.046849449377618958 -0.0086603202441758818 0 -0.0066055437745424278 -0.026717447726164151 0 -0.0059344656933339474 -0.027697388563034948 0 -0.0073705625707293663 -0.027694760203113102 0 -0.0066055437745424278 -0.026717447726164151 0 -0.0049199571171312829 -0.027212194749786082 0 -0.0059344656933339474 -0.027697388563034948 0 -0.0066055437745424278 -0.026717447726164151 0 -0.0073705625707293663 -0.027694760203113102 0 -0.0086953065911934239 -0.027178098486525751 0 -0.0066055437745424278 -0.026717447726164151 0 -0.0077192108892212832 -0.025560488868867307 0 -0.0086953065911934239 -0.027178098486525751 0 -0.0066055437745424278 -0.026717447726164151 0 -0.0077192108892212832 -0.025560488868867307 0 -0.0065387977081391036 -0.025063045541370475 0 -0.014413013109025817 -0.037121961966935832 0 -0.015138816746554167 -0.037393029934105912 0 -0.014285507128739158 -0.036204642598189507 0 -0.0066055437745424278 -0.026717447726164151 0 -0.0055202304710723358 -0.025404886137867341 0 -0.0065387977081391036 -0.025063045541370475 0 0.010126263644373386 -0.01579705760969459 0 0.01002607670414969 -0.015651971499743466 0 0.0098233362177161283 -0.015742507539600527 0 0.010126263644373386 -0.01579705760969459 0 0.01002607670414969 -0.015651971499743466 0 0.009965981743402498 -0.015479710613421313 0 0.01002607670414969 -0.015651971499743466 0 0.0098233362177161283 -0.015742507539600527 0 0.0099434115477870233 -0.015412545965747796 0 0.0098233362177161283 -0.015742507539600527 0 0.0097385525323211083 -0.015422556572037083 0 0.0099434115477870233 -0.015412545965747796 0 0.0097385525323211083 -0.015422556572037083 0 0.0099434115477870233 -0.015412545965747796 0 0.0099705630755994781 -0.015128126643676992 0 0.0097385525323211083 -0.015422556572037083 0 0.0099705630755994781 -0.015128126643676992 0 0.0097644431022656832 -0.015028855015388731 0 0.01002607670414969 -0.015651971499743466 0 0.0099434115477870233 -0.015412545965747796 0 0.010159175532333692 -0.015135616362337741 0 0.0018141047303274439 -0.020353501030729814 0 0.0059022308886369302 -0.019342815221937492 0 0.010166960515458602 -0.014164034683763531 0 0.0059022308886369302 -0.019342815221937492 0 -0.0066055437745424278 -0.026717447726164151 0 -0.0055202304710723358 -0.025404886137867341 0 -0.0049199571171312829 -0.027212194749786082 0 0.0099434115477870233 -0.015412545965747796 0 0.0099705630755994781 -0.015128126643676992 0 0.010159175532333692 -0.015135616362337741 0 0.0099705630755994781 -0.015128126643676992 0 0.010159175532333692 -0.015135616362337741 0 0.010133062373983549 -0.015028352319937408 0 0.0059022308886369302 -0.019342815221937492 0 0.0062268211061056429 -0.017981388742503039 0 -0.0049199571171312829 -0.027212194749786082 0 -0.0049538536313979177 -0.028246176163830024 0 -0.0059344656933339474 -0.027697388563034948 0 0.01016025735118673 -0.015135901271963507 0 0.010133062373983549 -0.015028352319937408 0 0.010175166210124724 -0.014718889722785955 0 0.0059022308886369302 -0.019342815221937492 0 -0.0002015106496128327 -0.018396801985656502 0 0.010215133859653445 -0.014705552555787756 0 0.010055208327390982 -0.014719077405095005 0 0.0099677123947761546 -0.014360721668804841 0 0.010133062373983549 -0.015028352319937408 0 0.010175166210124724 -0.014718889722785955 0 0.010055208327390982 -0.014719077405095005 0 -0.0002015106496128327 -0.018396801985656502 0 0.0069559172738067948 -0.017005036372628689 0 0.0097644431022656832 -0.015028855015388731 0 0.0098206191692381799 -0.014688163764515242 0 0.0095941454276242955 -0.014817444446019725 0 0.0097644431022656832 -0.015028855015388731 0 0.0099480309494264403 -0.01492107394503501 0 0.0098206191692381799 -0.014688163764515242 0 0.010133062373983549 -0.015028352319937408 0 0.0099480309494264403 -0.01492107394503501 0 0.010055208327390982 -0.014719077405095005 0 0.0099705630755994781 -0.015128126643676992 0 0.0097644431022656832 -0.015028855015388731 0 0.0099480309494264403 -0.01492107394503501 0 0.0099705630755994781 -0.015128126643676992 0 0.010133062373983549 -0.015028352319937408 0 0.0099480309494264403 -0.01492107394503501 0 0.010055208327390982 -0.014719077405095005 0 0.0098206191692381799 -0.014688163764515242 0 0.0099677123947761546 -0.014360721668804841 0 0.0099480309494264403 -0.01492107394503501 0 0.010055208327390982 -0.014719077405095005 0 0.0098206191692381799 -0.014688163764515242 0 0.0099677123947761546 -0.014360721668804841 0 0.0096135927666084319 -0.01433470445095684 0 0.0099095414964687802 -0.013755106830731244 0 0.0098206191692381799 -0.014688163764515242 0 0.0099677123947761546 -0.014360721668804841 0 0.0096135927666084319 -0.01433470445095684 0 -0.0002015106496128327 -0.018396801985656502 0 0.0016776586836210693 -0.015923980933449218 0 0.010215133859653445 -0.014705552555787756 0 0.0099677123947761546 -0.014360721668804841 0 0.010269823306843128 -0.013996230529461768 0 -0.0075438878382289498 -0.01567925202017869 0 -0.0091513644747414913 -0.015837411609539921 0 -0.0076579528333818765 -0.017247897214631588 0 -0.0091513644747414913 -0.015837411609539921 0 -0.0098469058063790152 -0.017058509181363285 0 -0.0076579528333818765 -0.017247897214631588 0 -0.0065073948751884153 -0.028478071571395484 0 -0.0059344656933339474 -0.027697388563034948 0 -0.0073705625707293663 -0.027694760203113102 0 -0.0049538536313979177 -0.028246176163830024 0 -0.0065073948751884153 -0.028478071571395484 0 -0.0059344656933339474 -0.027697388563034948 0 -0.0002015106496128327 -0.018396801985656502 0 -0.0091914316745290246 -0.02248465720834212 0 -0.0073705625707293663 -0.027694760203113102 0 -0.0080759090741296669 -0.02870793168180719 0 -0.0086953065911934239 -0.027178098486525751 0 -0.0091914316745290246 -0.02248465720834212 0 -0.0085412236966005313 -0.021752503275402166 0 -0.0065073948751884153 -0.028478071571395484 0 -0.0073705625707293663 -0.027694760203113102 0 -0.0080759090741296669 -0.02870793168180719 0 -0.0091513644747414913 -0.015837411609539921 0 -0.0098469058063790152 -0.017058509181363285 0 -0.010755001005696969 -0.016023204348083294 0 -0.0098469058063790152 -0.017058509181363285 0 -0.010755001005696969 -0.016023204348083294 0 -0.011318958768780734 -0.017957785357886343 0 -0.0085412236966005313 -0.021752503275402166 0 -0.013644863908790692 -0.032218361012676548 0 -0.010755001005696969 -0.016023204348083294 0 -0.01235425053244167 -0.016230308167587932 0 -0.011318958768780734 -0.017957785357886343 0 -0.013644863908790692 -0.032218361012676548 0 -0.015599565984580496 -0.017078967706145389 0 -0.015974024721766927 -0.039020039570335889 0 -0.015350708570677099 -0.038287881711728922 0 -0.015974920660263986 -0.038264944989331445 0 -0.015974024721766927 -0.039020039570335889 0 -0.016727513964516716 -0.038696590565499303 0 -0.016395024150639564 -0.038511883094914635 0 -0.015974024721766927 -0.039020039570335889 0 -0.016395024150639564 -0.038511883094914635 0 -0.015974920660263986 -0.038264944989331445 0 -0.013644863908790692 -0.032218361012676548 0 -0.012025247297184761 -0.033135143442410996 0 -0.0080759090741296669 -0.02870793168180719 0 -0.0097074733560789574 -0.028915098905932569 0 -0.0086953065911934239 -0.027178098486525751 0 -0.017509461562478568 -0.038788831362107784 0 -0.017472141930843385 -0.038813744165263994 0 -0.017355343822838987 -0.038794263568337324 0 -0.017509461562478568 -0.038788831362107784 0 -0.017355343822838987 -0.038794263568337324 0 -0.017325319979702956 -0.038705263846822963 0 -0.017472141930843385 -0.038813744165263994 0 -0.017355343822838987 -0.038794263568337324 0 -0.01732335037581469 -0.038744100717786223 0 -0.015780043964378161 -0.022519445714794754 0 -0.017270063181653753 -0.019992536508403602 0 -0.019878097702104511 -0.019736359071667577 0 -0.015245765646929104 -0.031187680345685836 0 -0.016517369392646839 -0.015512356086376401 0 -0.017472141930843385 -0.038813744165263994 0 -0.01732335037581469 -0.038744100717786223 0 -0.017306365287449825 -0.038681332608309166 0 -0.015847440138209611 -0.020268929665975977 0 -0.015780043964378161 -0.022519445714794754 0 -0.017270063181653753 -0.019992536508403602 0 -0.01732335037581469 -0.038744100717786223 0 -0.017154616487752693 -0.038797624904408759 0 -0.017170299129317536 -0.038746066946134 0 -0.017355343822838987 -0.038794263568337324 0 -0.01732335037581469 -0.038744100717786223 0 -0.017154616487752693 -0.038797624904408759 0 -0.015115179711998548 -0.029613826132475259 0 -0.014944780373310814 -0.025526070007072986 0 -0.017355343822838987 -0.038794263568337324 0 -0.017154616487752693 -0.038797624904408759 0 -0.017325319979702956 -0.038705263846822963 0 -0.017154616487752693 -0.038797624904408759 0 -0.017170299129317536 -0.038746066946134 0 -0.017057273067996034 -0.038603941938997487 0 -0.013644863908790692 -0.032218361012676548 0 -0.018411789335590709 -0.040552810555415597 0 -0.016981526914369046 -0.038511452293338813 0 -0.017154616487752693 -0.038797624904408759 0 -0.017057273067996034 -0.038603941938997487 0 -0.015974024721766927 -0.039020039570335889 0 -0.017154616487752693 -0.038797624904408759 0 -0.016727513964516716 -0.038696590565499303 0 -0.016727513964516716 -0.038696590565499303 0 -0.016395024150639564 -0.038511883094914635 0 -0.016944013179292193 -0.038491198227147597 0 -0.017154616487752693 -0.038797624904408759 0 -0.016727513964516716 -0.038696590565499303 0 -0.017052713487218804 -0.038685275092691387 0 -0.016727513964516716 -0.038696590565499303 0 -0.016944013179292193 -0.038491198227147597 0 -0.017052713487218804 -0.038685275092691387 0 -0.016944013179292193 -0.038491198227147597 0 -0.017052713487218804 -0.038685275092691387 0 -0.017325319979702956 -0.038705263846822963 0 -0.017154616487752693 -0.038797624904408759 0 -0.017052713487218804 -0.038685275092691387 0 -0.017325319979702956 -0.038705263846822963 0 -0.016944013179292193 -0.038491198227147597 0 -0.017279608397463588 -0.038513397241465089 0 -0.017325319979702956 -0.038705263846822963 0 -0.017500805027656521 -0.03867124750594788 0 -0.017279608397463588 -0.038513397241465089 0 -0.017325319979702956 -0.038705263846822963 0 -0.017500805027656521 -0.03867124750594788 0 -0.017279608397463588 -0.038513397241465089 0 -0.017485395283867028 -0.038409230446012292 0 -0.017500805027656521 -0.03867124750594788 0 -0.017509461562478568 -0.038788831362107784 0 -0.017325319979702956 -0.038705263846822963 0 -0.016944013179292193 -0.038491198227147597 0 -0.017180007768861239 -0.038285627312152445 0 -0.016869793025424473 -0.038021756716952612 0 -0.017485395283867028 -0.038409230446012292 0 -0.017180007768861239 -0.038285627312152445 0 -0.017409376284899965 -0.038009990587262683 0 -0.017279608397463588 -0.038513397241465089 0 -0.017485395283867028 -0.038409230446012292 0 -0.017180007768861239 -0.038285627312152445 0 -0.016944013179292193 -0.038491198227147597 0 -0.017279608397463588 -0.038513397241465089 0 -0.017180007768861239 -0.038285627312152445 0 -0.017180007768861239 -0.038285627312152445 0 -0.016869793025424473 -0.038021756716952612 0 -0.017409376284899965 -0.038009990587262683 0 -0.016944013179292193 -0.038491198227147597 0 -0.016869793025424473 -0.038021756716952612 0 -0.016435147811426527 -0.038109415735188529 0 -0.016395024150639564 -0.038511883094914635 0 -0.016944013179292193 -0.038491198227147597 0 -0.016435147811426527 -0.038109415735188529 0 -0.016435147811426527 -0.038109415735188529 0 -0.016457625099406292 -0.037558730524670694 0 -0.016001745176185755 -0.037804930044933807 0 -0.016869793025424473 -0.038021756716952612 0 -0.016435147811426527 -0.038109415735188529 0 -0.016457625099406292 -0.037558730524670694 0 -0.016457625099406292 -0.037558730524670694 0 -0.016963312684777146 -0.037667704314600342 0 -0.016951676375946481 -0.037184873690164988 0 -0.016869793025424473 -0.038021756716952612 0 -0.016457625099406292 -0.037558730524670694 0 -0.016963312684777146 -0.037667704314600342 0 -0.016869793025424473 -0.038021756716952612 0 -0.016963312684777146 -0.037667704314600342 0 -0.017409376284899965 -0.038009990587262683 0 -0.016963312684777146 -0.037667704314600342 0 -0.017386382142552836 -0.037631838190093983 0 -0.016951676375946481 -0.037184873690164988 0 -0.017743191174869853 -0.037689710382215164 0 -0.017386382142552836 -0.037631838190093983 0 -0.017409376284899965 -0.038009990587262683 0 -0.016963312684777146 -0.037667704314600342 0 -0.017386382142552836 -0.037631838190093983 0 -0.017409376284899965 -0.038009990587262683 0 -0.015350708570677099 -0.038287881711728922 0 -0.015624016241789128 -0.03779512281776732 0 -0.015138816746554167 -0.037393029934105912 0 -0.01087909769543785 -0.030745158579868342 0 -0.012025247297184761 -0.033135143442410996 0 -0.015350708570677099 -0.038287881711728922 0 -0.015974920660263986 -0.038264944989331445 0 -0.015624016241789128 -0.03779512281776732 0 -0.016395024150639564 -0.038511883094914635 0 -0.016435147811426527 -0.038109415735188529 0 -0.015974920660263986 -0.038264944989331445 0 -0.016435147811426527 -0.038109415735188529 0 -0.015974920660263986 -0.038264944989331445 0 -0.016001745176185755 -0.037804930044933807 0 -0.015974920660263986 -0.038264944989331445 0 -0.016001745176185755 -0.037804930044933807 0 -0.015624016241789128 -0.03779512281776732 0 -0.016457625099406292 -0.037558730524670694 0 -0.016001745176185755 -0.037804930044933807 0 -0.015661651646488858 -0.037345360225783587 0 -0.016457625099406292 -0.037558730524670694 0 -0.015661651646488858 -0.037345360225783587 0 -0.016270492170348299 -0.037098826535932904 0 -0.016001745176185755 -0.037804930044933807 0 -0.015661651646488858 -0.037345360225783587 0 -0.015624016241789128 -0.03779512281776732 0 -0.015661651646488858 -0.037345360225783587 0 -0.015138816746554167 -0.037393029934105912 0 -0.015132364922891019 -0.037118592682837827 0 -0.014413013109025817 -0.037121961966935832 0 -0.015350708570677099 -0.038287881711728922 0 -0.015138816746554167 -0.037393029934105912 0 -0.015661651646488858 -0.037345360225783587 0 -0.015624016241789128 -0.03779512281776732 0 -0.015138816746554167 -0.037393029934105912 0 -0.014884290241635996 -0.037061042945065271 0 -0.015130416022828969 -0.037307480777174253 0 -0.015138816746554167 -0.037393029934105912 0 -0.015132364922891019 -0.037118592682837827 0 -0.014832015288004669 -0.037022262057500796 0 -0.015132364922891019 -0.037118592682837827 0 -0.015032388019541836 -0.036850828555529402 0 -0.014832015288004669 -0.037022262057500796 0 -0.015132364922891019 -0.037118592682837827 0 -0.015032388019541836 -0.036850828555529402 0 -0.015296730231674329 -0.036939238809296192 0 -0.015032388019541836 -0.036850828555529402 0 -0.015296730231674329 -0.036939238809296192 0 -0.015187949369407915 -0.036704406539036658 0 -0.015296730231674329 -0.036939238809296192 0 -0.015646288675160252 -0.036656620628589237 0 -0.015187949369407915 -0.036704406539036658 0 -0.015661651646488858 -0.037345360225783587 0 -0.015132364922891019 -0.037118592682837827 0 -0.015296730231674329 -0.036939238809296192 0 -0.015661651646488858 -0.037345360225783587 0 -0.015646288675160252 -0.036656620628589237 0 -0.016270492170348299 -0.037098826535932904 0 -0.015661651646488858 -0.037345360225783587 0 -0.015296730231674329 -0.036939238809296192 0 -0.015646288675160252 -0.036656620628589237 0 -0.015646288675160252 -0.036656620628589237 0 -0.015142799246173335 -0.036496101345660621 0 -0.015104248240171401 -0.036404596090721802 0 -0.015646288675160252 -0.036656620628589237 0 -0.014915165649433227 -0.036380447611822228 0 -0.015104248240171401 -0.036404596090721802 0 -0.015583161520230334 -0.036706336108614096 0 -0.015738709624552632 -0.036190147731741826 0 -0.015142799246173335 -0.036496101345660621 0 -0.015089899744546663 -0.036415542831811733 0 -0.015104248240171401 -0.036404596090721802 0 -0.015142799246173335 -0.036496101345660621 0 -0.015089899744546663 -0.036415542831811733 0 -0.014980843933635381 -0.036453270031144937 0 -0.015142799246173335 -0.036496101345660621 0 -0.014975073838213069 -0.0366162916317085 0 -0.014980843933635381 -0.036453270031144937 0 -0.015142799246173335 -0.036496101345660621 0 -0.014975073838213069 -0.0366162916317085 0 -0.015187949369407915 -0.036704406539036658 0 -0.015032388019541836 -0.036850828555529402 0 -0.014975073838213069 -0.0366162916317085 0 -0.015187949369407915 -0.036704406539036658 0 -0.015646288675160252 -0.036656620628589237 0 -0.015142799246173335 -0.036496101345660621 0 -0.015187949369407915 -0.036704406539036658 0 -0.017758429880945597 -0.03683431279786889 0 -0.017521463508309972 -0.037252785647097574 0 -0.017230657616185113 -0.036741297146850212 0 -0.017386382142552836 -0.037631838190093983 0 -0.017521463508309972 -0.037252785647097574 0 -0.016951676375946481 -0.037184873690164988 0 -0.017521463508309972 -0.037252785647097574 0 -0.016951676375946481 -0.037184873690164988 0 -0.017230657616185113 -0.036741297146850212 0 -0.015646288675160252 -0.036656620628589237 0 -0.016270492170348299 -0.037098826535932904 0 -0.016694976420019679 -0.036607263095849898 0 -0.016951676375946481 -0.037184873690164988 0 -0.016270492170348299 -0.037098826535932904 0 -0.016694976420019679 -0.036607263095849898 0 -0.016457625099406292 -0.037558730524670694 0 -0.016951676375946481 -0.037184873690164988 0 -0.016270492170348299 -0.037098826535932904 0 -0.016694976420019679 -0.036607263095849898 0 -0.017115041752002326 -0.036257660809945351 0 -0.016533923871122895 -0.036022280265725869 0 -0.015646288675160252 -0.036656620628589237 0 -0.016694976420019679 -0.036607263095849898 0 -0.016533923871122895 -0.036022280265725869 0 -0.016951676375946481 -0.037184873690164988 0 -0.016694976420019679 -0.036607263095849898 0 -0.017230657616185113 -0.036741297146850212 0 -0.016694976420019679 -0.036607263095849898 0 -0.017230657616185113 -0.036741297146850212 0 -0.017115041752002326 -0.036257660809945351 0 -0.017230657616185113 -0.036741297146850212 0 -0.01745798897237729 -0.03648727112095506 0 -0.017115041752002326 -0.036257660809945351 0 -0.017758429880945597 -0.03683431279786889 0 -0.017230657616185113 -0.036741297146850212 0 -0.01745798897237729 -0.03648727112095506 0 -0.017654429194030676 -0.035969879436673069 0 -0.0175339068078521 -0.036196619519465505 0 -0.017337998685083414 -0.035943558011836241 0 -0.017802921339083507 -0.036405424009575728 0 -0.01745798897237729 -0.03648727112095506 0 -0.0175339068078521 -0.036196619519465505 0 -0.0175339068078521 -0.036196619519465505 0 -0.017115041752002326 -0.036257660809945351 0 -0.017337998685083414 -0.035943558011836241 0 -0.01745798897237729 -0.03648727112095506 0 -0.0175339068078521 -0.036196619519465505 0 -0.017115041752002326 -0.036257660809945351 0 -0.017115041752002326 -0.036257660809945351 0 -0.017337998685083414 -0.035943558011836241 0 -0.017107237944286795 -0.035885088633343609 0 -0.017115041752002326 -0.036257660809945351 0 -0.017107237944286795 -0.035885088633343609 0 -0.016533923871122895 -0.036022280265725869 0 -0.017107237944286795 -0.035885088633343609 0 -0.016533923871122895 -0.036022280265725869 0 -0.017231711470923481 -0.035514452920847303 0 -0.014915165649433227 -0.036380447611822228 0 -0.014703647178816028 -0.036448092059773167 0 -0.014364587481075924 -0.036208009949746316 0 -0.015738709624552632 -0.036190147731741826 0 -0.015602225450486734 -0.036255138963475535 0 -0.014703647178816028 -0.036448092059773167 0 -0.014824098344070637 -0.036194749395577049 0 -0.014364587481075924 -0.036208009949746316 0 -0.017107237944286795 -0.035885088633343609 0 -0.017231711470923481 -0.035514452920847303 0 -0.017311949331597493 -0.035739532030477889 0 -0.017337998685083414 -0.035943558011836241 0 -0.017107237944286795 -0.035885088633343609 0 -0.017311949331597493 -0.035739532030477889 0 -0.017465820826767984 -0.03558920302617842 0 -0.017231711470923481 -0.035514452920847303 0 -0.017447032936150259 -0.035629506172531439 0 -0.017231711470923481 -0.035514452920847303 0 -0.017311949331597493 -0.035739532030477889 0 -0.017447032936150259 -0.035629506172531439 0 -0.017609312834532858 -0.03569597140643431 0 -0.017587882491013358 -0.035606267424783893 0 -0.017447032936150259 -0.035629506172531439 0 -0.017609312834532858 -0.03569597140643431 0 -0.017447032936150259 -0.035629506172531439 0 -0.017507248689075973 -0.035784825532124566 0 -0.017654429194030676 -0.035969879436673069 0 -0.017337998685083414 -0.035943558011836241 0 -0.017507248689075973 -0.035784825532124566 0 -0.017311949331597493 -0.035739532030477889 0 -0.017447032936150259 -0.035629506172531439 0 -0.017507248689075973 -0.035784825532124566 0 -0.017337998685083414 -0.035943558011836241 0 -0.017311949331597493 -0.035739532030477889 0 -0.017507248689075973 -0.035784825532124566 0 -0.015699603619626849 -0.036756228066970528 0 -0.014447013903043869 -0.036459557039886584 0 -0.014656363561894181 -0.036467685420644123 0 -0.014348307975700051 -0.036540072897467392 0 -0.014788921092200176 -0.036470159793172197 0 -0.015073132783501274 -0.036352017348802515 0 -0.015104248240171401 -0.036404596090721802 0 -0.014788921092200176 -0.036470159793172197 0 -0.013055425259225002 -0.037316022132859901 0 -0.011349888963600039 -0.038484779739392364 0 -0.014656363561894181 -0.036467685420644123 0 -0.014348307975700051 -0.036540072897467392 0 -0.014171374514374805 -0.036514008574785851 0 -0.01145842998519939 -0.038268371877480896 0 -0.0093886287399865386 -0.038041920430200958 0 -0.0082267501771012674 -0.039809572907580387 0 -0.015073132783501274 -0.036352017348802515 0 -0.015089899744546663 -0.036415542831811733 0 -0.014980843933635381 -0.036453270031144937 0 -0.015073132783501274 -0.036352017348802515 0 -0.015089899744546663 -0.036415542831811733 0 -0.015104248240171401 -0.036404596090721802 0 -0.014915165649433227 -0.036380447611822228 0 -0.015104248240171401 -0.036404596090721802 0 -0.014788921092200176 -0.036470159793172197 0 -0.014557785204808639 -0.036546875436674946 0 -0.013055425259225002 -0.037316022132859901 0 -0.014703647178816028 -0.036448092059773167 0 -0.01145842998519939 -0.038268371877480896 0 -0.012866385396245553 -0.036595114763525179 0 -0.01145842998519939 -0.038268371877480896 0 -0.012083443627427684 -0.036297186223632261 0 -0.012866385396245553 -0.036595114763525179 0 -0.014703647178816028 -0.036448092059773167 0 -0.014656363561894181 -0.036467685420644123 0 -0.014788921092200176 -0.036470159793172197 0 -0.014915165649433227 -0.036380447611822228 0 -0.014703647178816028 -0.036448092059773167 0 -0.014788921092200176 -0.036470159793172197 0 -0.013180771461364428 -0.035525534119070154 0 -0.014703647178816028 -0.036448092059773167 0 -0.012866385396245553 -0.036595114763525179 0 -0.013180771461364428 -0.035525534119070154 0 -0.014703647178816028 -0.036448092059773167 0 -0.014824098344070637 -0.036194749395577049 0 -0.011601801044559809 -0.035030661122698425 0 -0.013180771461364428 -0.035525534119070154 0 -0.012083443627427684 -0.036297186223632261 0 -0.013180771461364428 -0.035525534119070154 0 -0.012083443627427684 -0.036297186223632261 0 -0.012866385396245553 -0.036595114763525179 0 -0.011601801044559809 -0.035030661122698425 0 -0.012083443627427684 -0.036297186223632261 0 -0.010537345165560767 -0.036455334716456005 0 -0.01145842998519939 -0.038268371877480896 0 -0.012083443627427684 -0.036297186223632261 0 -0.010537345165560767 -0.036455334716456005 0 -0.01145842998519939 -0.038268371877480896 0 -0.010537345165560767 -0.036455334716456005 0 -0.0093886287399865386 -0.038041920430200958 0 -0.010537345165560767 -0.036455334716456005 0 -0.0093886287399865386 -0.038041920430200958 0 -0.0087563422665397645 -0.036218681596154031 0 -0.0097689330488472444 -0.034525051143190738 0 -0.010537345165560767 -0.036455334716456005 0 -0.0087563422665397645 -0.036218681596154031 0 -0.0065402400996876341 -0.036207285198434518 0 -0.0080093410174352925 -0.038376116744040165 0 -0.0066410503374035442 -0.038466316268829501 0 -0.0093886287399865386 -0.038041920430200958 0 -0.0087563422665397645 -0.036218681596154031 0 -0.0080093410174352925 -0.038376116744040165 0 -0.0087563422665397645 -0.036218681596154031 0 -0.0065402400996876341 -0.036207285198434518 0 -0.0080093410174352925 -0.038376116744040165 0 -0.0043732502117645672 -0.033810226658067571 0 -0.0034694056528874581 -0.036742257967229554 0 -0.0023506504000981262 -0.035749130173954341 0 -0.0043732502117645672 -0.033810226658067571 0 -0.0048507912746140356 -0.036268259286683577 0 -0.0034694056528874581 -0.036742257967229554 0 -0.0043732502117645672 -0.033810226658067571 0 -0.0065402400996876341 -0.036207285198434518 0 -0.0048507912746140356 -0.036268259286683577 0 -0.0065402400996876341 -0.036207285198434518 0 -0.0048507912746140356 -0.036268259286683577 0 -0.0049880969022102102 -0.037524246824041471 0 -0.0065402400996876341 -0.036207285198434518 0 -0.0049880969022102102 -0.037524246824041471 0 -0.0066410503374035442 -0.038466316268829501 0 -0.0048507912746140356 -0.036268259286683577 0 -0.0049880969022102102 -0.037524246824041471 0 -0.0034694056528874581 -0.036742257967229554 0 -0.0049880969022102102 -0.037524246824041471 0 -0.0034694056528874581 -0.036742257967229554 0 -0.0031474435292645287 -0.038143653429259086 0 -0.0039681031489334027 -0.039625069923665997 0 -0.0031474435292645287 -0.038143653429259086 0 -0.0022140143946943239 -0.038430530280279193 0 -0.0036471571424107996 -0.036669046523082775 0 -0.0038549546884005265 -0.039264658856088416 0 -0.005104921547934611 -0.038835762399029375 0 -0.0045330783749370149 -0.040754179717324354 0 -0.0031474435292645287 -0.038143653429259086 0 -0.0049880969022102102 -0.037524246824041471 0 -0.005104921547934611 -0.038835762399029375 0 -0.0031474435292645287 -0.038143653429259086 0 -0.0049880969022102102 -0.037524246824041471 0 -0.005104921547934611 -0.038835762399029375 0 -0.0066410503374035442 -0.038466316268829501 0 -0.005104921547934611 -0.038835762399029375 0 -0.0066410503374035442 -0.038466316268829501 0 -0.0062547280483542097 -0.03935883785574671 0 -0.005104921547934611 -0.038835762399029375 0 -0.0055681536410968901 -0.039752026055765312 0 -0.0062547280483542097 -0.03935883785574671 0 -0.0041657982286395379 -0.039535096219522531 0 -0.0036471571424107996 -0.036669046523082775 0 -0.005104921547934611 -0.038835762399029375 0 -0.0055681536410968901 -0.039752026055765312 0 -0.0046130193084287664 -0.040621677778648238 0 -0.0055681536410968901 -0.039752026055765312 0 -0.0062547280483542097 -0.03935883785574671 0 -0.0063806737999396734 -0.040188596350716442 0 -0.0055681536410968901 -0.039752026055765312 0 -0.0053924156693174203 -0.040465574241969629 0 -0.0063806737999396734 -0.040188596350716442 0 -0.0053924156693174203 -0.040465574241969629 0 -0.0063806737999396734 -0.040188596350716442 0 -0.0050197915998179401 -0.041364749091718174 0 -0.0053924156693174203 -0.040465574241969629 0 -0.0046130193084287664 -0.040621677778648238 0 -0.0050197915998179401 -0.041364749091718174 0 -0.0055681536410968901 -0.039752026055765312 0 -0.0053924156693174203 -0.040465574241969629 0 -0.0046130193084287664 -0.040621677778648238 0 -0.0039681031489334027 -0.039625069923665997 0 -0.0038450451969570081 -0.040037155049060469 0 -0.0022140143946943239 -0.038430530280279193 0 -0.015699603619626849 -0.036756228066970528 0 -0.007885397300872253 -0.031986865474765883 0 -0.0063806737999396734 -0.040188596350716442 0 -0.0082267501771012674 -0.039809572907580387 0 -0.0050197915998179401 -0.041364749091718174 0 -0.011349888963600039 -0.038484779739392364 0 -0.0060297547387677128 -0.0328802811808259 0 -0.014348307975700051 -0.036540072897467392 0 -0.014171374514374805 -0.036514008574785851 0 -0.01345830698241551 -0.036713282838909012 0 -0.0093886287399865386 -0.038041920430200958 0 -0.0080093410174352925 -0.038376116744040165 0 -0.0082267501771012674 -0.039809572907580387 0 -0.0080093410174352925 -0.038376116744040165 0 -0.0071031990468706863 -0.039240643031644033 0 -0.0082267501771012674 -0.039809572907580387 0 -0.0080093410174352925 -0.038376116744040165 0 -0.0066410503374035442 -0.038466316268829501 0 -0.0071031990468706863 -0.039240643031644033 0 -0.0066410503374035442 -0.038466316268829501 0 -0.0062547280483542097 -0.03935883785574671 0 -0.0071031990468706863 -0.039240643031644033 0 -0.0071031990468706863 -0.039240643031644033 0 -0.0063806737999396734 -0.040188596350716442 0 -0.0082267501771012674 -0.039809572907580387 0 -0.0062547280483542097 -0.03935883785574671 0 -0.0071031990468706863 -0.039240643031644033 0 -0.0063806737999396734 -0.040188596350716442 0 -0.015073132783501274 -0.036352017348802515 0 -0.014980843933635381 -0.036453270031144937 0 -0.014786773695267746 -0.036451532205052775 0 -0.014171374514374805 -0.036514008574785851 0 -0.013424849836309495 -0.036658236003188537 0 -0.01345830698241551 -0.036713282838909012 0 -0.015073132783501274 -0.036352017348802515 0 -0.014786773695267746 -0.036451532205052775 0 -0.014435077694054034 -0.036436064478732461 0 -0.014975073838213069 -0.0366162916317085 0 -0.014980843933635381 -0.036453270031144937 0 -0.014875657834456629 -0.036524666205523811 0 -0.014980843933635381 -0.036453270031144937 0 -0.014875657834456629 -0.036524666205523811 0 -0.014786773695267746 -0.036451532205052775 0 -0.014875657834456629 -0.036524666205523811 0 -0.014772712684355423 -0.036593488498494663 0 -0.014786773695267746 -0.036451532205052775 0 -0.015032388019541836 -0.036850828555529402 0 -0.014975073838213069 -0.0366162916317085 0 -0.014829902779592266 -0.036760517367946978 0 -0.014975073838213069 -0.0366162916317085 0 -0.014875657834456629 -0.036524666205523811 0 -0.014772712684355423 -0.036593488498494663 0 -0.014975073838213069 -0.0366162916317085 0 -0.014772712684355423 -0.036593488498494663 0 -0.014829902779592266 -0.036760517367946978 0 -0.014772712684355423 -0.036593488498494663 0 -0.01464027804917202 -0.036535723763804449 0 -0.014553735490021922 -0.036668376901051312 0 -0.014772712684355423 -0.036593488498494663 0 -0.014553735490021922 -0.036668376901051312 0 -0.014829902779592266 -0.036760517367946978 0 -0.01464027804917202 -0.036535723763804449 0 -0.014786773695267746 -0.036451532205052775 0 -0.014435077694054034 -0.036436064478732461 0 -0.014772712684355423 -0.036593488498494663 0 -0.01464027804917202 -0.036535723763804449 0 -0.014786773695267746 -0.036451532205052775 0 -0.0084212597850412303 -0.029876174485087479 0 -0.0079929349298901112 -0.030092613806248329 0 -0.0095067487783608903 -0.031845174392484965 0 -0.0036471571424107996 -0.036669046523082775 0 -0.0060297547387677128 -0.0328802811808259 0 -0.0033930373561155721 -0.031396108152404845 0 -0.003545697589591815 -0.030991311062566456 0 -0.0039547154505797247 -0.031483061795993972 0 -0.0060297547387677128 -0.0328802811808259 0 -0.007885397300872253 -0.031986865474765883 0 -0.0060297547387677128 -0.0328802811808259 0 -0.0042599878023922991 -0.029001879033232827 0 -0.003776324399056613 -0.030854607629733535 0 -0.0032081277234617869 -0.029801735341108051 0 -0.0043953540808919838 -0.029193514063827378 0 -0.007885397300872253 -0.031986865474765883 0 -0.0042599878023922991 -0.029001879033232827 0 0.0075387438648747617 -0.020509716199051817 0 0.0076161114871589651 -0.020751752725159243 0 0.0083418078949861318 -0.020380449754979681 0 -0.0037686547338337643 -0.032116247068740944 0 -0.0033930373561155721 -0.031396108152404845 0 -0.0039547154505797247 -0.031483061795993972 0 -0.0036471571424107996 -0.036669046523082775 0 -0.00095075966720640267 -0.028650749504431413 0 -0.00032854344241132311 -0.026431490345639266 0 0.00086460782206524366 -0.027018954724975328 0 0.00066464482621804877 -0.026352788496728043 0 -0.0042599878023922991 -0.029001879033232827 0 0.0021913367709986806 -0.022848159441353169 0 -0.00042234292459762614 -0.026373336190733981 0 -0.00065575167237493491 -0.026657928057301682 0 -0.00073217680164351282 -0.026394125967646336 0 -0.0042599878023922991 -0.029001879033232827 0 0.0016464629470578007 -0.025598710637179115 0 -0.0042599878023922991 -0.029001879033232827 0 -0.00095075966720640267 -0.028650749504431413 0 0.0021913367709986806 -0.022848159441353169 0 0.0016464629470578007 -0.025598710637179115 0 -0.00095075966720640267 -0.028650749504431413 0 0.0016464629470578007 -0.025598710637179115 0 -0.0063478392083276694 -0.023545564707984207 0 -0.0060697225003317036 -0.023673122799178537 0 -0.0067919302192312172 -0.024033070855534137 0 -0.01464027804917202 -0.036535723763804449 0 -0.014435077694054034 -0.036436064478732461 0 -0.014553735490021922 -0.036668376901051312 0 -0.007885397300872253 -0.031986865474765883 0 -0.010415515185155733 -0.032028564765117097 0 -0.0042599878023922991 -0.029001879033232827 0 -0.010415515185155733 -0.032028564765117097 0 -0.0060697225003317036 -0.023673122799178537 0 -0.0067919302192312172 -0.024033070855534137 0 -0.0065387977081391036 -0.025063045541370475 0 0.0018141047303274439 -0.020353501030729814 0 0.0021913367709986806 -0.022848159441353169 0 -0.0055202304710723358 -0.025404886137867341 0 -0.0060697225003317036 -0.023673122799178537 0 -0.0065387977081391036 -0.025063045541370475 0 -0.0077192108892212832 -0.025560488868867307 0 -0.0067919302192312172 -0.024033070855534137 0 -0.0065387977081391036 -0.025063045541370475 0 -0.014413013109025817 -0.037121961966935832 0 -0.013104702654526989 -0.03490535530377846 0 -0.014285507128739158 -0.036204642598189507 0 -0.01087909769543785 -0.030745158579868342 0 -0.010415515185155733 -0.032028564765117097 0 -0.015032388019541836 -0.036850828555529402 0 -0.014832015288004669 -0.037022262057500796 0 -0.014829902779592266 -0.036760517367946978 0 -0.014553735490021922 -0.036668376901051312 0 -0.014832015288004669 -0.037022262057500796 0 -0.014829902779592266 -0.036760517367946978 0 -0.010415515185155733 -0.032028564765117097 0 -0.015130416022828969 -0.037307480777174253 0 0.0096839485310908462 -0.021630527141601939 0 0.010729005292628546 -0.02167172396108755 0 0.011552079503359819 -0.022457863771284399 0 0.0092048134853063047 -0.021699580741066954 0 0.0088475077950423055 -0.021369089036075973 0 0.011552079503359819 -0.022457863771284399 0 0.010111977125333694 -0.021054017220868113 0 0.011142676917509888 -0.022484223204298336 0 0.0098233362177161283 -0.015742507539600527 0 0.0098344304395801864 -0.0160603329486151 0 0.0093799665486711068 -0.015758670447597076 0 0.010242071734046515 -0.02148105981756045 0 0.010729005292628546 -0.02167172396108755 0 0.010493693229331334 -0.021367707033092063 0 0.0096839485310908462 -0.021630527141601939 0 0.010242071734046515 -0.02148105981756045 0 0.010729005292628546 -0.02167172396108755 0 0.010729005292628546 -0.02167172396108755 0 0.010493693229331334 -0.021367707033092063 0 0.011049374358635927 -0.021321594875897298 0 0.010126263644373386 -0.01579705760969459 0 0.0098233362177161283 -0.015742507539600527 0 0.0098344304395801864 -0.0160603329486151 0 0.010126263644373386 -0.01579705760969459 0 0.010181216463095654 -0.016374954280578325 0 0.0098344304395801864 -0.0160603329486151 0 0.0016464629470578007 -0.025598710637179115 0 0.010111977125333694 -0.021054017220868113 0 0.0060634982017242637 -0.020506408790456263 0 0.0059721156537614903 -0.020251644937873112 0 0.0088475077950423055 -0.021369089036075973 0 0.0076161114871589651 -0.020751752725159243 0 0.0096839485310908462 -0.021630527141601939 0 0.0093224862230465739 -0.020739833078934077 0 0.0076161114871589651 -0.020751752725159243 0 0.0083418078949861318 -0.020380449754979681 0 0.0093224862230465739 -0.020739833078934077 0 0.0021913367709986806 -0.022848159441353169 0 0.010549930547687625 -0.018424087181362358 0 0.0060634982017242637 -0.020506408790456263 0 0.0092048134853063047 -0.021699580741066954 0 0.0088475077950423055 -0.021369089036075973 0 0.0083418078949861318 -0.020380449754979681 0 0.0093224862230465739 -0.020739833078934077 0 0.0090633501465482384 -0.020114575912905379 0 0.0093224862230465739 -0.020739833078934077 0 0.009724798112820553 -0.019887825474022302 0 0.0090633501465482384 -0.020114575912905379 0 0.0093224862230465739 -0.020739833078934077 0 0.010080864308003222 -0.021134167547660315 0 0.01018492941156336 -0.020580680651969066 0 0.0093224862230465739 -0.020739833078934077 0 0.01018492941156336 -0.020580680651969066 0 0.009724798112820553 -0.019887825474022302 0 0.0096839485310908462 -0.021630527141601939 0 0.0093224862230465739 -0.020739833078934077 0 0.010080864308003222 -0.021134167547660315 0 0.0096839485310908462 -0.021630527141601939 0 0.010242071734046515 -0.02148105981756045 0 0.010080864308003222 -0.021134167547660315 0 0.010493693229331334 -0.021367707033092063 0 0.010676260955297012 -0.020856186290504706 0 0.011049374358635927 -0.021321594875897298 0 0.010242071734046515 -0.02148105981756045 0 0.010080864308003222 -0.021134167547660315 0 0.010493693229331334 -0.021367707033092063 0 0.010080864308003222 -0.021134167547660315 0 0.010493693229331334 -0.021367707033092063 0 0.010676260955297012 -0.020856186290504706 0 0.010080864308003222 -0.021134167547660315 0 0.010676260955297012 -0.020856186290504706 0 0.01018492941156336 -0.020580680651969066 0 0.010676260955297012 -0.020856186290504706 0 0.01018492941156336 -0.020580680651969066 0 0.01089716129431377 -0.019976490341918032 0 0.010030197459776341 -0.01912960792316425 0 0.010895874005884074 -0.018629743343968344 0 0.01089716129431377 -0.019976490341918032 0 0.01018492941156336 -0.020580680651969066 0 0.009724798112820553 -0.019887825474022302 0 0.01089716129431377 -0.019976490341918032 0 0.009724798112820553 -0.019887825474022302 0 0.010030197459776341 -0.01912960792316425 0 0.01089716129431377 -0.019976490341918032 0 0.009724798112820553 -0.019887825474022302 0 0.010030197459776341 -0.01912960792316425 0 0.0087054230204153451 -0.019197299892082242 0 0.0083418078949861318 -0.020380449754979681 0 0.0090633501465482384 -0.020114575912905379 0 0.0087054230204153451 -0.019197299892082242 0 -0.00095075966720640267 -0.028650749504431413 0 0.0033595746305573387 -0.028730086575199255 0 0.0075387438648747617 -0.020509716199051817 0 0.0083418078949861318 -0.020380449754979681 0 0.0087054230204153451 -0.019197299892082242 0 0.009724798112820553 -0.019887825474022302 0 0.0090633501465482384 -0.020114575912905379 0 0.0087054230204153451 -0.019197299892082242 0 -0.0031474435292645287 -0.038143653429259086 0 -0.0022140143946943239 -0.038430530280279193 0 -0.0024165244217851252 -0.036997253949020592 0 -0.0034694056528874581 -0.036742257967229554 0 -0.0031474435292645287 -0.038143653429259086 0 -0.0024165244217851252 -0.036997253949020592 0 -0.0022140143946943239 -0.038430530280279193 0 -0.0010440726699558146 -0.036048171752955591 0 0.00014657216308273282 -0.035932554661286024 0 0.0033595746305573387 -0.028730086575199255 0 0.0068580089095058028 -0.028506347280187062 0 -0.0022140143946943239 -0.038430530280279193 0 -0.0024165244217851252 -0.036997253949020592 0 -0.0010440726699558146 -0.036048171752955591 0 -0.0024165244217851252 -0.036997253949020592 0 -0.0010440726699558146 -0.036048171752955591 0 -0.0023506504000981262 -0.035749130173954341 0 -0.00065963893766943585 -0.034850198456574069 0 -0.0010440726699558146 -0.036048171752955591 0 -0.0023506504000981262 -0.035749130173954341 0 -0.0034694056528874581 -0.036742257967229554 0 -0.0024165244217851252 -0.036997253949020592 0 -0.0023506504000981262 -0.035749130173954341 0 0.010030197459776341 -0.01912960792316425 0 0.0098251126537685571 -0.017960927971890146 0 0.010895874005884074 -0.018629743343968344 0 0.010030197459776341 -0.01912960792316425 0 0.0087054230204153451 -0.019197299892082242 0 0.0098251126537685571 -0.017960927971890146 0 -0.0010440726699558146 -0.036048171752955591 0 0.00014657216308273282 -0.035932554661286024 0 0.00011333682510432221 -0.035524984925225371 0 -0.00065963893766943585 -0.034850198456574069 0 -0.0010440726699558146 -0.036048171752955591 0 0.00011333682510432221 -0.035524984925225371 0 0.0068580089095058028 -0.028506347280187062 0 0.0080571046102334148 -0.026577946590140476 0 0.01110365565875886 -0.025990591416586325 0 0.0080571046102334148 -0.026577946590140476 0 0.010568437025453209 -0.017912442144459525 0 0.010332022507009271 -0.018029221184433415 0 0.01120505103688116 -0.018717114572150795 0 0.0080571046102334148 -0.026577946590140476 0 0.010475862266789543 -0.018222181645481554 0 0.0098251126537685571 -0.017960927971890146 0 0.0098033752690585702 -0.017783443735195727 0 0.010895874005884074 -0.018629743343968344 0 0.01110365565875886 -0.025990591416586325 0 0.015303466499400937 -0.02105735128098787 0 0.01120505103688116 -0.018717114572150795 0 0.01196569324300961 -0.019428627687900036 0 0.012625152131019841 -0.018312399571265146 0 0.010568437025453209 -0.017912442144459525 0 0.01120505103688116 -0.018717114572150795 0 0.012625152131019841 -0.018312399571265146 0 0.016532258578646982 -0.024698640686674073 0 0.016020418900323866 -0.024855064420967059 0 0.017199227929370901 -0.025107428008535534 0 0.016984790693100778 -0.02467516853956362 0 0.016532258578646982 -0.024698640686674073 0 0.017199227929370901 -0.025107428008535534 0 0.010475862266789543 -0.018222181645481554 0 0.012001188079520943 -0.019490880220471844 0 0.010895874005884074 -0.018629743343968344 0 0.01196569324300961 -0.019428627687900036 0 0.01089716129431377 -0.019976490341918032 0 0.01196569324300961 -0.019428627687900036 0 0.01089716129431377 -0.019976490341918032 0 0.012308008448687414 -0.020497353886160086 0 0.01196569324300961 -0.019428627687900036 0 0.013549579817131244 -0.019545577618252017 0 0.012308008448687414 -0.020497353886160086 0 0.01196569324300961 -0.019428627687900036 0 0.012625152131019841 -0.018312399571265146 0 0.013549579817131244 -0.019545577618252017 0 0.017328560634484801 -0.024642740005023842 0 0.017199227929370901 -0.025107428008535534 0 0.01780830051533179 -0.024866314387056169 0 0.017328560634484801 -0.024642740005023842 0 0.016984790693100778 -0.02467516853956362 0 0.017199227929370901 -0.025107428008535534 0 0.015303466499400937 -0.02105735128098787 0 0.016609765359330605 -0.022179409302495304 0 0.017199227929370901 -0.025107428008535534 0 0.01780830051533179 -0.024866314387056169 0 0.018290522070745972 -0.025321509556168888 0 0.01780830051533179 -0.024866314387056169 0 0.01833051467905646 -0.024857486177509477 0 0.018290522070745972 -0.025321509556168888 0 0.018852181914910095 -0.024539310583038727 0 0.01833051467905646 -0.024857486177509477 0 0.018735543337367853 -0.025023355209530022 0 0.01833051467905646 -0.024857486177509477 0 0.018290522070745972 -0.025321509556168888 0 0.018735543337367853 -0.025023355209530022 0 0.015064098501723178 -0.018840871741327675 0 0.015487894093385067 -0.020465376293986703 0 0.017518529607435794 -0.019432193600470077 0 0.015064098501723178 -0.018840871741327675 0 0.013549579817131244 -0.019545577618252017 0 0.015487894093385067 -0.020465376293986703 0 0.012625152131019841 -0.018312399571265146 0 0.015064098501723178 -0.018840871741327675 0 0.013549579817131244 -0.019545577618252017 0 0.013744001820334814 -0.020986957035015571 0 0.015487894093385067 -0.020465376293986703 0 0.015148817399065062 -0.022066683991630996 0 0.013549579817131244 -0.019545577618252017 0 0.013744001820334814 -0.020986957035015571 0 0.015487894093385067 -0.020465376293986703 0 0.015487894093385067 -0.020465376293986703 0 0.015148817399065062 -0.022066683991630996 0 0.016965795584356038 -0.021425723163464513 0 0.013744001820334814 -0.020986957035015571 0 0.015148817399065062 -0.022066683991630996 0 0.013565259431557541 -0.022265642691414688 0 0.013565259431557541 -0.022265642691414688 0 0.012562802231190258 -0.02166648703250031 0 0.012138309247373207 -0.022846094230423195 0 0.013744001820334814 -0.020986957035015571 0 0.013565259431557541 -0.022265642691414688 0 0.012562802231190258 -0.02166648703250031 0 0.011552079503359819 -0.022457863771284399 0 0.01136298105530565 -0.021759900529126387 0 0.011845749105976331 -0.021992008290335409 0 0.0092048134853063047 -0.021699580741066954 0 0.011552079503359819 -0.022457863771284399 0 0.012138309247373207 -0.022846094230423195 0 0.011552079503359819 -0.022457863771284399 0 0.011845749105976331 -0.021992008290335409 0 0.012138309247373207 -0.022846094230423195 0 0.010549930547687625 -0.018424087181362358 0 0.010614103611713178 -0.01937685626424222 0 0.012562802231190258 -0.02166648703250031 0 0.011845749105976331 -0.021992008290335409 0 0.012138309247373207 -0.022846094230423195 0 0.01136298105530565 -0.021759900529126387 0 0.011729418450412541 -0.02134754635642715 0 0.011049374358635927 -0.021321594875897298 0 0.010729005292628546 -0.02167172396108755 0 0.011552079503359819 -0.022457863771284399 0 0.01136298105530565 -0.021759900529126387 0 0.010729005292628546 -0.02167172396108755 0 0.01136298105530565 -0.021759900529126387 0 0.011049374358635927 -0.021321594875897298 0 0.012562802231190258 -0.02166648703250031 0 0.011845749105976331 -0.021992008290335409 0 0.011729418450412541 -0.02134754635642715 0 0.01136298105530565 -0.021759900529126387 0 0.011845749105976331 -0.021992008290335409 0 0.011729418450412541 -0.02134754635642715 0 0.01089716129431377 -0.019976490341918032 0 0.011338544243050096 -0.020800431303941155 0 0.012308008448687414 -0.020497353886160086 0 0.011729418450412541 -0.02134754635642715 0 0.011338544243050096 -0.020800431303941155 0 0.012308008448687414 -0.020497353886160086 0 0.011729418450412541 -0.02134754635642715 0 0.011049374358635927 -0.021321594875897298 0 0.011338544243050096 -0.020800431303941155 0 0.010676260955297012 -0.020856186290504706 0 0.011049374358635927 -0.021321594875897298 0 0.011338544243050096 -0.020800431303941155 0 0.010676260955297012 -0.020856186290504706 0 0.01089716129431377 -0.019976490341918032 0 0.011338544243050096 -0.020800431303941155 0 0.013549579817131244 -0.019545577618252017 0 0.013744001820334814 -0.020986957035015571 0 0.012308008448687414 -0.020497353886160086 0 0.013744001820334814 -0.020986957035015571 0 0.012562802231190258 -0.02166648703250031 0 0.012308008448687414 -0.020497353886160086 0 0.012562802231190258 -0.02166648703250031 0 0.011729418450412541 -0.02134754635642715 0 0.012308008448687414 -0.020497353886160086 0 0.020854079992606377 -0.025189331667988479 0 0.019775809150015217 -0.025060763905850245 0 0.019847260729701909 -0.026085141735579645 0 0.020430315535318214 -0.024429297019934158 0 0.020854079992606377 -0.025189331667988479 0 0.019775809150015217 -0.025060763905850245 0 0.019775809150015217 -0.025060763905850245 0 0.019025100434880291 -0.025568788040440969 0 0.019847260729701909 -0.026085141735579645 0 0.018273737414334693 -0.022492278826016954 0 0.020045265280085857 -0.023092054797579881 0 0.019775809150015217 -0.025060763905850245 0 0.019094605091502188 -0.024833669578118951 0 0.019025100434880291 -0.025568788040440969 0 0.019094605091502188 -0.024833669578118951 0 0.018735543337367853 -0.025023355209530022 0 0.019025100434880291 -0.025568788040440969 0 0.018852181914910095 -0.024539310583038727 0 0.019094605091502188 -0.024833669578118951 0 0.018735543337367853 -0.025023355209530022 0 0.016609765359330605 -0.022179409302495304 0 0.018273737414334693 -0.022492278826016954 0 0.018290522070745972 -0.025321509556168888 0 0.018735543337367853 -0.025023355209530022 0 0.019025100434880291 -0.025568788040440969 0 0.015487894093385067 -0.020465376293986703 0 0.017518529607435794 -0.019432193600470077 0 0.016965795584356038 -0.021425723163464513 0 0.015148817399065062 -0.022066683991630996 0 0.016965795584356038 -0.021425723163464513 0 0.016564489953365499 -0.023190824319713924 0 0.016965795584356038 -0.021425723163464513 0 0.018020395223612089 -0.022590309369270645 0 0.016564489953365499 -0.023190824319713924 0 0.016965795584356038 -0.021425723163464513 0 0.018560030482732654 -0.021155953453455802 0 0.018020395223612089 -0.022590309369270645 0 0.018560030482732654 -0.021155953453455802 0 0.019946855838490568 -0.022347867664124849 0 0.018020395223612089 -0.022590309369270645 0 0.017518529607435794 -0.019432193600470077 0 0.018560030482732654 -0.021155953453455802 0 0.020003890330061145 -0.020024397966172544 0 0.017518529607435794 -0.019432193600470077 0 0.016965795584356038 -0.021425723163464513 0 0.018560030482732654 -0.021155953453455802 0 0.018560030482732654 -0.021155953453455802 0 0.020003890330061145 -0.020024397966172544 0 0.019946855838490568 -0.022347867664124849 0 0.022159829843810416 -0.021972439121645017 0 0.020003890330061145 -0.020024397966172544 0 0.019946855838490568 -0.022347867664124849 0 0.022587594184159166 -0.020658954858299879 0 0.022159829843810416 -0.021972439121645017 0 0.020003890330061145 -0.020024397966172544 0 0.021598276389098909 -0.023845790211704149 0 0.020045265280085857 -0.023092054797579881 0 0.020854079992606377 -0.025189331667988479 0 0.021377701006316335 -0.027110447808907517 0 0.019847260729701909 -0.026085141735579645 0 0.026465293012524344 -0.010790336743076332 0 0.026337024306154477 -0.010957978709942761 0 0.02613225748874453 -0.010727388163762319 0 0.026465293012524344 -0.010790336743076332 0 0.026491756455267922 -0.010932284085140916 0 0.026337024306154477 -0.010957978709942761 0 0.022159829843810416 -0.021972439121645017 0 0.021827546177007523 -0.02328353329894603 0 0.019946855838490568 -0.022347867664124849 0 0.024118873153834684 -0.016995588611378922 0 0.022906614446189605 -0.017449871654218279 0 0.021827546177007523 -0.02328353329894603 0 0.019946855838490568 -0.022347867664124849 0 0.019953166175843584 -0.024134697593036734 0 0.019946855838490568 -0.022347867664124849 0 0.019953166175843584 -0.024134697593036734 0 0.01869803489665035 -0.023685716347024273 0 0.019946855838490568 -0.022347867664124849 0 0.018020395223612089 -0.022590309369270645 0 0.01869803489665035 -0.023685716347024273 0 0.02613225748874453 -0.010727388163762319 0 0.024580287576678787 -0.011089512222918044 0 0.026036711722400865 -0.011206664559771087 0 0.019953166175843584 -0.024134697593036734 0 0.018113816229197686 -0.02490913776562121 0 0.01869803489665035 -0.023685716347024273 0 0.022906614446189605 -0.017449871654218279 0 0.021959656107199119 -0.018152186210418798 0 0.026337024306154477 -0.010957978709942761 0 0.02613225748874453 -0.010727388163762319 0 0.026036711722400865 -0.011206664559771087 0 0.018113816229197686 -0.02490913776562121 0 0.017524789439423517 -0.024032325183354582 0 0.017404364998584554 -0.025078087340599117 0 0.018113816229197686 -0.02490913776562121 0 0.01869803489665035 -0.023685716347024273 0 0.017524789439423517 -0.024032325183354582 0 0.018020395223612089 -0.022590309369270645 0 0.01869803489665035 -0.023685716347024273 0 0.017524789439423517 -0.024032325183354582 0 0.016564489953365499 -0.023190824319713924 0 0.0168334394510011 -0.023915920614168164 0 0.017524789439423517 -0.024032325183354582 0 0.018020395223612089 -0.022590309369270645 0 0.016564489953365499 -0.023190824319713924 0 0.017524789439423517 -0.024032325183354582 0 0.016564489953365499 -0.023190824319713924 0 0.016367048304061608 -0.024347994616697927 0 0.0168334394510011 -0.023915920614168164 0 0.016367048304061608 -0.024347994616697927 0 0.0168334394510011 -0.023915920614168164 0 0.016978165467410034 -0.02449175314777154 0 0.0168334394510011 -0.023915920614168164 0 0.017524789439423517 -0.024032325183354582 0 0.016978165467410034 -0.02449175314777154 0 0.017524789439423517 -0.024032325183354582 0 0.016978165467410034 -0.02449175314777154 0 0.017404364998584554 -0.025078087340599117 0 0.013640332424870037 -0.021321036615542719 0 0.018213867770000582 -0.025185351820638892 0 0.016978165467410034 -0.02449175314777154 0 0.016379126745376161 -0.024659949526774028 0 0.017404364998584554 -0.025078087340599117 0 0.014035090709823722 -0.022756200469769169 0 0.013640332424870037 -0.021321036615542719 0 0.016367048304061608 -0.024347994616697927 0 0.016978165467410034 -0.02449175314777154 0 0.016379126745376161 -0.024659949526774028 0 0.024580287576678787 -0.011089512222918044 0 0.022707891575202709 -0.011925369286680716 0 0.024380916079108778 -0.012297823173870048 0 0.018113816229197686 -0.02490913776562121 0 0.017404364998584554 -0.025078087340599117 0 0.016383773622831183 -0.025579833343957581 0 0.021959656107199119 -0.018152186210418798 0 0.015539451666875724 -0.015828732136009816 0 0.016392215232424009 -0.024498316117586964 0 0.017404364998584554 -0.025078087340599117 0 0.016383773622831183 -0.025579833343957581 0 0.013640332424870037 -0.021321036615542719 0 0.015539451666875724 -0.015828732136009816 0 0.022707891575202709 -0.011925369286680716 0 0.023996364009005195 -0.013551906801526148 0 0.024380916079108778 -0.012297823173870048 0 0.022707891575202709 -0.011925369286680716 0 0.023996364009005195 -0.013551906801526148 0 0.022679177103421339 -0.013940942182488144 0 0.015539451666875724 -0.015828732136009816 0 0.014058794163642299 -0.013433239349058075 0 0.023996364009005195 -0.013551906801526148 0 0.024380916079108778 -0.012297823173870048 0 0.025356431127525621 -0.013054062292613184 0 0.025088682138206846 -0.011906847115081387 0 0.024380916079108778 -0.012297823173870048 0 0.025356431127525621 -0.013054062292613184 0 0.024580287576678787 -0.011089512222918044 0 0.025088682138206846 -0.011906847115081387 0 0.024380916079108778 -0.012297823173870048 0 0.024580287576678787 -0.011089512222918044 0 0.025088682138206846 -0.011906847115081387 0 0.026036711722400865 -0.011206664559771087 0 0.026138172760550055 -0.010999538739575071 0 0.025739399495965379 -0.012697770506138472 0 0.025088682138206846 -0.011906847115081387 0 0.026036711722400865 -0.011206664559771087 0 0.025356431127525621 -0.013054062292613184 0 0.026036711722400865 -0.011206664559771087 0 0.026440607513201774 -0.011120663609557897 0 0.026258918819166161 -0.011157971467470738 0 0.026036711722400865 -0.011206664559771087 0 0.026258918819166161 -0.011157971467470738 0 0.026257979760960469 -0.011139141229209013 0 0.026440607513201774 -0.011120663609557897 0 0.026324542740014764 -0.011075262557038298 0 0.02638939787426604 -0.010885199424836641 0 0.026324542740014764 -0.011075262557038298 0 0.026258918819166161 -0.011157971467470738 0 0.026294847446548475 -0.011136822359030206 0 0.026440607513201774 -0.011120663609557897 0 0.026324542740014764 -0.011075262557038298 0 0.026258918819166161 -0.011157971467470738 0 0.03254829381132187 -0.0065598939287323894 0 0.030133952062337887 -0.0077243121215392974 0 0.026258918819166161 -0.011157971467470738 0 0.026294847446548475 -0.011136822359030206 0 0.026304826939805535 -0.011140233354381421 0 0.026294847446548475 -0.011136822359030206 0 0.026389094294634593 -0.011153488682944525 0 0.026304826939805535 -0.011140233354381421 0 0.026508121416217639 -0.011189969133958907 0 0.026389094294634593 -0.011153488682944525 0 0.026299940712093239 -0.011201089191264975 0 0.026324542740014764 -0.011075262557038298 0 0.026294847446548475 -0.011136822359030206 0 0.02627109159423582 -0.010970845084480379 0 0.026294847446548475 -0.011136822359030206 0 0.026389094294634593 -0.011153488682944525 0 0.026299940712093239 -0.011201089191264975 0 0.027563341926893251 -0.011606708876970271 0 0.030133952062337887 -0.0077243121215392974 0 0.026389094294634593 -0.011153488682944525 0 0.026410806342587904 -0.011082665208307606 0 0.026304826939805535 -0.011140233354381421 0 0.026410806342587904 -0.011082665208307606 0 0.026304826939805535 -0.011140233354381421 0 0.026257979760960469 -0.011139141229209013 0 0.026258918819166161 -0.011157971467470738 0 0.026304826939805535 -0.011140233354381421 0 0.026257979760960469 -0.011139141229209013 0 0.026337024306154477 -0.010957978709942761 0 0.026036711722400865 -0.011206664559771087 0 0.026257979760960469 -0.011139141229209013 0 0.026491756455267922 -0.010932284085140916 0 0.026337024306154477 -0.010957978709942761 0 0.026410806342587904 -0.011082665208307606 0 0.026337024306154477 -0.010957978709942761 0 0.026410806342587904 -0.011082665208307606 0 0.026257979760960469 -0.011139141229209013 0 0.0091206775333324292 -0.015085008184972168 0 0.0094950508870197334 -0.015143263659109153 0 0.0093799665486711068 -0.015758670447597076 0 0.0097385525323211083 -0.015422556572037083 0 0.0097644431022656832 -0.015028855015388731 0 0.0094950508870197334 -0.015143263659109153 0 0.0097385525323211083 -0.015422556572037083 0 0.0094950508870197334 -0.015143263659109153 0 0.0093799665486711068 -0.015758670447597076 0 0.0098233362177161283 -0.015742507539600527 0 0.0097385525323211083 -0.015422556572037083 0 0.0093799665486711068 -0.015758670447597076 0 0.0091206775333324292 -0.015085008184972168 0 0.0093799665486711068 -0.015758670447597076 0 0.0088677170704641022 -0.015396716800421763 0 0.010614103611713178 -0.01937685626424222 0 0.011264243683686521 -0.019298944882091062 0 0.013565259431557541 -0.022265642691414688 0 0.012138309247373207 -0.022846094230423195 0 0.014218773886829067 -0.023722607046783067 0 0.015148817399065062 -0.022066683991630996 0 0.013565259431557541 -0.022265642691414688 0 0.014218773886829067 -0.023722607046783067 0 0.016564489953365499 -0.023190824319713924 0 0.016367048304061608 -0.024347994616697927 0 0.014218773886829067 -0.023722607046783067 0 0.015148817399065062 -0.022066683991630996 0 0.016564489953365499 -0.023190824319713924 0 0.014218773886829067 -0.023722607046783067 0 0.016367048304061608 -0.024347994616697927 0 0.016358016823408632 -0.024678507751894247 0 0.014218773886829067 -0.023722607046783067 0 0.013640332424870037 -0.021321036615542719 0 0.011264243683686521 -0.019298944882091062 0 0.0083863949930053153 -0.015089800196148865 0 0.0088677170704641022 -0.015396716800421763 0 0.0086147577538205119 -0.014910056869112554 0 0.0091206775333324292 -0.015085008184972168 0 0.0088677170704641022 -0.015396716800421763 0 0.0088443871060677002 -0.014870807014283612 0 0.0088677170704641022 -0.015396716800421763 0 0.0088443871060677002 -0.014870807014283612 0 0.0086147577538205119 -0.014910056869112554 0 0.0091206775333324292 -0.015085008184972168 0 0.0088443871060677002 -0.014870807014283612 0 0.0090377721657753495 -0.014603336214348703 0 0.0088443871060677002 -0.014870807014283612 0 0.0086748162618868509 -0.014682576703015055 0 0.0087894939538761072 -0.014497009208567288 0 0.0088443871060677002 -0.014870807014283612 0 0.0087894939538761072 -0.014497009208567288 0 0.0090377721657753495 -0.014603336214348703 0 0.0083863949930053153 -0.015089800196148865 0 0.008383448269048686 -0.014756934093225781 0 0.0086147577538205119 -0.014910056869112554 0 0.0088443871060677002 -0.014870807014283612 0 0.0086147577538205119 -0.014910056869112554 0 0.0086748162618868509 -0.014682576703015055 0 0.0086147577538205119 -0.014910056869112554 0 0.0086748162618868509 -0.014682576703015055 0 0.0085206650371273032 -0.014660121450557144 0 0.0086748162618868509 -0.014682576703015055 0 0.0085206650371273032 -0.014660121450557144 0 0.0086111904688447542 -0.014485745713710479 0 0.008383448269048686 -0.014756934093225781 0 0.0086147577538205119 -0.014910056869112554 0 0.0085206650371273032 -0.014660121450557144 0 0.015539451666875724 -0.015828732136009816 0 0.010240925228672154 -0.016627775557262962 0 0.0084012219884490851 -0.014726464523798785 0 0.0084890763151415256 -0.014376578885935827 0 0.0084333997491791383 -0.014160510374272798 0 0.0084012219884490851 -0.014726464523798785 0 0.0085206650371273032 -0.014660121450557144 0 0.0084890763151415256 -0.014376578885935827 0 0.0085206650371273032 -0.014660121450557144 0 0.0086111904688447542 -0.014485745713710479 0 0.0084890763151415256 -0.014376578885935827 0 0.0086748162618868509 -0.014682576703015055 0 0.0086111904688447542 -0.014485745713710479 0 0.0087894939538761072 -0.014497009208567288 0 0.0086111904688447542 -0.014485745713710479 0 0.0087894939538761072 -0.014497009208567288 0 0.0086621708463025457 -0.014176053691585739 0 0.0086111904688447542 -0.014485745713710479 0 0.0084890763151415256 -0.014376578885935827 0 0.0086621708463025457 -0.014176053691585739 0 0.010367011537046006 -0.013428481635129606 0 0.014058794163642299 -0.013433239349058075 0 0.0084890763151415256 -0.014376578885935827 0 0.0086621708463025457 -0.014176053691585739 0 0.0084289464582132899 -0.014163540471496722 0 0.0087894939538761072 -0.014497009208567288 0 0.0089772748374156216 -0.01425053732529287 0 0.0086621708463025457 -0.014176053691585739 0 0.0087894939538761072 -0.014497009208567288 0 0.0089772748374156216 -0.01425053732529287 0 0.0090377721657753495 -0.014603336214348703 0 0.0089772748374156216 -0.01425053732529287 0 0.0092710914656144554 -0.014351112476843734 0 0.0094254497054688906 -0.013782513575919586 0 0.0092710914656144554 -0.014351112476843734 0 0.0090377721657753495 -0.014603336214348703 0 0.0093470379576018701 -0.014720609728093031 0 0.0089772748374156216 -0.01425053732529287 0 0.0092710914656144554 -0.014351112476843734 0 0.0090377721657753495 -0.014603336214348703 0 0.0091206775333324292 -0.015085008184972168 0 0.0094950508870197334 -0.015143263659109153 0 0.0093470379576018701 -0.014720609728093031 0 0.0091206775333324292 -0.015085008184972168 0 0.0090377721657753495 -0.014603336214348703 0 0.0093470379576018701 -0.014720609728093031 0 0.0098206191692381799 -0.014688163764515242 0 0.0095941454276242955 -0.014817444446019725 0 0.0096135927666084319 -0.01433470445095684 0 0.0095941454276242955 -0.014817444446019725 0 0.0093470379576018701 -0.014720609728093031 0 0.0096135927666084319 -0.01433470445095684 0 0.0097644431022656832 -0.015028855015388731 0 0.0094950508870197334 -0.015143263659109153 0 0.0095941454276242955 -0.014817444446019725 0 0.0094950508870197334 -0.015143263659109153 0 0.0095941454276242955 -0.014817444446019725 0 0.0093470379576018701 -0.014720609728093031 0 0.0092710914656144554 -0.014351112476843734 0 0.0096135927666084319 -0.01433470445095684 0 0.0094254497054688906 -0.013782513575919586 0 0.0092710914656144554 -0.014351112476843734 0 0.0093470379576018701 -0.014720609728093031 0 0.0096135927666084319 -0.01433470445095684 0 0.0096135927666084319 -0.01433470445095684 0 0.0094254497054688906 -0.013782513575919586 0 0.0099095414964687802 -0.013755106830731244 0 0.0094254497054688906 -0.013782513575919586 0 0.0099095414964687802 -0.013755106830731244 0 0.0097908578439341205 -0.013317645538544341 0 0.0094254497054688906 -0.013782513575919586 0 0.0095519062786388071 -0.013091313196728535 0 0.0097908578439341205 -0.013317645538544341 0 0.0094254497054688906 -0.013782513575919586 0 0.0092177323945505287 -0.013253034239753776 0 0.0095519062786388071 -0.013091313196728535 0 0.0098055224082375658 -0.013780121836863172 0 0.0081010415265373517 -0.013756001075852054 0 0.0089772748374156216 -0.01425053732529287 0 0.0094254497054688906 -0.013782513575919586 0 0.0088673107314442747 -0.013979527843436477 0 0.0094254497054688906 -0.013782513575919586 0 0.0092177323945505287 -0.013253034239753776 0 0.0090832395810238158 -0.013417778963920136 0 0.0089772748374156216 -0.01425053732529287 0 0.0088673107314442747 -0.013979527843436477 0 0.0086621708463025457 -0.014176053691585739 0 0.0090832395810238158 -0.013417778963920136 0 0.0089440880054159795 -0.013185232347006135 0 0.0089003213231535899 -0.013276427928299419 0 0.0081010415265373517 -0.013756001075852054 0 0.012659964661836862 -0.012784741938571566 0 0.0088673107314442747 -0.013979527843436477 0 0.0086621708463025457 -0.014176053691585739 0 0.0084418899000412474 -0.013988649729591913 0 0.0086621708463025457 -0.014176053691585739 0 0.0084289464582132899 -0.014163540471496722 0 0.0084418899000412474 -0.013988649729591913 0 0.0089440880054159795 -0.013185232347006135 0 0.0089003213231535899 -0.013276427928299419 0 0.0089144493981613681 -0.013043594897838157 0 0.0089440880054159795 -0.013185232347006135 0 0.0090633420101755794 -0.013166764633520647 0 0.0089645211769731128 -0.013054415732322116 0 0.0089440880054159795 -0.013185232347006135 0 0.0089407804239261778 -0.01304909252928938 0 0.0089645211769731128 -0.013054415732322116 0 0.0089440880054159795 -0.013185232347006135 0 0.0089407804239261778 -0.01304909252928938 0 0.0089144493981613681 -0.013043594897838157 0 0.0090832395810238158 -0.013417778963920136 0 0.0089440880054159795 -0.013185232347006135 0 0.0090633420101755794 -0.013166764633520647 0 0.0092177323945505287 -0.013253034239753776 0 0.0090832395810238158 -0.013417778963920136 0 0.0090633420101755794 -0.013166764633520647 0 0.0090633420101755794 -0.013166764633520647 0 0.0091265743550520504 -0.01286027643951987 0 0.0089645211769731128 -0.013054415732322116 0 0.0092177323945505287 -0.013253034239753776 0 0.0090633420101755794 -0.013166764633520647 0 0.0091265743550520504 -0.01286027643951987 0 0.014044314618920953 -0.0069062228707200031 0 0.014735844990205893 -0.0073979553691808546 0 0.0091265743550520504 -0.01286027643951987 0 0.0089395556992958366 -0.013059213576775154 0 0.0089645211769731128 -0.013054415732322116 0 0.018990615556483941 -0.0011805667360108825 0 0.020495304456441418 -0.00056485666517715866 0 0.02005833051598389 -0.0014306632567198973 0 0.020495304456441418 -0.00056485666517715866 0 0.02005833051598389 -0.0014306632567198973 0 0.020688112327567804 -0.00057292613813132178 0 0.014735844990205893 -0.0073979553691808546 0 0.016942177888851426 -0.0061341868049518107 0 0.014735844990205893 -0.0073979553691808546 0 0.012592456413259212 -0.008000793232432581 0 0.02005833051598389 -0.0014306632567198973 0 0.02080791426453928 -0.0022154055729861409 0 0.019157319885083724 -0.0028264920664894367 0 0.02005833051598389 -0.0014306632567198973 0 0.020688112327567804 -0.00057292613813132178 0 0.02080791426453928 -0.0022154055729861409 0 0.018990615556483941 -0.0011805667360108825 0 0.02005833051598389 -0.0014306632567198973 0 0.019157319885083724 -0.0028264920664894367 0 0.018990615556483941 -0.0011805667360108825 0 0.017394091273024451 -0.0018523341737436399 0 0.019157319885083724 -0.0028264920664894367 0 0.014044314618920953 -0.0069062228707200031 0 0.013701387952007739 -0.0075237867922164072 0 0.0095165161620265719 -0.012548258478909597 0 0.0095519062786388071 -0.013091313196728535 0 0.009882988000362157 -0.012842953749527238 0 0.0091265743550520504 -0.01286027643951987 0 0.0095165161620265719 -0.012548258478909597 0 0.0095519062786388071 -0.013091313196728535 0 0.0092177323945505287 -0.013253034239753776 0 0.0091265743550520504 -0.01286027643951987 0 0.0095519062786388071 -0.013091313196728535 0 0.038212814499184081 -0.001782865720018207 0 0.038336642227010276 -0.0018385022563201523 0 0.038386109765475789 -0.0015429891195221095 0 0.038164885599849256 -0.0016409157361766586 0 0.038212814499184081 -0.001782865720018207 0 0.038386109765475789 -0.0015429891195221095 0 0.038212814499184081 -0.001782865720018207 0 0.038170956962158033 -0.0019653529315364613 0 0.038336642227010276 -0.0018385022563201523 0 0.038040264017172525 -0.0018567393972815927 0 0.038164885599849256 -0.0016409157361766586 0 0.038212814499184081 -0.001782865720018207 0 0.037987775217132008 -0.0022676706461592535 0 0.038170956962158033 -0.0019653529315364613 0 0.03827862695792008 -0.0021035249836874074 0 0.038040264017172525 -0.0018567393972815927 0 0.038212814499184081 -0.001782865720018207 0 0.038170956962158033 -0.0019653529315364613 0 0.030133952062337887 -0.0077243121215392974 0 0.030673644252380977 -0.0054658997722602937 0 0.038170956962158033 -0.0019653529315364613 0 0.03827862695792008 -0.0021035249836874074 0 0.038336642227010276 -0.0018385022563201523 0 0.026440607513201774 -0.011120663609557897 0 0.02638939787426604 -0.010885199424836641 0 0.026627920539007491 -0.010743461956776902 0 0.02638939787426604 -0.010885199424836641 0 0.026330008023559875 -0.010711921691420927 0 0.026627920539007491 -0.010743461956776902 0 0.026308246815940711 -0.010905332657700771 0 0.02638939787426604 -0.010885199424836641 0 0.026330008023559875 -0.010711921691420927 0 0.030133952062337887 -0.0077243121215392974 0 0.025910455387779831 -0.010355414254970698 0 0.026324542740014764 -0.011075262557038298 0 0.02627109159423582 -0.010970845084480379 0 0.02638939787426604 -0.010885199424836641 0 0.030115798471232497 -0.0043425279859551384 0 0.028870881362277955 -0.0042390600960702527 0 0.029890028180196 -0.0053955978807338377 0 0.030673644252380977 -0.0054658997722602937 0 0.035267654389990549 -0.0010776659079036854 0 0.030673644252380977 -0.0054658997722602937 0 0.025862032467611231 -0.0097698231557504095 0 0.028870881362277955 -0.0042390600960702527 0 0.028456780482978162 -0.0053464024242837792 0 0.029890028180196 -0.0053955978807338377 0 0.022413948224138846 -0.0087124728457002899 0 0.023329820323621193 -0.0071510734884215063 0 0.022978615702981878 -0.0071324420381992876 0 0.025862032467611231 -0.0097698231557504095 0 0.02569413589200676 -0.0039298855317300881 0 0.025739399495965379 -0.012697770506138472 0 0.025862032467611231 -0.0097698231557504095 0 0.023996364009005195 -0.013551906801526148 0 0.025356431127525621 -0.013054062292613184 0 0.024647955245736312 -0.014883710955450949 0 0.023996364009005195 -0.013551906801526148 0 0.024647955245736312 -0.014883710955450949 0 0.023449122354739803 -0.014115546780043229 0 0.024647955245736312 -0.014883710955450949 0 0.023449122354739803 -0.014115546780043229 0 0.023004114696924084 -0.014744140833352754 0 0.025862032467611231 -0.0097698231557504095 0 0.019730844266212216 -0.012233718364642716 0 0.023996364009005195 -0.013551906801526148 0 0.023449122354739803 -0.014115546780043229 0 0.022679177103421339 -0.013940942182488144 0 0.023449122354739803 -0.014115546780043229 0 0.022679177103421339 -0.013940942182488144 0 0.023004114696924084 -0.014744140833352754 0 0.014058794163642299 -0.013433239349058075 0 0.012659964661836862 -0.012784741938571566 0 0.014058794163642299 -0.013433239349058075 0 0.019730844266212216 -0.012233718364642716 0 0.01572227302233619 -0.013319991008717516 0 0.015005854045500306 -0.01141949155098868 0 0.015764926506687676 -0.011493812110091199 0 0.019730844266212216 -0.012233718364642716 0 0.012659964661836862 -0.012784741938571566 0 0.019730844266212216 -0.012233718364642716 0 0.021986016777871813 -0.0047858613638647888 0 0.018301069263703843 -0.010974426960448081 0 0.019024618023185353 -0.01104677165673712 0 0.019112907534952109 -0.0072285420341098843 0 0.018301069263703843 -0.010974426960448081 0 0.019112907534952109 -0.0072285420341098843 0 0.016858630363008831 -0.0071175372580327282 0 0.022413948224138846 -0.0087124728457002899 0 0.023963468039863874 -0.0088753111018084283 0 0.023329820323621193 -0.0071510734884215063 0 0.012659964661836862 -0.012784741938571566 0 0.016942177888851426 -0.0061341868049518107 0 0.020890391200778749 -0.00049382465975339072 0 0.021327503312791353 -0.00098627159632950134 0 0.02080791426453928 -0.0022154055729861409 0 0.016942177888851426 -0.0061341868049518107 0 0.021986016777871813 -0.0047858613638647888 0 0.020890391200778749 -0.00049382465975339072 0 0.021673542501787647 -0.00053531313484894141 0 0.021327503312791353 -0.00098627159632950134 0 0.021673542501787647 -0.00053531313484894141 0 0.021821488216839786 -0.00089247714577590505 0 0.021327503312791353 -0.00098627159632950134 0 0.021986016777871813 -0.0047858613638647888 0 0.02569413589200676 -0.0039298855317300881 0 0.024254081925671685 -0.0045486536034602633 0 0.023704403656029233 -0.0031165100465163601 0 0.023201478102572635 -0.0044989770110180237 0 0.021986016777871813 -0.0047858613638647888 0 0.023969651229520949 -0.0016218100301329966 0 0.021821488216839786 -0.00089247714577590505 0 0.021327503312791353 -0.00098627159632950134 0 0.021681083940038308 -0.0013064574705007445 0 0.023969651229520949 -0.0016218100301329966 0 0.023006049799204425 -0.0015935950443999032 0 0.016942177888851426 -0.0061341868049518107 0 0.021802985805372734 0.00027225989249732979 0 0.021327503312791353 -0.00098627159632950134 0 0.02080791426453928 -0.0022154055729861409 0 0.021681083940038308 -0.0013064574705007445 0 0.02080791426453928 -0.0022154055729861409 0 0.021637105813773885 -0.0022320983310429136 0 0.021681083940038308 -0.0013064574705007445 0 0.030409471846533014 -0.00032874709629320188 0 0.030653348481942393 -0.00064460791098929773 0 0.030342509983791184 -0.00081483117159826296 0 0.030037308875174976 -0.00017648102289287933 0 0.030409471846533014 -0.00032874709629320188 0 0.030342509983791184 -0.00081483117159826296 0 0.021637105813773885 -0.0022320983310429136 0 0.021681083940038308 -0.0013064574705007445 0 0.022542862126269138 -0.0024125191532708111 0 0.021841958896115416 -0.00086094655234216703 0 0.021681083940038308 -0.0013064574705007445 0 0.022542862126269138 -0.0024125191532708111 0 0.023969651229520949 -0.0016218100301329966 0 0.026711757006845166 -0.0015169520917084193 0 0.02569413589200676 -0.0039298855317300881 0 0.035267654389990549 -0.0010776659079036854 0 0.030409471846533014 -0.00032874709629320188 0 0.030094966709052352 -1.6052881648637253e-05 0 0.030816875773668023 -3.7027528871535727e-05 0 0.030037308875174976 -0.00017648102289287933 0 0.030409471846533014 -0.00032874709629320188 0 0.030094966709052352 -1.6052881648637253e-05 0 0.023969651229520949 -0.0016218100301329966 0 0.02569413589200676 -0.0039298855317300881 0 0.035267654389990549 -0.0010776659079036854 0 0.035957697639863062 0.001346083172771375 0 0.04031752925720726 0.0021454550949699565 0 0.039402315615234558 0.0019234991563031551 0 0.039735634839147826 0.0029286333449143279 0 0.030409471846533014 -0.00032874709629320188 0 0.030816875773668023 -3.7027528871535727e-05 0 0.030653348481942393 -0.00064460791098929773 0 0.040055981632978271 0.00094326006978374662 0 0.04031752925720726 0.0021454550949699565 0 0.039402315615234558 0.0019234991563031551 0 0.038015647107349351 -0.0014286477121098391 0 0.038164885599849256 -0.0016409157361766586 0 0.038386109765475789 -0.0015429891195221095 0 0.039220621279326399 -0.00013335720975567129 0 0.035267654389990549 -0.0010776659079036854 0 0.038611159844030025 0.00096046425278107587 0 0.040055981632978271 0.00094326006978374662 0 0.039402315615234558 0.0019234991563031551 0 0.036560528547043468 0.0051615727378796876 0 0.035441820521716148 0.0054663578995929434 0 0.035999810707467342 0.0051430719219279141 0 0.038939090577119778 0.00469536589186935 0 0.032956256684042236 0.0026168569811479241 0 0.039089923461825764 0.003691357329015679 0 0.039735634839147826 0.0029286333449143279 0 0.040355233571984263 0.0037485013301217659 0 0.038623566488937777 0.0026237063652716349 0 0.039402315615234558 0.0019234991563031551 0 0.039735634839147826 0.0029286333449143279 0 0.038623566488937777 0.0026237063652716349 0 0.039089923461825764 0.003691357329015679 0 0.039735634839147826 0.0029286333449143279 0 0.04031752925720726 0.0021454550949699565 0 0.039735634839147826 0.0029286333449143279 0 0.040522821393042474 0.0033248168026702041 0 0.035957697639863062 0.001346083172771375 0 0.031362019415311013 7.9856049499478778e-05 0 0.032956256684042236 0.0026168569811479241 0 0.031362019415311013 7.9856049499478778e-05 0 0.039735634839147826 0.0029286333449143279 0 0.040355233571984263 0.0037485013301217659 0 0.040522821393042474 0.0033248168026702041 0 0.032956256684042236 0.0026168569811479241 0 0.024512590430579718 0.001944598689358433 0 0.023302654620814649 -0.0040148911256353108 0 0.021563662825080546 -0.0030822419139613245 0 0.0212738555739952 -0.004293565025395415 0 0.023302654620814649 -0.0040148911256353108 0 0.023045596990866852 -0.0034565226844631689 0 0.021563662825080546 -0.0030822419139613245 0 0.031362019415311013 7.9856049499478778e-05 0 0.026711757006845166 -0.0015169520917084193 0 0.023045596990866852 -0.0034565226844631689 0 0.022542862126269138 -0.0024125191532708111 0 0.021563662825080546 -0.0030822419139613245 0 0.030653348481942393 -0.00064460791098929773 0 0.030510376521192845 -0.0012031109705879879 0 0.030342509983791184 -0.00081483117159826296 0 0.021637105813773885 -0.0022320983310429136 0 0.022542862126269138 -0.0024125191532708111 0 0.021563662825080546 -0.0030822419139613245 0 0.02080791426453928 -0.0022154055729861409 0 0.021563662825080546 -0.0030822419139613245 0 0.020333225209231764 -0.0032657555824600554 0 0.02080791426453928 -0.0022154055729861409 0 0.021637105813773885 -0.0022320983310429136 0 0.021563662825080546 -0.0030822419139613245 0 0.021563662825080546 -0.0030822419139613245 0 0.0212738555739952 -0.004293565025395415 0 0.020333225209231764 -0.0032657555824600554 0 0.029810291459524862 0.0083336965412491876 0 0.030725444132111944 0.0049566845014182076 0 0.032543177611628622 0.006128684044999895 0 0.030725444132111944 0.0049566845014182076 0 0.028038863590248247 0.0056084416092398387 0 0.029598380526573851 0.0032493477464444805 0 0.029810291459524862 0.0083336965412491876 0 0.030725444132111944 0.0049566845014182076 0 0.028038863590248247 0.0056084416092398387 0 0.030725444132111944 0.0049566845014182076 0 0.032543177611628622 0.006128684044999895 0 0.033297402079958779 0.0038925275654098182 0 0.033945665814109759 0.0087341639824233125 0 0.029810291459524862 0.0083336965412491876 0 0.032543177611628622 0.006128684044999895 0 0.035441820521716148 0.0054663578995929434 0 0.035188008816571886 0.0052159583800245263 0 0.035999810707467342 0.0051430719219279141 0 0.033945665814109759 0.0087341639824233125 0 0.032543177611628622 0.006128684044999895 0 0.035188008816571886 0.0052159583800245263 0 0.032956256684042236 0.0026168569811479241 0 0.035143594696965319 0.0068298221619604678 0 0.036797463662631931 0.0056146007899636882 0 0.033379642868066772 0.0045715767020121627 0 0.032543177611628622 0.006128684044999895 0 0.035188008816571886 0.0052159583800245263 0 0.033297402079958779 0.0038925275654098182 0 0.035188008816571886 0.0052159583800245263 0 0.036359159412238641 0.0046760061102987362 0 0.033297402079958779 0.0038925275654098182 0 0.038886710818376878 0.0056863404535471554 0 0.037261639549896641 0.0066132684658509874 0 0.037356719564459857 0.0040871215478825414 0 0.03657224481550031 0.0048547698563176237 0 0.036359159412238641 0.0046760061102987362 0 0.035999810707467342 0.0051430719219279141 0 0.035188008816571886 0.0052159583800245263 0 0.036359159412238641 0.0046760061102987362 0 0.035999810707467342 0.0051430719219279141 0 0.03657224481550031 0.0048547698563176237 0 0.036560528547043468 0.0051615727378796876 0 0.035999810707467342 0.0051430719219279141 0 0.017991060201456379 -0.0035537669039452523 0 0.019314358961782595 -0.004522423043400896 0 0.017397965201944324 -0.0047423006065504987 0 0.019274876353510693 0.0020032414308311462 0 0.014245245846419775 -0.00097755139014600091 0 0.017991060201456379 -0.0035537669039452523 0 0.017397965201944324 -0.0047423006065504987 0 0.016597066361703803 -0.003643663588691936 0 0.017394091273024451 -0.0018523341737436399 0 0.017991060201456379 -0.0035537669039452523 0 0.016597066361703803 -0.003643663588691936 0 0.017394091273024451 -0.0018523341737436399 0 0.017991060201456379 -0.0035537669039452523 0 0.019157319885083724 -0.0028264920664894367 0 0.02080791426453928 -0.0022154055729861409 0 0.019157319885083724 -0.0028264920664894367 0 0.020333225209231764 -0.0032657555824600554 0 0.0212738555739952 -0.004293565025395415 0 0.020333225209231764 -0.0032657555824600554 0 0.019314358961782595 -0.004522423043400896 0 0.017991060201456379 -0.0035537669039452523 0 0.019157319885083724 -0.0028264920664894367 0 0.019314358961782595 -0.004522423043400896 0 0.019157319885083724 -0.0028264920664894367 0 0.020333225209231764 -0.0032657555824600554 0 0.019314358961782595 -0.004522423043400896 0 0.026121088083139593 0.0080072463554619402 0 0.025704594501526297 0.0060558387323781252 0 0.023827392597270562 0.0061052044294994043 0 0.024512590430579718 0.001944598689358433 0 0.023117626743667956 0.0016830626758925049 0 0.029810291459524862 0.0083336965412491876 0 0.026121088083139593 0.0080072463554619402 0 0.028038863590248247 0.0056084416092398387 0 0.028038863590248247 0.0056084416092398387 0 0.025704594501526297 0.0060558387323781252 0 0.026425877886103278 0.0048560881385158591 0 0.026121088083139593 0.0080072463554619402 0 0.028038863590248247 0.0056084416092398387 0 0.025704594501526297 0.0060558387323781252 0 0.025704594501526297 0.0060558387323781252 0 0.024721979107611449 0.0048592324191432277 0 0.026425877886103278 0.0048560881385158591 0 0.025704594501526297 0.0060558387323781252 0 0.023827392597270562 0.0061052044294994043 0 0.024721979107611449 0.0048592324191432277 0 0.023268089017614735 0.0062080866009912765 0 0.024565204802131042 0.0048890431931136831 0 0.023300517005943825 0.0061348006834053299 0 0.022818444456594006 0.0053502773142827019 0 0.024721979107611449 0.0048592324191432277 0 0.023117626743667956 0.0016830626758925049 0 0.019274876353510693 0.0020032414308311462 0 0.026121088083139593 0.0080072463554619402 0 0.023827392597270562 0.0061052044294994043 0 0.022811339622708184 0.0075430855417300234 0 0.013480626184357244 -0.00028567557313441335 0 0.011524846028427908 -0.00051933558437675272 0 0.012239536437306568 0.0014130038737935609 0 0.019274876353510693 0.0020032414308311462 0 0.018645804867085128 0.0028854073451885548 0 0.022769071636236413 0.0064325625701399103 0 0.022542705067935851 0.0059534329270380226 0 0.022187474392004219 0.0061415176039550908 0 0.023268089017614735 0.0062080866009912765 0 0.019274876353510693 0.0020032414308311462 0 0.022542705067935851 0.0059534329270380226 0 0.022215939610544619 0.0057100449589829365 0 0.022818444456594006 0.0053502773142827019 0 0.023300517005943825 0.0061348006834053299 0 0.022769071636236413 0.0064325625701399103 0 0.022542705067935851 0.0059534329270380226 0 0.023300517005943825 0.0061348006834053299 0 0.022542705067935851 0.0059534329270380226 0 0.022818444456594006 0.0053502773142827019 0 0.022542705067935851 0.0059534329270380226 0 0.022187474392004219 0.0061415176039550908 0 0.022215939610544619 0.0057100449589829365 0 0.021936504326348374 0.0059981495049268889 0 0.022187474392004219 0.0061415176039550908 0 0.022215939610544619 0.0057100449589829365 0 0.0043276591904140753 0.0074320844423613744 0 0.0078155240416901972 0.012157049266456936 0 0.021936504326348374 0.0059981495049268889 0 0.022315685201558893 0.0058396912945727023 0 0.022215939610544619 0.0057100449589829365 0 0.0095964211642535231 -0.00072283226223061534 0 0.011524846028427908 -0.00051933558437675272 0 0.0096709475256352134 0.00089395534390612416 0 0.0043276591904140753 0.0074320844423613744 0 0.002240364755682748 0.002261882134448309 0 0.0043276591904140753 0.0074320844423613744 0 0.018645804867085128 0.0028854073451885548 0 -0.010113535026361512 0.0090772480989915263 0 -0.0091306032264964945 0.010452992777342752 0 -0.0083695331255270716 0.01709418682021413 0 -0.0079683776886722568 0.01714726718860847 0 -0.0085338388571495113 0.017150378662048899 0 -0.0083695331255270716 0.01709418682021413 0 -0.0083269103752323485 0.016879988429256212 0 -0.0085407580703192876 0.017180043018145387 0 -0.0083695331255270716 0.01709418682021413 0 -0.0083269103752323485 0.016879988429256212 0 -0.0081484462161208401 0.016968269218343521 0 -0.0094868302754687241 0.012469940399287666 0 -0.0091306032264964945 0.010452992777342752 0 -0.0083269103752323485 0.016879988429256212 0 -0.0081484462161208401 0.016968269218343521 0 -0.0079317021990290143 0.016757101358929171 0 -0.0081484462161208401 0.016968269218343521 0 -0.0079317021990290143 0.016757101358929171 0 -0.0079683776886722568 0.01714726718860847 0 -0.0083695331255270716 0.01709418682021413 0 -0.0081484462161208401 0.016968269218343521 0 -0.0079683776886722568 0.01714726718860847 0 -0.0073800065548143669 0.017130679741325091 0 -0.0079317021990290143 0.016757101358929171 0 -0.007519710688059819 0.01647069537204229 0 -0.0073800065548143669 0.017130679741325091 0 -0.0079317021990290143 0.016757101358929171 0 -0.0079683776886722568 0.01714726718860847 0 0.0043276591904140753 0.0074320844423613744 0 -0.010113535026361512 0.0090772480989915263 0 -0.0051958575259107688 0.0018064915047985416 0 -0.0073170474962698248 0.0032721043872352431 0 -0.0051080387523507751 0.0043668285367710353 0 -0.0051958575259107688 0.0018064915047985416 0 -0.0073170474962698248 0.0032721043872352431 0 -0.0082086292333028686 0.001396105764210519 0 -0.0082086292333028686 0.001396105764210519 0 -0.0094992403247421125 0.0031010223518859797 0 -0.011237039311504986 0.00098954405892084777 0 -0.0073170474962698248 0.0032721043872352431 0 -0.0082086292333028686 0.001396105764210519 0 -0.0094992403247421125 0.0031010223518859797 0 -0.015017758704116677 -0.002396363194175737 0 -0.014490625344430276 -0.0026414632153855529 0 -0.01745524827126509 -0.0038785064431669132 0 -0.0094992403247421125 0.0031010223518859797 0 -0.0084706478431665205 0.0054301347557709732 0 -0.012034006363312859 0.0039111430047182125 0 -0.012723976419401321 0.0013884059548442162 0 -0.014790312880870566 -0.00041451677689430299 0 -0.0073170474962698248 0.0032721043872352431 0 -0.0094992403247421125 0.0031010223518859797 0 -0.0084706478431665205 0.0054301347557709732 0 -0.015017758704116677 -0.002396363194175737 0 -0.014490625344430276 -0.0026414632153855529 0 -0.014810840116237472 -0.0025403071217769322 0 -0.0073170474962698248 0.0032721043872352431 0 -0.0084706478431665205 0.0054301347557709732 0 -0.0051080387523507751 0.0043668285367710353 0 -0.0084706478431665205 0.0054301347557709732 0 -0.0051080387523507751 0.0043668285367710353 0 -0.004991649723967098 0.006905609305008195 0 -0.014490625344430276 -0.0026414632153855529 0 -0.01466756374481082 -0.002600510189253179 0 -0.014593855970488715 -0.0025987993677482157 0 -0.012723976419401321 0.0013884059548442162 0 -0.0029205485851206418 0.00021381587168752949 0 -0.01466756374481082 -0.002600510189253179 0 -0.014593855970488715 -0.0025987993677482157 0 -0.014656270650372866 -0.0026360690529241295 0 -0.01466756374481082 -0.002600510189253179 0 -0.01478268258864459 -0.0026241452100816943 0 -0.014728817767075592 -0.0026299791822071176 0 -0.015017758704116677 -0.002396363194175737 0 -0.01495895753614983 -0.0026403654324682405 0 -0.015222094728452375 -0.0030910954666861514 0 -0.014490625344430276 -0.0026414632153855529 0 -0.01466756374481082 -0.002600510189253179 0 -0.014810840116237472 -0.0025403071217769322 0 -0.015017758704116677 -0.002396363194175737 0 -0.014810840116237472 -0.0025403071217769322 0 -0.01495895753614983 -0.0026403654324682405 0 -0.01478268258864459 -0.0026241452100816943 0 -0.01495895753614983 -0.0026403654324682405 0 -0.014852538721431911 -0.0026766188484841475 0 -0.01466756374481082 -0.002600510189253179 0 -0.014810840116237472 -0.0025403071217769322 0 -0.01478268258864459 -0.0026241452100816943 0 -0.014810840116237472 -0.0025403071217769322 0 -0.01478268258864459 -0.0026241452100816943 0 -0.01495895753614983 -0.0026403654324682405 0 -0.014978185120325222 -0.0027617093511416494 0 -0.01495895753614983 -0.0026403654324682405 0 -0.014852538721431911 -0.0026766188484841475 0 0.011524846028427908 -0.00051933558437675272 0 0.012239536437306568 0.0014130038737935609 0 0.010861469144150116 0.0016124016535481766 0 0.011524846028427908 -0.00051933558437675272 0 0.010861469144150116 0.0016124016535481766 0 0.0096709475256352134 0.00089395534390612416 0 0.002240364755682748 0.002261882134448309 0 -0.0029205485851206418 0.00021381587168752949 0 0.010861469144150116 0.0016124016535481766 0 0.0096709475256352134 0.00089395534390612416 0 0.009730674596663701 0.002488588350336639 0 0.010861469144150116 0.0016124016535481766 0 0.009730674596663701 0.002488588350336639 0 0.01103393419136996 0.0030486390832336974 0 -0.0029205485851206418 0.00021381587168752949 0 0.011139388002373215 -0.0045707114118987598 0 0.012239536437306568 0.0014130038737935609 0 0.010861469144150116 0.0016124016535481766 0 0.01103393419136996 0.0030486390832336974 0 0.017394091273024451 -0.0018523341737436399 0 0.016597066361703803 -0.003643663588691936 0 0.015791443509469483 -0.0025428515770203682 0 0.014245245846419775 -0.00097755139014600091 0 0.011139388002373215 -0.0045707114118987598 0 0.0095165161620265719 -0.012548258478909597 0 0.0099726034679812892 -0.012204791926896242 0 0.009882988000362157 -0.012842953749527238 0 0.013701387952007739 -0.0075237867922164072 0 0.011139388002373215 -0.0045707114118987598 0 0.0099726034679812892 -0.012204791926896242 0 0.009882988000362157 -0.012842953749527238 0 0.010203332258889216 -0.012626268739898652 0 0.0095519062786388071 -0.013091313196728535 0 0.009882988000362157 -0.012842953749527238 0 0.0097908578439341205 -0.013317645538544341 0 -0.0020328284073530645 -0.0073259684218542004 0 -0.0031434027810508685 -0.011067697071872877 0 0.009882988000362157 -0.012842953749527238 0 0.010203332258889216 -0.012626268739898652 0 0.010065900821446453 -0.013243885645063637 0 -0.014643119338347313 -0.0026873929863157008 0 -0.01470061657524121 -0.0027167092558360003 0 -0.01465851376831683 -0.0027810407319821579 0 -0.014643119338347313 -0.0026873929863157008 0 -0.014636150471891041 -0.0026832359554539095 0 -0.01465851376831683 -0.0027810407319821579 0 0.010203332258889216 -0.012626268739898652 0 0.010065900821446453 -0.013243885645063637 0 0.010183186027609672 -0.013274802617945045 0 -0.014643119338347313 -0.0026873929863157008 0 -0.014652622986145936 -0.0026574121611753175 0 -0.014675131356076676 -0.0026534707157684716 0 -0.0029205485851206418 0.00021381587168752949 0 -0.0020328284073530645 -0.0073259684218542004 0 0.011139388002373215 -0.0045707114118987598 0 -0.0020328284073530645 -0.0073259684218542004 0 0.002914564229234601 -0.004433515516084177 0 0.0020269199962848028 -0.0048742288178756019 0 0.0028291357414049157 -0.0061536241451759528 0 -0.014593855970488715 -0.0025987993677482157 0 -0.014636315950049555 -0.0026694876111436967 0 -0.014656270650372866 -0.0026360690529241295 0 -0.014652622986145936 -0.0026574121611753175 0 -0.014636315950049555 -0.0026694876111436967 0 -0.014656270650372866 -0.0026360690529241295 0 -0.014643119338347313 -0.0026873929863157008 0 -0.014652622986145936 -0.0026574121611753175 0 -0.014636315950049555 -0.0026694876111436967 0 -0.0042527482140685907 -0.0051643895169813745 0 -0.0020328284073530645 -0.0073259684218542004 0 -0.01466756374481082 -0.002600510189253179 0 -0.014656270650372866 -0.0026360690529241295 0 -0.014728817767075592 -0.0026299791822071176 0 -0.014656270650372866 -0.0026360690529241295 0 -0.014696357548100636 -0.0026199486014816765 0 -0.014728817767075592 -0.0026299791822071176 0 -0.014656270650372866 -0.0026360690529241295 0 -0.014696357548100636 -0.0026199486014816765 0 -0.014675131356076676 -0.0026534707157684716 0 -0.014652622986145936 -0.0026574121611753175 0 -0.014656270650372866 -0.0026360690529241295 0 -0.014675131356076676 -0.0026534707157684716 0 -0.014978185120325222 -0.0027617093511416494 0 -0.014852538721431911 -0.0026766188484841475 0 -0.014856208352239372 -0.0026807502087034855 0 -0.01478268258864459 -0.0026241452100816943 0 -0.014852538721431911 -0.0026766188484841475 0 -0.014728817767075592 -0.0026299791822071176 0 -0.014852538721431911 -0.0026766188484841475 0 -0.014728817767075592 -0.0026299791822071176 0 -0.014856208352239372 -0.0026807502087034855 0 -0.014728817767075592 -0.0026299791822071176 0 -0.014856208352239372 -0.0026807502087034855 0 -0.014717587717995027 -0.0025858919147644945 0 -0.014696357548100636 -0.0026199486014816765 0 -0.014728817767075592 -0.0026299791822071176 0 -0.014717587717995027 -0.0025858919147644945 0 -0.014856208352239372 -0.0026807502087034855 0 -0.014717587717995027 -0.0025858919147644945 0 -0.014677225697599019 -0.0024391352672973017 0 -0.014717587717995027 -0.0025858919147644945 0 -0.014677225697599019 -0.0024391352672973017 0 -0.014712619128393199 -0.0026196253867676322 0 -0.014643119338347313 -0.0026873929863157008 0 -0.014675131356076676 -0.0026534707157684716 0 -0.01470061657524121 -0.0027167092558360003 0 -0.014696357548100636 -0.0026199486014816765 0 -0.014675131356076676 -0.0026534707157684716 0 -0.014712619128393199 -0.0026196253867676322 0 -0.014696357548100636 -0.0026199486014816765 0 -0.014717587717995027 -0.0025858919147644945 0 -0.014712619128393199 -0.0026196253867676322 0 -0.014675131356076676 -0.0026534707157684716 0 -0.014712619128393199 -0.0026196253867676322 0 -0.01470061657524121 -0.0027167092558360003 0 -0.013839541808309055 -0.010425624168047419 0 -0.0031434027810508685 -0.011067697071872877 0 -0.01470061657524121 -0.0027167092558360003 0 -0.014769110266556886 -0.0028981425737195274 0 -0.01465851376831683 -0.0027810407319821579 0 -0.014712619128393199 -0.0026196253867676322 0 -0.01470061657524121 -0.0027167092558360003 0 -0.014769110266556886 -0.0028981425737195274 0 -0.014677225697599019 -0.0024391352672973017 0 -0.014769110266556886 -0.0028981425737195274 0 -0.01449384381652576 -0.0028832577621615242 0 -0.014769110266556886 -0.0028981425737195274 0 -0.014391103413552042 -0.0033852248760628642 0 -0.01449384381652576 -0.0028832577621615242 0 -0.014677225697599019 -0.0024391352672973017 0 -0.014712619128393199 -0.0026196253867676322 0 -0.014769110266556886 -0.0028981425737195274 0 -0.013839541808309055 -0.010425624168047419 0 -0.012200227011680664 -0.010174500047197747 0 -0.0098469058063790152 -0.017058509181363285 0 -0.0095328804391540036 -0.018362155146915998 0 -0.011318958768780734 -0.017957785357886343 0 -0.0098469058063790152 -0.017058509181363285 0 -0.0095328804391540036 -0.018362155146915998 0 -0.0076579528333818765 -0.017247897214631588 0 0.0016776586836210693 -0.015923980933449218 0 -0.0031434027810508685 -0.011067697071872877 0 -0.0095328804391540036 -0.018362155146915998 0 -0.0076579528333818765 -0.017247897214631588 0 -0.0077559930032664488 -0.018768633130225129 0 0.010269823306843128 -0.013996230529461768 0 0.0099095414964687802 -0.013755106830731244 0 0.010244630358114694 -0.013301227986986934 0 0.0099677123947761546 -0.014360721668804841 0 0.010269823306843128 -0.013996230529461768 0 0.0099095414964687802 -0.013755106830731244 0 0.009882988000362157 -0.012842953749527238 0 0.0097908578439341205 -0.013317645538544341 0 0.010065900821446453 -0.013243885645063637 0 0.0099095414964687802 -0.013755106830731244 0 0.0097908578439341205 -0.013317645538544341 0 0.010065900821446453 -0.013243885645063637 0 0.0099095414964687802 -0.013755106830731244 0 0.010065900821446453 -0.013243885645063637 0 0.010244630358114694 -0.013301227986986934 0 0.0077314198517564455 -0.013527819554657528 0 -0.0031434027810508685 -0.011067697071872877 0 -0.016545491549793817 -0.0014096761749046401 0 -0.01755721959551804 -0.0010159858624681111 0 -0.017045214801632427 -0.0022812036266254415 0 -0.016991015337114154 -0.00092414991484573213 0 -0.01755721959551804 -0.0010159858624681111 0 -0.017466550220726136 -0.0005075905487023708 0 -0.016991015337114154 -0.00092414991484573213 0 -0.016545491549793817 -0.0014096761749046401 0 -0.016743856335445464 -0.00044731899129667787 0 -0.016991015337114154 -0.00092414991484573213 0 -0.017466550220726136 -0.0005075905487023708 0 -0.016743856335445464 -0.00044731899129667787 0 -0.016991015337114154 -0.00092414991484573213 0 -0.016545491549793817 -0.0014096761749046401 0 -0.01755721959551804 -0.0010159858624681111 0 -0.01755721959551804 -0.0010159858624681111 0 -0.019270426864099518 -0.0011742071244327953 0 -0.018937854072191607 0.00069982527999065377 0 -0.01755721959551804 -0.0010159858624681111 0 -0.019270426864099518 -0.0011742071244327953 0 -0.018313575864619645 -0.0019439186382797819 0 -0.01755721959551804 -0.0010159858624681111 0 -0.018115225987351841 -0.00032631727280242097 0 -0.017466550220726136 -0.0005075905487023708 0 -0.018568764005172687 0.00070832650681768516 0 -0.018555811908403608 -0.0063803731743209144 0 -0.018115225987351841 -0.00032631727280242097 0 -0.017774572879396256 1.236526553058183e-05 0 -0.017466550220726136 -0.0005075905487023708 0 -0.019464573551735455 -0.018180217509462013 0 -0.018555811908403608 -0.0063803731743209144 0 -0.015847440138209611 -0.020268929665975977 0 -0.017576526029037788 -0.0174273959197929 0 -0.017270063181653753 -0.019992536508403602 0 -0.015280579974948678 -0.020217106169325101 0 -0.015847440138209611 -0.020268929665975977 0 -0.017576526029037788 -0.0174273959197929 0 -0.017576526029037788 -0.0174273959197929 0 -0.017270063181653753 -0.019992536508403602 0 -0.019878097702104511 -0.019736359071667577 0 -0.018555811908403608 -0.0063803731743209144 0 -0.016517369392646839 -0.015512356086376401 0 -0.016517369392646839 -0.015512356086376401 0 -0.014944780373310814 -0.025526070007072986 0 -0.01732335037581469 -0.038744100717786223 0 -0.017306365287449825 -0.038681332608309166 0 -0.017306935115206135 -0.038671691007133711 0 -0.014944780373310814 -0.025526070007072986 0 -0.015599565984580496 -0.017078967706145389 0 -0.012115245185333566 -0.004772940784133802 0 -0.013193335516273996 -0.0034906688198288434 0 -0.013315268351568245 -0.0039310145657762644 0 -0.011869543685724616 -0.0045472736576061571 0 -0.012115245185333566 -0.004772940784133802 0 -0.013193335516273996 -0.0034906688198288434 0 -0.017774572879396256 1.236526553058183e-05 0 -0.017466550220726136 -0.0005075905487023708 0 -0.016743856335445464 -0.00044731899129667787 0 -0.012115245185333566 -0.004772940784133802 0 -0.013315268351568245 -0.0039310145657762644 0 -0.013475353753545301 -0.0042429854695380268 0 -0.016517369392646839 -0.015512356086376401 0 -0.015568061124348612 -0.00083461390775460304 0 -0.015599565984580496 -0.017078967706145389 0 -0.012200227011680664 -0.010174500047197747 0 -0.013413047062676833 -0.004076323858234243 0 -0.013835991368169544 -0.0034546363585022818 0 -0.014391103413552042 -0.0033852248760628642 0 -0.01235425053244167 -0.016230308167587932 0 -0.01309482930237243 -0.017541488823737246 0 -0.011318958768780734 -0.017957785357886343 0 -0.013498179485985903 -0.011938788836172012 0 -0.015599565984580496 -0.017078967706145389 0 -0.013315268351568245 -0.0039310145657762644 0 -0.013413047062676833 -0.004076323858234243 0 -0.013557432558487801 -0.0035305036272648676 0 -0.013413047062676833 -0.004076323858234243 0 -0.013835991368169544 -0.0034546363585022818 0 -0.013557432558487801 -0.0035305036272648676 0 -0.013193335516273996 -0.0034906688198288434 0 -0.013315268351568245 -0.0039310145657762644 0 -0.013557432558487801 -0.0035305036272648676 0 -0.014677225697599019 -0.0024391352672973017 0 -0.01449384381652576 -0.0028832577621615242 0 -0.014017119502282897 -0.0028561470568940896 0 -0.01475441982637276 -0.0023045618446342242 0 -0.014609731197258028 -0.0022785884223880844 0 -0.014391103413552042 -0.0033852248760628642 0 -0.01449384381652576 -0.0028832577621615242 0 -0.014017119502282897 -0.0028561470568940896 0 -0.013835991368169544 -0.0034546363585022818 0 -0.014391103413552042 -0.0033852248760628642 0 -0.014017119502282897 -0.0028561470568940896 0 -0.016545491549793817 -0.0014096761749046401 0 -0.016743856335445464 -0.00044731899129667787 0 -0.015481374068659725 -0.0013534614430397104 0 -0.015568061124348612 -0.00083461390775460304 0 -0.014609731197258028 -0.0022785884223880844 0 -0.013193335516273996 -0.0034906688198288434 0 -0.013557432558487801 -0.0035305036272648676 0 -0.014017119502282897 -0.0028561470568940896 0 -0.013835991368169544 -0.0034546363585022818 0 -0.013557432558487801 -0.0035305036272648676 0 -0.014017119502282897 -0.0028561470568940896 0 -0.016545491549793817 -0.0014096761749046401 0 -0.015481374068659725 -0.0013534614430397104 0 -0.015984364749745218 -0.0022079388850871104 0 -0.015481374068659725 -0.0013534614430397104 0 -0.015984364749745218 -0.0022079388850871104 0 -0.015309046476144589 -0.0023450303464134627 0 -0.015984364749745218 -0.0022079388850871104 0 -0.015309046476144589 -0.0023450303464134627 0 -0.015508371591785218 -0.0027379983692747373 0 -0.015984364749745218 -0.0022079388850871104 0 -0.016154784430830651 -0.002762268623842427 0 -0.015508371591785218 -0.0027379983692747373 0 -0.015984364749745218 -0.0022079388850871104 0 -0.016154784430830651 -0.002762268623842427 0 -0.017045214801632427 -0.0022812036266254415 0 -0.014677225697599019 -0.0024391352672973017 0 -0.015481374068659725 -0.0013534614430397104 0 -0.015309046476144589 -0.0023450303464134627 0 -0.014677225697599019 -0.0024391352672973017 0 -0.015309046476144589 -0.0023450303464134627 0 -0.015092910825653835 -0.0026891107593082536 0 -0.014856208352239372 -0.0026807502087034855 0 -0.014677225697599019 -0.0024391352672973017 0 -0.015092910825653835 -0.0026891107593082536 0 -0.015092910825653835 -0.0026891107593082536 0 -0.015313990175976721 -0.0029490804760788293 0 -0.015508371591785218 -0.0027379983692747373 0 -0.015309046476144589 -0.0023450303464134627 0 -0.015092910825653835 -0.0026891107593082536 0 -0.015508371591785218 -0.0027379983692747373 0 -0.015313990175976721 -0.0029490804760788293 0 -0.015083556275241503 -0.0028442215435301767 0 -0.015222094728452375 -0.0030910954666861514 0 -0.015092910825653835 -0.0026891107593082536 0 -0.015313990175976721 -0.0029490804760788293 0 -0.015083556275241503 -0.0028442215435301767 0 -0.014978185120325222 -0.0027617093511416494 0 -0.014856208352239372 -0.0026807502087034855 0 -0.015083556275241503 -0.0028442215435301767 0 -0.014856208352239372 -0.0026807502087034855 0 -0.015092910825653835 -0.0026891107593082536 0 -0.015083556275241503 -0.0028442215435301767 0 -0.018997738428853043 -0.0017005011234765917 0 -0.017188825742802696 -0.0010350546462059458 0 -0.015684180430590569 -0.0030837284467111347 0 -0.016329749581379376 -0.0032273611477375533 0 -0.015222094728452375 -0.0030910954666861514 0 -0.016154784430830651 -0.002762268623842427 0 -0.015508371591785218 -0.0027379983692747373 0 -0.015684180430590569 -0.0030837284467111347 0 -0.015313990175976721 -0.0029490804760788293 0 -0.015684180430590569 -0.0030837284467111347 0 -0.015222094728452375 -0.0030910954666861514 0 -0.015313990175976721 -0.0029490804760788293 0 -0.015508371591785218 -0.0027379983692747373 0 -0.015684180430590569 -0.0030837284467111347 0 -0.015111074969328918 -0.0032174603336632963 0 -0.018997738428853043 -0.0017005011234765917 0 -0.016154784430830651 -0.002762268623842427 0 -0.015684180430590569 -0.0030837284467111347 0 -0.016789177973091148 -0.0033677046567329718 0 -0.016789177973091148 -0.0033677046567329718 0 -0.017045214801632427 -0.0022812036266254415 0 -0.018470995736797884 -0.0030274748317465328 0 -0.016154784430830651 -0.002762268623842427 0 -0.016789177973091148 -0.0033677046567329718 0 -0.017045214801632427 -0.0022812036266254415 0 -0.018997738428853043 -0.0017005011234765917 0 -0.018601038580980098 -0.0032275815270888576 0 -0.01755721959551804 -0.0010159858624681111 0 -0.017045214801632427 -0.0022812036266254415 0 -0.018313575864619645 -0.0019439186382797819 0 -0.016545491549793817 -0.0014096761749046401 0 -0.015984364749745218 -0.0022079388850871104 0 -0.017045214801632427 -0.0022812036266254415 0 -0.019270426864099518 -0.0011742071244327953 0 -0.019178461578225416 -0.0021030403482585583 0 -0.018313575864619645 -0.0019439186382797819 0 -0.017045214801632427 -0.0022812036266254415 0 -0.018313575864619645 -0.0019439186382797819 0 -0.018470995736797884 -0.0030274748317465328 0 -0.019178461578225416 -0.0021030403482585583 0 -0.018313575864619645 -0.0019439186382797819 0 -0.018470995736797884 -0.0030274748317465328 0 -0.024475786248477252 0.0012640830586196725 0 -0.018997738428853043 -0.0017005011234765917 0 -0.028110897951017989 0.0039748753205201904 0 -0.022910755249770695 0.0030106169627151349 0 -0.025691937515222661 0.0019861995508426533 0 -0.020169549792371139 -0.0033310872568225632 0 -0.018101105849885762 -0.0036018879483474104 0 -0.019351904622652724 -0.0030573894929023463 0 -0.028110897951017989 0.0039748753205201904 0 -0.027451222519748155 0.002082965439801676 0 -0.025691937515222661 0.0019861995508426533 0 -0.029111696801979631 0.00074645081397975476 0 -0.026179764584536979 0.00042650554925021566 0 -0.026940068548521264 -0.0012255640116726157 0 -0.027451222519748155 0.002082965439801676 0 -0.026179764584536979 0.00042650554925021566 0 -0.025691937515222661 0.0019861995508426533 0 -0.026179764584536979 0.00042650554925021566 0 -0.02371646041475722 0.00035222111053331292 0 -0.024922095136049705 -0.0013102265515892546 0 -0.026179764584536979 0.00042650554925021566 0 -0.025691937515222661 0.0019861995508426533 0 -0.02371646041475722 0.00035222111053331292 0 -0.022910755249770695 0.0030106169627151349 0 -0.02371646041475722 0.00035222111053331292 0 -0.020279368095296835 -3.3413956648529423e-05 0 -0.02371646041475722 0.00035222111053331292 0 -0.022574818802813926 -0.0019012727402979526 0 -0.020279368095296835 -3.3413956648529423e-05 0 -0.022910755249770695 0.0030106169627151349 0 -0.025691937515222661 0.0019861995508426533 0 -0.02371646041475722 0.00035222111053331292 0 -0.02371646041475722 0.00035222111053331292 0 -0.022574818802813926 -0.0019012727402979526 0 -0.024922095136049705 -0.0013102265515892546 0 -0.022461674123805814 -0.0022187143379911707 0 -0.027039056718716821 -0.0012590175335304734 0 -0.022574818802813926 -0.0019012727402979526 0 -0.024922095136049705 -0.0013102265515892546 0 -0.024709394198885837 -0.0040031957670966867 0 -0.032442626210002531 -0.00058524377307785113 0 -0.027039056718716821 -0.0012590175335304734 0 -0.026940068548521264 -0.0012255640116726157 0 -0.024922095136049705 -0.0013102265515892546 0 -0.024709394198885837 -0.0040031957670966867 0 -0.0297163145946454 -0.0020751348467660459 0 -0.026940068548521264 -0.0012255640116726157 0 -0.024709394198885837 -0.0040031957670966867 0 -0.026179764584536979 0.00042650554925021566 0 -0.026940068548521264 -0.0012255640116726157 0 -0.024922095136049705 -0.0013102265515892546 0 -0.015017758704116677 -0.002396363194175737 0 -0.018599971306668128 0.00053128620654782481 0 -0.017458953644093795 -0.0018271142087639683 0 -0.015094830352007645 -0.0023503591208862834 0 -0.017188825742802696 -0.0010350546462059458 0 -0.014978185120325222 -0.0027617093511416494 0 -0.01495895753614983 -0.0026403654324682405 0 -0.015222094728452375 -0.0030910954666861514 0 -0.014978185120325222 -0.0027617093511416494 0 -0.015083556275241503 -0.0028442215435301767 0 -0.015222094728452375 -0.0030910954666861514 0 -0.018599971306668128 0.00053128620654782481 0 -0.018737970214040212 -0.0018226547354733527 0 -0.017458953644093795 -0.0018271142087639683 0 -0.022910755249770695 0.0030106169627151349 0 -0.018599971306668128 0.00053128620654782481 0 -0.020279368095296835 -3.3413956648529423e-05 0 -0.018599971306668128 0.00053128620654782481 0 -0.020279368095296835 -3.3413956648529423e-05 0 -0.018737970214040212 -0.0018226547354733527 0 -0.020279368095296835 -3.3413956648529423e-05 0 -0.020036319563778361 -0.0030149932758183401 0 -0.018737970214040212 -0.0018226547354733527 0 -0.022355759649042586 -0.002462493452231056 0 -0.020036319563778361 -0.0030149932758183401 0 -0.021510051607536503 -0.0056668410180583965 0 -0.022355759649042586 -0.002462493452231056 0 -0.020279368095296835 -3.3413956648529423e-05 0 -0.020036319563778361 -0.0030149932758183401 0 -0.022461674123805814 -0.0022187143379911707 0 -0.020498709281256022 -0.00020174462760275821 0 -0.015017758704116677 -0.002396363194175737 0 -0.01745524827126509 -0.0038785064431669132 0 -0.017458953644093795 -0.0018271142087639683 0 -0.018737970214040212 -0.0018226547354733527 0 -0.01745524827126509 -0.0038785064431669132 0 -0.017458953644093795 -0.0018271142087639683 0 -0.020036319563778361 -0.0030149932758183401 0 -0.018737970214040212 -0.0018226547354733527 0 -0.01745524827126509 -0.0038785064431669132 0 -0.012034006363312859 0.0039111430047182125 0 -0.01562603767559961 0.0023268357320254921 0 -0.011237039311504986 0.00098954405892084777 0 -0.0094992403247421125 0.0031010223518859797 0 -0.012034006363312859 0.0039111430047182125 0 -0.011237039311504986 0.00098954405892084777 0 -0.017951368193036481 0.0020898578911316295 0 -0.0091306032264964945 0.010452992777342752 0 -0.014642610701319914 0.01000349359915529 0 -0.013611209670356951 0.0080467960832348827 0 -0.009873060737363739 0.0085464879661091564 0 -0.020036319563778361 -0.0030149932758183401 0 -0.01745524827126509 -0.0038785064431669132 0 -0.021510051607536503 -0.0056668410180583965 0 -0.014790312880870566 -0.00041451677689430299 0 -0.017951368193036481 0.0020898578911316295 0 -0.009259986295089161 0.017178663859009763 0 -0.0095238147639523617 0.016604266513832473 0 -0.0090335844998004535 0.016798636657135178 0 -0.011760087653458354 0.0127080428284579 0 -0.0091306032264964945 0.010452992777342752 0 -0.009259986295089161 0.017178663859009763 0 -0.0085407580703192876 0.017180043018145387 0 -0.0090335844998004535 0.016798636657135178 0 -0.0085832607783513457 0.016813054432820843 0 -0.0085407580703192876 0.017180043018145387 0 -0.0090335844998004535 0.016798636657135178 0 -0.0083269103752323485 0.016879988429256212 0 -0.0085832607783513457 0.016813054432820843 0 -0.0085407580703192876 0.017180043018145387 0 -0.023097844315328974 0.0029789410303117697 0 -0.022435835823613939 0.0035980728339496293 0 -0.022480232461541839 0.0032049270656448331 0 -0.034182578608951582 0.00083907781966312365 0 -0.034111023691520082 0.00095429506149047295 0 -0.034040715314027227 0.00095337862644419139 0 -0.034111023691520082 0.00095429506149047295 0 -0.034090982421099723 0.0010240354967135145 0 -0.034040715314027227 0.00095337862644419139 0 -0.024342332152274718 0.0063274601054025964 0 -0.027039056718716821 -0.0012590175335304734 0 -0.022355759649042586 -0.002462493452231056 0 -0.021510051607536503 -0.0056668410180583965 0 -0.02447401348777218 -0.0047253142915215937 0 -0.017951368193036481 0.0020898578911316295 0 -0.027039056718716821 -0.0012590175335304734 0 -0.017951368193036481 0.0020898578911316295 0 -0.019648748805514777 0.00619121437482794 0 -0.021863508298378388 0.0034253508938397819 0 -0.022435835823613939 0.0035980728339496293 0 -0.022480232461541839 0.0032049270656448331 0 -0.014642610701319914 0.01000349359915529 0 -0.017358830877988649 0.0075498790371908691 0 -0.017805571639246322 0.0086179788178730385 0 -0.009259986295089161 0.017178663859009763 0 -0.0099997334483032455 0.017077479149438364 0 -0.0095238147639523617 0.016604266513832473 0 -0.014642610701319914 0.01000349359915529 0 -0.013611209670356951 0.0080467960832348827 0 -0.017358830877988649 0.0075498790371908691 0 -0.011760087653458354 0.0127080428284579 0 -0.011926805957283296 0.012837078678054966 0 -0.021328620190522413 0.0070335613145306964 0 -0.017358830877988649 0.0075498790371908691 0 -0.017805571639246322 0.0086179788178730385 0 -0.024342332152274718 0.0063274601054025964 0 -0.011926805957283296 0.012837078678054966 0 -0.024342332152274718 0.0063274601054025964 0 -0.019648748805514777 0.00619121437482794 0 -0.010702062728153102 0.016901937304377772 0 -0.0099997334483032455 0.017077479149438364 0 -0.010213765577375607 0.016606236178349894 0 -0.010702062728153102 0.016901937304377772 0 -0.010213765577375607 0.016606236178349894 0 -0.010630356547967299 0.016355895998033942 0 -0.0099997334483032455 0.017077479149438364 0 -0.010213765577375607 0.016606236178349894 0 -0.0095238147639523617 0.016604266513832473 0 -0.010213765577375607 0.016606236178349894 0 -0.0095238147639523617 0.016604266513832473 0 -0.010157602234354164 0.016143061400898572 0 -0.0095238147639523617 0.016604266513832473 0 -0.010157602234354164 0.016143061400898572 0 -0.0092530825227709057 0.016061705675037331 0 -0.010213765577375607 0.016606236178349894 0 -0.010157602234354164 0.016143061400898572 0 -0.010630356547967299 0.016355895998033942 0 -0.0085832607783513457 0.016813054432820843 0 -0.0088179773784855218 0.016493415142547905 0 -0.0082816782922334325 0.016545219020782851 0 -0.0085832607783513457 0.016813054432820843 0 -0.0088179773784855218 0.016493415142547905 0 -0.0090335844998004535 0.016798636657135178 0 -0.0095238147639523617 0.016604266513832473 0 -0.0088179773784855218 0.016493415142547905 0 -0.0090335844998004535 0.016798636657135178 0 -0.0095238147639523617 0.016604266513832473 0 -0.0088179773784855218 0.016493415142547905 0 -0.0092530825227709057 0.016061705675037331 0 -0.0088179773784855218 0.016493415142547905 0 -0.0081312464465213737 0.016037335689622616 0 -0.0082816782922334325 0.016545219020782851 0 -0.0088179773784855218 0.016493415142547905 0 -0.0092530825227709057 0.016061705675037331 0 -0.0081312464465213737 0.016037335689622616 0 -0.0092530825227709057 0.016061705675037331 0 -0.0088713202153739464 0.015465154714037159 0 -0.0081312464465213737 0.016037335689622616 0 -0.0084282919790197135 0.015820144359844412 0 -0.0081410181488607465 0.01603363402826008 0 -0.0092530825227709057 0.016061705675037331 0 -0.0088713202153739464 0.015465154714037159 0 -0.0097514997897232836 0.015592870457663607 0 -0.0084282919790197135 0.015820144359844412 0 -0.0086116954356791845 0.015660978225310828 0 -0.0088713202153739464 0.015465154714037159 0 -0.0097514997897232836 0.015592870457663607 0 -0.00946598661062833 0.015067882007750324 0 -0.0079593697364001847 0.01615973976338804 0 -0.0079641349464763082 0.01626358334143797 0 -0.0079837877737760823 0.016129940349755713 0 -0.010157602234354164 0.016143061400898572 0 -0.010418187895671512 0.015454646464279867 0 -0.010691084122308509 0.015879710887619795 0 -0.010157602234354164 0.016143061400898572 0 -0.0097514997897232836 0.015592870457663607 0 -0.010418187895671512 0.015454646464279867 0 -0.010157602234354164 0.016143061400898572 0 -0.0092530825227709057 0.016061705675037331 0 -0.0097514997897232836 0.015592870457663607 0 -0.0097514997897232836 0.015592870457663607 0 -0.0099079118027516743 0.015181590545581746 0 -0.00946598661062833 0.015067882007750324 0 -0.0097514997897232836 0.015592870457663607 0 -0.010418187895671512 0.015454646464279867 0 -0.0099079118027516743 0.015181590545581746 0 -0.010545623416476206 0.015236495784158534 0 -0.0097069532348720237 0.015702793565022966 0 -0.010418187895671512 0.015454646464279867 0 -0.010448646805546313 0.015584084447878559 0 -0.010534057921770501 0.015687881627435649 0 -0.010418187895671512 0.015454646464279867 0 -0.010023273561148278 0.014541635999965625 0 -0.0099079118027516743 0.015181590545581746 0 -0.010448646805546313 0.015584084447878559 0 -0.010483026395511533 0.015747499747294242 0 -0.010413103976802585 0.015719158633347621 0 -0.010448646805546313 0.015584084447878559 0 -0.010534057921770501 0.015687881627435649 0 -0.010483026395511533 0.015747499747294242 0 -0.0097069532348720237 0.015702793565022966 0 -0.010027042810436737 0.015561058095049622 0 -0.010483026395511533 0.015747499747294242 0 -0.010413103976802585 0.015719158633347621 0 -0.010376474287226456 0.015921810118578579 0 -0.0079744192517243722 0.016333824901306502 0 -0.0080079914697812286 0.016354100127098665 0 -0.0079620746217237137 0.016274781216351016 0 -0.0097069532348720237 0.015702793565022966 0 -0.0086116954356791845 0.015660978225310828 0 -0.010023273561148278 0.014541635999965625 0 -0.0099079118027516743 0.015181590545581746 0 -0.00946598661062833 0.015067882007750324 0 -0.0079620746217237137 0.016274781216351016 0 -0.0079641349464763082 0.01626358334143797 0 -0.0079985854823442729 0.016343562036696301 0 -0.0079593697364001847 0.01615973976338804 0 -0.0079620746217237137 0.016274781216351016 0 -0.0079641349464763082 0.01626358334143797 0 -0.0079641349464763082 0.01626358334143797 0 -0.007967808425839714 0.016368317764604321 0 -0.0079985854823442729 0.016343562036696301 0 -0.0079641349464763082 0.01626358334143797 0 -0.007967808425839714 0.016368317764604321 0 -0.0079422527613118906 0.016282545698599014 0 -0.0080079914697812286 0.016354100127098665 0 -0.0079620746217237137 0.016274781216351016 0 -0.0079985854823442729 0.016343562036696301 0 -0.0080079914697812286 0.016354100127098665 0 -0.0080681180064097781 0.016410590128867159 0 -0.0080453002353580785 0.016401940521461739 0 -0.0080079914697812286 0.016354100127098665 0 -0.0079985854823442729 0.016343562036696301 0 -0.0080681180064097781 0.016410590128867159 0 -0.007967808425839714 0.016368317764604321 0 -0.0079985854823442729 0.016343562036696301 0 -0.0080681180064097781 0.016410590128867159 0 -0.007967808425839714 0.016368317764604321 0 -0.0080681180064097781 0.016410590128867159 0 -0.0079884858877694916 0.016433683647468358 0 -0.0080681180064097781 0.016410590128867159 0 -0.0079884858877694916 0.016433683647468358 0 -0.0081375096480361068 0.016447914901872383 0 -0.0079884858877694916 0.016433683647468358 0 -0.0081375096480361068 0.016447914901872383 0 -0.0079497664440424838 0.016457368323340521 0 -0.0081375096480361068 0.016447914901872383 0 -0.0079497664440424838 0.016457368323340521 0 -0.0079827749007694987 0.016440620721212183 0 -0.0080681180064097781 0.016410590128867159 0 -0.0081375096480361068 0.016447914901872383 0 -0.0082612567875546793 0.016450846706495697 0 -0.0080681180064097781 0.016410590128867159 0 -0.0080453002353580785 0.016401940521461739 0 -0.0082612567875546793 0.016450846706495697 0 -0.010316962272655768 0.016474127752842523 0 -0.010264995046446143 0.016228046471384403 0 -0.010302503052986292 0.016613497967698811 0 -0.010316962272655768 0.016474127752842523 0 -0.010497084633564503 0.016203970162920741 0 -0.010042637606540398 0.016710422158022292 0 -0.010316962272655768 0.016474127752842523 0 -0.010264995046446143 0.016228046471384403 0 -0.010497084633564503 0.016203970162920741 0 -0.0092131110229417557 0.016324344659959959 0 -0.0091215285575859811 0.016486781622078259 0 -0.010817524491720123 0.016636052542972186 0 -0.010355644763898558 0.016582121943568309 0 -0.010483026395511533 0.015747499747294242 0 -0.010376474287226456 0.015921810118578579 0 -0.010497084633564503 0.016203970162920741 0 -0.010264995046446143 0.016228046471384403 0 -0.010376474287226456 0.015921810118578579 0 -0.010497084633564503 0.016203970162920741 0 -0.0097069532348720237 0.015702793565022966 0 -0.0092131110229417557 0.016324344659959959 0 -0.010545282307087438 0.015686512391452041 0 -0.010483026395511533 0.015747499747294242 0 -0.010497084633564503 0.016203970162920741 0 -0.0079744192517243722 0.016333824901306502 0 -0.0080079914697812286 0.016354100127098665 0 -0.0080453002353580785 0.016401940521461739 0 0.023224862301471166 0.014524611375604662 0 0.022368778284282933 0.012872512526059079 0 0.023547337662392549 0.016384072866171068 0 0.027649111379245379 0.018730277415230891 0 0.01639363307835507 0.018971471865505376 0 0.02981362911712733 0.023814202759406999 0 0.029765640915617474 0.023902288802694401 0 0.029841541188457003 0.023961574294720758 0 0.029765640915617474 0.023902288802694401 0 0.029753346594399484 0.023970018829240842 0 0.029841541188457003 0.023961574294720758 0 0.023224862301471166 0.014524611375604662 0 0.022368778284282933 0.012872512526059079 0 0.023574361545183626 0.012553066429314419 0 0.02981362911712733 0.023814202759406999 0 0.029732225577140094 0.023857974144971199 0 0.029765640915617474 0.023902288802694401 0 0.029732225577140094 0.023857974144971199 0 0.029661812356979858 0.023879043953039442 0 0.029689406077597773 0.023939726815147094 0 0.029689406077597773 0.023939726815147094 0 0.029626891556775361 0.02406552339598703 0 0.029585565192510675 0.024008341976675378 0 0.029661812356979858 0.023879043953039442 0 0.029689406077597773 0.023939726815147094 0 0.029585565192510675 0.024008341976675378 0 0.029732225577140094 0.023857974144971199 0 0.029689406077597773 0.023939726815147094 0 0.029765640915617474 0.023902288802694401 0 0.029689406077597773 0.023939726815147094 0 0.029765640915617474 0.023902288802694401 0 0.029753346594399484 0.023970018829240842 0 0.029753346594399484 0.023970018829240842 0 0.029626891556775361 0.02406552339598703 0 0.029754531449600542 0.024061073233339374 0 0.029689406077597773 0.023939726815147094 0 0.029753346594399484 0.023970018829240842 0 0.029626891556775361 0.02406552339598703 0 0.029626891556775361 0.02406552339598703 0 0.029669748103828313 0.024160956205780272 0 0.029522810552427763 0.024198594733272384 0 0.029754531449600542 0.024061073233339374 0 0.029669748103828313 0.024160956205780272 0 0.029808622415447749 0.024205227493100057 0 0.029626891556775361 0.02406552339598703 0 0.029754531449600542 0.024061073233339374 0 0.029669748103828313 0.024160956205780272 0 0.029754531449600542 0.024061073233339374 0 0.029886673528906903 0.024074817380371517 0 0.029808622415447749 0.024205227493100057 0 0.02981362911712733 0.023814202759406999 0 0.029841541188457003 0.023961574294720758 0 0.03006297306519316 0.024022980376906155 0 0.029753346594399484 0.023970018829240842 0 0.029754531449600542 0.024061073233339374 0 0.029841541188457003 0.023961574294720758 0 0.029754531449600542 0.024061073233339374 0 0.029886673528906903 0.024074817380371517 0 0.029841541188457003 0.023961574294720758 0 0.029886673528906903 0.024074817380371517 0 0.03006297306519316 0.024022980376906155 0 0.029956150233367125 0.024154596861847899 0 0.029886673528906903 0.024074817380371517 0 0.029841541188457003 0.023961574294720758 0 0.03006297306519316 0.024022980376906155 0 -0.0076616579196100501 0.016493111066968137 0 -0.0077568497465173927 0.016464668880121193 0 -0.0077469238566816485 0.016468367146694668 0 -0.0077568497465173927 0.016464668880121193 0 -0.0077914137768680608 0.016461947608633905 0 -0.0078621807731403832 0.016462388412018285 0 -0.0077568497465173927 0.016464668880121193 0 -0.0078621807731403832 0.016462388412018285 0 -0.0077477653020509808 0.016409223941284589 0 -0.0077568497465173927 0.016464668880121193 0 -0.0077469238566816485 0.016468367146694668 0 -0.0077914137768680608 0.016461947608633905 0 -0.0077469238566816485 0.016468367146694668 0 -0.0077914137768680608 0.016461947608633905 0 -0.0077836520724473522 0.016445800587155082 0 -0.0077914137768680608 0.016461947608633905 0 -0.0078537922346390669 0.016453888221276174 0 -0.0078313941760037448 0.016443453968378031 0 -0.0077914137768680608 0.016461947608633905 0 -0.0077836520724473522 0.016445800587155082 0 -0.0078313941760037448 0.016443453968378031 0 -0.0076616579196100501 0.016493111066968137 0 -0.0077469238566816485 0.016468367146694668 0 -0.0077836520724473522 0.016445800587155082 0 -0.0078621807731403832 0.016462388412018285 0 -0.0079497664440424838 0.016457368323340521 0 -0.0079827749007694987 0.016440620721212183 0 -0.0078537922346390669 0.016453888221276174 0 -0.0079497664440424838 0.016457368323340521 0 -0.0078843203046760138 0.01642706166021829 0 -0.0077914137768680608 0.016461947608633905 0 -0.0078621807731403832 0.016462388412018285 0 -0.0078537922346390669 0.016453888221276174 0 -0.0078621807731403832 0.016462388412018285 0 -0.0078537922346390669 0.016453888221276174 0 -0.0079497664440424838 0.016457368323340521 0 -0.0079884858877694916 0.016433683647468358 0 -0.0079497664440424838 0.016457368323340521 0 -0.0078843203046760138 0.01642706166021829 0 -0.0078537922346390669 0.016453888221276174 0 -0.0078843203046760138 0.01642706166021829 0 -0.0078313941760037448 0.016443453968378031 0 -0.0079884858877694916 0.016433683647468358 0 -0.0078843203046760138 0.01642706166021829 0 -0.0079070983331166623 0.016379998374657211 0 -0.0078843203046760138 0.01642706166021829 0 -0.0079070983331166623 0.016379998374657211 0 -0.0078434464454050674 0.01641640755887579 0 -0.007967808425839714 0.016368317764604321 0 -0.0079884858877694916 0.016433683647468358 0 -0.0079070983331166623 0.016379998374657211 0 0.023224862301471166 0.014524611375604662 0 0.023547337662392549 0.016384072866171068 0 0.023574361545183626 0.012553066429314419 0 -0.0077836520724473522 0.016445800587155082 0 -0.0078434464454050674 0.01641640755887579 0 -0.0078693349102039855 0.016367808430159253 0 0.01639363307835507 0.018971471865505376 0 0.0067102604574832614 0.013821954878408179 0 -0.0076616579196100501 0.016493111066968137 0 -0.0077836520724473522 0.016445800587155082 0 -0.0078693349102039855 0.016367808430159253 0 -0.0077836520724473522 0.016445800587155082 0 -0.0078434464454050674 0.01641640755887579 0 -0.0078313941760037448 0.016443453968378031 0 -0.0078843203046760138 0.01642706166021829 0 -0.0078434464454050674 0.01641640755887579 0 -0.0078313941760037448 0.016443453968378031 0 -0.0079070983331166623 0.016379998374657211 0 -0.0078434464454050674 0.01641640755887579 0 -0.0078765488585782681 0.016365907724340982 0 -0.0078434464454050674 0.01641640755887579 0 -0.0078693349102039855 0.016367808430159253 0 -0.0078765488585782681 0.016365907724340982 0 -0.0078693349102039855 0.016367808430159253 0 -0.0078985817995306986 0.016291030632646027 0 -0.0078867382691258994 0.016147569651522472 0 0.0067102604574832614 0.013821954878408179 0 0.0079108858301062419 0.012859969378832162 0 -0.0079070983331166623 0.016379998374657211 0 -0.0078765488585782681 0.016365907724340982 0 -0.0078985817995306986 0.016291030632646027 0 -0.0078693349102039855 0.016367808430159253 0 -0.0078765488585782681 0.016365907724340982 0 -0.0078985817995306986 0.016291030632646027 0 -0.007967808425839714 0.016368317764604321 0 -0.0079070983331166623 0.016379998374657211 0 -0.0079422527613118906 0.016282545698599014 0 -0.0079070983331166623 0.016379998374657211 0 -0.0078985817995306986 0.016291030632646027 0 -0.0079422527613118906 0.016282545698599014 0 -0.0079641349464763082 0.01626358334143797 0 -0.0079422527613118906 0.016282545698599014 0 -0.0079837877737760823 0.016129940349755713 0 -0.0079422527613118906 0.016282545698599014 0 -0.0079300559266266904 0.016201789786827663 0 -0.0079837877737760823 0.016129940349755713 0 -0.0078985817995306986 0.016291030632646027 0 -0.0079422527613118906 0.016282545698599014 0 -0.0079300559266266904 0.016201789786827663 0 -0.0078985817995306986 0.016291030632646027 0 -0.0079300559266266904 0.016201789786827663 0 -0.0078867382691258994 0.016147569651522472 0 -0.0079300559266266904 0.016201789786827663 0 -0.0078867382691258994 0.016147569651522472 0 -0.0079837877737760823 0.016129940349755713 0 0.023401152542862534 0.0091388569370064506 0 0.021614750658113746 0.0097464859397922866 0 0.022511547615063108 0.0080024664133653695 0 0.023401152542862534 0.0091388569370064506 0 0.022667544373243659 0.011005775905816247 0 0.021614750658113746 0.0097464859397922866 0 0.027649111379245379 0.018730277415230891 0 0.025656180771695954 0.017701227058331451 0 0.022368778284282933 0.012872512526059079 0 0.022667544373243659 0.011005775905816247 0 0.021614750658113746 0.0097464859397922866 0 0.023574361545183626 0.012553066429314419 0 0.023401152542862534 0.0091388569370064506 0 0.022667544373243659 0.011005775905816247 0 0.022368778284282933 0.012872512526059079 0 0.023574361545183626 0.012553066429314419 0 0.022667544373243659 0.011005775905816247 0 0.029727517339443961 0.023782237614382692 0 0.029748648582171182 0.023647163307011509 0 0.029652112125953919 0.023790133311984558 0 0.02981362911712733 0.023814202759406999 0 0.029727517339443961 0.023782237614382692 0 0.029748648582171182 0.023647163307011509 0 0.029732225577140094 0.023857974144971199 0 0.029661812356979858 0.023879043953039442 0 0.029727517339443961 0.023782237614382692 0 0.029661812356979858 0.023879043953039442 0 0.029727517339443961 0.023782237614382692 0 0.029652112125953919 0.023790133311984558 0 0.02981362911712733 0.023814202759406999 0 0.029732225577140094 0.023857974144971199 0 0.029727517339443961 0.023782237614382692 0 0.029748648582171182 0.023647163307011509 0 0.029652112125953919 0.023790133311984558 0 0.029659766881423109 0.023627189823080885 0 0.029748648582171182 0.023647163307011509 0 0.029683479767075392 0.023438627951488336 0 0.029659766881423109 0.023627189823080885 0 0.021614750658113746 0.0097464859397922866 0 0.021879146444320815 0.0078447235893583933 0 0.021335959980395242 0.0072517355425831143 0 0.025656180771695954 0.017701227058331451 0 0.025504968063398994 0.009908542723964112 0 0.021879146444320815 0.0078447235893583933 0 0.021335959980395242 0.0072517355425831143 0 0.021619853782459005 0.0072285827478446299 0 0.021879146444320815 0.0078447235893583933 0 0.022218499173938491 0.0071354089092877269 0 0.021619853782459005 0.0072285827478446299 0 0.023401152542862534 0.0091388569370064506 0 0.022511547615063108 0.0080024664133653695 0 0.022862685029691705 0.0067176744059527877 0 0.0079108858301062419 0.012859969378832162 0 0.0074717284808035337 0.011177677182683551 0 0.021614750658113746 0.0097464859397922866 0 0.021879146444320815 0.0078447235893583933 0 0.022511547615063108 0.0080024664133653695 0 0.021879146444320815 0.0078447235893583933 0 0.022511547615063108 0.0080024664133653695 0 0.022218499173938491 0.0071354089092877269 0 0.022511547615063108 0.0080024664133653695 0 0.022218499173938491 0.0071354089092877269 0 0.022862685029691705 0.0067176744059527877 0 0.022218499173938491 0.0071354089092877269 0 0.022862685029691705 0.0067176744059527877 0 0.022142366276772674 0.0063258931791380915 0 0.021528757127520243 0.0072024992464231885 0 0.022142366276772674 0.0063258931791380915 0 0.021944112236390277 0.0059661673405616072 0 0.022218499173938491 0.0071354089092877269 0 0.021619853782459005 0.0072285827478446299 0 0.022142366276772674 0.0063258931791380915 0 0.021528757127520243 0.0072024992464231885 0 0.021619853782459005 0.0072285827478446299 0 0.022142366276772674 0.0063258931791380915 0 0.025504968063398994 0.009908542723964112 0 0.024323318574609457 0.0097089945018789692 0 -0.0079593697364001847 0.01615973976338804 0 -0.0079837877737760823 0.016129940349755713 0 -0.0081312464465213737 0.016037335689622616 0 -0.0078867382691258994 0.016147569651522472 0 -0.0077669665009921941 0.016041245745810447 0 -0.0079837877737760823 0.016129940349755713 0 -0.0077669665009921941 0.016041245745810447 0 -0.0079837877737760823 0.016129940349755713 0 -0.0081312464465213737 0.016037335689622616 0 -0.0081312464465213737 0.016037335689622616 0 -0.0078995952491418431 0.016262881550718759 0 -0.0082816782922334325 0.016545219020782851 0 -0.0077669665009921941 0.016041245745810447 0 -0.0078995952491418431 0.016262881550718759 0 -0.007519710688059819 0.01647069537204229 0 -0.0077669665009921941 0.016041245745810447 0 -0.0081312464465213737 0.016037335689622616 0 -0.0078995952491418431 0.016262881550718759 0 -0.0079317021990290143 0.016757101358929171 0 -0.0078995952491418431 0.016262881550718759 0 -0.007519710688059819 0.01647069537204229 0 -0.0079317021990290143 0.016757101358929171 0 -0.0078995952491418431 0.016262881550718759 0 -0.0082816782922334325 0.016545219020782851 0 -0.0083269103752323485 0.016879988429256212 0 -0.0079317021990290143 0.016757101358929171 0 -0.0082816782922334325 0.016545219020782851 0 -0.0083269103752323485 0.016879988429256212 0 -0.0085832607783513457 0.016813054432820843 0 -0.0082816782922334325 0.016545219020782851 0 0.022142366276772674 0.0063258931791380915 0 0.022215939610544619 0.0057100449589829365 0 0.021944112236390277 0.0059661673405616072 0 0.022862685029691705 0.0067176744059527877 0 0.022142366276772674 0.0063258931791380915 0 0.022315685201558893 0.0058396912945727023 0 0.0074717284808035337 0.011177677182683551 0 0.0078155240416901972 0.012157049266456936 0 0.022142366276772674 0.0063258931791380915 0 0.022315685201558893 0.0058396912945727023 0 0.022215939610544619 0.0057100449589829365 0 0.022215939610544619 0.0057100449589829365 0 0.022818444456594006 0.0053502773142827019 0 0.021944112236390277 0.0059661673405616072 0 0.022818444456594006 0.0053502773142827019 0 0.022291387433977121 0.0025216686414999993 0 0.023975819681105126 0.0035533614376987151 0 0.023034999789269397 0.0059646815558891614 0 0.021435049470643525 0.0029079825918766518 0 0.022291387433977121 0.0025216686414999993 0 0.024419050346812184 0.0018428891448797288 0 0.022933573510679119 0.0011802636300889627 0 0.022291387433977121 0.0025216686414999993 0 0.024419050346812184 0.0018428891448797288 0 0.023975819681105126 0.0035533614376987151 0 0.024419050346812184 0.0018428891448797288 0 0.023975819681105126 0.0035533614376987151 0 0.025548187455541316 0.0034443544284368946 0 0.023975819681105126 0.0035533614376987151 0 0.024721979107611449 0.0048592324191432277 0 0.025548187455541316 0.0034443544284368946 0 0.022818444456594006 0.0053502773142827019 0 0.023975819681105126 0.0035533614376987151 0 0.024721979107611449 0.0048592324191432277 0 0.024721979107611449 0.0048592324191432277 0 0.026425877886103278 0.0048560881385158591 0 0.025548187455541316 0.0034443544284368946 0 0.026425877886103278 0.0048560881385158591 0 0.025548187455541316 0.0034443544284368946 0 0.027134741643409611 0.0033990160785951633 0 0.028038863590248247 0.0056084416092398387 0 0.026425877886103278 0.0048560881385158591 0 0.027134741643409611 0.0033990160785951633 0 0.028038863590248247 0.0056084416092398387 0 0.027134741643409611 0.0033990160785951633 0 0.029598380526573851 0.0032493477464444805 0 0.026928984976364714 0.003913241625748764 0 0.028573724517791291 -0.00058609831035578259 0 0.027134741643409611 0.0033990160785951633 0 0.028376051004690393 0.00082881916760084592 0 0.029598380526573851 0.0032493477464444805 0 0.027134741643409611 0.0033990160785951633 0 0.027695883514990464 0.0017104020225115445 0 0.026241320627841905 0.00207696314376471 0 0.024419050346812184 0.0018428891448797288 0 0.025548187455541316 0.0034443544284368946 0 0.026241320627841905 0.00207696314376471 0 0.025548187455541316 0.0034443544284368946 0 0.027134741643409611 0.0033990160785951633 0 0.026241320627841905 0.00207696314376471 0 0.024419050346812184 0.0018428891448797288 0 0.026241320627841905 0.00207696314376471 0 0.026288003956280732 5.1133621005462589e-05 0 0.027695883514990464 0.0017104020225115445 0 0.026241320627841905 0.00207696314376471 0 0.026288003956280732 5.1133621005462589e-05 0 0.027695883514990464 0.0017104020225115445 0 0.026288003956280732 5.1133621005462589e-05 0 0.028456923658263761 2.7193834946873314e-05 0 0.028573724517791291 -0.00058609831035578259 0 0.029694372671662483 0.010095240022757419 0 0.029612600327113991 0.023603828826412831 0 0.029578012399309166 0.023585847730607339 0 0.029629837785164859 0.023754244427894099 0 0.027785043445916317 0.011960209594112342 0 0.029694372671662483 0.010095240022757419 0 0.029612600327113991 0.023603828826412831 0 0.029624391040970085 0.023756750454653683 0 0.029629837785164859 0.023754244427894099 0 0.029612600327113991 0.023603828826412831 0 0.029611264452114407 0.023543484373366542 0 0.029624391040970085 0.023756750454653683 0 0.027785043445916317 0.011960209594112342 0 0.026791233057168063 0.012001388175585612 0 0.029611264452114407 0.023543484373366542 0 0.02962774065345946 0.023728428219203412 0 0.029624391040970085 0.023756750454653683 0 0.029611264452114407 0.023543484373366542 0 0.029659766881423109 0.023627189823080885 0 0.02962774065345946 0.023728428219203412 0 0.029683479767075392 0.023438627951488336 0 0.029611264452114407 0.023543484373366542 0 0.029659766881423109 0.023627189823080885 0 0.021585983119222295 0.0003491588996635132 0 0.022291387433977121 0.0025216686414999993 0 0.022933573510679119 0.0011802636300889627 0 0.025504968063398994 0.009908542723964112 0 0.021435049470643525 0.0029079825918766518 0 0.021585983119222295 0.0003491588996635132 0 0.0238544927342519 0.00015123726902283784 0 0.022933573510679119 0.0011802636300889627 0 0.025504968063398994 0.009908542723964112 0 0.026791233057168063 0.012001388175585612 0 0.024419050346812184 0.0018428891448797288 0 0.026288003956280732 5.1133621005462589e-05 0 0.0238544927342519 0.00015123726902283784 0 0.024419050346812184 0.0018428891448797288 0 0.0238544927342519 0.00015123726902283784 0 0.022933573510679119 0.0011802636300889627 0 0.037436927069027889 0.0044830167425946484 0 0.036507083859119868 0.00015358839664533717 0 0.037356719564459857 0.0040871215478825414 0 0.036902281269050062 0.002449876227358822 0 0.039402813930035092 0.0028501362218114491 0 0.037356719564459857 0.0040871215478825414 0 0.034785945179467773 0.0028087578523062332 0 0.036304999187081168 0.00091203942718280379 0 0.037261639549896641 0.0066132684658509874 0 0.037356719564459857 0.0040871215478825414 0 0.033495971333399668 0.0052557865891353596 0 0.037356719564459857 0.0040871215478825414 0 0.034785945179467773 0.0028087578523062332 0 0.033495971333399668 0.0052557865891353596 0 0.034785945179467773 0.0028087578523062332 0 0.032608356091246529 0.0020087080245472706 0 0.033789865158389859 8.1873707219287209e-05 0 0.034785945179467773 0.0028087578523062332 0 0.033789865158389859 8.1873707219287209e-05 0 0.036304999187081168 0.00091203942718280379 0 0.033379642868066772 0.0045715767020121627 0 0.029855184927984627 0.0033036956253947904 0 0.032608356091246529 0.0020087080245472706 0 0.033495971333399668 0.0052557865891353596 0 0.029598380526573851 0.0032493477464444805 0 0.034785945179467773 0.0028087578523062332 0 0.032608356091246529 0.0020087080245472706 0 0.033495971333399668 0.0052557865891353596 0 0.030725444132111944 0.0049566845014182076 0 0.033297402079958779 0.0038925275654098182 0 0.029598380526573851 0.0032493477464444805 0 0.032608356091246529 0.0020087080245472706 0 0.029598380526573851 0.0032493477464444805 0 0.030767212670626768 0.00036391890761273065 0 0.028376051004690393 0.00082881916760084592 0 0.029598380526573851 0.0032493477464444805 0 0.030767212670626768 0.00036391890761273065 0 0.028376051004690393 0.00082881916760084592 0 0.030767212670626768 0.00036391890761273065 0 0.029515714036256538 -0.0016322367488757644 0 0.030767212670626768 0.00036391890761273065 0 0.029515714036256538 -0.0016322367488757644 0 0.032353619730087831 -0.0018197246450981773 0 0.031911713813180594 0.018690921236401759 0 0.029061244789192732 0.018906947764898582 0 0.03082226084990293 0.02121329462118152 0 0.029578012399309166 0.023585847730607339 0 0.029571325420174498 0.023720268342624383 0 0.029629837785164859 0.023754244427894099 0 0.029694372671662483 0.010095240022757419 0 0.0305380475671982 0.0084896784467587902 0 0.029694372671662483 0.010095240022757419 0 0.029564466300076954 0.024222736190940012 0 0.032608356091246529 0.0020087080245472706 0 0.030767212670626768 0.00036391890761273065 0 0.033789865158389859 8.1873707219287209e-05 0 0.030767212670626768 0.00036391890761273065 0 0.032353619730087831 -0.0018197246450981773 0 0.033789865158389859 8.1873707219287209e-05 0 0.032353619730087831 -0.0018197246450981773 0 0.033789865158389859 8.1873707219287209e-05 0 0.03525817444828569 -0.0019750172110658279 0 0.033789865158389859 8.1873707219287209e-05 0 0.03525817444828569 -0.0019750172110658279 0 0.036304999187081168 0.00091203942718280379 0 0.032798108525326677 0.008061019944967697 0 0.036507083859119868 0.00015358839664533717 0 0.0305380475671982 0.0084896784467587902 0 0.032798108525326677 0.008061019944967697 0 0.029061244789192732 0.018906947764898582 0 0.026343055396955039 0.01902410722485014 0 0.027211939440099212 0.021780895123595323 0 0.032798108525326677 0.008061019944967697 0 0.031713922294684865 0.019342649727793117 0 0.032798108525326677 0.008061019944967697 0 0.03832621440641746 0.0077704390696538396 0 0.036377513416270921 0.00085736359592735085 0 0.037461720170231784 0.0013859441198925512 0 0.038478866034035171 0.00072322988750672483 0 0.035179879463150786 0.012345562425967049 0 0.034391012031421232 0.013694632237272754 0 0.032629950803093069 0.01246767637196371 0 0.036377513416270921 0.00085736359592735085 0 0.036902281269050062 0.002449876227358822 0 0.037461720170231784 0.0013859441198925512 0 0.036902281269050062 0.002449876227358822 0 0.037461720170231784 0.0013859441198925512 0 0.039402813930035092 0.0028501362218114491 0 0.033464533654188847 0.014946311522530065 0 0.034904620219135492 0.015704963968386609 0 0.03432137253931819 0.017404394087181894 0 0.037353403467981466 0.0135473914401397 0 0.037959044713924736 0.014510703557721657 0 0.041464817383386011 0.010866103043965417 0 0.041265956978970099 0.012808837187468917 0 0.04052897633568265 0.011812753795629899 0 0.033464533654188847 0.014946311522530065 0 0.034391012031421232 0.013694632237272754 0 0.032629950803093069 0.01246767637196371 0 0.033464533654188847 0.014946311522530065 0 0.034391012031421232 0.013694632237272754 0 0.034904620219135492 0.015704963968386609 0 0.035179879463150786 0.012345562425967049 0 0.034391012031421232 0.013694632237272754 0 0.035801391716687649 0.014335190146936669 0 0.034391012031421232 0.013694632237272754 0 0.035801391716687649 0.014335190146936669 0 0.034904620219135492 0.015704963968386609 0 0.034904620219135492 0.015704963968386609 0 0.036400351393411176 0.016308316900165258 0 0.03432137253931819 0.017404394087181894 0 0.035801391716687649 0.014335190146936669 0 0.034904620219135492 0.015704963968386609 0 0.036400351393411176 0.016308316900165258 0 0.031713922294684865 0.019342649727793117 0 0.032294974844545021 0.019869792583217624 0 0.028239979100649043 0.024142334408316105 0 0.029547917765076946 0.023656804592152456 0 0.028976936346042526 0.021876631757702332 0 0.028239979100649043 0.024142334408316105 0 0.029547917765076946 0.023656804592152456 0 0.029145278454390227 0.024424969625204043 0 0.029547917765076946 0.023656804592152456 0 0.029802933394486669 0.024451359151717356 0 0.029145278454390227 0.024424969625204043 0 0.029061244789192732 0.018906947764898582 0 0.028976936346042526 0.021876631757702332 0 0.03082226084990293 0.02121329462118152 0 0.027211939440099212 0.021780895123595323 0 0.028239979100649043 0.024142334408316105 0 0.028976936346042526 0.021876631757702332 0 0.029061244789192732 0.018906947764898582 0 0.027211939440099212 0.021780895123595323 0 0.028976936346042526 0.021876631757702332 0 0.029547917765076946 0.023656804592152456 0 0.028976936346042526 0.021876631757702332 0 0.03082226084990293 0.02121329462118152 0 0.029896866585830902 0.022929817101781592 0 0.029564466300076954 0.024222736190940012 0 0.029571325420174498 0.023720268342624383 0 0.029705410498737355 0.023931199207949866 0 0.029629837785164859 0.023754244427894099 0 0.029547917765076946 0.023656804592152456 0 0.029571325420174498 0.023720268342624383 0 0.029705410498737355 0.023931199207949866 0 0.029547917765076946 0.023656804592152456 0 0.029705410498737355 0.023931199207949866 0 0.029802933394486669 0.024451359151717356 0 0.029705410498737355 0.023931199207949866 0 0.029802933394486669 0.024451359151717356 0 0.029727284305945102 0.024275288025419114 0 0.029802933394486669 0.024451359151717356 0 0.029843131087664551 0.024423648754385633 0 0.029727284305945102 0.024275288025419114 0 0.029802933394486669 0.024451359151717356 0 0.029843131087664551 0.024423648754385633 0 0.030121656553418308 0.024535363971945792 0 0.029843131087664551 0.024423648754385633 0 0.029901935608881176 0.024368316675352081 0 0.030121656553418308 0.024535363971945792 0 0.029901935608881176 0.024368316675352081 0 0.030288556845302472 0.024402987721823293 0 0.03001142431758546 0.024194760535733897 0 0.030288556845302472 0.024402987721823293 0 0.030121656553418308 0.024535363971945792 0 0.030467835786421711 0.024576416276702553 0 0.029901935608881176 0.024368316675352081 0 0.030288556845302472 0.024402987721823293 0 0.030121656553418308 0.024535363971945792 0 0.030693372771863615 0.024681616078329215 0 0.03076920775523272 0.024916714439320479 0 0.032248356668085398 0.024328961801901507 0 0.030121656553418308 0.024535363971945792 0 0.030467835786421711 0.024576416276702553 0 0.030618625944536213 0.024721065047232739 0 0.030693372771863615 0.024681616078329215 0 0.030887534558704622 0.024300736906416057 0 0.032248356668085398 0.024328961801901507 0 0.030693372771863615 0.024681616078329215 0 0.030467835786421711 0.024576416276702553 0 0.030618625944536213 0.024721065047232739 0 0.030693372771863615 0.024681616078329215 0 0.030467835786421711 0.024576416276702553 0 0.030598796315545043 0.024461231783596993 0 0.030288556845302472 0.024402987721823293 0 0.030467835786421711 0.024576416276702553 0 0.030598796315545043 0.024461231783596993 0 0.030288556845302472 0.024402987721823293 0 0.030598796315545043 0.024461231783596993 0 0.030887534558704622 0.024300736906416057 0 0.030693372771863615 0.024681616078329215 0 0.030598796315545043 0.024461231783596993 0 0.030887534558704622 0.024300736906416057 0 0.031652393221110596 0.023447953710451379 0 0.031628299658990562 0.022569422426809444 0 0.032294974844545021 0.019869792583217624 0 0.031628299658990562 0.022569422426809444 0 0.028239979100649043 0.024142334408316105 0 0.028929865485314579 0.025405819680005465 0 0.029145278454390227 0.024424969625204043 0 0.029119567499423838 0.025249543102521629 0 0.031628299658990562 0.022569422426809444 0 0.029802933394486669 0.024451359151717356 0 0.030121656553418308 0.024535363971945792 0 0.030618625944536213 0.024721065047232739 0 0.029802933394486669 0.024451359151717356 0 0.028929865485314579 0.025405819680005465 0 0.029145278454390227 0.024424969625204043 0 0.036400351393411176 0.016308316900165258 0 0.036993631184410215 0.018243631514050337 0 0.03432137253931819 0.017404394087181894 0 0.036993631184410215 0.018243631514050337 0 0.03432137253931819 0.017404394087181894 0 0.035164034555463741 0.019809922226076585 0 0.031628299658990562 0.022569422426809444 0 0.035565606684463083 0.019667624315345585 0 0.037959044713924736 0.014510703557721657 0 0.035565606684463083 0.019667624315345585 0 0.041265956978970099 0.012808837187468917 0 0.040669590370359783 0.014652904948349288 0 0.040224762129803616 0.014159347518622406 0 0.029601740605566258 0.02390417994043547 0 0.029652112125953919 0.023790133311984558 0 0.02962774065345946 0.023728428219203412 0 0.029601740605566258 0.02390417994043547 0 0.029652112125953919 0.023790133311984558 0 0.029587669764472722 0.02395155839733186 0 0.029661812356979858 0.023879043953039442 0 0.029652112125953919 0.023790133311984558 0 0.029587669764472722 0.02395155839733186 0 0.029652112125953919 0.023790133311984558 0 0.029659766881423109 0.023627189823080885 0 0.02962774065345946 0.023728428219203412 0 0.029601740605566258 0.02390417994043547 0 0.02962774065345946 0.023728428219203412 0 0.029624391040970085 0.023756750454653683 0 0.029624391040970085 0.023756750454653683 0 0.029629837785164859 0.023754244427894099 0 0.029660939469619729 0.023936463856094721 0 0.029705410498737355 0.023931199207949866 0 0.029660939469619729 0.023936463856094721 0 0.029727284305945102 0.024275288025419114 0 0.029660939469619729 0.023936463856094721 0 0.029614458385514544 0.024046572310114724 0 0.029727284305945102 0.024275288025419114 0 0.029705410498737355 0.023931199207949866 0 0.029629837785164859 0.023754244427894099 0 0.029660939469619729 0.023936463856094721 0 0.029624391040970085 0.023756750454653683 0 0.029660939469619729 0.023936463856094721 0 0.029614458385514544 0.024046572310114724 0 0.029601740605566258 0.02390417994043547 0 0.029624391040970085 0.023756750454653683 0 0.029614458385514544 0.024046572310114724 0 0.029614458385514544 0.024046572310114724 0 0.029536754915731309 0.024220777132934201 0 0.029542020231125746 0.024066068732778584 0 0.029614458385514544 0.024046572310114724 0 0.029727284305945102 0.024275288025419114 0 0.029536754915731309 0.024220777132934201 0 0.029843131087664551 0.024423648754385633 0 0.029727284305945102 0.024275288025419114 0 0.029681311135173812 0.024323364368797878 0 0.029727284305945102 0.024275288025419114 0 0.029681311135173812 0.024323364368797878 0 0.029536754915731309 0.024220777132934201 0 0.029843131087664551 0.024423648754385633 0 0.029901935608881176 0.024368316675352081 0 0.029681311135173812 0.024323364368797878 0 0.029681311135173812 0.024323364368797878 0 0.029489979976685319 0.024257360570907327 0 0.029680163854489006 0.024247517686313849 0 0.029901935608881176 0.024368316675352081 0 0.029681311135173812 0.024323364368797878 0 0.029680163854489006 0.024247517686313849 0 0.029536754915731309 0.024220777132934201 0 0.029417186331078007 0.024237972976482711 0 0.029446659685570916 0.024175423116504228 0 0.029681311135173812 0.024323364368797878 0 0.029536754915731309 0.024220777132934201 0 0.029489979976685319 0.024257360570907327 0 0.029536754915731309 0.024220777132934201 0 0.029417186331078007 0.024237972976482711 0 0.029489979976685319 0.024257360570907327 0 0.029446659685570916 0.024175423116504228 0 0.029516424696274402 0.024074042465900284 0 0.029465943401248824 0.024158674645120146 0 0.029417186331078007 0.024237972976482711 0 0.029446659685570916 0.024175423116504228 0 0.029329966283988276 0.024264873839874888 0 0.029446659685570916 0.024175423116504228 0 0.029465943401248824 0.024158674645120146 0 0.029329966283988276 0.024264873839874888 0 0.029536754915731309 0.024220777132934201 0 0.029446659685570916 0.024175423116504228 0 0.029542020231125746 0.024066068732778584 0 0.029601740605566258 0.02390417994043547 0 0.029542020231125746 0.024066068732778584 0 0.029587669764472722 0.02395155839733186 0 0.029601740605566258 0.02390417994043547 0 0.029614458385514544 0.024046572310114724 0 0.029542020231125746 0.024066068732778584 0 0.029542020231125746 0.024066068732778584 0 0.029516424696274402 0.024074042465900284 0 0.029587669764472722 0.02395155839733186 0 0.029446659685570916 0.024175423116504228 0 0.029542020231125746 0.024066068732778584 0 0.029516424696274402 0.024074042465900284 0 0.029661812356979858 0.023879043953039442 0 0.029587669764472722 0.02395155839733186 0 0.029585565192510675 0.024008341976675378 0 0.029516424696274402 0.024074042465900284 0 0.029587669764472722 0.02395155839733186 0 0.029585565192510675 0.024008341976675378 0 0.029626891556775361 0.02406552339598703 0 0.029585565192510675 0.024008341976675378 0 0.029465943401248824 0.024158674645120146 0 0.029516424696274402 0.024074042465900284 0 0.029585565192510675 0.024008341976675378 0 0.029465943401248824 0.024158674645120146 0 0.029626891556775361 0.02406552339598703 0 0.029465943401248824 0.024158674645120146 0 0.029522810552427763 0.024198594733272384 0 0.029465943401248824 0.024158674645120146 0 0.029386407603905141 0.02431056109571296 0 0.029329966283988276 0.024264873839874888 0 0.029522810552427763 0.024198594733272384 0 0.029386407603905141 0.02431056109571296 0 0.029580442454439363 0.024300103384430317 0 0.029465943401248824 0.024158674645120146 0 0.029522810552427763 0.024198594733272384 0 0.029386407603905141 0.02431056109571296 0 0.029386407603905141 0.02431056109571296 0 0.029174548861088834 0.024619407749607646 0 0.029247358544257335 0.024391124250176973 0 0.029386407603905141 0.02431056109571296 0 0.029174548861088834 0.024619407749607646 0 0.029452733077829567 0.024530308979755364 0 0.029174548861088834 0.024619407749607646 0 0.029151166260017562 0.024402240376676997 0 0.028885340021999592 0.024831269977930979 0 0.029151166260017562 0.024402240376676997 0 0.029089256955494247 0.024414541856244237 0 0.028885340021999592 0.024831269977930979 0 0.029174548861088834 0.024619407749607646 0 0.029151166260017562 0.024402240376676997 0 0.029247358544257335 0.024391124250176973 0 0.029386407603905141 0.02431056109571296 0 0.029247358544257335 0.024391124250176973 0 0.029329966283988276 0.024264873839874888 0 0.029151166260017562 0.024402240376676997 0 0.029329966283988276 0.024264873839874888 0 0.029329688652315486 0.024266103216336474 0 0.029151166260017562 0.024402240376676997 0 0.029247358544257335 0.024391124250176973 0 0.029329966283988276 0.024264873839874888 0 0.029417186331078007 0.024237972976482711 0 0.029489979976685319 0.024257360570907327 0 0.029329688652315486 0.024266103216336474 0 0.029417186331078007 0.024237972976482711 0 0.029329966283988276 0.024264873839874888 0 0.029329688652315486 0.024266103216336474 0 0.029489979976685319 0.024257360570907327 0 0.029329688652315486 0.024266103216336474 0 0.029475127667001052 0.024199042543455208 0 0.029329688652315486 0.024266103216336474 0 0.029475127667001052 0.024199042543455208 0 0.029289199772340561 0.024235167425056481 0 0.029680163854489006 0.024247517686313849 0 0.029744051037154773 0.024082123689959694 0 0.03001142431758546 0.024194760535733897 0 0.029901935608881176 0.024368316675352081 0 0.029680163854489006 0.024247517686313849 0 0.03001142431758546 0.024194760535733897 0 0.029489979976685319 0.024257360570907327 0 0.029680163854489006 0.024247517686313849 0 0.029475127667001052 0.024199042543455208 0 0.029680163854489006 0.024247517686313849 0 0.029475127667001052 0.024199042543455208 0 0.029744051037154773 0.024082123689959694 0 0.029744051037154773 0.024082123689959694 0 0.02952166368342168 0.024056688786326014 0 0.029861752046217237 0.023838064962147569 0 0.029475127667001052 0.024199042543455208 0 0.029744051037154773 0.024082123689959694 0 0.02952166368342168 0.024056688786326014 0 0.029475127667001052 0.024199042543455208 0 0.02952166368342168 0.024056688786326014 0 0.029289199772340561 0.024235167425056481 0 0.02952166368342168 0.024056688786326014 0 0.02932746146934383 0.024131818486701775 0 0.029544294769307415 0.023831721811425514 0 0.02952166368342168 0.024056688786326014 0 0.029544294769307415 0.023831721811425514 0 0.029861752046217237 0.023838064962147569 0 0.029151166260017562 0.024402240376676997 0 0.029329688652315486 0.024266103216336474 0 0.029289199772340561 0.024235167425056481 0 0.029289199772340561 0.024235167425056481 0 0.02932746146934383 0.024131818486701775 0 0.029089256955494247 0.024414541856244237 0 0.02952166368342168 0.024056688786326014 0 0.029289199772340561 0.024235167425056481 0 0.02932746146934383 0.024131818486701775 0 0.029151166260017562 0.024402240376676997 0 0.029289199772340561 0.024235167425056481 0 0.029089256955494247 0.024414541856244237 0 0.029089256955494247 0.024414541856244237 0 0.029261949825448573 0.024145561821198744 0 0.028847397092068849 0.024842072234463622 0 0.02932746146934383 0.024131818486701775 0 0.029089256955494247 0.024414541856244237 0 0.029261949825448573 0.024145561821198744 0 0.029544294769307415 0.023831721811425514 0 0.029483823913481248 0.023440331920696344 0 0.029261949825448573 0.024145561821198744 0 0.029544294769307415 0.023831721811425514 0 0.029483823913481248 0.023440331920696344 0 0.03004276633747335 0.02341717729824494 0 0.02932746146934383 0.024131818486701775 0 0.029544294769307415 0.023831721811425514 0 0.029261949825448573 0.024145561821198744 0 0.029347994003440448 0.023957691882248066 0 0.029261949825448573 0.024145561821198744 0 0.02923146528575479 0.024156892108107036 0 0.029483823913481248 0.023440331920696344 0 0.029347994003440448 0.023957691882248066 0 0.029261949825448573 0.024145561821198744 0 0.029483823913481248 0.023440331920696344 0 0.029347994003440448 0.023957691882248066 0 0.02920292874646236 0.023910486389229123 0 0.029261949825448573 0.024145561821198744 0 0.028847397092068849 0.024842072234463622 0 0.02923146528575479 0.024156892108107036 0 0.028847397092068849 0.024842072234463622 0 0.028275992443695813 0.026040297917581053 0 0.028885340021999592 0.024831269977930979 0 0.028847397092068849 0.024842072234463622 0 0.028275992443695813 0.026040297917581053 0 0.02923146528575479 0.024156892108107036 0 0.028275992443695813 0.026040297917581053 0 0.029017727145895279 0.025270438470809609 0 0.028885340021999592 0.024831269977930979 0 0.028275992443695813 0.026040297917581053 0 0.029017727145895279 0.025270438470809609 0 0.029427341217506828 0.025976530707461164 0 0.029174548861088834 0.024619407749607646 0 0.029017727145895279 0.025270438470809609 0 0.028885340021999592 0.024831269977930979 0 0.029174548861088834 0.024619407749607646 0 0.029017727145895279 0.025270438470809609 0 0.029483373396514728 0.02504295975484656 0 0.029089256955494247 0.024414541856244237 0 0.028847397092068849 0.024842072234463622 0 0.028885340021999592 0.024831269977930979 0 0.032352694894546556 0.023092719202067964 0 0.032980315210322166 0.022504836209193579 0 0.033826438983878403 0.022556850300247747 0 0.035565606684463083 0.019667624315345585 0 0.036941829715029441 0.018888501688729759 0 0.033472613080441006 0.022614896198927523 0 0.032352694894546556 0.023092719202067964 0 0.033826438983878403 0.022556850300247747 0 0.040669590370359783 0.014652904948349288 0 0.040224762129803616 0.014159347518622406 0 0.039793262563097252 0.015151572271831636 0 0.035565606684463083 0.019667624315345585 0 0.032403289144647601 0.024020807375702322 0 0.032248356668085398 0.024328961801901507 0 0.032352694894546556 0.023092719202067964 0 0.031338279765674736 0.023911921643117694 0 0.032352694894546556 0.023092719202067964 0 0.032205206198866444 0.022658862636024939 0 0.032980315210322166 0.022504836209193579 0 0.032352694894546556 0.023092719202067964 0 0.031409620602840672 0.023016365575041539 0 0.032205206198866444 0.022658862636024939 0 0.031409620602840672 0.023016365575041539 0 0.030928339062495307 0.023594133877454116 0 0.030496519990259027 0.02345554513921716 0 0.032352694894546556 0.023092719202067964 0 0.030928339062495307 0.023594133877454116 0 0.031338279765674736 0.023911921643117694 0 0.032352694894546556 0.023092719202067964 0 0.031409620602840672 0.023016365575041539 0 0.030928339062495307 0.023594133877454116 0 0.030887534558704622 0.024300736906416057 0 0.032248356668085398 0.024328961801901507 0 0.031338279765674736 0.023911921643117694 0 0.030887534558704622 0.024300736906416057 0 0.031338279765674736 0.023911921643117694 0 0.030509258456433121 0.024083376709120911 0 0.030288556845302472 0.024402987721823293 0 0.030887534558704622 0.024300736906416057 0 0.030509258456433121 0.024083376709120911 0 0.030928339062495307 0.023594133877454116 0 0.031338279765674736 0.023911921643117694 0 0.030509258456433121 0.024083376709120911 0 0.030928339062495307 0.023594133877454116 0 0.030509258456433121 0.024083376709120911 0 0.030222343461589102 0.023874117242715188 0 0.030509258456433121 0.024083376709120911 0 0.03001142431758546 0.024194760535733897 0 0.030222343461589102 0.023874117242715188 0 0.030288556845302472 0.024402987721823293 0 0.030509258456433121 0.024083376709120911 0 0.03001142431758546 0.024194760535733897 0 0.029744051037154773 0.024082123689959694 0 0.03001142431758546 0.024194760535733897 0 0.030222343461589102 0.023874117242715188 0 0.030222343461589102 0.023874117242715188 0 0.030496519990259027 0.02345554513921716 0 0.029861752046217237 0.023838064962147569 0 0.029744051037154773 0.024082123689959694 0 0.030222343461589102 0.023874117242715188 0 0.029861752046217237 0.023838064962147569 0 0.030928339062495307 0.023594133877454116 0 0.030222343461589102 0.023874117242715188 0 0.030496519990259027 0.02345554513921716 0 0.030496519990259027 0.02345554513921716 0 0.029861752046217237 0.023838064962147569 0 0.03004276633747335 0.02341717729824494 0 0.029483823913481248 0.023440331920696344 0 0.03004276633747335 0.02341717729824494 0 0.030726864784580907 0.022637949924862674 0 0.029544294769307415 0.023831721811425514 0 0.029861752046217237 0.023838064962147569 0 0.03004276633747335 0.02341717729824494 0 0.030496519990259027 0.02345554513921716 0 0.03004276633747335 0.02341717729824494 0 0.03084614961400621 0.023017249930240503 0 0.03004276633747335 0.02341717729824494 0 0.030726864784580907 0.022637949924862674 0 0.03084614961400621 0.023017249930240503 0 0.029483823913481248 0.023440331920696344 0 0.030726864784580907 0.022637949924862674 0 0.031274104272816329 0.021378072165980692 0 0.029483823913481248 0.023440331920696344 0 0.02920292874646236 0.023910486389229123 0 0.028649956893364949 0.024010974382274265 0 0.029558912377114065 0.023299887844966102 0 0.029963951137040288 0.022766311725206222 0 0.030726864784580907 0.022637949924862674 0 0.031274104272816329 0.021378072165980692 0 0.031766798526532448 0.021934549244480777 0 0.030726864784580907 0.022637949924862674 0 0.031766798526532448 0.021934549244480777 0 0.031598200130911545 0.022526342716931182 0 0.030726864784580907 0.022637949924862674 0 0.031598200130911545 0.022526342716931182 0 0.03084614961400621 0.023017249930240503 0 0.031409620602840672 0.023016365575041539 0 0.030496519990259027 0.02345554513921716 0 0.03084614961400621 0.023017249930240503 0 0.031409620602840672 0.023016365575041539 0 0.031598200130911545 0.022526342716931182 0 0.032205206198866444 0.022658862636024939 0 0.031409620602840672 0.023016365575041539 0 0.031598200130911545 0.022526342716931182 0 0.03084614961400621 0.023017249930240503 0 0.032205206198866444 0.022658862636024939 0 0.032593306835679813 0.022090943366086083 0 0.032980315210322166 0.022504836209193579 0 0.031598200130911545 0.022526342716931182 0 0.032205206198866444 0.022658862636024939 0 0.032593306835679813 0.022090943366086083 0 0.031274104272816329 0.021378072165980692 0 0.031766798526532448 0.021934549244480777 0 0.03233323122853482 0.0215401493467446 0 0.031766798526532448 0.021934549244480777 0 0.032593306835679813 0.022090943366086083 0 0.03233323122853482 0.0215401493467446 0 0.031766798526532448 0.021934549244480777 0 0.031598200130911545 0.022526342716931182 0 0.032593306835679813 0.022090943366086083 0 0.032593306835679813 0.022090943366086083 0 0.03233323122853482 0.0215401493467446 0 0.032991215748330999 0.021561652597450246 0 0.032991215748330999 0.021561652597450246 0 0.033564461381378155 0.022033309918607483 0 0.033584812487656324 0.021305077996595388 0 0.032593306835679813 0.022090943366086083 0 0.032991215748330999 0.021561652597450246 0 0.033564461381378155 0.022033309918607483 0 0.032593306835679813 0.022090943366086083 0 0.032980315210322166 0.022504836209193579 0 0.033564461381378155 0.022033309918607483 0 0.032980315210322166 0.022504836209193579 0 0.033826438983878403 0.022556850300247747 0 0.033564461381378155 0.022033309918607483 0 0.027860028476283362 0.024945341472430715 0 0.028083674268626842 0.024476424720220599 0 0.028358057001935739 0.024753299094053924 0 0.027860028476283362 0.024945341472430715 0 0.028083674268626842 0.024476424720220599 0 0.027761016680459848 0.02485210074268699 0 0.028662864058923203 0.024463842625225819 0 0.026246208211888618 0.026518506699654977 0 0.030578470042189172 0.022526429907130784 0 0.030158212484191635 0.02306289333085423 0 0.032786386104228037 0.020771760687381714 0 0.033584812487656324 0.021305077996595388 0 0.033707151438414421 0.020822755513053182 0 0.032991215748330999 0.021561652597450246 0 0.032786386104228037 0.020771760687381714 0 0.033584812487656324 0.021305077996595388 0 0.031274104272816329 0.021378072165980692 0 0.03233323122853482 0.0215401493467446 0 0.032786386104228037 0.020771760687381714 0 0.028083674268626842 0.024476424720220599 0 0.028358057001935739 0.024753299094053924 0 0.028727920530502889 0.024380612864042427 0 0.03233323122853482 0.0215401493467446 0 0.032991215748330999 0.021561652597450246 0 0.032786386104228037 0.020771760687381714 0 0.029963951137040288 0.022766311725206222 0 0.030578470042189172 0.022526429907130784 0 0.021890950658928612 0.030996809367352593 0 0.023398086586695607 0.030039597893997672 0 0.022817161013190587 0.031610280054633316 0 0.026246208211888618 0.026518506699654977 0 0.026000037027514585 0.027329583562255923 0 0.028263686624363495 0.024606953354535364 0 0.028769269983937456 0.024130784725493414 0 0.029178215397196349 0.02421273513566204 0 0.026246208211888618 0.026518506699654977 0 0.029171584917208709 0.023912097090192982 0 0.028649956893364949 0.024010974382274265 0 0.028083674268626842 0.024476424720220599 0 0.028727920530502889 0.024380612864042427 0 0.02920292874646236 0.023910486389229123 0 0.028649956893364949 0.024010974382274265 0 0.028727920530502889 0.024380612864042427 0 0.02920292874646236 0.023910486389229123 0 0.028769269983937456 0.024130784725493414 0 0.029178215397196349 0.02421273513566204 0 0.029347994003440448 0.023957691882248066 0 0.02920292874646236 0.023910486389229123 0 0.029178215397196349 0.02421273513566204 0 0.028994529369452061 0.024074061989369878 0 0.029171584917208709 0.023912097090192982 0 0.023398086586695607 0.030039597893997672 0 0.022817161013190587 0.031610280054633316 0 0.024085979974628576 0.031299655236827414 0 0.023161543306397789 0.033205226175921219 0 0.022817161013190587 0.031610280054633316 0 0.024085979974628576 0.031299655236827414 0 0.023161543306397789 0.033205226175921219 0 0.022294644525788044 0.032484394269111261 0 0.021935119519577939 0.033001492540520316 0 0.024718977917958854 0.034283400829096318 0 0.023774553233727895 0.034970398129169876 0 0.023161543306397789 0.033205226175921219 0 0.022294644525788044 0.032484394269111261 0 0.022817161013190587 0.031610280054633316 0 0.022294644525788044 0.032484394269111261 0 0.022817161013190587 0.031610280054633316 0 0.021844033617796441 0.031961105248699266 0 0.021890950658928612 0.030996809367352593 0 0.022817161013190587 0.031610280054633316 0 0.021844033617796441 0.031961105248699266 0 0.021890950658928612 0.030996809367352593 0 0.021844033617796441 0.031961105248699266 0 0.021159499831616215 0.032081714147725732 0 0.022294644525788044 0.032484394269111261 0 0.021844033617796441 0.031961105248699266 0 0.021478539777217292 0.032585056937104007 0 0.022294644525788044 0.032484394269111261 0 0.021478539777217292 0.032585056937104007 0 0.021935119519577939 0.033001492540520316 0 0.021478539777217292 0.032585056937104007 0 0.021226654831931216 0.032641738915334922 0 0.021152694513245789 0.03302087229740755 0 0.021478539777217292 0.032585056937104007 0 0.021226654831931216 0.032641738915334922 0 0.021155425163218011 0.032392668715991564 0 0.021226654831931216 0.032641738915334922 0 0.021077517068737055 0.032673689244714359 0 0.021116170958489094 0.032784784708586166 0 0.021226654831931216 0.032641738915334922 0 0.021077517068737055 0.032673689244714359 0 0.021059610745305476 0.032562851704393041 0 0.021226654831931216 0.032641738915334922 0 0.021155425163218011 0.032392668715991564 0 0.021059610745305476 0.032562851704393041 0 0.021478539777217292 0.032585056937104007 0 0.021155425163218011 0.032392668715991564 0 0.021159499831616215 0.032081714147725732 0 0.021844033617796441 0.031961105248699266 0 0.021478539777217292 0.032585056937104007 0 0.021159499831616215 0.032081714147725732 0 0.027860028476283362 0.024945341472430715 0 0.027669475461706606 0.025025565733771533 0 0.027829200751163189 0.024944181068152268 0 0.026246208211888618 0.026518506699654977 0 0.023738678009648056 0.028636746235523723 0 0.027860028476283362 0.024945341472430715 0 0.027829200751163189 0.024944181068152268 0 0.027818856810630545 0.024950134196698195 0 0.026222526976607183 0.030249479654328369 0 0.027037485809050056 0.028704627371554749 0 0.02515004560769888 0.02859729904220594 0 0.026222526976607183 0.030249479654328369 0 0.027098324082510727 0.02973911035929936 0 0.027037485809050056 0.028704627371554749 0 0.026222526976607183 0.030249479654328369 0 0.027098324082510727 0.02973911035929936 0 0.026558939231011606 0.031028867998727113 0 0.027098324082510727 0.02973911035929936 0 0.027643412297006179 0.03006893544592585 0 0.028185933146866272 0.028629992630451285 0 0.027098324082510727 0.02973911035929936 0 0.027643412297006179 0.03006893544592585 0 0.026558939231011606 0.031028867998727113 0 0.027643412297006179 0.03006893544592585 0 0.028965456552987625 0.030438665609608045 0 0.029078516117595158 0.029017671596484714 0 0.027643412297006179 0.03006893544592585 0 0.028185933146866272 0.028629992630451285 0 0.029078516117595158 0.029017671596484714 0 0.027098324082510727 0.02973911035929936 0 0.028185933146866272 0.028629992630451285 0 0.027037485809050056 0.028704627371554749 0 0.028275992443695813 0.026040297917581053 0 0.028185933146866272 0.028629992630451285 0 0.029415510771417842 0.027526899625276168 0 0.028275992443695813 0.026040297917581053 0 0.028185933146866272 0.028629992630451285 0 0.027037485809050056 0.028704627371554749 0 0.028275992443695813 0.026040297917581053 0 0.027037485809050056 0.028704627371554749 0 0.02515004560769888 0.02859729904220594 0 0.02833586288150065 0.026020906974770334 0 0.027368650457563252 0.026342146553920236 0 0.029347994003440448 0.023957691882248066 0 0.029178215397196349 0.02421273513566204 0 0.02923146528575479 0.024156892108107036 0 0.026000037027514585 0.027329583562255923 0 0.027368650457563252 0.026342146553920236 0 0.02515004560769888 0.02859729904220594 0 0.025476853339580222 0.031025764944750674 0 0.024085979974628576 0.031299655236827414 0 0.023398086586695607 0.030039597893997672 0 0.02515004560769888 0.02859729904220594 0 0.024085979974628576 0.031299655236827414 0 0.026222526976607183 0.030249479654328369 0 0.02515004560769888 0.02859729904220594 0 0.025476853339580222 0.031025764944750674 0 0.025476853339580222 0.031025764944750674 0 0.026329188452864069 0.032001887222399807 0 0.02545345385138699 0.033437697909927643 0 0.026222526976607183 0.030249479654328369 0 0.025476853339580222 0.031025764944750674 0 0.026329188452864069 0.032001887222399807 0 0.025476853339580222 0.031025764944750674 0 0.024085979974628576 0.031299655236827414 0 0.02545345385138699 0.033437697909927643 0 0.024718977917958854 0.034283400829096318 0 0.025518445142358012 0.033560113691098618 0 0.023161543306397789 0.033205226175921219 0 0.024085979974628576 0.031299655236827414 0 0.02545345385138699 0.033437697909927643 0 0.02579024016960162 0.035599466921213165 0 0.02545345385138699 0.033437697909927643 0 0.025899255268112015 0.035183282283811491 0 0.026329188452864069 0.032001887222399807 0 0.02545345385138699 0.033437697909927643 0 0.027118502738166347 0.033615639782159139 0 0.02545345385138699 0.033437697909927643 0 0.027118502738166347 0.033615639782159139 0 0.025899255268112015 0.035183282283811491 0 0.024477833942254834 0.0315714238543367 0 0.024524110512440519 0.031484097087501148 0 0.023600348392023789 0.030954945312230468 0 0.024477833942254834 0.0315714238543367 0 0.026000688316918513 0.031502916087127589 0 0.024524110512440519 0.031484097087501148 0 0.025700602073992929 0.032899908876381286 0 0.026452123742246487 0.03120122267852582 0 0.026329188452864069 0.032001887222399807 0 0.027118502738166347 0.033615639782159139 0 0.026558939231011606 0.031028867998727113 0 0.024477833942254834 0.0315714238543367 0 0.026000688316918513 0.031502916087127589 0 0.026558939231011606 0.031028867998727113 0 0.026222526976607183 0.030249479654328369 0 0.026329188452864069 0.032001887222399807 0 0.026558939231011606 0.031028867998727113 0 0.025949272460342697 0.031588003974000252 0 0.025688119762555282 0.031731961841162788 0 0.026000688316918513 0.031502916087127589 0 0.02416008985131643 0.03178513136195138 0 0.023107568828325015 0.033092668566471611 0 0.027643412297006179 0.03006893544592585 0 0.026000688316918513 0.031502916087127589 0 0.028965456552987625 0.030438665609608045 0 0.027643412297006179 0.03006893544592585 0 0.026000688316918513 0.031502916087127589 0 0.026558939231011606 0.031028867998727113 0 0.026000688316918513 0.031502916087127589 0 0.02416008985131643 0.03178513136195138 0 0.024524110512440519 0.031484097087501148 0 0.02416008985131643 0.03178513136195138 0 0.023398001425120961 0.031402126008846801 0 0.022941310780164034 0.032044062266798262 0 0.024524110512440519 0.031484097087501148 0 0.023398001425120961 0.031402126008846801 0 0.023600348392023789 0.030954945312230468 0 0.02416008985131643 0.03178513136195138 0 0.024524110512440519 0.031484097087501148 0 0.023398001425120961 0.031402126008846801 0 0.023398001425120961 0.031402126008846801 0 0.021998843429405161 0.031801749920254398 0 0.022941310780164034 0.032044062266798262 0 0.023398001425120961 0.031402126008846801 0 0.021998843429405161 0.031801749920254398 0 0.022175626485919211 0.030909774855839883 0 0.021998843429405161 0.031801749920254398 0 0.022941310780164034 0.032044062266798262 0 0.022014992593728633 0.032523263515421473 0 0.021998843429405161 0.031801749920254398 0 0.020652993582085506 0.031474407127180637 0 0.022175626485919211 0.030909774855839883 0 0.021998843429405161 0.031801749920254398 0 0.020652993582085506 0.031474407127180637 0 0.020861827330947883 0.032367392264463356 0 0.021998843429405161 0.031801749920254398 0 0.020861827330947883 0.032367392264463356 0 0.022014992593728633 0.032523263515421473 0 0.020861827330947883 0.032367392264463356 0 0.021283091789085665 0.033387286236314401 0 0.019702603112898474 0.032700441709308879 0 0.020861827330947883 0.032367392264463356 0 0.021283091789085665 0.033387286236314401 0 0.022014992593728633 0.032523263515421473 0 0.027060643193208663 0.030612610538128825 0 0.029330975111754646 0.030428295418739367 0 0.027060643193208663 0.030612610538128825 0 0.025688119762555282 0.031731961841162788 0 0.021283091789085665 0.033387286236314401 0 0.022014992593728633 0.032523263515421473 0 0.023107568828325015 0.033092668566471611 0 0.030602165535596224 0.029448958364041846 0 0.029960931831501871 0.029246027149685994 0 0.028965456552987625 0.030438665609608045 0 0.022941310780164034 0.032044062266798262 0 0.022014992593728633 0.032523263515421473 0 0.023107568828325015 0.033092668566471611 0 0.02416008985131643 0.03178513136195138 0 0.022941310780164034 0.032044062266798262 0 0.023107568828325015 0.033092668566471611 0 0.029960931831501871 0.029246027149685994 0 0.028965456552987625 0.030438665609608045 0 0.029078516117595158 0.029017671596484714 0 0.028185933146866272 0.028629992630451285 0 0.029078516117595158 0.029017671596484714 0 0.029415510771417842 0.027526899625276168 0 0.029078516117595158 0.029017671596484714 0 0.029793484738210904 0.02839237231551257 0 0.029415510771417842 0.027526899625276168 0 0.029960931831501871 0.029246027149685994 0 0.029078516117595158 0.029017671596484714 0 0.029793484738210904 0.02839237231551257 0 0.030174261862386271 0.028943921522943169 0 0.029960931831501871 0.029246027149685994 0 0.030195210781876099 0.02837896807015346 0 0.029960931831501871 0.029246027149685994 0 0.029793484738210904 0.02839237231551257 0 0.030195210781876099 0.02837896807015346 0 0.030174261862386271 0.028943921522943169 0 0.030195210781876099 0.02837896807015346 0 0.030435139127688061 0.028163143755125204 0 0.030195210781876099 0.02837896807015346 0 0.030425471950001871 0.027569868647074367 0 0.030435139127688061 0.028163143755125204 0 0.029793484738210904 0.02839237231551257 0 0.030195210781876099 0.02837896807015346 0 0.029998249591424022 0.027739950121416983 0 0.030425471950001871 0.027569868647074367 0 0.030021306515389468 0.026775372460320645 0 0.030604929474875198 0.026372015968520686 0 0.030195210781876099 0.02837896807015346 0 0.029998249591424022 0.027739950121416983 0 0.030425471950001871 0.027569868647074367 0 0.029998249591424022 0.027739950121416983 0 0.030425471950001871 0.027569868647074367 0 0.030021306515389468 0.026775372460320645 0 0.029998249591424022 0.027739950121416983 0 0.029415510771417842 0.027526899625276168 0 0.030021306515389468 0.026775372460320645 0 0.029415510771417842 0.027526899625276168 0 0.029427341217506828 0.025976530707461164 0 0.030021306515389468 0.026775372460320645 0 0.029793484738210904 0.02839237231551257 0 0.029998249591424022 0.027739950121416983 0 0.029415510771417842 0.027526899625276168 0 0.031653000246580153 0.027174668790600438 0 0.031074149435773996 0.027242479911197239 0 0.031252585848806226 0.025845197332452739 0 0.012109028677179379 0.023307499759736467 0 0.033496616738099207 0.027501495962967366 0 0.030370147722627944 0.028155831903491819 0 0.030205026281286896 0.028157271063962565 0 0.02997503981363665 0.028180803281388004 0 0.029873596536176522 0.028386120371077163 0 0.030370147722627944 0.028155831903491819 0 0.02997503981363665 0.028180803281388004 0 0.030425471950001871 0.027569868647074367 0 0.031074149435773996 0.027242479911197239 0 0.030604929474875198 0.026372015968520686 0 0.030425471950001871 0.027569868647074367 0 0.030370147722627944 0.028155831903491819 0 0.030435139127688061 0.028163143755125204 0 0.029558289286483859 0.027602062054046042 0 0.033496616738099207 0.027501495962967366 0 0.030370147722627944 0.028155831903491819 0 0.030435139127688061 0.028163143755125204 0 0.030205026281286896 0.028157271063962565 0 0.030174261862386271 0.028943921522943169 0 0.030435139127688061 0.028163143755125204 0 0.030344951096678729 0.02813769665545662 0 0.030435139127688061 0.028163143755125204 0 0.030205026281286896 0.028157271063962565 0 0.030344951096678729 0.02813769665545662 0 0.030344951096678729 0.02813769665545662 0 0.029625874880543121 0.027942888490684267 0 0.029778913867654796 0.028131941302076646 0 0.030205026281286896 0.028157271063962565 0 0.030344951096678729 0.02813769665545662 0 0.029778913867654796 0.028131941302076646 0 0.030205026281286896 0.028157271063962565 0 0.02997503981363665 0.028180803281388004 0 0.029778913867654796 0.028131941302076646 0 0.02024467750338127 0.029456343909924194 0 0.023233856014972309 0.031674860067557167 0 0.024616257283827814 0.028762423405280239 0 0.028562233582903232 0.029819674948441604 0 0.017020775644564293 0.029831634150154173 0 0.02024467750338127 0.029456343909924194 0 0.023233856014972309 0.031674860067557167 0 0.017365736807339695 0.032226653677888566 0 0.027060643193208663 0.030612610538128825 0 0.021880471876174968 0.030753931993376869 0 0.028916633877286164 0.031136881893016572 0 0.023233856014972309 0.031674860067557167 0 0.024616257283827814 0.028762423405280239 0 0.027060643193208663 0.030612610538128825 0 0.028562233582903232 0.029819674948441604 0 0.020652993582085506 0.031474407127180637 0 0.019702603112898474 0.032700441709308879 0 0.019509254065367916 0.03135318488598033 0 0.020652993582085506 0.031474407127180637 0 0.020861827330947883 0.032367392264463356 0 0.019702603112898474 0.032700441709308879 0 0.02024467750338127 0.029456343909924194 0 0.024616257283827814 0.028762423405280239 0 0.020186025597548386 0.026317376332263619 0 0.021880471876174968 0.030753931993376869 0 0.019451050768370289 0.028966949579257252 0 0.019702603112898474 0.032700441709308879 0 0.018034862315255841 0.032014884020003208 0 0.019509254065367916 0.03135318488598033 0 0.02024467750338127 0.029456343909924194 0 0.020186025597548386 0.026317376332263619 0 0.015743630142674003 0.02829586795635378 0 0.020186025597548386 0.026317376332263619 0 0.015743630142674003 0.02829586795635378 0 0.015649356363939403 0.023887161419746401 0 0.019451050768370289 0.028966949579257252 0 0.012368270082445213 0.032264974530436974 0 0.0053029812760378211 0.024761119193180178 0 -0.0024896069185505612 0.026247103826871915 0 0.0026243778823678474 0.018038560926441616 0 0.010395491890886869 0.026178772943588093 0 0.0020685680974201139 0.026360599058323074 0 0.015743630142674003 0.02829586795635378 0 0.014108925059734368 0.024351776251367478 0 0.015649356363939403 0.023887161419746401 0 0.00032800242831071354 0.020941717025544305 0 -0.003962434870779033 0.017711024981933089 0 -0.0064537841635076967 0.022952665008140302 0 0.0053029812760378211 0.024761119193180178 0 0.0035164910225076169 0.030724981820753311 0 -0.0024896069185505612 0.026247103826871915 0 0.001153048177457728 0.025290921689128373 0 -0.0058577986470139311 0.022630685580488759 0 0.0053029812760378211 0.024761119193180178 0 0.0035164910225076169 0.030724981820753311 0 0.0058594793874250312 0.031659559598046567 0 0.010395491890886869 0.026178772943588093 0 0.017020775644564293 0.029831634150154173 0 0.0053029812760378211 0.024761119193180178 0 0.0080330759734933716 0.031462739433376102 0 0.0058594793874250312 0.031659559598046567 0 0.02024467750338127 0.029456343909924194 0 0.015743630142674003 0.02829586795635378 0 0.017365736807339695 0.032226653677888566 0 0.017020775644564293 0.029831634150154173 0 0.01042506393820882 0.030617581358553973 0 -0.015141988328868535 0.023446897577147845 0 -0.015110629502006359 0.02359283319866453 0 -0.015297655558227853 0.023586093206296746 0 -0.015110629502006359 0.02359283319866453 0 -0.015297655558227853 0.023586093206296746 0 -0.015183768482794437 0.02381121138028908 0 -0.015368816051855387 0.023606941259866201 0 -0.015297655558227853 0.023586093206296746 0 -0.015183768482794437 0.02381121138028908 0 -0.013036857041427581 0.023218273646373806 0 -0.013984179533291069 0.024765148407493966 0 -0.01145233668558389 0.026331237222781322 0 -0.011525170641059283 0.025944543033784236 0 -0.01305651041082294 0.025760850954136747 0 -0.013036857041427581 0.023218273646373806 0 -0.014343289316342017 0.023551979539790657 0 -0.015141988328868535 0.023446897577147845 0 -0.015297655558227853 0.023586093206296746 0 -0.015394499791883315 0.023402277894434748 0 -0.015385435825497958 0.023619624820694376 0 -0.015297655558227853 0.023586093206296746 0 -0.015394499791883315 0.023402277894434748 0 -0.008781325288757488 0.021499929129340734 0 -0.0024896069185505612 0.026247103826871915 0 0.0026243778823678474 0.018038560926441616 0 -0.013036857041427581 0.023218273646373806 0 0.0020685680974201139 0.026360599058323074 0 -0.015385435825497958 0.023619624820694376 0 -0.01568442559210852 0.023406902976860659 0 -0.015394499791883315 0.023402277894434748 0 -0.013036857041427581 0.023218273646373806 0 -0.0058577986470139311 0.022630685580488759 0 -0.01568442559210852 0.023406902976860659 0 -0.015394499791883315 0.023402277894434748 0 -0.015664197289385475 0.023033039673859772 0 -0.0058577986470139311 0.022630685580488759 0 -0.011505387123558499 0.023472391569031269 0 -0.015394499791883315 0.023402277894434748 0 -0.015185769351334359 0.02323972112873722 0 -0.015664197289385475 0.023033039673859772 0 -0.015141988328868535 0.023446897577147845 0 -0.015394499791883315 0.023402277894434748 0 -0.015185769351334359 0.02323972112873722 0 -0.015220595921472265 0.02289747450523779 0 -0.015664197289385475 0.023033039673859772 0 -0.01549773422638193 0.022535455405770635 0 -0.015185769351334359 0.02323972112873722 0 -0.015220595921472265 0.02289747450523779 0 -0.015664197289385475 0.023033039673859772 0 -0.015664197289385475 0.023033039673859772 0 -0.01549773422638193 0.022535455405770635 0 -0.015759000364835657 0.022237313929540051 0 -0.015220595921472265 0.02289747450523779 0 -0.01549773422638193 0.022535455405770635 0 -0.015086600842639549 0.022430987817324267 0 -0.011505387123558499 0.023472391569031269 0 -0.010288484572212112 0.022003679975312232 0 -0.010288484572212112 0.022003679975312232 0 -0.007992613970282187 0.020800466923350209 0 -0.011555009994600036 0.013679711811285668 0 -0.0092062035567616919 0.014038368940541689 0 -0.010144072098913407 0.014991103279712724 0 -0.0064537841635076967 0.022952665008140302 0 -0.0089483167761942751 0.028186299131268598 0 -0.0013961570700988715 0.028239389372949165 0 -0.011555009994600036 0.013679711811285668 0 -0.011742034273641636 0.015167372748666561 0 -0.010144072098913407 0.014991103279712724 0 -0.015759000364835657 0.022237313929540051 0 -0.015303497512181635 0.021866219839928362 0 -0.01524864074529925 0.020258588036174651 0 -0.015759000364835657 0.022237313929540051 0 -0.015303497512181635 0.021866219839928362 0 -0.015382928607645237 0.022256736399866164 0 -0.01549773422638193 0.022535455405770635 0 -0.015759000364835657 0.022237313929540051 0 -0.015382928607645237 0.022256736399866164 0 -0.015303497512181635 0.021866219839928362 0 -0.015086600842639549 0.022430987817324267 0 -0.014671602431025802 0.021712458328616891 0 -0.01549773422638193 0.022535455405770635 0 -0.015382928607645237 0.022256736399866164 0 -0.015086600842639549 0.022430987817324267 0 -0.015303497512181635 0.021866219839928362 0 -0.015382928607645237 0.022256736399866164 0 -0.015086600842639549 0.022430987817324267 0 0.029873596536176522 0.028386120371077163 0 0.02997503981363665 0.028180803281388004 0 0.029583075505099952 0.027977285472028029 0 0.012109028677179379 0.023307499759736467 0 0.016859881888081948 0.02886970638702065 0 0.028142318299609517 0.031435657870217119 0 0.016859881888081948 0.02886970638702065 0 0.017020775644564293 0.029831634150154173 0 0.016859881888081948 0.02886970638702065 0 0.0081028406043582562 0.031430572784058287 0 0.0096364021947069178 0.03522485614507867 0 0.0058594793874250312 0.031659559598046567 0 0.001153048177457728 0.025290921689128373 0 0.016859881888081948 0.02886970638702065 0 0.0035164910225076169 0.030724981820753311 0 0.0096364021947069178 0.03522485614507867 0 0.0058594793874250312 0.031659559598046567 0 0.00032800242831071354 0.020941717025544305 0 0.0046870913323280522 0.024203794042948115 0 -0.0013961570700988715 0.028239389372949165 0 0.00032800242831071354 0.020941717025544305 0 -0.0064537841635076967 0.022952665008140302 0 -0.0013961570700988715 0.028239389372949165 0 0.012109028677179379 0.023307499759736467 0 -0.007992613970282187 0.020800466923350209 0 -0.0078150485102738785 0.014230767485517265 0 -0.0092062035567616919 0.014038368940541689 0 -0.0086563727637320002 0.015025201944597508 0 0.0062998121659608615 0.028268277062038813 0 0.0046870913323280522 0.024203794042948115 0 -0.0013961570700988715 0.028239389372949165 0 -0.0078150485102738785 0.014230767485517265 0 -0.0086563727637320002 0.015025201944597508 0 -0.0075556625063408099 0.015463378699028574 0 -0.0086563727637320002 0.015025201944597508 0 -0.0093770813270625131 0.0155508768298899 0 -0.010144072098913407 0.014991103279712724 0 -0.0092062035567616919 0.014038368940541689 0 -0.0086563727637320002 0.015025201944597508 0 -0.010144072098913407 0.014991103279712724 0 -0.0093770813270625131 0.0155508768298899 0 -0.0083963111812890238 0.015732901215729077 0 -0.0088194170630883154 0.016199653549457255 0 -0.0093770813270625131 0.0155508768298899 0 -0.0099751047969297481 0.015943621205801412 0 -0.0088194170630883154 0.016199653549457255 0 -0.0086563727637320002 0.015025201944597508 0 -0.0093770813270625131 0.0155508768298899 0 -0.0083963111812890238 0.015732901215729077 0 -0.0086563727637320002 0.015025201944597508 0 -0.0083963111812890238 0.015732901215729077 0 -0.0075556625063408099 0.015463378699028574 0 -0.015303497512181635 0.021866219839928362 0 -0.01524864074529925 0.020258588036174651 0 -0.014671602431025802 0.021712458328616891 0 -0.011742034273641636 0.015167372748666561 0 -0.010144072098913407 0.014991103279712724 0 -0.012793591634796771 0.017360776526992611 0 -0.013077383031130851 0.016284294633521938 0 -0.011742034273641636 0.015167372748666561 0 -0.012793591634796771 0.017360776526992611 0 -0.010288484572212112 0.022003679975312232 0 -0.014231922847795439 0.017657129812982907 0 -0.011555009994600036 0.013679711811285668 0 -0.013077383031130851 0.016284294633521938 0 -0.011742034273641636 0.015167372748666561 0 -0.010249281419557473 0.015065615418816267 0 -0.011793456385057284 0.016433106186541774 0 -0.0093770813270625131 0.0155508768298899 0 -0.010144072098913407 0.014991103279712724 0 -0.010222944168582607 0.015574354704090826 0 -0.010144072098913407 0.014991103279712724 0 -0.010222944168582607 0.015574354704090826 0 -0.010856533959671616 0.015538135672565087 0 -0.0093770813270625131 0.0155508768298899 0 -0.010222944168582607 0.015574354704090826 0 -0.0099751047969297481 0.015943621205801412 0 -0.010222944168582607 0.015574354704090826 0 -0.01060314831190289 0.01590148675845739 0 -0.0099751047969297481 0.015943621205801412 0 -0.013077383031130851 0.016284294633521938 0 -0.012793591634796771 0.017360776526992611 0 -0.01352347867387366 0.018073893778352595 0 -0.010222944168582607 0.015574354704090826 0 -0.010856533959671616 0.015538135672565087 0 -0.01060314831190289 0.01590148675845739 0 -0.010856533959671616 0.015538135672565087 0 -0.011067450660766569 0.016067288461095557 0 -0.01060314831190289 0.01590148675845739 0 -0.010876213899509721 0.01623278248258966 0 -0.011067450660766569 0.016067288461095557 0 -0.011292335803801264 0.016415270455826924 0 -0.010876213899509721 0.01623278248258966 0 -0.010981985059246529 0.016595134224832192 0 -0.011292335803801264 0.016415270455826924 0 -0.010876213899509721 0.01623278248258966 0 -0.011067450660766569 0.016067288461095557 0 -0.01060314831190289 0.01590148675845739 0 -0.010876213899509721 0.01623278248258966 0 -0.01060314831190289 0.01590148675845739 0 -0.010440030386149634 0.016278845518896974 0 -0.010876213899509721 0.01623278248258966 0 -0.010440030386149634 0.016278845518896974 0 -0.010981985059246529 0.016595134224832192 0 -0.010440030386149634 0.016278845518896974 0 -0.0099457481395440576 0.016403973083009508 0 -0.010302503052986292 0.016613497967698811 0 -0.01060314831190289 0.01590148675845739 0 -0.010440030386149634 0.016278845518896974 0 -0.0099751047969297481 0.015943621205801412 0 -0.010440030386149634 0.016278845518896974 0 -0.0099751047969297481 0.015943621205801412 0 -0.0099457481395440576 0.016403973083009508 0 -0.0099457481395440576 0.016403973083009508 0 -0.010302503052986292 0.016613497967698811 0 -0.010042637606540398 0.016710422158022292 0 -0.010316962272655768 0.016474127752842523 0 -0.010302503052986292 0.016613497967698811 0 -0.010042637606540398 0.016710422158022292 0 -0.011396005412952461 0.017098330049221656 0 -0.010981985059246529 0.016595134224832192 0 -0.011468847130835019 0.016800534793276353 0 -0.011396005412952461 0.017098330049221656 0 -0.010302503052986292 0.016613497967698811 0 -0.010981985059246529 0.016595134224832192 0 -0.010440030386149634 0.016278845518896974 0 -0.010302503052986292 0.016613497967698811 0 -0.010981985059246529 0.016595134224832192 0 -0.010981985059246529 0.016595134224832192 0 -0.011292335803801264 0.016415270455826924 0 -0.011468847130835019 0.016800534793276353 0 -0.0088194170630883154 0.016199653549457255 0 -0.0082954179873390762 0.016417599135674144 0 -0.0080125562994157132 0.016225724570540809 0 -0.0083963111812890238 0.015732901215729077 0 -0.0088194170630883154 0.016199653549457255 0 -0.0080125562994157132 0.016225724570540809 0 -0.0099751047969297481 0.015943621205801412 0 -0.0099457481395440576 0.016403973083009508 0 -0.0088194170630883154 0.016199653549457255 0 -0.0099457481395440576 0.016403973083009508 0 -0.0088194170630883154 0.016199653549457255 0 -0.010042637606540398 0.016710422158022292 0 -0.0088265667442823936 0.01615046636347945 0 -0.0091215285575859811 0.016486781622078259 0 -0.0088194170630883154 0.016199653549457255 0 -0.0082612567875546793 0.016450846706495697 0 -0.0082954179873390762 0.016417599135674144 0 -0.0081375096480361068 0.016447914901872383 0 -0.0082612567875546793 0.016450846706495697 0 -0.0082954179873390762 0.016417599135674144 0 -0.0082954179873390762 0.016417599135674144 0 -0.0079827749007694987 0.016440620721212183 0 -0.0080125562994157132 0.016225724570540809 0 -0.0081375096480361068 0.016447914901872383 0 -0.0082954179873390762 0.016417599135674144 0 -0.0079827749007694987 0.016440620721212183 0 -0.0079827749007694987 0.016440620721212183 0 -0.0077477653020509808 0.016409223941284589 0 -0.0080125562994157132 0.016225724570540809 0 -0.0078621807731403832 0.016462388412018285 0 -0.0079827749007694987 0.016440620721212183 0 -0.0077477653020509808 0.016409223941284589 0 -0.0080125562994157132 0.016225724570540809 0 -0.0075247122554008214 0.016242499553728161 0 -0.0075556625063408099 0.015463378699028574 0 -0.0077477653020509808 0.016409223941284589 0 -0.0080125562994157132 0.016225724570540809 0 -0.0075247122554008214 0.016242499553728161 0 0.0305852918818737 0.024622294627469322 0 0.030136530282608043 0.024921278424201675 0 0.030526496181037567 0.025451059337078676 0 0.0305852918818737 0.024622294627469322 0 0.0300814015004938 0.02434980653663554 0 0.030136530282608043 0.024921278424201675 0 0.03006297306519316 0.024022980376906155 0 0.0305852918818737 0.024622294627469322 0 0.0300814015004938 0.02434980653663554 0 -0.0076616579196100501 0.016493111066968137 0 -0.0077477653020509808 0.016409223941284589 0 -0.0075247122554008214 0.016242499553728161 0 0.01639363307835507 0.018971471865505376 0 0.011063032363171313 0.020565207512081369 0 -0.0076616579196100501 0.016493111066968137 0 -0.0077568497465173927 0.016464668880121193 0 -0.0077477653020509808 0.016409223941284589 0 0.03006297306519316 0.024022980376906155 0 0.029956150233367125 0.024154596861847899 0 0.0300814015004938 0.02434980653663554 0 0.029956150233367125 0.024154596861847899 0 0.029808622415447749 0.024205227493100057 0 0.0300814015004938 0.02434980653663554 0 0.029886673528906903 0.024074817380371517 0 0.029956150233367125 0.024154596861847899 0 0.029808622415447749 0.024205227493100057 0 0.029808622415447749 0.024205227493100057 0 0.0300814015004938 0.02434980653663554 0 0.029761968091841833 0.024531345284086636 0 0.029669748103828313 0.024160956205780272 0 0.029522810552427763 0.024198594733272384 0 0.029580442454439363 0.024300103384430317 0 0.029669748103828313 0.024160956205780272 0 0.029808622415447749 0.024205227493100057 0 0.029580442454439363 0.024300103384430317 0 0.029808622415447749 0.024205227493100057 0 0.029580442454439363 0.024300103384430317 0 0.029761968091841833 0.024531345284086636 0 0.029580442454439363 0.024300103384430317 0 0.029452733077829567 0.024530308979755364 0 0.029761968091841833 0.024531345284086636 0 0.029386407603905141 0.02431056109571296 0 0.029580442454439363 0.024300103384430317 0 0.029452733077829567 0.024530308979755364 0 0.029452733077829567 0.024530308979755364 0 0.029761968091841833 0.024531345284086636 0 0.029483373396514728 0.02504295975484656 0 0.029174548861088834 0.024619407749607646 0 0.029452733077829567 0.024530308979755364 0 0.029483373396514728 0.02504295975484656 0 0.030136530282608043 0.024921278424201675 0 0.029761968091841833 0.024531345284086636 0 0.029483373396514728 0.02504295975484656 0 0.0300814015004938 0.02434980653663554 0 0.030136530282608043 0.024921278424201675 0 0.029761968091841833 0.024531345284086636 0 0.030136530282608043 0.024921278424201675 0 0.030070398685392893 0.02565614581093301 0 0.030526496181037567 0.025451059337078676 0 0.030136530282608043 0.024921278424201675 0 0.030070398685392893 0.02565614581093301 0 0.029483373396514728 0.02504295975484656 0 0.030070398685392893 0.02565614581093301 0 0.029483373396514728 0.02504295975484656 0 0.029427341217506828 0.025976530707461164 0 0.029017727145895279 0.025270438470809609 0 0.029483373396514728 0.02504295975484656 0 0.029427341217506828 0.025976530707461164 0 0.028275992443695813 0.026040297917581053 0 0.029415510771417842 0.027526899625276168 0 0.029427341217506828 0.025976530707461164 0 0.030070398685392893 0.02565614581093301 0 0.029427341217506828 0.025976530707461164 0 0.030021306515389468 0.026775372460320645 0 0.030070398685392893 0.02565614581093301 0 0.030021306515389468 0.026775372460320645 0 0.030604929474875198 0.026372015968520686 0 0.031074149435773996 0.027242479911197239 0 0.030604929474875198 0.026372015968520686 0 0.031252585848806226 0.025845197332452739 0 0.030604929474875198 0.026372015968520686 0 0.031252585848806226 0.025845197332452739 0 0.030526496181037567 0.025451059337078676 0 0.012109028677179379 0.023307499759736467 0 0.01178029639995426 0.020100070612844204 0 -0.0083963111812890238 0.015732901215729077 0 -0.0080125562994157132 0.016225724570540809 0 -0.0075556625063408099 0.015463378699028574 0 0.011063032363171313 0.020565207512081369 0 0.01178029639995426 0.020100070612844204 0 0.030070398685392893 0.02565614581093301 0 0.030604929474875198 0.026372015968520686 0 0.030526496181037567 0.025451059337078676 0 0.0305852918818737 0.024622294627469322 0 0.031252585848806226 0.025845197332452739 0 0.030526496181037567 0.025451059337078676 0 0.04556388842729138 0.0092903528932803819 0 0.04597056338275185 0.0096574707237851078 0 0.045959941260853808 0.007758652173202733 0 0.04556388842729138 0.0092903528932803819 0 0.045514325120810703 0.010465354710626358 0 0.04597056338275185 0.0096574707237851078 0 0.04556388842729138 0.0092903528932803819 0 0.044999580183281769 0.010137943924527919 0 0.044999357312648113 0.0079350489110385433 0 0.04556388842729138 0.0092903528932803819 0 0.044999580183281769 0.010137943924527919 0 0.045514325120810703 0.010465354710626358 0 0.044999580183281769 0.010137943924527919 0 0.045514325120810703 0.010465354710626358 0 0.045132434517579922 0.011709350125798415 0 0.045230958836708225 0.01018713585895068 0 0.046040739430747088 0.0079264008054789024 0 0.045498052620430454 0.0095753070235172679 0 0.045514325120810703 0.010465354710626358 0 0.045230958836708225 0.01018713585895068 0 0.04597056338275185 0.0096574707237851078 0 0.045514325120810703 0.010465354710626358 0 0.045230958836708225 0.01018713585895068 0 0.045166242541541016 0.010907249263226979 0 0.045335439754988653 0.010043691720907402 0 0.045401682058998215 0.0090210255517498214 0 0.045230958836708225 0.01018713585895068 0 0.044834590256888754 0.0084347831259792144 0 0.046040739430747088 0.0079264008054789024 0 0.044834590256888754 0.0084347831259792144 0 0.045248145914562797 0.0070264987603743416 0 0.046040739430747088 0.0079264008054789024 0 0.045733245744640792 0.0069624442922585168 0 0.045713531933457854 0.0058342408262148258 0 0.045535235913765675 0.0060898662488063403 0 0.045799579037842958 0.0057291138450381923 0 0.046000583236187061 0.0055636016131098307 0 0.045248145914562797 0.0070264987603743416 0 0.046040739430747088 0.0079264008054789024 0 0.045799579037842958 0.0057291138450381923 0 0.045248145914562797 0.0070264987603743416 0 0.045799579037842958 0.0057291138450381923 0 0.045258633674676189 0.0058923912106833868 0 0.045248145914562797 0.0070264987603743416 0 0.045258633674676189 0.0058923912106833868 0 0.044751039724475784 0.0066918214883080526 0 0.045401682058998215 0.0090210255517498214 0 0.045325000854484376 0.0072603937081850284 0 0.044834590256888754 0.0084347831259792144 0 0.045248145914562797 0.0070264987603743416 0 0.044751039724475784 0.0066918214883080526 0 0.04556388842729138 0.0092903528932803819 0 0.045959941260853808 0.007758652173202733 0 0.044999357312648113 0.0079350489110385433 0 0.045258633674676189 0.0058923912106833868 0 0.044751039724475784 0.0066918214883080526 0 0.044998295587306426 0.0057307829837895934 0 0.045959941260853808 0.007758652173202733 0 0.044999357312648113 0.0079350489110385433 0 0.045000169534531731 0.0057324447880183881 0 0.045325000854484376 0.0072603937081850284 0 0.04499999850495958 0.0057325282901819182 0 0.044998295587306426 0.0057307829837895934 0 0.045508293890517595 0.0048585461256525318 0 0.04499971561664174 0.0035063485583589865 0 0.045258633674676189 0.0058923912106833868 0 0.044998295587306426 0.0057307829837895934 0 0.045508293890517595 0.0048585461256525318 0 0.045799579037842958 0.0057291138450381923 0 0.045258633674676189 0.0058923912106833868 0 0.045508293890517595 0.0048585461256525318 0 0.045508293890517595 0.0048585461256525318 0 0.045806038154792124 0.0034799119572796969 0 0.045940683958680194 0.0044896569778825153 0 0.045508293890517595 0.0048585461256525318 0 0.04499971561664174 0.0035063485583589865 0 0.045806038154792124 0.0034799119572796969 0 0.04499971561664174 0.0035063485583589865 0 0.045605532779306623 0.0024160504064933957 0 0.045806038154792124 0.0034799119572796969 0 0.04499971561664174 0.0035063485583589865 0 0.045605532779306623 0.0024160504064933957 0 0.044999605942337623 0.0012798031503436036 0 0.045806038154792124 0.0034799119572796969 0 0.046053139473890461 0.0027332198975685163 0 0.046155579164898319 0.0037679319941598894 0 0.045605532779306623 0.0024160504064933957 0 0.045806038154792124 0.0034799119572796969 0 0.046053139473890461 0.0027332198975685163 0 0.045879575994298413 0.0013558868267757776 0 0.045936869469427849 0.0024892569154013559 0 0.046053139473890461 0.0027332198975685163 0 0.045965398206223425 0.0011443928028436543 0 0.046300402577079257 0.0032943555632217441 0 0.046004903742597671 0.0014075874051301649 0 0.045965398206223425 0.0011443928028436543 0 0.04568850327301207 0.0017955104814012428 0 0.045605532779306623 0.0024160504064933957 0 0.046053139473890461 0.0027332198975685163 0 0.045965398206223425 0.0011443928028436543 0 0.045605532779306623 0.0024160504064933957 0 0.045965398206223425 0.0011443928028436543 0 0.044999605942337623 0.0012798031503436036 0 0.044999557893845174 -0.00094705103877488583 0 0.045965398206223425 0.0011443928028436543 0 0.044999605942337623 0.0012798031503436036 0 0.045936869469427849 0.0024892569154013559 0 0.045007131597929295 0.0035318047747805018 0 0.044656856230658654 0.0030828239108447566 0 0.04568850327301207 0.0017955104814012428 0 0.043705097440938326 0.0024999814166149041 0 0.0460186472411203 0.0018013351936323049 0 0.044656856230658654 0.0030828239108447566 0 0.04568850327301207 0.0017955104814012428 0 0.0460186472411203 0.0018013351936323049 0 0.046004903742597671 0.0014075874051301649 0 0.04568850327301207 0.0017955104814012428 0 0.046053139473890461 0.0027332198975685163 0 0.046300402577079257 0.0032943555632217441 0 0.046155579164898319 0.0037679319941598894 0 0.046300402577079257 0.0032943555632217441 0 0.046155579164898319 0.0037679319941598894 0 0.046252162083177763 0.004300229058660926 0 0.046155579164898319 0.0037679319941598894 0 0.046252162083177763 0.004300229058660926 0 0.046144986049342508 0.004759729495613191 0 0.046300402577079257 0.0032943555632217441 0 0.046252162083177763 0.004300229058660926 0 0.046264025876061619 0.0045792307498947263 0 0.046252162083177763 0.004300229058660926 0 0.046144986049342508 0.004759729495613191 0 0.046194207153031422 0.0050480644235685272 0 0.046155579164898319 0.0037679319941598894 0 0.046144986049342508 0.004759729495613191 0 0.045940683958680194 0.0044896569778825153 0 0.045806038154792124 0.0034799119572796969 0 0.046155579164898319 0.0037679319941598894 0 0.045940683958680194 0.0044896569778825153 0 0.045799579037842958 0.0057291138450381923 0 0.045508293890517595 0.0048585461256525318 0 0.045940683958680194 0.0044896569778825153 0 0.045799579037842958 0.0057291138450381923 0 0.046144986049342508 0.004759729495613191 0 0.045940683958680194 0.0044896569778825153 0 0.045799579037842958 0.0057291138450381923 0 0.046144986049342508 0.004759729495613191 0 0.046000583236187061 0.0055636016131098307 0 0.046000583236187061 0.0055636016131098307 0 0.046120095038693708 0.0056136306048086889 0 0.045989899679474429 0.0058813583427480371 0 0.046194207153031422 0.0050480644235685272 0 0.046172872114236096 0.0054234205686612422 0 0.046120095038693708 0.0056136306048086889 0 0.046000583236187061 0.0055636016131098307 0 0.046194207153031422 0.0050480644235685272 0 0.046120095038693708 0.0056136306048086889 0 0.046144986049342508 0.004759729495613191 0 0.046000583236187061 0.0055636016131098307 0 0.046194207153031422 0.0050480644235685272 0 0.046252162083177763 0.004300229058660926 0 0.046194207153031422 0.0050480644235685272 0 0.046264025876061619 0.0045792307498947263 0 0.046194207153031422 0.0050480644235685272 0 0.046264025876061619 0.0045792307498947263 0 0.046172872114236096 0.0054234205686612422 0 0.045007131597929295 0.0035318047747805018 0 0.044262135860779553 0.0043784815069394037 0 0.042447983348776183 0.0040334035496643232 0 0.04326960670668388 0.0034652089372864754 0 0.042344155777158499 0.0033175346886667968 0 0.04326960670668388 0.0034652089372864754 0 0.043705097440938326 0.0024999814166149041 0 0.042344155777158499 0.0033175346886667968 0 0.04326960670668388 0.0034652089372864754 0 0.044656856230658654 0.0030828239108447566 0 0.043705097440938326 0.0024999814166149041 0 0.041829048108197361 0.0040897824273725594 0 0.041544512420146423 0.004276952706394309 0 0.041485836895317978 0.0045136072671901903 0 0.041574313134070395 0.0045090131409707759 0 0.041829048108197361 0.0040897824273725594 0 0.041485836895317978 0.0045136072671901903 0 0.042447983348776183 0.0040334035496643232 0 0.041829048108197361 0.0040897824273725594 0 0.042344155777158499 0.0033175346886667968 0 0.046172872114236096 0.0054234205686612422 0 0.045822301042872542 0.0055805147177694029 0 0.045221008995529006 0.0061135521304095976 0 0.041829048108197361 0.0040897824273725594 0 0.042344155777158499 0.0033175346886667968 0 0.041544512420146423 0.004276952706394309 0 0.044262135860779553 0.0043784815069394037 0 0.043395673351541639 0.0051701393684923554 0 0.045822301042872542 0.0055805147177694029 0 0.045396860778342964 0.0051428062101636866 0 0.045221008995529006 0.0061135521304095976 0 0.045492511768785861 0.0059433585862962634 0 0.046010486040824264 0.0056758704915343934 0 0.045822301042872542 0.0055805147177694029 0 0.045396860778342964 0.0051428062101636866 0 0.046120095038693708 0.0056136306048086889 0 0.046172872114236096 0.0054234205686612422 0 0.045822301042872542 0.0055805147177694029 0 0.046120095038693708 0.0056136306048086889 0 0.046120095038693708 0.0056136306048086889 0 0.045914450301915134 0.0061982954452358 0 0.045989899679474429 0.0058813583427480371 0 0.045768176287685015 0.0067107581595207402 0 0.046120095038693708 0.0056136306048086889 0 0.045914450301915134 0.0061982954452358 0 0.045768176287685015 0.0067107581595207402 0 0.045914450301915134 0.0061982954452358 0 0.045302652463587688 0.00677154506077876 0 0.045914450301915134 0.0061982954452358 0 0.045961483685936451 0.0060982725837884725 0 0.045788366808055092 0.0060487956015530054 0 0.045961483685936451 0.0060982725837884725 0 0.045995811748027082 0.0064226780102577905 0 0.045788366808055092 0.0060487956015530054 0 0.045961483685936451 0.0060982725837884725 0 0.045734311849372593 0.0064259682288141991 0 0.045995811748027082 0.0064226780102577905 0 0.045914450301915134 0.0061982954452358 0 0.045961483685936451 0.0060982725837884725 0 0.045989899679474429 0.0058813583427480371 0 0.045961483685936451 0.0060982725837884725 0 0.045989899679474429 0.0058813583427480371 0 0.045747676171894396 0.0060188349504313801 0 0.046000583236187061 0.0055636016131098307 0 0.045989899679474429 0.0058813583427480371 0 0.045747676171894396 0.0060188349504313801 0 0.045535235913765675 0.0060898662488063403 0 0.046000583236187061 0.0055636016131098307 0 0.045747676171894396 0.0060188349504313801 0 0.045535235913765675 0.0060898662488063403 0 0.045747676171894396 0.0060188349504313801 0 0.045069041528278238 0.0067908102844089291 0 0.045961483685936451 0.0060982725837884725 0 0.045747676171894396 0.0060188349504313801 0 0.045734311849372593 0.0064259682288141991 0 0.045734311849372593 0.0064259682288141991 0 0.045069041528278238 0.0067908102844089291 0 0.045800841029744188 0.0072471024142716379 0 0.045747676171894396 0.0060188349504313801 0 0.045734311849372593 0.0064259682288141991 0 0.045069041528278238 0.0067908102844089291 0 0.045733245744640792 0.0069624442922585168 0 0.045330766011514687 0.0081950403357532505 0 0.045230958836708225 0.01018713585895068 0 0.045498052620430454 0.0095753070235172679 0 0.04482555023641268 0.010141587879242141 0 0.045498052620430454 0.0095753070235172679 0 0.045318244730929234 0.0092670738183739994 0 0.04482555023641268 0.010141587879242141 0 0.045069041528278238 0.0067908102844089291 0 0.045800841029744188 0.0072471024142716379 0 0.045318244730929234 0.0092670738183739994 0 0.045330766011514687 0.0081950403357532505 0 0.045419337816224897 0.009229361943385252 0 0.045800841029744188 0.0072471024142716379 0 0.045965282902241715 0.0088891889244223851 0 0.045318244730929234 0.0092670738183739994 0 0.045800841029744188 0.0072471024142716379 0 0.046272458318666811 0.006659838614270607 0 0.045965282902241715 0.0088891889244223851 0 0.038441084732424677 0.012807072975717905 0 0.038515153662334767 0.012598727382057478 0 0.039636608526532051 0.013340498973940219 0 0.042334611608935285 0.0098107974393414586 0 0.042792726509519922 0.011056279872233397 0 0.046272458318666811 0.006659838614270607 0 0.045995811748027082 0.0064226780102577905 0 0.045788366808055092 0.0060487956015530054 0 0.045800841029744188 0.0072471024142716379 0 0.046272458318666811 0.006659838614270607 0 0.045995811748027082 0.0064226780102577905 0 0.045734311849372593 0.0064259682288141991 0 0.045800841029744188 0.0072471024142716379 0 0.045995811748027082 0.0064226780102577905 0 0.038040851391562887 0.012466477731762108 0 0.037893262558293582 0.012327391318556934 0 0.037529512937961904 0.011966764715402846 0 0.042334611608935285 0.0098107974393414586 0 0.041641586957212352 0.0091056785976322187 0 0.046272458318666811 0.006659838614270607 0 0.045327970522031288 0.0057188372172224302 0 0.045788366808055092 0.0060487956015530054 0 0.038441084732424677 0.012807072975717905 0 0.038040851391562887 0.012466477731762108 0 0.038152893427231584 0.012461845241057676 0 0.038441084732424677 0.012807072975717905 0 0.038152893427231584 0.012461845241057676 0 0.038515153662334767 0.012598727382057478 0 0.038040851391562887 0.012466477731762108 0 0.037893262558293582 0.012327391318556934 0 0.038152893427231584 0.012461845241057676 0 0.037796335153671173 0.012989707820192374 0 0.037624627739136919 0.012257029073218134 0 0.03815337553279622 0.012397483998703714 0 0.037893262558293582 0.012327391318556934 0 0.038152893427231584 0.012461845241057676 0 0.037433110447464744 0.013561026897938911 0 0.037950113509507874 0.012793586415315132 0 0.038449887010072049 0.013382064040354713 0 0.037433110447464744 0.013561026897938911 0 0.037950113509507874 0.012793586415315132 0 0.037598745353411046 0.01218125185515672 0 0.037950113509507874 0.012793586415315132 0 0.037598745353411046 0.01218125185515672 0 0.038195034769938206 0.011932353654894491 0 0.03815337553279622 0.012397483998703714 0 0.037893262558293582 0.012327391318556934 0 0.037598745353411046 0.01218125185515672 0 0.037893262558293582 0.012327391318556934 0 0.037598745353411046 0.01218125185515672 0 0.037529512937961904 0.011966764715402846 0 0.043611658528742693 0.0053671430356549638 0 0.043958516844652046 0.0060786419745227195 0 0.04446561297390994 0.0057352783367028799 0 0.040564874621072458 0.0086802731891862453 0 0.039729009729953392 0.0083733796031878575 0 0.037598745353411046 0.01218125185515672 0 0.037803306965824637 0.010633486207966171 0 0.038195034769938206 0.011932353654894491 0 0.037598745353411046 0.01218125185515672 0 0.037529512937961904 0.011966764715402846 0 0.037803306965824637 0.010633486207966171 0 0.043611658528742693 0.0053671430356549638 0 0.041420846210363668 0.0060676024651702921 0 0.042947721060465988 0.0063947523991747584 0 0.041420846210363668 0.0060676024651702921 0 0.042947721060465988 0.0063947523991747584 0 0.042016522563432787 0.0071265966956512812 0 0.043611658528742693 0.0053671430356549638 0 0.043958516844652046 0.0060786419745227195 0 0.042947721060465988 0.0063947523991747584 0 0.043958516844652046 0.0060786419745227195 0 0.042947721060465988 0.0063947523991747584 0 0.043709412851206678 0.0066672261818631175 0 0.043958516844652046 0.0060786419745227195 0 0.043709412851206678 0.0066672261818631175 0 0.044508599741889948 0.0063727215782951735 0 0.044508599741889948 0.0063727215782951735 0 0.045229072436542561 0.0063545945678481356 0 0.044587401543053629 0.0068652726376772335 0 0.044508599741889948 0.0063727215782951735 0 0.044877178245986853 0.0059871205833606864 0 0.045229072436542561 0.0063545945678481356 0 0.043958516844652046 0.0060786419745227195 0 0.044508599741889948 0.0063727215782951735 0 0.044877178245986853 0.0059871205833606864 0 0.045327970522031288 0.0057188372172224302 0 0.043611658528742693 0.0053671430356549638 0 0.04446561297390994 0.0057352783367028799 0 0.045327970522031288 0.0057188372172224302 0 0.04446561297390994 0.0057352783367028799 0 0.044877178245986853 0.0059871205833606864 0 0.041641586957212352 0.0091056785976322187 0 0.040564874621072458 0.0086802731891862453 0 0.043958516844652046 0.0060786419745227195 0 0.04446561297390994 0.0057352783367028799 0 0.044877178245986853 0.0059871205833606864 0 0.045327970522031288 0.0057188372172224302 0 0.044877178245986853 0.0059871205833606864 0 0.045788366808055092 0.0060487956015530054 0 0.044877178245986853 0.0059871205833606864 0 0.045788366808055092 0.0060487956015530054 0 0.045229072436542561 0.0063545945678481356 0 0.045914450301915134 0.0061982954452358 0 0.045788366808055092 0.0060487956015530054 0 0.045229072436542561 0.0063545945678481356 0 0.045914450301915134 0.0061982954452358 0 0.045229072436542561 0.0063545945678481356 0 0.045302652463587688 0.00677154506077876 0 0.045229072436542561 0.0063545945678481356 0 0.045302652463587688 0.00677154506077876 0 0.044587401543053629 0.0068652726376772335 0 0.043709412851206678 0.0066672261818631175 0 0.044508599741889948 0.0063727215782951735 0 0.044587401543053629 0.0068652726376772335 0 0.043709412851206678 0.0066672261818631175 0 0.044587401543053629 0.0068652726376772335 0 0.043683634950717538 0.0073726236244248313 0 0.045302652463587688 0.00677154506077876 0 0.044587401543053629 0.0068652726376772335 0 0.044662242967520548 0.0076996804839114469 0 0.044587401543053629 0.0068652726376772335 0 0.044662242967520548 0.0076996804839114469 0 0.043683634950717538 0.0073726236244248313 0 0.043524065408511538 0.0052114375306476128 0 0.042899865189123587 0.0060441884299378907 0 0.045221008995529006 0.0061135521304095976 0 0.045396860778342964 0.0051428062101636866 0 0.043524065408511538 0.0052114375306476128 0 0.045221008995529006 0.0061135521304095976 0 0.045492511768785861 0.0059433585862962634 0 0.044050311472269538 0.006456122881416026 0 0.045768176287685015 0.0067107581595207402 0 0.045302652463587688 0.00677154506077876 0 0.044662242967520548 0.0076996804839114469 0 0.041544512420146423 0.004276952706394309 0 0.041296165114150497 0.0049297155567227758 0 0.041485836895317978 0.0045136072671901903 0 0.042040662309426227 0.005687195524783922 0 0.043395673351541639 0.0051701393684923554 0 0.041140682930609934 0.0052432480236882057 0 0.041544512420146423 0.004276952706394309 0 0.041296165114150497 0.0049297155567227758 0 0.041140682930609934 0.0052432480236882057 0 0.041296165114150497 0.0049297155567227758 0 0.041147263477132726 0.0053662835367010199 0 0.041296165114150497 0.0049297155567227758 0 0.041231952077060145 0.005325676806639759 0 0.041147263477132726 0.0053662835367010199 0 0.041374446448676445 0.0047517797985744048 0 0.041343664923835774 0.0047674806798430041 0 0.041231952077060145 0.005325676806639759 0 0.041296165114150497 0.0049297155567227758 0 0.041343664923835774 0.0047674806798430041 0 0.041231952077060145 0.005325676806639759 0 0.041574313134070395 0.0045090131409707759 0 0.041343664923835774 0.0047674806798430041 0 0.041485836895317978 0.0045136072671901903 0 0.041296165114150497 0.0049297155567227758 0 0.041343664923835774 0.0047674806798430041 0 0.041485836895317978 0.0045136072671901903 0 0.040897115941316495 0.0058465044079706293 0 0.040808027316732269 0.005991620672125296 0 0.040740984515278571 0.0060996770029449433 0 0.040897115941316495 0.0058465044079706293 0 0.040837828671315357 0.0060427606262547767 0 0.040740984515278571 0.0060996770029449433 0 0.040900451315056215 0.0060666736499874188 0 0.040897115941316495 0.0058465044079706293 0 0.040808027316732269 0.005991620672125296 0 0.041041330110558515 0.0058045452177757084 0 0.040897115941316495 0.0058465044079706293 0 0.041231952077060145 0.005325676806639759 0 0.040897115941316495 0.0058465044079706293 0 0.041231952077060145 0.005325676806639759 0 0.041002264627811771 0.0057065555117186148 0 0.041140682930609934 0.0052432480236882057 0 0.041002264627811771 0.0057065555117186148 0 0.041147263477132726 0.0053662835367010199 0 0.041140682930609934 0.0052432480236882057 0 0.041002264627811771 0.0057065555117186148 0 0.040993486242948934 0.0063547049396288878 0 0.041231952077060145 0.005325676806639759 0 0.041002264627811771 0.0057065555117186148 0 0.041147263477132726 0.0053662835367010199 0 0.041002264627811771 0.0057065555117186148 0 0.040837828671315357 0.0060427606262547767 0 0.040993486242948934 0.0063547049396288878 0 0.040897115941316495 0.0058465044079706293 0 0.041002264627811771 0.0057065555117186148 0 0.040837828671315357 0.0060427606262547767 0 0.040837828671315357 0.0060427606262547767 0 0.040993486242948934 0.0063547049396288878 0 0.040697252506743282 0.0063917865082961187 0 0.042149497869049639 0.0069337001153578579 0 0.04078312590732535 0.0070941078936015865 0 0.042535992301623381 0.0081825814547640003 0 0.041150122188126116 0.0074383158456035187 0 0.040535287812871308 0.0071120536169160184 0 0.040993486242948934 0.0063547049396288878 0 0.041635533573111116 0.0057633934905440814 0 0.040535287812871308 0.0071120536169160184 0 0.042899865189123587 0.0060441884299378907 0 0.040993486242948934 0.0063547049396288878 0 0.041635533573111116 0.0057633934905440814 0 0.044050311472269538 0.006456122881416026 0 0.042149497869049639 0.0069337001153578579 0 0.044662242967520548 0.0076996804839114469 0 0.042535992301623381 0.0081825814547640003 0 0.043683634950717538 0.0073726236244248313 0 0.042040662309426227 0.005687195524783922 0 0.041075489870559624 0.0062174294937923586 0 0.043524065408511538 0.0052114375306476128 0 0.042899865189123587 0.0060441884299378907 0 0.041635533573111116 0.0057633934905440814 0 0.042535992301623381 0.0081825814547640003 0 0.043683634950717538 0.0073726236244248313 0 0.043019046542098829 0.0071271527898065495 0 0.042947721060465988 0.0063947523991747584 0 0.043709412851206678 0.0066672261818631175 0 0.043019046542098829 0.0071271527898065495 0 0.042947721060465988 0.0063947523991747584 0 0.043019046542098829 0.0071271527898065495 0 0.042016522563432787 0.0071265966956512812 0 0.043709412851206678 0.0066672261818631175 0 0.043683634950717538 0.0073726236244248313 0 0.043019046542098829 0.0071271527898065495 0 0.042535992301623381 0.0081825814547640003 0 0.041150122188126116 0.0074383158456035187 0 0.042016522563432787 0.0071265966956512812 0 0.041420846210363668 0.0060676024651702921 0 0.042016522563432787 0.0071265966956512812 0 0.040939769306249714 0.0073395349775064803 0 0.042535992301623381 0.0081825814547640003 0 0.043019046542098829 0.0071271527898065495 0 0.042016522563432787 0.0071265966956512812 0 0.041150122188126116 0.0074383158456035187 0 0.042016522563432787 0.0071265966956512812 0 0.040939769306249714 0.0073395349775064803 0 0.040939769306249714 0.0073395349775064803 0 0.040409117996764145 0.0076691625196400317 0 0.039845441232323753 0.0083021661771055071 0 0.041150122188126116 0.0074383158456035187 0 0.040939769306249714 0.0073395349775064803 0 0.040409117996764145 0.0076691625196400317 0 0.039997476295987426 0.0081293920115025169 0 0.039845441232323753 0.0083021661771055071 0 0.040374602197005546 0.0090130859006079204 0 0.039997476295987426 0.0081293920115025169 0 0.040783205645520341 0.0073703924201527866 0 0.041221197970046655 0.0078563994529237055 0 0.039807775391528064 0.0082543170253301951 0 0.041312301783367408 0.0083612024738647598 0 0.039845441232323753 0.0083021661771055071 0 0.040374602197005546 0.0090130859006079204 0 0.040135082712860981 0.0096983274176571151 0 0.040409117996764145 0.0076691625196400317 0 0.039997476295987426 0.0081293920115025169 0 0.039845441232323753 0.0083021661771055071 0 0.039997476295987426 0.0081293920115025169 0 0.040783205645520341 0.0073703924201527866 0 0.040503444469807394 0.0072621987024977727 0 0.040409117996764145 0.0076691625196400317 0 0.039997476295987426 0.0081293920115025169 0 0.040503444469807394 0.0072621987024977727 0 0.040783205645520341 0.0073703924201527866 0 0.040503444469807394 0.0072621987024977727 0 0.04084083079297892 0.0068292130359959985 0 0.040503444469807394 0.0072621987024977727 0 0.04084083079297892 0.0068292130359959985 0 0.040654918783370152 0.0065169551424116524 0 0.041150122188126116 0.0074383158456035187 0 0.040409117996764145 0.0076691625196400317 0 0.040535287812871308 0.0071120536169160184 0 0.040409117996764145 0.0076691625196400317 0 0.040503444469807394 0.0072621987024977727 0 0.040535287812871308 0.0071120536169160184 0 0.040535287812871308 0.0071120536169160184 0 0.040697252506743282 0.0063917865082961187 0 0.040654918783370152 0.0065169551424116524 0 0.040503444469807394 0.0072621987024977727 0 0.040535287812871308 0.0071120536169160184 0 0.040654918783370152 0.0065169551424116524 0 0.040993486242948934 0.0063547049396288878 0 0.040535287812871308 0.0071120536169160184 0 0.040697252506743282 0.0063917865082961187 0 0.040654918783370152 0.0065169551424116524 0 0.040705828939850294 0.0061767085481916791 0 0.040740984515278571 0.0060996770029449433 0 0.040697252506743282 0.0063917865082961187 0 0.040654918783370152 0.0065169551424116524 0 0.040740984515278571 0.0060996770029449433 0 0.040837828671315357 0.0060427606262547767 0 0.040697252506743282 0.0063917865082961187 0 0.040740984515278571 0.0060996770029449433 0 0.04084083079297892 0.0068292130359959985 0 0.040654918783370152 0.0065169551424116524 0 0.040705828939850294 0.0061767085481916791 0 0.040516429899107857 0.0057285140700174377 0 0.040705828939850294 0.0061767085481916791 0 0.040728867117798995 0.0060006336972680758 0 0.040728867117798995 0.0060006336972680758 0 0.040808027316732269 0.005991620672125296 0 0.040740984515278571 0.0060996770029449433 0 0.040705828939850294 0.0061767085481916791 0 0.040728867117798995 0.0060006336972680758 0 0.040740984515278571 0.0060996770029449433 0 0.040516429899107857 0.0057285140700174377 0 0.038886710818376878 0.0056863404535471554 0 0.039049524211583093 0.0045079896928137929 0 0.037356719564459857 0.0040871215478825414 0 0.039049524211583093 0.0045079896928137929 0 0.039402813930035092 0.0028501362218114491 0 0.038886710818376878 0.0056863404535471554 0 0.037356719564459857 0.0040871215478825414 0 0.039049524211583093 0.0045079896928137929 0 0.040516429899107857 0.0057285140700174377 0 0.039049524211583093 0.0045079896928137929 0 0.039402813930035092 0.0028501362218114491 0 0.040536336129483354 0.0059965273306878562 0 0.040575445610652273 0.0039692138911191534 0 0.040516429899107857 0.0057285140700174377 0 0.040705828939850294 0.0061767085481916791 0 0.041402601660971768 0.0064916983751186355 0 0.04084083079297892 0.0068292130359959985 0 0.040705828939850294 0.0061767085481916791 0 0.041402601660971768 0.0064916983751186355 0 0.041402601660971768 0.0064916983751186355 0 0.041244391532318778 0.0072365797968636332 0 0.041983987915534343 0.0077408838506754221 0 0.040575445610652273 0.0039692138911191534 0 0.03832621440641746 0.0077704390696538396 0 0.037461720170231784 0.0013859441198925512 0 0.039402813930035092 0.0028501362218114491 0 0.038478866034035171 0.00072322988750672483 0 0.04084083079297892 0.0068292130359959985 0 0.041402601660971768 0.0064916983751186355 0 0.041244391532318778 0.0072365797968636332 0 0.040783205645520341 0.0073703924201527866 0 0.04084083079297892 0.0068292130359959985 0 0.041244391532318778 0.0072365797968636332 0 0.041244391532318778 0.0072365797968636332 0 0.041221197970046655 0.0078563994529237055 0 0.041983987915534343 0.0077408838506754221 0 0.040783205645520341 0.0073703924201527866 0 0.041244391532318778 0.0072365797968636332 0 0.041221197970046655 0.0078563994529237055 0 0.040374602197005546 0.0090130859006079204 0 0.041214704687795894 0.0091316992909348717 0 0.040677070368661625 0.010084563153570781 0 0.041312301783367408 0.0083612024738647598 0 0.03832621440641746 0.0077704390696538396 0 0.037353403467981466 0.0135473914401397 0 0.03832621440641746 0.0077704390696538396 0 0.041464817383386011 0.010866103043965417 0 0.041214704687795894 0.0091316992909348717 0 0.040677070368661625 0.010084563153570781 0 0.041464817383386011 0.010866103043965417 0 0.040677070368661625 0.010084563153570781 0 0.04052897633568265 0.011812753795629899 0 0.04052897633568265 0.011812753795629899 0 0.040083125035236158 0.010902075207934736 0 0.039664716973164503 0.012286475770494475 0 0.040677070368661625 0.010084563153570781 0 0.04052897633568265 0.011812753795629899 0 0.040083125035236158 0.010902075207934736 0 0.040677070368661625 0.010084563153570781 0 0.040083125035236158 0.010902075207934736 0 0.040135082712860981 0.0096983274176571151 0 0.040374602197005546 0.0090130859006079204 0 0.040677070368661625 0.010084563153570781 0 0.040135082712860981 0.0096983274176571151 0 0.040083125035236158 0.010902075207934736 0 0.040135082712860981 0.0096983274176571151 0 0.039183531176159275 0.010925024215186459 0 0.039845441232323753 0.0083021661771055071 0 0.040135082712860981 0.0096983274176571151 0 0.039183531176159275 0.010925024215186459 0 0.037803306965824637 0.010633486207966171 0 0.039845441232323753 0.0083021661771055071 0 0.039183531176159275 0.010925024215186459 0 0.039729009729953392 0.0083733796031878575 0 0.039896007323549802 0.0082292670796257558 0 0.041420846210363668 0.0060676024651702921 0 0.040939769306249714 0.0073395349775064803 0 0.039845441232323753 0.0083021661771055071 0 0.037803306965824637 0.010633486207966171 0 0.038195034769938206 0.011932353654894491 0 0.039183531176159275 0.010925024215186459 0 0.038195034769938206 0.011932353654894491 0 0.039183531176159275 0.010925024215186459 0 0.038842308157619111 0.012630680495467199 0 0.040083125035236158 0.010902075207934736 0 0.039183531176159275 0.010925024215186459 0 0.039664716973164503 0.012286475770494475 0 0.039183531176159275 0.010925024215186459 0 0.038842308157619111 0.012630680495467199 0 0.039664716973164503 0.012286475770494475 0 0.038842308157619111 0.012630680495467199 0 0.039155755133597425 0.013757999620574449 0 0.039664716973164503 0.012286475770494475 0 0.037950113509507874 0.012793586415315132 0 0.038195034769938206 0.011932353654894491 0 0.038842308157619111 0.012630680495467199 0 0.037950113509507874 0.012793586415315132 0 0.038842308157619111 0.012630680495467199 0 0.038449887010072049 0.013382064040354713 0 0.038842308157619111 0.012630680495467199 0 0.038449887010072049 0.013382064040354713 0 0.039155755133597425 0.013757999620574449 0 0.039155755133597425 0.013757999620574449 0 0.03999857041933215 0.013192861542874058 0 0.039664716973164503 0.012286475770494475 0 0.039155755133597425 0.013757999620574449 0 0.03999857041933215 0.013192861542874058 0 0.039499432837921178 0.014533749554823843 0 0.03999857041933215 0.013192861542874058 0 0.040224762129803616 0.014159347518622406 0 0.039499432837921178 0.014533749554823843 0 0.041265956978970099 0.012808837187468917 0 0.03999857041933215 0.013192861542874058 0 0.040224762129803616 0.014159347518622406 0 0.041265956978970099 0.012808837187468917 0 0.04052897633568265 0.011812753795629899 0 0.03999857041933215 0.013192861542874058 0 0.04052897633568265 0.011812753795629899 0 0.03999857041933215 0.013192861542874058 0 0.039664716973164503 0.012286475770494475 0 0.04000179089953438 0.013654040927207475 0 0.03742816359190701 0.017357765938590414 0 0.039499432837921178 0.014533749554823843 0 0.039082615623319446 0.014529483837865937 0 0.039293288909017322 0.015030928214169771 0 0.039793262563097252 0.015151572271831636 0 0.039499432837921178 0.014533749554823843 0 0.039177559939389789 0.015625716086897647 0 0.036941829715029441 0.018888501688729759 0 0.03742816359190701 0.017357765938590414 0 0.040224762129803616 0.014159347518622406 0 0.039793262563097252 0.015151572271831636 0 0.039499432837921178 0.014533749554823843 0 0.039155755133597425 0.013757999620574449 0 0.039499432837921178 0.014533749554823843 0 0.039082615623319446 0.014529483837865937 0 0.039155755133597425 0.013757999620574449 0 0.038575896073463393 0.014169396429225049 0 0.039082615623319446 0.014529483837865937 0 0.038449887010072049 0.013382064040354713 0 0.039155755133597425 0.013757999620574449 0 0.038575896073463393 0.014169396429225049 0 0.037433110447464744 0.013561026897938911 0 0.038449887010072049 0.013382064040354713 0 0.038575896073463393 0.014169396429225049 0 0.037433110447464744 0.013561026897938911 0 0.038575896073463393 0.014169396429225049 0 0.038163013417495437 0.014631387098349553 0 0.038575896073463393 0.014169396429225049 0 0.038163013417495437 0.014631387098349553 0 0.038727099892921939 0.014891454331415229 0 0.039082615623319446 0.014529483837865937 0 0.038727099892921939 0.014891454331415229 0 0.039293288909017322 0.015030928214169771 0 0.038575896073463393 0.014169396429225049 0 0.039082615623319446 0.014529483837865937 0 0.038727099892921939 0.014891454331415229 0 0.038727099892921939 0.014891454331415229 0 0.038196849124824073 0.01522918583747881 0 0.038771337274152419 0.015415897189801346 0 0.038727099892921939 0.014891454331415229 0 0.038771337274152419 0.015415897189801346 0 0.039293288909017322 0.015030928214169771 0 0.038163013417495437 0.014631387098349553 0 0.038727099892921939 0.014891454331415229 0 0.038196849124824073 0.01522918583747881 0 0.038196849124824073 0.01522918583747881 0 0.038771337274152419 0.015415897189801346 0 0.038191153411706064 0.015693210627604533 0 0.038519500849980952 0.015333448603789912 0 0.037887741145291427 0.015807526220658029 0 0.037728587083675949 0.015860666270003734 0 0.037718134266039621 0.015829085694728337 0 0.037680991259899432 0.015860744933357721 0 0.037728587083675949 0.015860666270003734 0 0.037687575871855089 0.015851396814014405 0 0.037718134266039621 0.015829085694728337 0 0.035918279906679805 0.019096789243115808 0 0.03742816359190701 0.017357765938590414 0 0.034452194976734934 0.021471482748552654 0 0.034254907643376409 0.022160438339195086 0 0.033975895035624884 0.021642953909022343 0 0.037728587083675949 0.015860666270003734 0 0.037687575871855089 0.015851396814014405 0 0.037650400065325655 0.015963211763324131 0 0.034452194976734934 0.021471482748552654 0 0.033975895035624884 0.021642953909022343 0 0.034135133028613977 0.021031747477823617 0 0.038519500849980952 0.015333448603789912 0 0.03742816359190701 0.017357765938590414 0 0.034254907643376409 0.022160438339195086 0 0.033564461381378155 0.022033309918607483 0 0.033975895035624884 0.021642953909022343 0 0.033826438983878403 0.022556850300247747 0 0.034254907643376409 0.022160438339195086 0 0.033564461381378155 0.022033309918607483 0 0.033564461381378155 0.022033309918607483 0 0.033975895035624884 0.021642953909022343 0 0.033584812487656324 0.021305077996595388 0 0.033975895035624884 0.021642953909022343 0 0.033584812487656324 0.021305077996595388 0 0.034135133028613977 0.021031747477823617 0 0.032786386104228037 0.020771760687381714 0 0.033707151438414421 0.020822755513053182 0 0.033806092245929148 0.020366984670297354 0 0.033584812487656324 0.021305077996595388 0 0.033707151438414421 0.020822755513053182 0 0.034135133028613977 0.021031747477823617 0 0.033707151438414421 0.020822755513053182 0 0.034135133028613977 0.021031747477823617 0 0.034164513174658004 0.020624405500098818 0 0.035918279906679805 0.019096789243115808 0 0.036433394031381974 0.017839432696985034 0 0.034452194976734934 0.021471482748552654 0 0.034135133028613977 0.021031747477823617 0 0.03461370894448066 0.020675916696624351 0 0.034135133028613977 0.021031747477823617 0 0.03461370894448066 0.020675916696624351 0 0.034164513174658004 0.020624405500098818 0 0.030158212484191635 0.02306289333085423 0 0.033886907784267048 0.019915459849694121 0 0.03461370894448066 0.020675916696624351 0 0.03438223072660624 0.020354756596630771 0 0.034755986079227447 0.01990878887055687 0 0.03438223072660624 0.020354756596630771 0 0.033806092245929148 0.020366984670297354 0 0.034755986079227447 0.01990878887055687 0 0.03461370894448066 0.020675916696624351 0 0.034164513174658004 0.020624405500098818 0 0.03438223072660624 0.020354756596630771 0 0.034164513174658004 0.020624405500098818 0 0.03438223072660624 0.020354756596630771 0 0.033806092245929148 0.020366984670297354 0 0.033707151438414421 0.020822755513053182 0 0.034164513174658004 0.020624405500098818 0 0.033806092245929148 0.020366984670297354 0 0.027761016680459848 0.02485210074268699 0 0.02779996293971131 0.0249272391679532 0 0.02778723769079967 0.024923932377478742 0 0.027860028476283362 0.024945341472430715 0 0.027761016680459848 0.02485210074268699 0 0.02779996293971131 0.0249272391679532 0 0.027860028476283362 0.024945341472430715 0 0.027818856810630545 0.024950134196698195 0 0.02779996293971131 0.0249272391679532 0 0.027829200751163189 0.024944181068152268 0 0.027818856810630545 0.024950134196698195 0 0.027802612167924668 0.024984513881492119 0 0.027818856810630545 0.024950134196698195 0 0.027799522476243552 0.024953703850414673 0 0.027802612167924668 0.024984513881492119 0 0.027799522476243552 0.024953703850414673 0 0.027802612167924668 0.024984513881492119 0 0.027797474903976004 0.024977635664036473 0 0.027799522476243552 0.024953703850414673 0 0.027793013587944854 0.024957955817185427 0 0.027797474903976004 0.024977635664036473 0 0.027799522476243552 0.024953703850414673 0 0.02779996293971131 0.0249272391679532 0 0.02778723769079967 0.024923932377478742 0 0.027818856810630545 0.024950134196698195 0 0.027799522476243552 0.024953703850414673 0 0.02779996293971131 0.0249272391679532 0 0.02778723769079967 0.024923932377478742 0 0.027796896247098652 0.024944740105832551 0 0.027812339252537625 0.024934847475796756 0 0.027761016680459848 0.02485210074268699 0 0.02778723769079967 0.024923932377478742 0 0.027812339252537625 0.024934847475796756 0 0.027796896247098652 0.024944740105832551 0 0.027796261292596946 0.024968277652353967 0 0.027793452023191837 0.024978085117325157 0 0.027796896247098652 0.024944740105832551 0 0.027796261292596946 0.024968277652353967 0 0.027812339252537625 0.024934847475796756 0 0.027796896247098652 0.024944740105832551 0 0.027793013587944854 0.024957955817185427 0 0.027793452023191837 0.024978085117325157 0 0.027799522476243552 0.024953703850414673 0 0.02778723769079967 0.024923932377478742 0 0.027793013587944854 0.024957955817185427 0 0.02778723769079967 0.024923932377478742 0 0.027796896247098652 0.024944740105832551 0 0.027793013587944854 0.024957955817185427 0 0.027793013587944854 0.024957955817185427 0 0.027794000800322592 0.024977346114115461 0 0.027793452023191837 0.024978085117325157 0 0.027793013587944854 0.024957955817185427 0 0.027794000800322592 0.024977346114115461 0 0.027797474903976004 0.024977635664036473 0 0.027793261041788499 0.024997483400570494 0 0.027785401114810558 0.025047567813670752 0 0.027802313017259859 0.024972228666771245 0 0.030833874614959397 0.032383514991998277 0 0.031443867594242642 0.032599497561260328 0 0.030509018397279337 0.031998081285421164 0 0.027029382961942953 0.030566303495276104 0 0.032459016361337321 0.026539929459348761 0 0.027793127185345143 0.024993331549128799 0 0.027794644257820772 0.024998527678612527 0 0.027797474903976004 0.024977635664036473 0 0.027793127185345143 0.024993331549128799 0 0.027794000800322592 0.024977346114115461 0 0.027797474903976004 0.024977635664036473 0 0.027793127185345143 0.024993331549128799 0 0.027794000800322592 0.024977346114115461 0 0.027793452023191837 0.024978085117325157 0 0.027793127185345143 0.024993331549128799 0 0.027793452023191837 0.024978085117325157 0 0.027791198051654642 0.025007205966770776 0 0.027793452023191837 0.024978085117325157 0 0.027791198051654642 0.025007205966770776 0 0.027793261041788499 0.024997483400570494 0 0.027793127185345143 0.024993331549128799 0 0.027791198051654642 0.025007205966770776 0 0.027794644257820772 0.024998527678612527 0 0.027791198051654642 0.025007205966770776 0 0.027794644257820772 0.024998527678612527 0 0.027789959159836536 0.025022891362610232 0 0.027796261292596946 0.024968277652353967 0 0.027793261041788499 0.024997483400570494 0 0.027802313017259859 0.024972228666771245 0 0.027796261292596946 0.024968277652353967 0 0.027793452023191837 0.024978085117325157 0 0.027793261041788499 0.024997483400570494 0 0.030833874614959397 0.032383514991998277 0 0.031086310571664579 0.032631509559274102 0 0.030973282534953999 0.032792732380832509 0 0.030833874614959397 0.032383514991998277 0 0.031148654581926734 0.032586973513139411 0 0.031443867594242642 0.032599497561260328 0 0.030833874614959397 0.032383514991998277 0 0.031148654581926734 0.032586973513139411 0 0.031086310571664579 0.032631509559274102 0 0.027791198051654642 0.025007205966770776 0 0.027793261041788499 0.024997483400570494 0 0.027785401114810558 0.025047567813670752 0 0.027791198051654642 0.025007205966770776 0 0.027789959159836536 0.025022891362610232 0 0.027785401114810558 0.025047567813670752 0 0.031148654581926734 0.032586973513139411 0 0.031443867594242642 0.032599497561260328 0 0.031266923386088795 0.032729971101655299 0 0.020750263469768809 0.032704865989832403 0 0.020810581011233342 0.032679963367773172 0 0.020891609674523838 0.032607417022619475 0 0.020810581011233342 0.032679963367773172 0 0.020891609674523838 0.032607417022619475 0 0.020873158170551485 0.032679593605396545 0 0.027029382961942953 0.030566303495276104 0 0.026630043504579794 0.031878034825607936 0 0.027829200751163189 0.024944181068152268 0 0.027785401114810558 0.025047567813670752 0 0.027802612167924668 0.024984513881492119 0 0.021155425163218011 0.032392668715991564 0 0.021159499831616215 0.032081714147725732 0 0.020891609674523838 0.032607417022619475 0 0.023738678009648056 0.028636746235523723 0 0.027029382961942953 0.030566303495276104 0 0.027789959159836536 0.025022891362610232 0 0.027785401114810558 0.025047567813670752 0 0.027802612167924668 0.024984513881492119 0 0.021159499831616215 0.032081714147725732 0 0.020750263469768809 0.032704865989832403 0 0.020891609674523838 0.032607417022619475 0 0.020750263469768809 0.032704865989832403 0 0.020810581011233342 0.032679963367773172 0 0.020839350457320719 0.03274311221289164 0 0.020810581011233342 0.032679963367773172 0 0.020873158170551485 0.032679593605396545 0 0.020839350457320719 0.03274311221289164 0 0.020891609674523838 0.032607417022619475 0 0.020925725525856084 0.032665673125440477 0 0.020984215452817114 0.032634077331340237 0 0.020891609674523838 0.032607417022619475 0 0.020925725525856084 0.032665673125440477 0 0.020873158170551485 0.032679593605396545 0 0.020873158170551485 0.032679593605396545 0 0.020883917882945652 0.032720512089041968 0 0.020920957522287491 0.032709530082668636 0 0.020873158170551485 0.032679593605396545 0 0.020883917882945652 0.032720512089041968 0 0.020839350457320719 0.03274311221289164 0 0.020925725525856084 0.032665673125440477 0 0.020873158170551485 0.032679593605396545 0 0.020920957522287491 0.032709530082668636 0 0.020925725525856084 0.032665673125440477 0 0.020920957522287491 0.032709530082668636 0 0.020959796232085444 0.032697111964726598 0 0.020984215452817114 0.032634077331340237 0 0.021077517068737055 0.032673689244714359 0 0.021014187209042873 0.032744333954173137 0 0.020891609674523838 0.032607417022619475 0 0.020984215452817114 0.032634077331340237 0 0.021059610745305476 0.032562851704393041 0 0.021155425163218011 0.032392668715991564 0 0.020891609674523838 0.032607417022619475 0 0.021059610745305476 0.032562851704393041 0 0.020959796232085444 0.032697111964726598 0 0.021014187209042873 0.032744333954173137 0 0.020952425482655454 0.032750196887879071 0 0.020920957522287491 0.032709530082668636 0 0.020959796232085444 0.032697111964726598 0 0.020952425482655454 0.032750196887879071 0 0.020959796232085444 0.032697111964726598 0 0.020984215452817114 0.032634077331340237 0 0.021014187209042873 0.032744333954173137 0 0.020925725525856084 0.032665673125440477 0 0.020959796232085444 0.032697111964726598 0 0.020984215452817114 0.032634077331340237 0 0.021077517068737055 0.032673689244714359 0 0.021116170958489094 0.032784784708586166 0 0.021014187209042873 0.032744333954173137 0 0.020984215452817114 0.032634077331340237 0 0.021077517068737055 0.032673689244714359 0 0.021059610745305476 0.032562851704393041 0 0.027794644257820772 0.024998527678612527 0 0.027802612167924668 0.024984513881492119 0 0.027797474903976004 0.024977635664036473 0 0.027794644257820772 0.024998527678612527 0 0.027789959159836536 0.025022891362610232 0 0.027802612167924668 0.024984513881492119 0 0.030645834987433094 0.032773003144022886 0 0.031671967997435657 0.032460147045137361 0 0.030397714469701499 0.032680241068349304 0 0.031043720574119145 0.033055342760219715 0 0.030645834987433094 0.032773003144022886 0 0.031671967997435657 0.032460147045137361 0 0.0305359457033384 0.032950940603301879 0 0.031043720574119145 0.033055342760219715 0 0.030645834987433094 0.032773003144022886 0 0.0305359457033384 0.032950940603301879 0 0.031043720574119145 0.033055342760219715 0 0.030748650410396858 0.033487868105236566 0 0.0305359457033384 0.032950940603301879 0 0.030645834987433094 0.032773003144022886 0 0.030348510275240128 0.032620766209671151 0 0.030645834987433094 0.032773003144022886 0 0.030348510275240128 0.032620766209671151 0 0.030397714469701499 0.032680241068349304 0 0.030833874614959397 0.032383514991998277 0 0.030348510275240128 0.032620766209671151 0 0.030973282534953999 0.032792732380832509 0 0.030405067984977448 0.033634625545951924 0 0.032459016361337321 0.026539929459348761 0 0.030833874614959397 0.032383514991998277 0 0.030348510275240128 0.032620766209671151 0 0.030509018397279337 0.031998081285421164 0 0.0305359457033384 0.032950940603301879 0 0.030348510275240128 0.032620766209671151 0 0.030161012386125865 0.032954330598711126 0 0.0305359457033384 0.032950940603301879 0 0.030161012386125865 0.032954330598711126 0 0.030748650410396858 0.033487868105236566 0 0.037778331791369552 0.017883991629042233 0 0.037425902477798333 0.017112245421332377 0 0.036745947510661708 0.017296574739525093 0 0.032459016361337321 0.026539929459348761 0 0.034012026910274058 0.025532033929467447 0 0.037425902477798333 0.017112245421332377 0 0.037961168573558281 0.016698541826231261 0 0.037604607587261349 0.015981289307196 0 0.037425902477798333 0.017112245421332377 0 0.036856184147106126 0.016779888932332232 0 0.037604607587261349 0.015981289307196 0 0.032459016361337321 0.026539929459348761 0 0.033886907784267048 0.019915459849694121 0 0.027796261292596946 0.024968277652353967 0 0.027802313017259859 0.024972228666771245 0 0.027812339252537625 0.024934847475796756 0 0.037778331791369552 0.017883991629042233 0 0.037425902477798333 0.017112245421332377 0 0.03796682476226166 0.016863533421679767 0 0.038029099502135656 0.017280720178751312 0 0.033886907784267048 0.019915459849694121 0 0.036856184147106126 0.016779888932332232 0 0.036745947510661708 0.017296574739525093 0 0.035609101492610443 0.016707938072741114 0 0.037425902477798333 0.017112245421332377 0 0.036856184147106126 0.016779888932332232 0 0.036745947510661708 0.017296574739525093 0 0.031043720574119145 0.033055342760219715 0 0.030748650410396858 0.033487868105236566 0 0.031967012014198763 0.03329886360631111 0 0.034012026910274058 0.025532033929467447 0 0.035779070249020307 0.020548292935187246 0 0.03770157375638062 0.015750980038114929 0 0.037604607587261349 0.015981289307196 0 0.037700183436935784 0.015747970283949531 0 0.037604607587261349 0.015981289307196 0 0.037700183436935784 0.015747970283949531 0 0.037702374983896877 0.015728336789731151 0 0.03770157375638062 0.015750980038114929 0 0.037604607587261349 0.015981289307196 0 0.037667079177422874 0.015810459725028644 0 0.036856184147106126 0.016779888932332232 0 0.037604607587261349 0.015981289307196 0 0.035609101492610443 0.016707938072741114 0 0.038168162689015107 0.014698823375714936 0 0.035779070249020307 0.020548292935187246 0 0.03770157375638062 0.015750980038114929 0 0.037735917787093544 0.015729173778229247 0 0.037667079177422874 0.015810459725028644 0 0.037830760978747512 0.015814364938765143 0 0.037961168573558281 0.016698541826231261 0 0.037604607587261349 0.015981289307196 0 0.036433394031381974 0.017839432696985034 0 0.033886907784267048 0.019915459849694121 0 0.037604607587261349 0.015981289307196 0 0.037669725545872348 0.015837444837059931 0 0.037667079177422874 0.015810459725028644 0 0.037830760978747512 0.015814364938765143 0 0.037604607587261349 0.015981289307196 0 0.037669725545872348 0.015837444837059931 0 0.037687575871855089 0.015851396814014405 0 0.037830760978747512 0.015814364938765143 0 0.037718134266039621 0.015829085694728337 0 0.037669725545872348 0.015837444837059931 0 0.037718134266039621 0.015829085694728337 0 0.037680991259899432 0.015860744933357721 0 0.037830760978747512 0.015814364938765143 0 0.037669725545872348 0.015837444837059931 0 0.037718134266039621 0.015829085694728337 0 0.037735917787093544 0.015729173778229247 0 0.037667079177422874 0.015810459725028644 0 0.037680991259899432 0.015860744933357721 0 0.037669725545872348 0.015837444837059931 0 0.037667079177422874 0.015810459725028644 0 0.037680991259899432 0.015860744933357721 0 0.037735917787093544 0.015729173778229247 0 0.037680991259899432 0.015860744933357721 0 0.037864347747838339 0.015609315871600611 0 0.037878419552409476 0.014575086926354622 0 0.037916173735314238 0.01553231378086921 0 0.038695351376504615 0.013362396989160124 0 0.037864347747838339 0.015609315871600611 0 0.037916173735314238 0.01553231378086921 0 0.037808773830885774 0.015603548232103463 0 0.038191153411706064 0.015693210627604533 0 0.037864347747838339 0.015609315871600611 0 0.037808773830885774 0.015603548232103463 0 0.037982851602623185 0.015427453993781729 0 0.038201283699226388 0.014477336566709884 0 0.037887741145291427 0.015807526220658029 0 0.037918903794659613 0.015620049169920673 0 0.037878419552409476 0.014575086926354622 0 0.03786395002504906 0.013938524893881766 0 0.038695351376504615 0.013362396989160124 0 0.037878419552409476 0.014575086926354622 0 0.037433793846121756 0.01479204252836442 0 0.03786395002504906 0.013938524893881766 0 0.040140954563081935 0.023358080417408698 0 0.037271623012924741 0.021747250846126404 0 0.0377077109486341 0.019276683077366234 0 0.035273193878856801 0.027165312380158201 0 0.037442512252158638 0.015949607867434996 0 0.037587387364618134 0.01532807555288734 0 0.037129383986075841 0.016187631707946709 0 0.037433793846121756 0.01479204252836442 0 0.037878419552409476 0.014575086926354622 0 0.037587387364618134 0.01532807555288734 0 0.037433793846121756 0.01479204252836442 0 0.037878419552409476 0.014575086926354622 0 0.037587387364618134 0.01532807555288734 0 0.037916173735314238 0.01553231378086921 0 0.037735917787093544 0.015729173778229247 0 0.037782797410649258 0.015662424899485657 0 0.037864347747838339 0.015609315871600611 0 0.037782797410649258 0.015662424899485657 0 0.037916173735314238 0.01553231378086921 0 0.037764894911575198 0.015660345500125294 0 0.03770157375638062 0.015750980038114929 0 0.037782797410649258 0.015662424899485657 0 0.037764894911575198 0.015660345500125294 0 0.03770157375638062 0.015750980038114929 0 0.037735917787093544 0.015729173778229247 0 0.037782797410649258 0.015662424899485657 0 0.037782797410649258 0.015662424899485657 0 0.037864347747838339 0.015609315871600611 0 0.037916173735314238 0.01553231378086921 0 0.037587387364618134 0.01532807555288734 0 0.037916173735314238 0.01553231378086921 0 0.037554490808521419 0.015762747032146415 0 0.037916173735314238 0.01553231378086921 0 0.037718370530960194 0.015681075997827434 0 0.037554490808521419 0.015762747032146415 0 0.037718370530960194 0.015681075997827434 0 0.037756045912180104 0.015669498056867792 0 0.037702374983896877 0.015728336789731151 0 0.037916173735314238 0.01553231378086921 0 0.037718370530960194 0.015681075997827434 0 0.037756045912180104 0.015669498056867792 0 0.037717417188953314 0.015715440446086536 0 0.037700183436935784 0.015747970283949531 0 0.037702374983896877 0.015728336789731151 0 0.037756045912180104 0.015669498056867792 0 0.037717417188953314 0.015715440446086536 0 0.037702374983896877 0.015728336789731151 0 0.037756045912180104 0.015669498056867792 0 0.037717417188953314 0.015715440446086536 0 0.037700183436935784 0.015747970283949531 0 0.037916173735314238 0.01553231378086921 0 0.037756045912180104 0.015669498056867792 0 0.037764894911575198 0.015660345500125294 0 0.037756045912180104 0.015669498056867792 0 0.037764894911575198 0.015660345500125294 0 0.037700183436935784 0.015747970283949531 0 0.03770157375638062 0.015750980038114929 0 0.037764894911575198 0.015660345500125294 0 0.037700183436935784 0.015747970283949531 0 0.032502936818730725 0.034158459845696681 0 0.031967012014198763 0.03329886360631111 0 0.034068750425762656 0.033512461095626396 0 0.030748650410396858 0.033487868105236566 0 0.032502936818730725 0.034158459845696681 0 0.031967012014198763 0.03329886360631111 0 0.035779070249020307 0.020548292935187246 0 0.035273193878856801 0.027165312380158201 0 0.037718370530960194 0.015681075997827434 0 0.037702374983896877 0.015728336789731151 0 0.037554490808521419 0.015762747032146415 0 0.037702374983896877 0.015728336789731151 0 0.037554490808521419 0.015762747032146415 0 0.037129383986075841 0.016187631707946709 0 0.037587387364618134 0.01532807555288734 0 0.037554490808521419 0.015762747032146415 0 0.037129383986075841 0.016187631707946709 0 0.033139172002227074 0.03366236025669915 0 0.033883340538543728 0.031419654137228907 0 0.036320536169417196 0.032736056264776339 0 0.035273193878856801 0.027165312380158201 0 0.037489331540667893 0.026296832998170643 0 0.033883340538543728 0.031419654137228907 0 0.031532845265027837 0.031243022318160105 0 0.033795604404136453 0.029871907312185204 0 0.033139172002227074 0.03366236025669915 0 0.033883340538543728 0.031419654137228907 0 0.031532845265027837 0.031243022318160105 0 0.031967012014198763 0.03329886360631111 0 0.034068750425762656 0.033512461095626396 0 0.031671967997435657 0.032460147045137361 0 0.035273193878856801 0.027165312380158201 0 0.031630379836728374 0.033179448492023998 0 0.031043720574119145 0.033055342760219715 0 0.031967012014198763 0.03329886360631111 0 0.031671967997435657 0.032460147045137361 0 0.037489331540667893 0.026296832998170643 0 0.037708028004686242 0.025270131324352251 0 0.036413724771961753 0.027223128772082713 0 0.036543920271282157 0.027194932555656626 0 0.03669018240877632 0.025579344055666857 0 0.036413724771961753 0.027223128772082713 0 0.03669018240877632 0.025579344055666857 0 0.036273179467281341 0.027385331340842423 0 0.036413724771961753 0.027223128772082713 0 0.036543920271282157 0.027194932555656626 0 0.036055024881514922 0.028792347047446782 0 0.037489331540667893 0.026296832998170643 0 0.036119024024912148 0.030166910816532395 0 0.033883340538543728 0.031419654137228907 0 0.036320536169417196 0.032736056264776339 0 0.036055024881514922 0.028792347047446782 0 0.040140954563081935 0.023358080417408698 0 0.035806563157104995 0.024944870581957084 0 0.037271623012924741 0.021747250846126404 0 0.04283117532473471 0.023067357267089379 0 0.038834824184143517 0.021737972355986873 0 0.03669018240877632 0.025579344055666857 0 0.04283117532473471 0.023067357267089379 0 0.038834824184143517 0.021737972355986873 0 0.040054603987117222 0.019320322380969143 0 0.038834824184143517 0.021737972355986873 0 0.040054603987117222 0.019320322380969143 0 0.037935704602177094 0.019294540253510462 0 0.040054603987117222 0.019320322380969143 0 0.038895589412873979 0.016509085360790324 0 0.037935704602177094 0.019294540253510462 0 0.040054603987117222 0.019320322380969143 0 0.04146031908216069 0.016512930414164635 0 0.038895589412873979 0.016509085360790324 0 0.035806563157104995 0.024944870581957084 0 0.037271623012924741 0.021747250846126404 0 0.035353307747755115 0.018511576656951748 0 0.04283117532473471 0.023067357267089379 0 0.040054603987117222 0.019320322380969143 0 0.04146031908216069 0.016512930414164635 0 0.037489331540667893 0.026296832998170643 0 0.038656494916616477 0.016988484705363176 0 0.037271623012924741 0.021747250846126404 0 0.035353307747755115 0.018511576656951748 0 0.0377077109486341 0.019276683077366234 0 0.037442512252158638 0.015949607867434996 0 0.037635810601344584 0.014711144227572257 0 0.035353307747755115 0.018511576656951748 0 0.0377077109486341 0.019276683077366234 0 0.035139585929400675 0.015203952177190472 0 0.037433793846121756 0.01479204252836442 0 0.037881266330319886 0.013457156571990049 0 0.03786395002504906 0.013938524893881766 0 0.038656494916616477 0.016988484705363176 0 0.037635810601344584 0.014711144227572257 0 0.04146031908216069 0.016512930414164635 0 0.038895589412873979 0.016509085360790324 0 0.0392073381477097 0.014243471302316065 0 0.04146031908216069 0.016512930414164635 0 0.040300019123008332 0.014207299378257141 0 0.0392073381477097 0.014243471302316065 0 0.038895589412873979 0.016509085360790324 0 0.0392073381477097 0.014243471302316065 0 0.037850622393230768 0.014246399467047248 0 0.040300019123008332 0.014207299378257141 0 0.0392073381477097 0.014243471302316065 0 0.03873392229922392 0.01277310333921995 0 0.0392073381477097 0.014243471302316065 0 0.03873392229922392 0.01277310333921995 0 0.03850560030947793 0.012766695846380601 0 0.038450466466496476 0.012135289795281255 0 0.03873392229922392 0.01277310333921995 0 0.03850560030947793 0.012766695846380601 0 0.038450466466496476 0.012135289795281255 0 0.03873392229922392 0.01277310333921995 0 0.038315131599722267 0.01243855679561353 0 0.038387710120227722 0.012751237660302965 0 0.03873392229922392 0.01277310333921995 0 0.038315131599722267 0.01243855679561353 0 0.037881266330319886 0.013457156571990049 0 0.03873392229922392 0.01277310333921995 0 0.038270354280009793 0.013116153147721724 0 0.038387710120227722 0.012751237660302965 0 0.03873392229922392 0.01277310333921995 0 0.038270354280009793 0.013116153147721724 0 0.037635810601344584 0.014711144227572257 0 0.03868475176398916 0.012983077572377048 0 0.037881266330319886 0.013457156571990049 0 0.03786395002504906 0.013938524893881766 0 0.038270354280009793 0.013116153147721724 0 0.03786395002504906 0.013938524893881766 0 0.038270354280009793 0.013116153147721724 0 0.038695351376504615 0.013362396989160124 0 0.038270354280009793 0.013116153147721724 0 0.038695351376504615 0.013362396989160124 0 0.03852311166471685 0.012538597124089076 0 0.038196849124824073 0.01522918583747881 0 0.038191153411706064 0.015693210627604533 0 0.037808773830885774 0.015603548232103463 0 0.038201283699226388 0.014477336566709884 0 0.038058327420671285 0.013657685726052957 0 0.038196849124824073 0.01522918583747881 0 0.037808773830885774 0.015603548232103463 0 0.037590729947804297 0.014757324414889078 0 0.038163013417495437 0.014631387098349553 0 0.038196849124824073 0.01522918583747881 0 0.037590729947804297 0.014757324414889078 0 0.038387710120227722 0.012751237660302965 0 0.038270354280009793 0.013116153147721724 0 0.03852311166471685 0.012538597124089076 0 0.038387710120227722 0.012751237660302965 0 0.03852311166471685 0.012538597124089076 0 0.038315131599722267 0.01243855679561353 0 0.03815337553279622 0.012397483998703714 0 0.03852311166471685 0.012538597124089076 0 0.038315131599722267 0.01243855679561353 0 0.037433110447464744 0.013561026897938911 0 0.038163013417495437 0.014631387098349553 0 0.037590729947804297 0.014757324414889078 0 0.037796335153671173 0.012989707820192374 0 0.038058327420671285 0.013657685726052957 0 0.03815337553279622 0.012397483998703714 0 0.038152893427231584 0.012461845241057676 0 0.038315131599722267 0.01243855679561353 0 0.038152893427231584 0.012461845241057676 0 0.038343960810544406 0.012228161520681489 0 0.038515153662334767 0.012598727382057478 0 0.038152893427231584 0.012461845241057676 0 0.038343960810544406 0.012228161520681489 0 0.038315131599722267 0.01243855679561353 0 0.038450466466496476 0.012135289795281255 0 0.038343960810544406 0.012228161520681489 0 0.038315131599722267 0.01243855679561353 0 0.040552170515424375 0.011846685701759709 0 0.03966101917373422 0.011454151680377606 0 0.03886018384203252 0.012285906117835777 0 0.03966101917373422 0.011454151680377606 0 0.038444652348941892 0.011738720942048246 0 0.03886018384203252 0.012285906117835777 0 0.038343960810544406 0.012228161520681489 0 0.038444652348941892 0.011738720942048246 0 0.03886018384203252 0.012285906117835777 0 0.038450466466496476 0.012135289795281255 0 0.038343960810544406 0.012228161520681489 0 0.038444652348941892 0.011738720942048246 0 0.038343960810544406 0.012228161520681489 0 0.038515153662334767 0.012598727382057478 0 0.03886018384203252 0.012285906117835777 0 0.038515153662334767 0.012598727382057478 0 0.03886018384203252 0.012285906117835777 0 0.039636608526532051 0.013340498973940219 0 0.040552170515424375 0.011846685701759709 0 0.03886018384203252 0.012285906117835777 0 0.039636608526532051 0.013340498973940219 0 0.040552170515424375 0.011846685701759709 0 0.039636608526532051 0.013340498973940219 0 0.043818323796625328 0.011330741362239265 0 0.045318244730929234 0.0092670738183739994 0 0.04482555023641268 0.010141587879242141 0 0.043818323796625328 0.011330741362239265 0 0.045965282902241715 0.0088891889244223851 0 0.045318244730929234 0.0092670738183739994 0 0.043818323796625328 0.011330741362239265 0 0.042792726509519922 0.011056279872233397 0 0.043691719888364774 0.011267733918086583 0 0.04482555023641268 0.010141587879242141 0 0.043818323796625328 0.011330741362239265 0 0.044867956400037788 0.01075749683560682 0 0.043818323796625328 0.011330741362239265 0 0.045060969787614438 0.010733184406054511 0 0.044867956400037788 0.01075749683560682 0 0.043818323796625328 0.011330741362239265 0 0.042882631200791443 0.0098753532122998894 0 0.045060969787614438 0.010733184406054511 0 0.03966101917373422 0.011454151680377606 0 0.041866501356388058 0.011021901284707572 0 0.042882631200791443 0.0098753532122998894 0 0.043818323796625328 0.011330741362239265 0 0.041866501356388058 0.011021901284707572 0 0.042882631200791443 0.0098753532122998894 0 0.040552170515424375 0.011846685701759709 0 0.043818323796625328 0.011330741362239265 0 0.041866501356388058 0.011021901284707572 0 0.040552170515424375 0.011846685701759709 0 0.03966101917373422 0.011454151680377606 0 0.041866501356388058 0.011021901284707572 0 0.034248224891103511 0.011322126929664141 0 0.035402270649005564 0.012175703771068514 0 0.034148095290950906 0.011082365342797235 0 0.034248224891103511 0.011322126929664141 0 0.035402270649005564 0.012175703771068514 0 0.037787554603718645 0.011172025326049804 0 0.038713082153550973 0.010749765693837059 0 0.03801884257682598 0.011075754641752207 0 0.034248224891103511 0.011322126929664141 0 0.037357385698448188 0.010487953128402012 0 0.034148095290950906 0.011082365342797235 0 0.034248224891103511 0.011322126929664141 0 0.037357385698448188 0.010487953128402012 0 0.039451811435555824 0.01280045526182433 0 0.038713082153550973 0.010749765693837059 0 0.042146654085586238 0.011642604402078994 0 0.034148095290950906 0.011082365342797235 0 0.033926282609732017 0.014504152107496603 0 0.029701207040684061 0.014547793187867879 0 0.037357385698448188 0.010487953128402012 0 0.034148095290950906 0.011082365342797235 0 0.038068879117926759 0.0063550633063293388 0 0.033281110762914366 0.0095752660540531047 0 0.037563726070407311 0.015668475042727222 0 0.035402270649005564 0.012175703771068514 0 0.035973491245392904 0.014313101229561316 0 0.033926282609732017 0.014504152107496603 0 0.035402270649005564 0.012175703771068514 0 0.034148095290950906 0.011082365342797235 0 0.033926282609732017 0.014504152107496603 0 0.035402270649005564 0.012175703771068514 0 0.037787554603718645 0.011172025326049804 0 0.035973491245392904 0.014313101229561316 0 0.037787554603718645 0.011172025326049804 0 0.037850622393230768 0.014246399467047248 0 0.035973491245392904 0.014313101229561316 0 0.03966101917373422 0.011454151680377606 0 0.038444652348941892 0.011738720942048246 0 0.037787554603718645 0.011172025326049804 0 0.03966101917373422 0.011454151680377606 0 0.042882631200791443 0.0098753532122998894 0 0.037787554603718645 0.011172025326049804 0 0.038450466466496476 0.012135289795281255 0 0.037787554603718645 0.011172025326049804 0 0.03850560030947793 0.012766695846380601 0 0.038450466466496476 0.012135289795281255 0 0.038444652348941892 0.011738720942048246 0 0.037787554603718645 0.011172025326049804 0 0.037787554603718645 0.011172025326049804 0 0.03850560030947793 0.012766695846380601 0 0.037850622393230768 0.014246399467047248 0 0.0392073381477097 0.014243471302316065 0 0.03850560030947793 0.012766695846380601 0 0.037850622393230768 0.014246399467047248 0 0.037850622393230768 0.014246399467047248 0 0.035973491245392904 0.014313101229561316 0 0.036714135198816555 0.01685037673174148 0 0.038895589412873979 0.016509085360790324 0 0.037850622393230768 0.014246399467047248 0 0.036714135198816555 0.01685037673174148 0 0.035973491245392904 0.014313101229561316 0 0.034777750071200923 0.017114599777796644 0 0.036714135198816555 0.01685037673174148 0 0.034777750071200923 0.017114599777796644 0 0.036714135198816555 0.01685037673174148 0 0.035893120831366934 0.019881522423833963 0 0.034777750071200923 0.017114599777796644 0 0.035893120831366934 0.019881522423833963 0 0.033920503138505906 0.020119798340466778 0 0.036714135198816555 0.01685037673174148 0 0.037935704602177094 0.019294540253510462 0 0.035893120831366934 0.019881522423833963 0 0.038895589412873979 0.016509085360790324 0 0.036714135198816555 0.01685037673174148 0 0.037935704602177094 0.019294540253510462 0 0.037055349332336757 0.022171976749417593 0 0.035893120831366934 0.019881522423833963 0 0.035694620833520416 0.02438352496516117 0 0.038834824184143517 0.021737972355986873 0 0.037935704602177094 0.019294540253510462 0 0.037055349332336757 0.022171976749417593 0 0.037935704602177094 0.019294540253510462 0 0.037055349332336757 0.022171976749417593 0 0.035893120831366934 0.019881522423833963 0 0.038834824184143517 0.021737972355986873 0 0.037055349332336757 0.022171976749417593 0 0.03669018240877632 0.025579344055666857 0 0.035075683633506466 0.023013176028197826 0 0.035715844495830457 0.025351318591839003 0 0.035893120831366934 0.019881522423833963 0 0.033920503138505906 0.020119798340466778 0 0.035694620833520416 0.02438352496516117 0 0.036068206405293034 0.025818105951346527 0 0.035490727752473625 0.026336306612371622 0 0.035619192556701554 0.026182352520873076 0 0.036068206405293034 0.025818105951346527 0 0.035490727752473625 0.026336306612371622 0 0.035662109404174046 0.026221252148975735 0 0.035490727752473625 0.026336306612371622 0 0.035619192556701554 0.026182352520873076 0 0.035516771074533209 0.026831444054951328 0 0.035715844495830457 0.025351318591839003 0 0.03639913403986457 0.027170406089356003 0 0.03669018240877632 0.025579344055666857 0 0.035694620833520416 0.02438352496516117 0 0.036273179467281341 0.027385331340842423 0 0.035619192556701554 0.026182352520873076 0 0.035516771074533209 0.026831444054951328 0 0.036273179467281341 0.027385331340842423 0 0.037055349332336757 0.022171976749417593 0 0.03669018240877632 0.025579344055666857 0 0.035694620833520416 0.02438352496516117 0 0.036121569333556418 0.025963689794825467 0 0.036286696302418896 0.025729051130636178 0 0.036648027943491673 0.025402901149372721 0 0.036121569333556418 0.025963689794825467 0 0.035662109404174046 0.026221252148975735 0 0.036286696302418896 0.025729051130636178 0 0.036068206405293034 0.025818105951346527 0 0.035662109404174046 0.026221252148975735 0 0.036286696302418896 0.025729051130636178 0 0.036068206405293034 0.025818105951346527 0 0.036286696302418896 0.025729051130636178 0 0.036727460538530765 0.025228309832410784 0 0.036286696302418896 0.025729051130636178 0 0.036727460538530765 0.025228309832410784 0 0.036648027943491673 0.025402901149372721 0 0.036727460538530765 0.025228309832410784 0 0.036950613179899526 0.02494195888581301 0 0.036648027943491673 0.025402901149372721 0 0.034777750071200923 0.017114599777796644 0 0.033920503138505906 0.020119798340466778 0 0.032418940296661126 0.017250535131544578 0 0.035075683633506466 0.023013176028197826 0 0.034095686493324208 0.021544433775633042 0 0.034777750071200923 0.017114599777796644 0 0.032418940296661126 0.017250535131544578 0 0.033926282609732017 0.014504152107496603 0 0.035973491245392904 0.014313101229561316 0 0.034777750071200923 0.017114599777796644 0 0.033926282609732017 0.014504152107496603 0 0.032418940296661126 0.017250535131544578 0 0.033926282609732017 0.014504152107496603 0 0.029701207040684061 0.014547793187867879 0 0.036727460538530765 0.025228309832410784 0 0.037314295530448044 0.024375462052017627 0 0.036950613179899526 0.02494195888581301 0 0.034095686493324208 0.021544433775633042 0 0.037563726070407311 0.015668475042727222 0 0.037314295530448044 0.024375462052017627 0 0.037075712536214576 0.024586084556190973 0 0.036950613179899526 0.02494195888581301 0 0.037563726070407311 0.015668475042727222 0 0.040498136046489726 0.021776774922622175 0 0.044456746193194903 0.01743296761692522 0 0.044708444485401434 0.016849276023736547 0 0.044368501341732543 0.017658388280319317 0 0.037075712536214576 0.024586084556190973 0 0.036764691063003188 0.025164575587558767 0 0.036685677615577249 0.024923652972527105 0 0.040498136046489726 0.021776774922622175 0 0.043159516473239082 0.02181274969967608 0 0.037075712536214576 0.024586084556190973 0 0.036950613179899526 0.02494195888581301 0 0.036764691063003188 0.025164575587558767 0 0.036950613179899526 0.02494195888581301 0 0.036648027943491673 0.025402901149372721 0 0.036764691063003188 0.025164575587558767 0 0.036648027943491673 0.025402901149372721 0 0.036764691063003188 0.025164575587558767 0 0.036468974692041085 0.025694837028411879 0 0.036764691063003188 0.025164575587558767 0 0.036486066297878393 0.02561414329419149 0 0.036685677615577249 0.024923652972527105 0 0.036764691063003188 0.025164575587558767 0 0.036486066297878393 0.02561414329419149 0 0.036468974692041085 0.025694837028411879 0 0.036121569333556418 0.025963689794825467 0 0.036648027943491673 0.025402901149372721 0 0.036468974692041085 0.025694837028411879 0 0.044999994840711703 0.021195717569683085 0 0.045431172161465111 0.021054865814229613 0 0.045646420564828059 0.023453246627203935 0 0.045044389310900899 0.023069668151011444 0 0.0443425634358885 0.022271673568248603 0 0.044369183633065024 0.023800850846215495 0 0.044891024947904715 0.021646573672240193 0 0.045008578216927934 0.023627871353341073 0 0.045044389310900899 0.023069668151011444 0 0.044964661678915503 0.02215639719082756 0 0.0443425634358885 0.022271673568248603 0 0.045917243243542162 0.022947177463886512 0 0.045044389310900899 0.023069668151011444 0 0.044964661678915503 0.02215639719082756 0 0.04098777778467752 0.024506460863792875 0 0.043159516473239082 0.02181274969967608 0 0.045917243243542162 0.022947177463886512 0 0.045465004294304688 0.021730695119305071 0 0.044964661678915503 0.02215639719082756 0 0.043159516473239082 0.02181274969967608 0 0.0456803735455516 0.021486962093747869 0 0.04665724225769674 0.020869204357710537 0 0.044964661678915503 0.02215639719082756 0 0.045153585987871447 0.020490094252217036 0 0.0443425634358885 0.022271673568248603 0 0.04436986334003358 0.019126307901582578 0 0.045153585987871447 0.020490094252217036 0 0.044891024947904715 0.021646573672240193 0 0.044820968813801022 0.018935636629935148 0 0.044999994840711703 0.021195717569683085 0 0.045431172161465111 0.021054865814229613 0 0.044999995047763537 0.018726037581266876 0 0.044964661678915503 0.02215639719082756 0 0.0443425634358885 0.022271673568248603 0 0.045153585987871447 0.020490094252217036 0 0.04436986334003358 0.019126307901582578 0 0.045153585987871447 0.020490094252217036 0 0.045594659150876106 0.018016115737598586 0 0.045431172161465111 0.021054865814229613 0 0.045215736365630699 0.018655421658550456 0 0.044999995047763537 0.018726037581266876 0 0.043159516473239082 0.02181274969967608 0 0.045211772611957239 0.017138073136712159 0 0.04665724225769674 0.020869204357710537 0 0.045153585987871447 0.020490094252217036 0 0.045594659150876106 0.018016115737598586 0 0.044368501341732543 0.017658388280319317 0 0.043939696934803242 0.018107869674607015 0 0.04430037537004116 0.016958992761473578 0 0.044708444485401434 0.016849276023736547 0 0.044368501341732543 0.017658388280319317 0 0.04430037537004116 0.016958992761473578 0 0.044820968813801022 0.018935636629935148 0 0.044999877907573448 0.016257001929259038 0 0.045215736365630699 0.018655421658550456 0 0.044999995047763537 0.018726037581266876 0 0.04499999732321381 0.016256357395495472 0 0.04436986334003358 0.019126307901582578 0 0.045594659150876106 0.018016115737598586 0 0.044997902815659602 0.016256944781805512 0 0.045594659150876106 0.018016115737598586 0 0.044997902815659602 0.016256944781805512 0 0.045001552077898285 0.015582241016811429 0 0.045211772611957239 0.017138073136712159 0 0.044999870158696796 0.015583606607871912 0 0.04430037537004116 0.016958992761473578 0 0.044998422925940092 0.015582465029587794 0 0.045000275380292318 0.015929873734688488 0 0.044998422925940092 0.015582465029587794 0 0.045197571821473125 0.015052642347632938 0 0.045000275380292318 0.015929873734688488 0 0.044998422925940092 0.015582465029587794 0 0.045197571821473125 0.015052642347632938 0 0.044999424286079739 0.013961824645956534 0 0.045197571821473125 0.015052642347632938 0 0.044999424286079739 0.013961824645956534 0 0.045587659493819141 0.014662617609823571 0 0.045000275380292318 0.015929873734688488 0 0.04505688251142017 0.016303780847609674 0 0.045587659493819141 0.014662617609823571 0 0.045197571821473125 0.015052642347632938 0 0.045000275380292318 0.015929873734688488 0 0.045587659493819141 0.014662617609823571 0 0.044019463334263514 0.012320427944439589 0 0.045118666278870997 0.013063664442676884 0 0.044708444485401434 0.016849276023736547 0 0.04430037537004116 0.016958992761473578 0 0.045000275380292318 0.015929873734688488 0 0.044708444485401434 0.016849276023736547 0 0.045000275380292318 0.015929873734688488 0 0.04505688251142017 0.016303780847609674 0 0.044456746193194903 0.01743296761692522 0 0.044708444485401434 0.016849276023736547 0 0.04505688251142017 0.016303780847609674 0 0.037357385698448188 0.010487953128402012 0 0.038068879117926759 0.0063550633063293388 0 0.042107036704763567 0.0093263360847763918 0 0.037563726070407311 0.015668475042727222 0 0.044019463334263514 0.012320427944439589 0 0.037357385698448188 0.010487953128402012 0 0.042107036704763567 0.0093263360847763918 0 0.039451811435555824 0.01280045526182433 0 0.042107036704763567 0.0093263360847763918 0 0.042412212880560976 0.011431988710574719 0 0.039451811435555824 0.01280045526182433 0 0.042107036704763567 0.0093263360847763918 0 0.042412212880560976 0.011431988710574719 0 0.045068406966202214 0.011475207654520373 0 0.042146654085586238 0.011642604402078994 0 0.04433577530608402 0.011855774349538663 0 0.042412212880560976 0.011431988710574719 0 0.039451811435555824 0.01280045526182433 0 0.044642898442400561 0.011813124047230294 0 0.045060969787614438 0.010733184406054511 0 0.045166242541541016 0.010907249263226979 0 0.044642898442400561 0.011813124047230294 0 0.045060969787614438 0.010733184406054511 0 0.044867956400037788 0.01075749683560682 0 0.045166242541541016 0.010907249263226979 0 0.045230958836708225 0.01018713585895068 0 0.04482555023641268 0.010141587879242141 0 0.044867956400037788 0.01075749683560682 0 0.045230958836708225 0.01018713585895068 0 0.044867956400037788 0.01075749683560682 0 0.045166242541541016 0.010907249263226979 0 0.045166242541541016 0.010907249263226979 0 0.045132434517579922 0.011709350125798415 0 0.044642898442400561 0.011813124047230294 0 0.045514325120810703 0.010465354710626358 0 0.045166242541541016 0.010907249263226979 0 0.045132434517579922 0.011709350125798415 0 0.044999580183281769 0.010137943924527919 0 0.045132434517579922 0.011709350125798415 0 0.044999046023227178 0.012335715542244 0 0.045000282107152255 0.012339761278402953 0 0.044999424286079739 0.013961824645956534 0 0.045587659493819141 0.014662617609823571 0 0.044999882935008194 0.012339252785930186 0 0.045118666278870997 0.013063664442676884 0 0.045132434517579922 0.011709350125798415 0 0.044999046023227178 0.012335715542244 0 0.045068406966202214 0.011475207654520373 0 0.045132434517579922 0.011709350125798415 0 0.045068406966202214 0.011475207654520373 0 0.044642898442400561 0.011813124047230294 0 0.042412212880560976 0.011431988710574719 0 0.045068406966202214 0.011475207654520373 0 0.044642898442400561 0.011813124047230294 0 0.038110342106624243 0.034247486677974191 0 0.041224025605377343 0.033440133080786152 0 0.037825499623183323 0.030782014401302682 0 0.041224025605377343 0.033440133080786152 0 0.041043351257093783 0.029699232892927138 0 0.037825499623183323 0.030782014401302682 0 0.042179597922691478 0.033424821295216831 0 0.043678305085901502 0.03041019354800252 0 0.04499995071433522 0.031074473016827177 0 0.046433753876871028 0.032543676400154091 0 0.046256304365434618 0.030667285513974029 0 0.04499995071433522 0.031074473016827177 0 0.04499997471690953 0.033629569333601061 0 0.046433753876871028 0.032543676400154091 0 0.04499997471690953 0.033629569333601061 0 0.046433753876871028 0.032543676400154091 0 0.046599910593170826 0.034439808038692135 0 0.042179597922691478 0.033424821295216831 0 0.042487251154695704 0.036143747491180142 0 0.039875074688454033 0.035740164251337449 0 0.038110342106624243 0.034247486677974191 0 0.038458455833557878 0.037720035242364787 0 0.039875074688454033 0.035740164251337449 0 0.038110342106624243 0.034247486677974191 0 0.041224025605377343 0.033440133080786152 0 0.043716020628747819 0.035081207974205761 0 0.041224025605377343 0.033440133080786152 0 0.041813743296712828 0.036685345248585521 0 0.039875074688454033 0.035740164251337449 0 0.041224025605377343 0.033440133080786152 0 0.041813743296712828 0.036685345248585521 0 0.043716020628747819 0.035081207974205761 0 0.045407912803366236 0.037202754477097588 0 0.041813743296712828 0.036685345248585521 0 0.043716020628747819 0.035081207974205761 0 0.045718771584225285 0.034380972464333776 0 0.045407912803366236 0.037202754477097588 0 0.043716020628747819 0.035081207974205761 0 0.044335475429886993 0.032937449731007262 0 0.045718771584225285 0.034380972464333776 0 0.044335475429886993 0.032937449731007262 0 0.043285339468151461 0.030853300602525717 0 0.046347356054805583 0.030188960140132906 0 0.043716020628747819 0.035081207974205761 0 0.044335475429886993 0.032937449731007262 0 0.041224025605377343 0.033440133080786152 0 0.044335475429886993 0.032937449731007262 0 0.046644531213556724 0.032385026788051177 0 0.045718771584225285 0.034380972464333776 0 0.044335475429886993 0.032937449731007262 0 0.041224025605377343 0.033440133080786152 0 0.043285339468151461 0.030853300602525717 0 0.041224025605377343 0.033440133080786152 0 0.041043351257093783 0.029699232892927138 0 0.043285339468151461 0.030853300602525717 0 0.042844442410587658 0.028786683845162763 0 0.045533842451293362 0.028045541093147535 0 0.041043351257093783 0.029699232892927138 0 0.043285339468151461 0.030853300602525717 0 0.044311039981130312 0.028594522410813027 0 0.043285339468151461 0.030853300602525717 0 0.044311039981130312 0.028594522410813027 0 0.046347356054805583 0.030188960140132906 0 0.046458744835761956 0.027502108525921439 0 0.046613423890935417 0.026553571581460458 0 0.047448128998971079 0.026822844676668307 0 0.046458744835761956 0.027502108525921439 0 0.045690706901726295 0.026448004429364024 0 0.046613423890935417 0.026553571581460458 0 0.045514836279395093 0.027793783378074265 0 0.046458744835761956 0.027502108525921439 0 0.045690706901726295 0.026448004429364024 0 0.045514836279395093 0.027793783378074265 0 0.044399293134130859 0.026720974582048005 0 0.045690706901726295 0.026448004429364024 0 0.042844442410587658 0.028786683845162763 0 0.043678305085901502 0.03041019354800252 0 0.045514836279395093 0.027793783378074265 0 0.04448625746196308 0.028146628675167869 0 0.044399293134130859 0.026720974582048005 0 0.044999974885514708 0.031074397876076455 0 0.046280277223951317 0.030644844102980691 0 0.044999991943846955 0.028604741082812597 0 0.045001909041176312 0.031073625472570088 0 0.043678305085901502 0.03041019354800252 0 0.046280277223951317 0.030644844102980691 0 0.046074036664713068 0.028247213498553022 0 0.044999991943846955 0.028604741082812597 0 0.043678305085901502 0.03041019354800252 0 0.045438278194292588 0.02727619314090558 0 0.045438278194292588 0.02727619314090558 0 0.045088535794477011 0.02560609298574399 0 0.046074036664713068 0.028247213498553022 0 0.044999991943846955 0.028604741082812597 0 0.044999993293613837 0.026135060555637239 0 0.046074036664713068 0.028247213498553022 0 0.044999993293613837 0.026135060555637239 0 0.045861301301977034 0.025850417451490224 0 0.044399293134130859 0.026720974582048005 0 0.045560835812380934 0.025200158845905062 0 0.045690706901726295 0.026448004429364024 0 0.044399293134130859 0.026720974582048005 0 0.044355034391137992 0.025262678576754845 0 0.045560835812380934 0.025200158845905062 0 0.044999993293613837 0.026135060555637239 0 0.045861301301977034 0.025850417451490224 0 0.044999994524003176 0.023665390227600364 0 0.044355034391137992 0.025262678576754845 0 0.045392201611299345 0.024107604368623234 0 0.044369183633065024 0.023800850846215495 0 0.045088535794477011 0.02560609298574399 0 0.045008578216927934 0.023627871353341073 0 0.045861301301977034 0.025850417451490224 0 0.045646420564828059 0.023453246627203935 0 0.044999994524003176 0.023665390227600364 0 0.044355034391137992 0.025262678576754845 0 0.045392201611299345 0.024107604368623234 0 0.045560835812380934 0.025200158845905062 0 0.045044389310900899 0.023069668151011444 0 0.045392201611299345 0.024107604368623234 0 0.044369183633065024 0.023800850846215495 0 0.045917243243542162 0.022947177463886512 0 0.045044389310900899 0.023069668151011444 0 0.045392201611299345 0.024107604368623234 0 0.044999994840711703 0.021195717569683085 0 0.045646420564828059 0.023453246627203935 0 0.044999994524003176 0.023665390227600364 0 0.036121569333556418 0.025963689794825467 0 0.036468974692041085 0.025694837028411879 0 0.036363810810620137 0.025865513652439182 0 0.045917243243542162 0.022947177463886512 0 0.045392201611299345 0.024107604368623234 0 0.04639558609931272 0.024275978297319666 0 0.04098777778467752 0.024506460863792875 0 0.041407530664439508 0.02501607479708641 0 0.036486066297878393 0.02561414329419149 0 0.036468974692041085 0.025694837028411879 0 0.036363810810620137 0.025865513652439182 0 0.045392201611299345 0.024107604368623234 0 0.04639558609931272 0.024275978297319666 0 0.045560835812380934 0.025200158845905062 0 0.041407530664439508 0.02501607479708641 0 0.041462873115706629 0.025647879330726681 0 0.036363810810620137 0.025865513652439182 0 0.03612529117565353 0.025608002640036986 0 0.035915052952334332 0.026037627084192418 0 0.04639558609931272 0.024275978297319666 0 0.04689209834620435 0.025562018624074732 0 0.045560835812380934 0.025200158845905062 0 0.04689209834620435 0.025562018624074732 0 0.045560835812380934 0.025200158845905062 0 0.045690706901726295 0.026448004429364024 0 0.04689209834620435 0.025562018624074732 0 0.045690706901726295 0.026448004429364024 0 0.046613423890935417 0.026553571581460458 0 0.041462873115706629 0.025647879330726681 0 0.042053010971858387 0.025723782503277212 0 0.03612529117565353 0.025608002640036986 0 0.035704386609193714 0.025472235601935105 0 0.03580475761558579 0.025337058964236266 0 0.04689209834620435 0.025562018624074732 0 0.046613423890935417 0.026553571581460458 0 0.047448128998971079 0.026822844676668307 0 0.033450670328559064 0.027853471984624834 0 0.032169581894466191 0.029028559078205795 0 0.035704386609193714 0.025472235601935105 0 0.035293723526107254 0.025570886365865117 0 0.03566358785782945 0.025352616447554349 0 0.035704386609193714 0.025472235601935105 0 0.03566358785782945 0.025352616447554349 0 0.03580475761558579 0.025337058964236266 0 0.035684828848919214 0.02575402288812732 0 0.034723307772142699 0.026603579050911902 0 0.035293723526107254 0.025570886365865117 0 0.035704386609193714 0.025472235601935105 0 0.035684828848919214 0.02575402288812732 0 0.035293723526107254 0.025570886365865117 0 0.03612529117565353 0.025608002640036986 0 0.035684828848919214 0.02575402288812732 0 0.035915052952334332 0.026037627084192418 0 0.03612529117565353 0.025608002640036986 0 0.035704386609193714 0.025472235601935105 0 0.035684828848919214 0.02575402288812732 0 0.035684828848919214 0.02575402288812732 0 0.035915052952334332 0.026037627084192418 0 0.034723307772142699 0.026603579050911902 0 0.036121569333556418 0.025963689794825467 0 0.035662109404174046 0.026221252148975735 0 0.035915052952334332 0.026037627084192418 0 0.035662109404174046 0.026221252148975735 0 0.035915052952334332 0.026037627084192418 0 0.034723307772142699 0.026603579050911902 0 0.036121569333556418 0.025963689794825467 0 0.036363810810620137 0.025865513652439182 0 0.035915052952334332 0.026037627084192418 0 0.035873515214112382 0.027452093170046273 0 0.035516771074533209 0.026831444054951328 0 0.036273179467281341 0.027385331340842423 0 0.035516771074533209 0.026831444054951328 0 0.034723307772142699 0.026603579050911902 0 0.035339226112965222 0.027321262779153407 0 0.035873515214112382 0.027452093170046273 0 0.035516771074533209 0.026831444054951328 0 0.035339226112965222 0.027321262779153407 0 0.035490727752473625 0.026336306612371622 0 0.035516771074533209 0.026831444054951328 0 0.034723307772142699 0.026603579050911902 0 0.035490727752473625 0.026336306612371622 0 0.035662109404174046 0.026221252148975735 0 0.034723307772142699 0.026603579050911902 0 0.034723307772142699 0.026603579050911902 0 0.034734682915145997 0.027884838459136176 0 0.035339226112965222 0.027321262779153407 0 0.034723307772142699 0.026603579050911902 0 0.034734682915145997 0.027884838459136176 0 0.033313887880286538 0.028838720592017253 0 0.034401564079511476 0.02681769770608803 0 0.033450670328559064 0.027853471984624834 0 0.034734682915145997 0.027884838459136176 0 0.035585253120148812 0.028018577651213572 0 0.035095695409414415 0.028347434922988423 0 0.034734682915145997 0.027884838459136176 0 0.035339226112965222 0.027321262779153407 0 0.035585253120148812 0.028018577651213572 0 0.035873515214112382 0.027452093170046273 0 0.035339226112965222 0.027321262779153407 0 0.035838366173920146 0.027743096866184997 0 0.035339226112965222 0.027321262779153407 0 0.035585253120148812 0.028018577651213572 0 0.035838366173920146 0.027743096866184997 0 0.035778636146040897 0.028272380764020649 0 0.035931769823032512 0.028508992915119265 0 0.035774407565384726 0.028494398431521267 0 0.031984551475539282 0.031657629190829428 0 0.033353166995459503 0.030255341840295508 0 0.036188507113297991 0.028942941763216181 0 0.035252803995917827 0.028877972264630156 0 0.032584534086962998 0.030652064427471506 0 0.03126698740108988 0.031438568570469637 0 0.031876417974990814 0.030867511728389582 0 0.032584534086962998 0.030652064427471506 0 0.035585253120148812 0.028018577651213572 0 0.035778636146040897 0.028272380764020649 0 0.035560303840779156 0.028360904791087792 0 0.035778636146040897 0.028272380764020649 0 0.035560303840779156 0.028360904791087792 0 0.035774407565384726 0.028494398431521267 0 0.035931769823032512 0.028508992915119265 0 0.035774407565384726 0.028494398431521267 0 0.035815363878888624 0.028695998361138991 0 0.035774407565384726 0.028494398431521267 0 0.035815363878888624 0.028695998361138991 0 0.035252803995917827 0.028877972264630156 0 0.035815363878888624 0.028695998361138991 0 0.036188507113297991 0.028942941763216181 0 0.035252803995917827 0.028877972264630156 0 0.035931769823032512 0.028508992915119265 0 0.035815363878888624 0.028695998361138991 0 0.036188507113297991 0.028942941763216181 0 0.032142325121316088 0.031254307703544822 0 0.031984551475539282 0.031657629190829428 0 0.035560303840779156 0.028360904791087792 0 0.035774407565384726 0.028494398431521267 0 0.035252803995917827 0.028877972264630156 0 0.035585253120148812 0.028018577651213572 0 0.035560303840779156 0.028360904791087792 0 0.035095695409414415 0.028347434922988423 0 0.035560303840779156 0.028360904791087792 0 0.035252803995917827 0.028877972264630156 0 0.035095695409414415 0.028347434922988423 0 0.035252803995917827 0.028877972264630156 0 0.035095695409414415 0.028347434922988423 0 0.03418692042971197 0.028826773079914922 0 0.034734682915145997 0.027884838459136176 0 0.035095695409414415 0.028347434922988423 0 0.03418692042971197 0.028826773079914922 0 0.035252803995917827 0.028877972264630156 0 0.03418692042971197 0.028826773079914922 0 0.032584534086962998 0.030652064427471506 0 0.03126698740108988 0.031438568570469637 0 0.031876417974990814 0.030867511728389582 0 0.031354089384460507 0.030585161513064705 0 0.031984551475539282 0.031657629190829428 0 0.029677494067510933 0.033931882736435146 0 0.034723307772142699 0.026603579050911902 0 0.033313887880286538 0.028838720592017253 0 0.031278077616217308 0.029957803438499197 0 0.03418692042971197 0.028826773079914922 0 0.033313887880286538 0.028838720592017253 0 0.032584534086962998 0.030652064427471506 0 0.034734682915145997 0.027884838459136176 0 0.03418692042971197 0.028826773079914922 0 0.033313887880286538 0.028838720592017253 0 0.033313887880286538 0.028838720592017253 0 0.032584534086962998 0.030652064427471506 0 0.032290844272346977 0.029936733260023579 0 0.031876417974990814 0.030867511728389582 0 0.032584534086962998 0.030652064427471506 0 0.032258878241904397 0.030812469126388662 0 0.032584534086962998 0.030652064427471506 0 0.032290844272346977 0.029936733260023579 0 0.031828484619337384 0.030699421470023216 0 0.033313887880286538 0.028838720592017253 0 0.032290844272346977 0.029936733260023579 0 0.031278077616217308 0.029957803438499197 0 0.032290844272346977 0.029936733260023579 0 0.031278077616217308 0.029957803438499197 0 0.031828484619337384 0.030699421470023216 0 0.031278077616217308 0.029957803438499197 0 0.031134712658832508 0.031686554064500924 0 0.02991855410097331 0.032653642938895201 0 0.031828484619337384 0.030699421470023216 0 0.031864895392291599 0.031110177458400251 0 0.031134712658832508 0.031686554064500924 0 0.031278077616217308 0.029957803438499197 0 0.031828484619337384 0.030699421470023216 0 0.031134712658832508 0.031686554064500924 0 0.031864895392291599 0.031110177458400251 0 0.032258878241904397 0.030812469126388662 0 0.031899028100659699 0.031650587881048568 0 0.032584534086962998 0.030652064427471506 0 0.031864895392291599 0.031110177458400251 0 0.032258878241904397 0.030812469126388662 0 0.032584534086962998 0.030652064427471506 0 0.031828484619337384 0.030699421470023216 0 0.031864895392291599 0.031110177458400251 0 0.031864895392291599 0.031110177458400251 0 0.031899028100659699 0.031650587881048568 0 0.031134712658832508 0.031686554064500924 0 0.031899028100659699 0.031650587881048568 0 0.031134712658832508 0.031686554064500924 0 0.030814347967344929 0.0328962858858413 0 0.032258878241904397 0.030812469126388662 0 0.032943432250670042 0.031238454114492976 0 0.032278146670464532 0.031841405673315566 0 0.031876417974990814 0.030867511728389582 0 0.032258878241904397 0.030812469126388662 0 0.031354089384460507 0.030585161513064705 0 0.032943432250670042 0.031238454114492976 0 0.032278146670464532 0.031841405673315566 0 0.032399321749560742 0.03336714067270613 0 0.032829623899649898 0.031030200660739173 0 0.029677494067510933 0.033931882736435146 0 0.032258878241904397 0.030812469126388662 0 0.031899028100659699 0.031650587881048568 0 0.032278146670464532 0.031841405673315566 0 0.031899028100659699 0.031650587881048568 0 0.032278146670464532 0.031841405673315566 0 0.031737120469773027 0.032519973426832362 0 0.032278146670464532 0.031841405673315566 0 0.031737120469773027 0.032519973426832362 0 0.032399321749560742 0.03336714067270613 0 0.029677494067510933 0.033931882736435146 0 0.029798667382574587 0.035624892743393297 0 0.031256894863563672 0.033196410810750143 0 0.032399321749560742 0.03336714067270613 0 0.03030145962212983 0.034036561401640665 0 0.031737120469773027 0.032519973426832362 0 0.031256894863563672 0.033196410810750143 0 0.032399321749560742 0.03336714067270613 0 0.032399321749560742 0.03336714067270613 0 0.03030145962212983 0.034036561401640665 0 0.030964216363327593 0.036399488676952071 0 0.029798667382574587 0.035624892743393297 0 0.029156683115973081 0.037264370234966093 0 0.03030145962212983 0.034036561401640665 0 0.030964216363327593 0.036399488676952071 0 0.029585838112351014 0.035996526353908029 0 0.029271892688916813 0.0344870547425205 0 0.033004878268022154 0.036005068533067848 0 0.03030145962212983 0.034036561401640665 0 0.029932074922023169 0.033920866860219917 0 0.029962662592287571 0.034343954184752737 0 0.03030145962212983 0.034036561401640665 0 0.027764794843832014 0.036083992551134307 0 0.029585838112351014 0.035996526353908029 0 0.030814347967344929 0.0328962858858413 0 0.02991855410097331 0.032653642938895201 0 0.029932074922023169 0.033920866860219917 0 0.03030145962212983 0.034036561401640665 0 0.030814347967344929 0.0328962858858413 0 0.029932074922023169 0.033920866860219917 0 0.031256894863563672 0.033196410810750143 0 0.03030145962212983 0.034036561401640665 0 0.030814347967344929 0.0328962858858413 0 0.031737120469773027 0.032519973426832362 0 0.031256894863563672 0.033196410810750143 0 0.030814347967344929 0.0328962858858413 0 0.031899028100659699 0.031650587881048568 0 0.031737120469773027 0.032519973426832362 0 0.030814347967344929 0.0328962858858413 0 0.031134712658832508 0.031686554064500924 0 0.030814347967344929 0.0328962858858413 0 0.02991855410097331 0.032653642938895201 0 0.032169581894466191 0.029028559078205795 0 0.038738642594297552 0.030630513282076905 0 0.03566358785782945 0.025352616447554349 0 0.03580475761558579 0.025337058964236266 0 0.035757523951432474 0.025389639852725965 0 0.042053010971858387 0.025723782503277212 0 0.038738642594297552 0.030630513282076905 0 0.045533842451293362 0.028045541093147535 0 0.047456092360275898 0.027565784115472846 0 0.046458744835761956 0.027502108525921439 0 0.047448128998971079 0.026822844676668307 0 0.047676736963131759 0.027568393659824716 0 0.047448128998971079 0.026822844676668307 0 0.047676736963131759 0.027568393659824716 0 0.049146111376523 0.030445376517679493 0 0.044311039981130312 0.028594522410813027 0 0.047676736963131759 0.027568393659824716 0 0.046347356054805583 0.030188960140132906 0 0.047676736963131759 0.027568393659824716 0 0.046347356054805583 0.030188960140132906 0 0.049146111376523 0.030445376517679493 0 0.046347356054805583 0.030188960140132906 0 0.049146111376523 0.030445376517679493 0 0.046644531213556724 0.032385026788051177 0 0.02991855410097331 0.032653642938895201 0 0.029932074922023169 0.033920866860219917 0 0.029448280471441112 0.034502376642512662 0 0.029932074922023169 0.033920866860219917 0 0.029448280471441112 0.034502376642512662 0 0.030031710590544405 0.035103301232525967 0 0.030192029017395774 0.033625653908888782 0 0.033004878268022154 0.036005068533067848 0 0.040175978002861427 0.032819850737109628 0 0.040841621601223899 0.034130739403534144 0 0.039623767952703302 0.035485131476846205 0 0.029448280471441112 0.034502376642512662 0 0.030031710590544405 0.035103301232525967 0 0.029879033959324168 0.035278052539232864 0 0.038738642594297552 0.030630513282076905 0 0.043533533442879253 0.036470605419345749 0 0.038738642594297552 0.030630513282076905 0 0.03655335724183692 0.035407447021924325 0 0.033004878268022154 0.036005068533067848 0 0.036969221706116516 0.037086162790261917 0 0.035161619023449851 0.034980103102525618 0 0.034565712869209529 0.035627636360951072 0 0.035234473668998088 0.036939082368819605 0 0.027764794843832014 0.036083992551134307 0 0.027961655872858981 0.036860923721684299 0 0.028610916119416623 0.03652554926827347 0 0.033004878268022154 0.036005068533067848 0 0.03655335724183692 0.035407447021924325 0 0.03655335724183692 0.035407447021924325 0 0.043533533442879253 0.036470605419345749 0 0.042773198814542404 0.039397634917733564 0 0.042854564885565251 0.039549427357497717 0 0.042514259057248038 0.039736423986189526 0 0.03655335724183692 0.035407447021924325 0 0.036969221706116516 0.037086162790261917 0 0.044335475429886993 0.032937449731007262 0 0.046347356054805583 0.030188960140132906 0 0.046644531213556724 0.032385026788051177 0 0.049146111376523 0.030445376517679493 0 0.046644531213556724 0.032385026788051177 0 0.048451121000657099 0.033904152212972681 0 0.046644531213556724 0.032385026788051177 0 0.045718771584225285 0.034380972464333776 0 0.048451121000657099 0.033904152212972681 0 0.043533533442879253 0.036470605419345749 0 0.044132872161092213 0.038768438293058302 0 0.042494334889672039 0.040216602190855683 0 0.042542248278327754 0.039867452316648039 0 0.042257575607036392 0.040393804585860574 0 0.045718771584225285 0.034380972464333776 0 0.048451121000657099 0.033904152212972681 0 0.045407912803366236 0.037202754477097588 0 0.042302125364328286 0.04109981917551718 0 0.043533533442879253 0.036470605419345749 0 0.042854564885565251 0.039549427357497717 0 0.042675377537573438 0.040054543105296443 0 0.042888070673004701 0.04031607147259126 0 0.042854564885565251 0.039549427357497717 0 0.042514259057248038 0.039736423986189526 0 0.042675377537573438 0.040054543105296443 0 0.036969221706116516 0.037086162790261917 0 0.042999272799041324 0.039507800158343098 0 0.042494334889672039 0.040216602190855683 0 0.042675377537573438 0.040054543105296443 0 0.042606493233010592 0.040385777439747521 0 0.042494334889672039 0.040216602190855683 0 0.042514259057248038 0.039736423986189526 0 0.042675377537573438 0.040054543105296443 0 0.027961655872858981 0.036860923721684299 0 0.028998146091915339 0.0373578952173046 0 0.0282903871628499 0.03866138872111452 0 0.041832518601453525 0.036515224757099077 0 0.042861028136008186 0.038340389166148875 0 0.041990410667314883 0.038272139502476356 0 0.036969221706116516 0.037086162790261917 0 0.035226566114071545 0.038363005724954151 0 0.028529336533989726 0.038359516161125602 0 0.029156683115973081 0.037264370234966093 0 0.028353121385454268 0.038603706099561159 0 0.030964216363327593 0.036399488676952071 0 0.028998146091915339 0.0373578952173046 0 0.028353121385454268 0.038603706099561159 0 0.028998146091915339 0.0373578952173046 0 0.0282903871628499 0.03866138872111452 0 0.030964216363327593 0.036399488676952071 0 0.029585838112351014 0.035996526353908029 0 0.028998146091915339 0.0373578952173046 0 0.027961655872858981 0.036860923721684299 0 0.028610916119416623 0.03652554926827347 0 0.028998146091915339 0.0373578952173046 0 0.027764794843832014 0.036083992551134307 0 0.029585838112351014 0.035996526353908029 0 0.028610916119416623 0.03652554926827347 0 0.029585838112351014 0.035996526353908029 0 0.028610916119416623 0.03652554926827347 0 0.028998146091915339 0.0373578952173046 0 0.02756893892212715 0.038500256853422031 0 0.027584414397122663 0.038052300260944798 0 0.027485520987289982 0.038198304217458449 0 0.02756893892212715 0.038500256853422031 0 0.027625939218602676 0.038401019494180247 0 0.027584414397122663 0.038052300260944798 0 0.027426138858529642 0.03843980857625133 0 0.027641322725430337 0.03858830365078364 0 0.027485520987289982 0.038198304217458449 0 0.02756893892212715 0.038500256853422031 0 0.027641322725430337 0.03858830365078364 0 0.027485520987289982 0.038198304217458449 0 0.028353121385454268 0.038603706099561159 0 0.027641322725430337 0.03858830365078364 0 0.027582430965560074 0.038723197653021998 0 0.028353121385454268 0.038603706099561159 0 0.027426138858529642 0.03843980857625133 0 0.027641322725430337 0.03858830365078364 0 0.02756893892212715 0.038500256853422031 0 0.027641322725430337 0.03858830365078364 0 0.027582430965560074 0.038723197653021998 0 0.02756893892212715 0.038500256853422031 0 0.027542079588855153 0.038697300991309844 0 0.027582430965560074 0.038723197653021998 0 0.02756893892212715 0.038500256853422031 0 0.027542079588855153 0.038697300991309844 0 0.027625939218602676 0.038401019494180247 0 0.027542079588855153 0.038697300991309844 0 0.027691255018954718 0.038544425556571067 0 0.027625939218602676 0.038401019494180247 0 0.027691255018954718 0.038544425556571067 0 0.027805012863570389 0.03815021694422472 0 0.027938796188322668 0.03847342296225844 0 0.027691255018954718 0.038544425556571067 0 0.027805012863570389 0.03815021694422472 0 0.027625939218602676 0.038401019494180247 0 0.027805012863570389 0.03815021694422472 0 0.027625939218602676 0.038401019494180247 0 0.027584414397122663 0.038052300260944798 0 0.027818850332479213 0.037704105183670948 0 0.0276285639936187 0.037631976036241715 0 0.027584414397122663 0.038052300260944798 0 0.027805012863570389 0.03815021694422472 0 0.027818850332479213 0.037704105183670948 0 0.027584414397122663 0.038052300260944798 0 0.027805012863570389 0.03815021694422472 0 0.027818850332479213 0.037704105183670948 0 0.028064617637543539 0.037894306049239178 0 0.027818850332479213 0.037704105183670948 0 0.02770037245309967 0.037215338024643323 0 0.028157618868126667 0.036826606282223701 0 0.027818850332479213 0.037704105183670948 0 0.028157618868126667 0.036826606282223701 0 0.028140477997897047 0.037448572753513681 0 0.027818850332479213 0.037704105183670948 0 0.0276285639936187 0.037631976036241715 0 0.02770037245309967 0.037215338024643323 0 0.0276285639936187 0.037631976036241715 0 0.027461798622547842 0.0377371425922335 0 0.027474785776601132 0.037352326779508914 0 0.0276285639936187 0.037631976036241715 0 0.027461798622547842 0.0377371425922335 0 0.027584414397122663 0.038052300260944798 0 0.027461798622547842 0.0377371425922335 0 0.027584414397122663 0.038052300260944798 0 0.027485520987289982 0.038198304217458449 0 0.027170708494587519 0.03780070126943233 0 0.027426138858529642 0.03843980857625133 0 0.027485520987289982 0.038198304217458449 0 0.027170708494587519 0.03780070126943233 0 0.027461798622547842 0.0377371425922335 0 0.027485520987289982 0.038198304217458449 0 0.027170708494587519 0.03780070126943233 0 0.027461798622547842 0.0377371425922335 0 0.027319594184195137 0.03754685327739811 0 0.02716317760899022 0.037301005534946058 0 0.027170708494587519 0.03780070126943233 0 0.027319594184195137 0.03754685327739811 0 0.027461798622547842 0.0377371425922335 0 0.027319594184195137 0.03754685327739811 0 0.027474785776601132 0.037352326779508914 0 0.029677494067510933 0.033931882736435146 0 0.02708947654000822 0.03646570689834365 0 0.02716317760899022 0.037301005534946058 0 0.027319594184195137 0.03754685327739811 0 0.027474785776601132 0.037352326779508914 0 0.027823720168096609 0.035097532205856215 0 0.02741499812318118 0.035354016564089499 0 0.027602827435632294 0.035242312374535172 0 0.02708947654000822 0.03646570689834365 0 0.027757312638186968 0.036578779067016245 0 0.02741499812318118 0.035354016564089499 0 0.027434845989072029 0.035194393372895663 0 0.027493159961411839 0.035378033388096752 0 0.02741499812318118 0.035354016564089499 0 0.027434845989072029 0.035194393372895663 0 0.027602827435632294 0.035242312374535172 0 0.035910958421351891 0.028550520300757179 0 0.035646349047973133 0.027640271835922242 0 0.035929832161864905 0.028029301339641585 0 0.027901864853959076 0.035287739002706799 0 0.027434845989072029 0.035194393372895663 0 0.027602827435632294 0.035242312374535172 0 0.031984551475539282 0.031657629190829428 0 0.031446039832087484 0.031474697490963668 0 0.027901864853959076 0.035287739002706799 0 0.027823720168096609 0.035097532205856215 0 0.027602827435632294 0.035242312374535172 0 0.035778636146040897 0.028272380764020649 0 0.035931769823032512 0.028508992915119265 0 0.035929832161864905 0.028029301339641585 0 0.035931769823032512 0.028508992915119265 0 0.035910958421351891 0.028550520300757179 0 0.035929832161864905 0.028029301339641585 0 0.035585253120148812 0.028018577651213572 0 0.035778636146040897 0.028272380764020649 0 0.035929832161864905 0.028029301339641585 0 0.035585253120148812 0.028018577651213572 0 0.035929832161864905 0.028029301339641585 0 0.035838366173920146 0.027743096866184997 0 0.035873515214112382 0.027452093170046273 0 0.035838366173920146 0.027743096866184997 0 0.036101933178701355 0.027941049705684663 0 0.035929832161864905 0.028029301339641585 0 0.035838366173920146 0.027743096866184997 0 0.036101933178701355 0.027941049705684663 0 0.035646349047973133 0.027640271835922242 0 0.035929832161864905 0.028029301339641585 0 0.036101933178701355 0.027941049705684663 0 0.035646349047973133 0.027640271835922242 0 0.036101933178701355 0.027941049705684663 0 0.035223660889957251 0.028461147674837539 0 0.035646349047973133 0.027640271835922242 0 0.035223660889957251 0.028461147674837539 0 0.033219591231035406 0.028216588107459827 0 0.036101933178701355 0.027941049705684663 0 0.035223660889957251 0.028461147674837539 0 0.036055024881514922 0.028792347047446782 0 0.035223660889957251 0.028461147674837539 0 0.036055024881514922 0.028792347047446782 0 0.033795604404136453 0.029871907312185204 0 0.036413724771961753 0.027223128772082713 0 0.036055024881514922 0.028792347047446782 0 0.036273179467281341 0.027385331340842423 0 0.036101933178701355 0.027941049705684663 0 0.036055024881514922 0.028792347047446782 0 0.036273179467281341 0.027385331340842423 0 0.035873515214112382 0.027452093170046273 0 0.036101933178701355 0.027941049705684663 0 0.036273179467281341 0.027385331340842423 0 0.031532845265027837 0.031243022318160105 0 0.029801124523609918 0.032226192766568344 0 0.029654710925637477 0.032604205906808993 0 0.031630379836728374 0.033179448492023998 0 0.029860725634562747 0.031904106258129554 0 0.031532845265027837 0.031243022318160105 0 0.031895498163023249 0.030644920996345366 0 0.033795604404136453 0.029871907312185204 0 0.031532845265027837 0.031243022318160105 0 0.031895498163023249 0.030644920996345366 0 0.029801124523609918 0.032226192766568344 0 0.031895498163023249 0.030644920996345366 0 0.033795604404136453 0.029871907312185204 0 0.033219591231035406 0.028216588107459827 0 0.033883340538543728 0.031419654137228907 0 0.036055024881514922 0.028792347047446782 0 0.033795604404136453 0.029871907312185204 0 0.031446039832087484 0.031474697490963668 0 0.030446119261118613 0.031464290600727897 0 0.035223660889957251 0.028461147674837539 0 0.033795604404136453 0.029871907312185204 0 0.033219591231035406 0.028216588107459827 0 0.027299780515720774 0.034554073168888907 0 0.029023108569414674 0.034094449062242869 0 0.028257946694643103 0.035100494697285219 0 0.030446119261118613 0.031464290600727897 0 0.030031494046294856 0.031968907611615541 0 0.031895498163023249 0.030644920996345366 0 0.033219591231035406 0.028216588107459827 0 0.029801124523609918 0.032226192766568344 0 0.027299780515720774 0.034554073168888907 0 0.029023108569414674 0.034094449062242869 0 0.029801124523609918 0.032226192766568344 0 0.028257946694643103 0.035100494697285219 0 0.02828519667485821 0.035961889753469423 0 0.027493159961411839 0.035378033388096752 0 0.029023108569414674 0.034094449062242869 0 0.028257946694643103 0.035100494697285219 0 0.028935950910530823 0.035205896551359264 0 0.028257946694643103 0.035100494697285219 0 0.02828519667485821 0.035961889753469423 0 0.028935950910530823 0.035205896551359264 0 0.027299780515720774 0.034554073168888907 0 0.028257946694643103 0.035100494697285219 0 0.027493159961411839 0.035378033388096752 0 0.027434845989072029 0.035194393372895663 0 0.027299780515720774 0.034554073168888907 0 0.027493159961411839 0.035378033388096752 0 0.0276285639936187 0.037631976036241715 0 0.027474785776601132 0.037352326779508914 0 0.02770037245309967 0.037215338024643323 0 0.02741499812318118 0.035354016564089499 0 0.027493159961411839 0.035378033388096752 0 0.027490842427578047 0.035912751038821064 0 0.02828519667485821 0.035961889753469423 0 0.027490842427578047 0.035912751038821064 0 0.028157618868126667 0.036826606282223701 0 0.02828519667485821 0.035961889753469423 0 0.027493159961411839 0.035378033388096752 0 0.027490842427578047 0.035912751038821064 0 0.027757312638186968 0.036578779067016245 0 0.028158888257548201 0.036781615969653778 0 0.02828519667485821 0.035961889753469423 0 0.02851339116824806 0.036751323709843603 0 0.028912754751555879 0.03594819574552803 0 0.02828519667485821 0.035961889753469423 0 0.028157618868126667 0.036826606282223701 0 0.02851339116824806 0.036751323709843603 0 0.02851339116824806 0.036751323709843603 0 0.028452719701324423 0.036762765149915728 0 0.028299691482822607 0.037413780991820224 0 0.02851339116824806 0.036751323709843603 0 0.028912754751555879 0.03594819574552803 0 0.028452719701324423 0.036762765149915728 0 0.028912754751555879 0.03594819574552803 0 0.028803641559506113 0.035924622938856739 0 0.028452719701324423 0.036762765149915728 0 0.028912754751555879 0.03594819574552803 0 0.028803641559506113 0.035924622938856739 0 0.029279275138092389 0.035227912701135969 0 0.02828519667485821 0.035961889753469423 0 0.028912754751555879 0.03594819574552803 0 0.028935950910530823 0.035205896551359264 0 0.028912754751555879 0.03594819574552803 0 0.029279275138092389 0.035227912701135969 0 0.028935950910530823 0.035205896551359264 0 0.029023108569414674 0.034094449062242869 0 0.028935950910530823 0.035205896551359264 0 0.029455846238257328 0.034285683773156855 0 0.029023108569414674 0.034094449062242869 0 0.029455846238257328 0.034285683773156855 0 0.029654710925637477 0.032604205906808993 0 0.029023108569414674 0.034094449062242869 0 0.029801124523609918 0.032226192766568344 0 0.029654710925637477 0.032604205906808993 0 0.029455846238257328 0.034285683773156855 0 0.029654710925637477 0.032604205906808993 0 0.029687115516090476 0.033614556402454317 0 0.029654710925637477 0.032604205906808993 0 0.029815776728103337 0.033277160189108437 0 0.029687115516090476 0.033614556402454317 0 0.029654710925637477 0.032604205906808993 0 0.029815776728103337 0.033277160189108437 0 0.029906086261883617 0.032874822421929475 0 0.029455846238257328 0.034285683773156855 0 0.029687115516090476 0.033614556402454317 0 0.029774721905743335 0.034423150665555798 0 0.029815776728103337 0.033277160189108437 0 0.029687115516090476 0.033614556402454317 0 0.029774721905743335 0.034423150665555798 0 0.029279275138092389 0.035227912701135969 0 0.028935950910530823 0.035205896551359264 0 0.029455846238257328 0.034285683773156855 0 0.029279275138092389 0.035227912701135969 0 0.029455846238257328 0.034285683773156855 0 0.029774721905743335 0.034423150665555798 0 0.029774721905743335 0.034423150665555798 0 0.030297836966744738 0.033376414221270793 0 0.031346986889082384 0.033243119771849745 0 0.028803641559506113 0.035924622938856739 0 0.029774721905743335 0.034423150665555798 0 0.028313232212344077 0.036878455226117893 0 0.029371805058929116 0.034632729253416684 0 0.030430356486097418 0.035004975033969772 0 0.028803641559506113 0.035924622938856739 0 0.029279275138092389 0.035227912701135969 0 0.029774721905743335 0.034423150665555798 0 0.029815776728103337 0.033277160189108437 0 0.029774721905743335 0.034423150665555798 0 0.030297836966744738 0.033376414221270793 0 0.030297836966744738 0.033376414221270793 0 0.030565731106457772 0.032993800308127263 0 0.030126324705926924 0.032848552068501874 0 0.030297836966744738 0.033376414221270793 0 0.030565731106457772 0.032993800308127263 0 0.031346986889082384 0.033243119771849745 0 0.029815776728103337 0.033277160189108437 0 0.030297836966744738 0.033376414221270793 0 0.030126324705926924 0.032848552068501874 0 0.030348510275240128 0.032620766209671151 0 0.030565731106457772 0.032993800308127263 0 0.030973282534953999 0.032792732380832509 0 0.030348510275240128 0.032620766209671151 0 0.030565731106457772 0.032993800308127263 0 0.030126324705926924 0.032848552068501874 0 0.031671967997435657 0.032460147045137361 0 0.029654710925637477 0.032604205906808993 0 0.030205295242385688 0.032673222428500931 0 0.031671967997435657 0.032460147045137361 0 0.030397714469701499 0.032680241068349304 0 0.030205295242385688 0.032673222428500931 0 0.030397714469701499 0.032680241068349304 0 0.030205295242385688 0.032673222428500931 0 0.030126324705926924 0.032848552068501874 0 0.030348510275240128 0.032620766209671151 0 0.030397714469701499 0.032680241068349304 0 0.030126324705926924 0.032848552068501874 0 0.029654710925637477 0.032604205906808993 0 0.030205295242385688 0.032673222428500931 0 0.029906086261883617 0.032874822421929475 0 0.030205295242385688 0.032673222428500931 0 0.029906086261883617 0.032874822421929475 0 0.030126324705926924 0.032848552068501874 0 0.029815776728103337 0.033277160189108437 0 0.029906086261883617 0.032874822421929475 0 0.030126324705926924 0.032848552068501874 0 0.031574775418555898 0.032893416139670104 0 0.031346986889082384 0.033243119771849745 0 0.031814691466526032 0.032935046392436121 0 0.030430356486097418 0.035004975033969772 0 0.026237038423173868 0.034227472509316376 0 0.028313232212344077 0.036878455226117893 0 0.027380304081959843 0.03696094781955523 0 0.027166418249131487 0.03721296434310753 0 0.027380304081959843 0.03696094781955523 0 0.027182612461865534 0.037077412861604861 0 0.027166418249131487 0.03721296434310753 0 0.031668057970553776 0.032862813573237858 0 0.031574775418555898 0.032893416139670104 0 0.031814691466526032 0.032935046392436121 0 0.026335855654260141 0.032810559178166027 0 0.026237038423173868 0.034227472509316376 0 0.020965468295657964 0.03285390466710842 0 0.021074263592208677 0.032864857007197941 0 0.021152694513245789 0.03302087229740755 0 0.021074263592208677 0.032864857007197941 0 0.021116170958489094 0.032784784708586166 0 0.021152694513245789 0.03302087229740755 0 0.021049474947313834 0.032810238172922931 0 0.021116170958489094 0.032784784708586166 0 0.021014187209042873 0.032744333954173137 0 0.021074263592208677 0.032864857007197941 0 0.021049474947313834 0.032810238172922931 0 0.021116170958489094 0.032784784708586166 0 0.021074263592208677 0.032864857007197941 0 0.021049474947313834 0.032810238172922931 0 0.021009590899526972 0.032817081116231446 0 0.020965468295657964 0.03285390466710842 0 0.021074263592208677 0.032864857007197941 0 0.021009590899526972 0.032817081116231446 0 0.020965468295657964 0.03285390466710842 0 0.020969727127036254 0.03279678728340979 0 0.020926053449503039 0.032793526365492973 0 0.020965468295657964 0.03285390466710842 0 0.020969727127036254 0.03279678728340979 0 0.021009590899526972 0.032817081116231446 0 0.021049474947313834 0.032810238172922931 0 0.021009590899526972 0.032817081116231446 0 0.021014187209042873 0.032744333954173137 0 0.020969727127036254 0.03279678728340979 0 0.021009590899526972 0.032817081116231446 0 0.021014187209042873 0.032744333954173137 0 0.020969727127036254 0.03279678728340979 0 0.020952425482655454 0.032750196887879071 0 0.020926053449503039 0.032793526365492973 0 0.020969727127036254 0.03279678728340979 0 0.021014187209042873 0.032744333954173137 0 0.020952425482655454 0.032750196887879071 0 0.020883917882945652 0.032720512089041968 0 0.020926053449503039 0.032793526365492973 0 0.020839350457320719 0.03274311221289164 0 0.026335855654260141 0.032810559178166027 0 0.026630043504579794 0.031878034825607936 0 0.020883917882945652 0.032720512089041968 0 0.020920957522287491 0.032709530082668636 0 0.020926053449503039 0.032793526365492973 0 0.031668057970553776 0.032862813573237858 0 0.031574775418555898 0.032893416139670104 0 0.031548060858752856 0.032725231420275579 0 0.020965468295657964 0.03285390466710842 0 0.020926053449503039 0.032793526365492973 0 0.020839350457320719 0.03274311221289164 0 0.020920957522287491 0.032709530082668636 0 0.020952425482655454 0.032750196887879071 0 0.020926053449503039 0.032793526365492973 0 0.031443867594242642 0.032599497561260328 0 0.031574775418555898 0.032893416139670104 0 0.031548060858752856 0.032725231420275579 0 0.031443867594242642 0.032599497561260328 0 0.031412307733035098 0.032795056574547836 0 0.031266923386088795 0.032729971101655299 0 0.031574775418555898 0.032893416139670104 0 0.031412307733035098 0.032795056574547836 0 0.031357560468288963 0.03293983672376713 0 0.031443867594242642 0.032599497561260328 0 0.031574775418555898 0.032893416139670104 0 0.031412307733035098 0.032795056574547836 0 0.031412307733035098 0.032795056574547836 0 0.031266923386088795 0.032729971101655299 0 0.031357560468288963 0.03293983672376713 0 0.031266923386088795 0.032729971101655299 0 0.031357560468288963 0.03293983672376713 0 0.030973282534953999 0.032792732380832509 0 0.031086310571664579 0.032631509559274102 0 0.031266923386088795 0.032729971101655299 0 0.030973282534953999 0.032792732380832509 0 0.031148654581926734 0.032586973513139411 0 0.031086310571664579 0.032631509559274102 0 0.031266923386088795 0.032729971101655299 0 0.030565731106457772 0.032993800308127263 0 0.030973282534953999 0.032792732380832509 0 0.031346986889082384 0.033243119771849745 0 0.031357560468288963 0.03293983672376713 0 0.030973282534953999 0.032792732380832509 0 0.031346986889082384 0.033243119771849745 0 0.031574775418555898 0.032893416139670104 0 0.031357560468288963 0.03293983672376713 0 0.031346986889082384 0.033243119771849745 0 0.028803641559506113 0.035924622938856739 0 0.028313232212344077 0.036878455226117893 0 0.028136667252986854 0.036519723469469426 0 0.028313232212344077 0.036878455226117893 0 0.028136667252986854 0.036519723469469426 0 0.02766143792609943 0.036759412133216922 0 0.028313232212344077 0.036878455226117893 0 0.02766143792609943 0.036759412133216922 0 0.027380304081959843 0.03696094781955523 0 0.02766143792609943 0.036759412133216922 0 0.027380304081959843 0.03696094781955523 0 0.027271437726832787 0.036890537221807074 0 0.02766143792609943 0.036759412133216922 0 0.027271437726832787 0.036890537221807074 0 0.027287467247865033 0.036944695407415837 0 0.027287467247865033 0.036944695407415837 0 0.027869085989520728 0.036791345413589777 0 0.027132272298554382 0.037409218562087156 0 0.02766143792609943 0.036759412133216922 0 0.027287467247865033 0.036944695407415837 0 0.027869085989520728 0.036791345413589777 0 0.028136667252986854 0.036519723469469426 0 0.02766143792609943 0.036759412133216922 0 0.027869085989520728 0.036791345413589777 0 0.028803641559506113 0.035924622938856739 0 0.028136667252986854 0.036519723469469426 0 0.027869085989520728 0.036791345413589777 0 0.028803641559506113 0.035924622938856739 0 0.027869085989520728 0.036791345413589777 0 0.028452719701324423 0.036762765149915728 0 0.028452719701324423 0.036762765149915728 0 0.027700526770576998 0.037701638620739761 0 0.028204904003233475 0.037431486573945759 0 0.027869085989520728 0.036791345413589777 0 0.028452719701324423 0.036762765149915728 0 0.027700526770576998 0.037701638620739761 0 0.027869085989520728 0.036791345413589777 0 0.027700526770576998 0.037701638620739761 0 0.027132272298554382 0.037409218562087156 0 0.027700526770576998 0.037701638620739761 0 0.028117564913279339 0.037782545455153888 0 0.027272655129668703 0.038310909727008541 0 0.028117564913279339 0.037782545455153888 0 0.027272655129668703 0.038310909727008541 0 0.027429207850841381 0.037705920614443701 0 0.027700526770576998 0.037701638620739761 0 0.028117564913279339 0.037782545455153888 0 0.028204904003233475 0.037431486573945759 0 0.028117564913279339 0.037782545455153888 0 0.028204904003233475 0.037431486573945759 0 0.028299691482822607 0.037413780991820224 0 0.028452719701324423 0.036762765149915728 0 0.028204904003233475 0.037431486573945759 0 0.028299691482822607 0.037413780991820224 0 0.02851339116824806 0.036751323709843603 0 0.028299691482822607 0.037413780991820224 0 0.028140477997897047 0.037448572753513681 0 0.028157618868126667 0.036826606282223701 0 0.02851339116824806 0.036751323709843603 0 0.028140477997897047 0.037448572753513681 0 0.028299691482822607 0.037413780991820224 0 0.028140477997897047 0.037448572753513681 0 0.028064617637543539 0.037894306049239178 0 0.027818850332479213 0.037704105183670948 0 0.028140477997897047 0.037448572753513681 0 0.028064617637543539 0.037894306049239178 0 0.028299691482822607 0.037413780991820224 0 0.028064617637543539 0.037894306049239178 0 0.028160519448786978 0.038099369048796468 0 0.028117564913279339 0.037782545455153888 0 0.028299691482822607 0.037413780991820224 0 0.028160519448786978 0.038099369048796468 0 0.028064617637543539 0.037894306049239178 0 0.028160519448786978 0.038099369048796468 0 0.027938796188322668 0.03847342296225844 0 0.027805012863570389 0.03815021694422472 0 0.028064617637543539 0.037894306049239178 0 0.027938796188322668 0.03847342296225844 0 0.027691255018954718 0.038544425556571067 0 0.027938796188322668 0.03847342296225844 0 0.027755738784155135 0.038775533401776287 0 0.028160519448786978 0.038099369048796468 0 0.027938796188322668 0.03847342296225844 0 0.028102492465660125 0.038758952148511813 0 0.028160519448786978 0.038099369048796468 0 0.028414885796295388 0.038349299943500718 0 0.028102492465660125 0.038758952148511813 0 0.0277427369316008 0.037369409977745273 0 0.02736956902621451 0.037532187681111016 0 0.027538339684857933 0.037101238998616178 0 0.028057182153923048 0.037884684997220558 0 0.027856795495055778 0.038289753595015373 0 0.0277427369316008 0.037369409977745273 0 0.027538339684857933 0.037101238998616178 0 0.027429207850841381 0.037705920614443701 0 0.028117564913279339 0.037782545455153888 0 0.0277427369316008 0.037369409977745273 0 0.027429207850841381 0.037705920614443701 0 0.028118845782683231 0.037813388609332824 0 0.028057182153923048 0.037884684997220558 0 0.028117564913279339 0.037782545455153888 0 0.028160519448786978 0.038099369048796468 0 0.028414885796295388 0.038349299943500718 0 0.028287826371288079 0.039023782671076278 0 0.027980933516187263 0.039270169631892685 0 0.027920290524748165 0.039293240580069978 0 0.02736956902621451 0.037532187681111016 0 0.027920290524748165 0.039293240580069978 0 0.028117617123938957 0.038042125003351857 0 0.027856795495055778 0.038289753595015373 0 0.027906072482785402 0.039188200514852486 0 0.02736956902621451 0.037532187681111016 0 0.027538339684857933 0.037101238998616178 0 0.028117617123938957 0.038042125003351857 0 0.028414885796295388 0.038349299943500718 0 0.028287826371288079 0.039023782671076278 0 0.028102492465660125 0.038758952148511813 0 0.028287826371288079 0.039023782671076278 0 0.028102492465660125 0.038758952148511813 0 0.027980933516187263 0.039270169631892685 0 0.028102492465660125 0.038758952148511813 0 0.027848343284649382 0.039055356909162599 0 0.027980933516187263 0.039270169631892685 0 0.027938796188322668 0.03847342296225844 0 0.028102492465660125 0.038758952148511813 0 0.027848343284649382 0.039055356909162599 0 0.027938796188322668 0.03847342296225844 0 0.027755738784155135 0.038775533401776287 0 0.027848343284649382 0.039055356909162599 0 0.027755738784155135 0.038775533401776287 0 0.027848343284649382 0.039055356909162599 0 0.027566463426498381 0.039032959730317673 0 0.027848343284649382 0.039055356909162599 0 0.027671110906454487 0.039484501241930578 0 0.027566463426498381 0.039032959730317673 0 0.027848343284649382 0.039055356909162599 0 0.027980933516187263 0.039270169631892685 0 0.027671110906454487 0.039484501241930578 0 0.027980933516187263 0.039270169631892685 0 0.027671110906454487 0.039484501241930578 0 0.027770066750523768 0.039900218013610371 0 0.027671110906454487 0.039484501241930578 0 0.027474129486374767 0.040292117527881456 0 0.027770066750523768 0.039900218013610371 0 0.027474129486374767 0.040292117527881456 0 0.027770066750523768 0.039900218013610371 0 0.027615138561005524 0.041136173694394283 0 0.027770066750523768 0.039900218013610371 0 0.027929350581712416 0.040464010816269144 0 0.027615138561005524 0.041136173694394283 0 0.027770066750523768 0.039900218013610371 0 0.027920290524748165 0.039293240580069978 0 0.027929350581712416 0.040464010816269144 0 0.027980933516187263 0.039270169631892685 0 0.027770066750523768 0.039900218013610371 0 0.027920290524748165 0.039293240580069978 0 0.027920290524748165 0.039293240580069978 0 0.028363901048421951 0.040226514061097819 0 0.028740668604629711 0.039687584054954948 0 0.027920290524748165 0.039293240580069978 0 0.028363901048421951 0.040226514061097819 0 0.027929350581712416 0.040464010816269144 0 0.028363901048421951 0.040226514061097819 0 0.027929350581712416 0.040464010816269144 0 0.028405486746001088 0.041430731207267653 0 0.028363901048421951 0.040226514061097819 0 0.028405486746001088 0.041430731207267653 0 0.029018573061820492 0.04079851145069939 0 0.027929350581712416 0.040464010816269144 0 0.027770925126110155 0.041842023088705667 0 0.027615138561005524 0.041136173694394283 0 0.027929350581712416 0.040464010816269144 0 0.027770925126110155 0.041842023088705667 0 0.028405486746001088 0.041430731207267653 0 0.027770925126110155 0.041842023088705667 0 0.028405486746001088 0.041430731207267653 0 0.028201684996743789 0.042465960749481189 0 0.028405486746001088 0.041430731207267653 0 0.028782750153130605 0.042459635097723505 0 0.028201684996743789 0.042465960749481189 0 0.028405486746001088 0.041430731207267653 0 0.028782750153130605 0.042459635097723505 0 0.029087110470906074 0.041720620562951463 0 0.028782750153130605 0.042459635097723505 0 0.028201684996743789 0.042465960749481189 0 0.028427824214193039 0.043591751836032651 0 0.027770925126110155 0.041842023088705667 0 0.028201684996743789 0.042465960749481189 0 0.027414920098440373 0.043209303821305931 0 0.028201684996743789 0.042465960749481189 0 0.027414920098440373 0.043209303821305931 0 0.028427824214193039 0.043591751836032651 0 0.026350682153588351 0.044848770500328733 0 0.026050569907430716 0.044959246605012611 0 0.027414920098440373 0.043209303821305931 0 0.028427824214193039 0.043591751836032651 0 0.026303332605771019 0.044955010159843219 0 0.024329709881035864 0.044999344440106864 0 0.023531208680418903 0.046083472198451214 0 0.026303332605771019 0.044955010159843219 0 0.024329709881035864 0.044999344440106864 0 0.023531208680418903 0.046083472198451214 0 0.021792328037938312 0.04500038576793175 0 0.027651005710898513 0.043894585692775823 0 0.026870636113583098 0.04499927023240332 0 0.028313096086980315 0.042909709980032559 0 0.027651005710898513 0.043894585692775823 0 0.026870636113583098 0.04499927023240332 0 0.02823536821272293 0.044998604979271252 0 0.024329709881035864 0.044999344440106864 0 0.026862329090704701 0.044999437209464879 0 0.026303332605771019 0.044955010159843219 0 0.026862329090704701 0.044999437209464879 0 0.026303332605771019 0.044955010159843219 0 0.026205964616402049 0.043154264152530604 0 0.026863904163300645 0.04499917823040564 0 0.027266847832705436 0.042977109919277591 0 0.027414920098440373 0.043209303821305931 0 0.026303332605771019 0.044955010159843219 0 0.026205964616402049 0.043154264152530604 0 0.027770925126110155 0.041842023088705667 0 0.027414920098440373 0.043209303821305931 0 0.026205964616402049 0.043154264152530604 0 0.027651005710898513 0.043894585692775823 0 0.028313096086980315 0.042909709980032559 0 0.027473428191798061 0.042320336382413969 0 0.027473428191798061 0.042320336382413969 0 0.027615138561005524 0.041136173694394283 0 0.027221823075101053 0.041240874705848425 0 0.028313096086980315 0.042909709980032559 0 0.027473428191798061 0.042320336382413969 0 0.027615138561005524 0.041136173694394283 0 0.027474129486374767 0.040292117527881456 0 0.027615138561005524 0.041136173694394283 0 0.027221823075101053 0.041240874705848425 0 0.027266847832705436 0.042977109919277591 0 0.027560324196840496 0.041410266618820829 0 0.027770925126110155 0.041842023088705667 0 0.026205964616402049 0.043154264152530604 0 0.027615138561005524 0.041136173694394283 0 0.027221823075101053 0.041240874705848425 0 0.02690408288438793 0.042189047000868271 0 0.026372808613593243 0.041293183875849244 0 0.027474129486374767 0.040292117527881456 0 0.027221823075101053 0.041240874705848425 0 0.027071861046933401 0.040278781541479063 0 0.027221823075101053 0.041240874705848425 0 0.026372808613593243 0.041293183875849244 0 0.027071861046933401 0.040278781541479063 0 0.027473428191798061 0.042320336382413969 0 0.027221823075101053 0.041240874705848425 0 0.02690408288438793 0.042189047000868271 0 0.027651005710898513 0.043894585692775823 0 0.027473428191798061 0.042320336382413969 0 0.027234694552885477 0.043472067043620305 0 0.027473428191798061 0.042320336382413969 0 0.02690408288438793 0.042189047000868271 0 0.027234694552885477 0.043472067043620305 0 0.02690408288438793 0.042189047000868271 0 0.026406833148926057 0.042788512342191033 0 0.026372808613593243 0.041293183875849244 0 0.02690408288438793 0.042189047000868271 0 0.026406833148926057 0.042788512342191033 0 0.027234694552885477 0.043472067043620305 0 0.03332178928102307 0.043957176366808362 0 0.02415705204492629 0.043054625732879472 0 0.030461702796430325 0.045622286025558921 0 0.030145542538883012 0.044999975686046856 0 0.028242165298062345 0.045000008380912941 0 0.02504618632125994 0.0432725274613181 0 0.025509007254178317 0.044255091000153221 0 0.027234694552885477 0.043472067043620305 0 0.03332178928102307 0.043957176366808362 0 0.030007197861659504 0.044242030345656755 0 0.030007197861659504 0.044242030345656755 0 0.030145884710555761 0.045000147670250623 0 0.030007197861659504 0.044242030345656755 0 0.028239378169487125 0.044999808281748696 0 0.025509007254178317 0.044255091000153221 0 0.02823536821272293 0.044998604979271252 0 0.027234694552885477 0.043472067043620305 0 0.027651005710898513 0.043894585692775823 0 0.02823536821272293 0.044998604979271252 0 0.027234694552885477 0.043472067043620305 0 0.032979421829947737 0.046308409994536233 0 0.032229301449896129 0.045000009958530304 0 0.03431301230280031 0.044999856466012532 0 0.030007197861659504 0.044242030345656755 0 0.035241237735916413 0.045755495027427234 0 0.030464655033916335 0.045623266036325986 0 0.032979421829947737 0.046308409994536233 0 0.032229301449896129 0.045000009958530304 0 0.030464655033916335 0.045623266036325986 0 0.030145547207658812 0.044999981457836742 0 0.032229301449896129 0.045000009958530304 0 0.033478370918479931 0.045369236554263864 0 0.032592821631912475 0.043643370122590258 0 0.037345500670449894 0.045001290928969852 0 0.046392373360325069 0.045855796375999638 0 0.044936177735959384 0.045784923674444339 0 0.045759061037840297 0.044124136304071179 0 0.03332178928102307 0.043957176366808362 0 0.036581869112618466 0.042918460996433434 0 0.03332178928102307 0.043957176366808362 0 0.043260107741372712 0.046105189753856496 0 0.033478370918479931 0.045369236554263864 0 0.037345500670449894 0.045001290928969852 0 0.037773982527306557 0.045845461637612224 0 0.044936177735959384 0.045784923674444339 0 0.045759061037840297 0.044124136304071179 0 0.044207963037945275 0.044252367295954061 0 0.026372808613593243 0.041293183875849244 0 0.026712767599824883 0.039992200251975321 0 0.027071861046933401 0.040278781541479063 0 0.036581869112618466 0.042918460996433434 0 0.035704883224931913 0.040954160451226851 0 0.045759061037840297 0.044124136304071179 0 0.044851711301818475 0.041967546764003417 0 0.044207963037945275 0.044252367295954061 0 0.026712767599824883 0.039992200251975321 0 0.027210230490157528 0.039535818158360256 0 0.027426480473062058 0.039019419338441379 0 0.026712767599824883 0.039992200251975321 0 0.027426480473062058 0.039019419338441379 0 0.027439063348430118 0.039110794757651925 0 0.026712767599824883 0.039992200251975321 0 0.027210230490157528 0.039535818158360256 0 0.027071861046933401 0.040278781541479063 0 0.027474129486374767 0.040292117527881456 0 0.027071861046933401 0.040278781541479063 0 0.027421745485305841 0.039678311303069064 0 0.027671110906454487 0.039484501241930578 0 0.027474129486374767 0.040292117527881456 0 0.027421745485305841 0.039678311303069064 0 0.027210230490157528 0.039535818158360256 0 0.027421745485305841 0.039678311303069064 0 0.027404340316427227 0.039294280635216679 0 0.027210230490157528 0.039535818158360256 0 0.027071861046933401 0.040278781541479063 0 0.027421745485305841 0.039678311303069064 0 0.027404340316427227 0.039294280635216679 0 0.027566463426498381 0.039032959730317673 0 0.02743852914843951 0.038962251749096358 0 0.027671110906454487 0.039484501241930578 0 0.027421745485305841 0.039678311303069064 0 0.027566463426498381 0.039032959730317673 0 0.027421745485305841 0.039678311303069064 0 0.027404340316427227 0.039294280635216679 0 0.027566463426498381 0.039032959730317673 0 0.027691255018954718 0.038544425556571067 0 0.027755738784155135 0.038775533401776287 0 0.027566463426498381 0.039032959730317673 0 0.027542079588855153 0.038697300991309844 0 0.027691255018954718 0.038544425556571067 0 0.027566463426498381 0.039032959730317673 0 0.027542079588855153 0.038697300991309844 0 0.027566463426498381 0.039032959730317673 0 0.02743852914843951 0.038962251749096358 0 0.027542079588855153 0.038697300991309844 0 0.02743852914843951 0.038962251749096358 0 0.027582430965560074 0.038723197653021998 0 0.02743852914843951 0.038962251749096358 0 0.027582430965560074 0.038723197653021998 0 0.027426480473062058 0.039019419338441379 0 0.028353121385454268 0.038603706099561159 0 0.027582430965560074 0.038723197653021998 0 0.027426480473062058 0.039019419338441379 0 0.027210230490157528 0.039535818158360256 0 0.02743852914843951 0.038962251749096358 0 0.027426480473062058 0.039019419338441379 0 0.027210230490157528 0.039535818158360256 0 0.027404340316427227 0.039294280635216679 0 0.02743852914843951 0.038962251749096358 0 0.042925635852953198 0.039722955510269678 0 0.043849238892512611 0.04012022738279819 0 0.042861028136008186 0.038340389166148875 0 0.042508265006108985 0.039108023171032326 0 0.041990410667314883 0.038272139502476356 0 0.042167746874324501 0.040004973904802232 0 0.042508265006108985 0.039108023171032326 0 0.042925635852953198 0.039722955510269678 0 0.042167746874324501 0.040004973904802232 0 0.035743701374551053 0.039728667214992887 0 0.035226566114071545 0.038363005724954151 0 0.028353121385454268 0.038603706099561159 0 0.027426480473062058 0.039019419338441379 0 0.027439063348430118 0.039110794757651925 0 0.028353121385454268 0.038603706099561159 0 0.027439063348430118 0.039110794757651925 0 0.0282903871628499 0.03866138872111452 0 0.042508265006108985 0.039108023171032326 0 0.042925635852953198 0.039722955510269678 0 0.042861028136008186 0.038340389166148875 0 0.042508265006108985 0.039108023171032326 0 0.042861028136008186 0.038340389166148875 0 0.041990410667314883 0.038272139502476356 0 0.042888070673004701 0.04031607147259126 0 0.04255935575820885 0.040624802510794263 0 0.042640855496512364 0.040819209745594248 0 0.042675377537573438 0.040054543105296443 0 0.042888070673004701 0.04031607147259126 0 0.042606493233010592 0.040385777439747521 0 0.042888070673004701 0.04031607147259126 0 0.042606493233010592 0.040385777439747521 0 0.04255935575820885 0.040624802510794263 0 0.042494334889672039 0.040216602190855683 0 0.042386478262677371 0.040573338389948296 0 0.042257575607036392 0.040393804585860574 0 0.042494334889672039 0.040216602190855683 0 0.042606493233010592 0.040385777439747521 0 0.042386478262677371 0.040573338389948296 0 0.042606493233010592 0.040385777439747521 0 0.04255935575820885 0.040624802510794263 0 0.042386478262677371 0.040573338389948296 0 0.042386478262677371 0.040573338389948296 0 0.042282846325393628 0.040558757602497379 0 0.042257575607036392 0.040393804585860574 0 0.042386478262677371 0.040573338389948296 0 0.042485400494929576 0.040802969734787017 0 0.042358972551662627 0.040808666991693096 0 0.042386478262677371 0.040573338389948296 0 0.042358972551662627 0.040808666991693096 0 0.042282846325393628 0.040558757602497379 0 0.042485400494929576 0.040802969734787017 0 0.042576589376889691 0.041171061248798831 0 0.042358972551662627 0.040808666991693096 0 0.04255935575820885 0.040624802510794263 0 0.042386478262677371 0.040573338389948296 0 0.042485400494929576 0.040802969734787017 0 0.042888070673004701 0.04031607147259126 0 0.042640855496512364 0.040819209745594248 0 0.04281929032813335 0.041030439575197829 0 0.042999272799041324 0.039507800158343098 0 0.042415776373368623 0.040457446349908173 0 0.04255935575820885 0.040624802510794263 0 0.042485400494929576 0.040802969734787017 0 0.042640855496512364 0.040819209745594248 0 0.042485400494929576 0.040802969734787017 0 0.042640855496512364 0.040819209745594248 0 0.042576589376889691 0.041171061248798831 0 0.042640855496512364 0.040819209745594248 0 0.04281929032813335 0.041030439575197829 0 0.042576589376889691 0.041171061248798831 0 0.04281929032813335 0.041030439575197829 0 0.042576589376889691 0.041171061248798831 0 0.042498429488161064 0.041403505501051242 0 0.042415776373368623 0.040457446349908173 0 0.042434801842887261 0.041575109611154612 0 0.04281929032813335 0.041030439575197829 0 0.042498429488161064 0.041403505501051242 0 0.042395677189415969 0.041660124448521386 0 0.042576589376889691 0.041171061248798831 0 0.042498429488161064 0.041403505501051242 0 0.042550368186838571 0.041336887453501836 0 0.042498429488161064 0.041403505501051242 0 0.042550368186838571 0.041336887453501836 0 0.042448418223428437 0.041457530682690973 0 0.042576589376889691 0.041171061248798831 0 0.042739390586146959 0.041323866216906681 0 0.042550368186838571 0.041336887453501836 0 0.042571898654299799 0.041150047671972688 0 0.042659498983926611 0.041046116266106505 0 0.042739390586146959 0.041323866216906681 0 0.042550368186838571 0.041336887453501836 0 0.042448418223428437 0.041457530682690973 0 0.042739390586146959 0.041323866216906681 0 0.042448418223428437 0.041457530682690973 0 0.043063553466811566 0.041028660980586482 0 0.042448418223428437 0.041457530682690973 0 0.041939374693649216 0.042030362503604909 0 0.042384974976304633 0.041832922852059161 0 0.042448418223428437 0.041457530682690973 0 0.042384974976304633 0.041832922852059161 0 0.042852110336765808 0.041346254668718399 0 0.042498429488161064 0.041403505501051242 0 0.042448418223428437 0.041457530682690973 0 0.042395677189415969 0.041660124448521386 0 0.042448418223428437 0.041457530682690973 0 0.042395677189415969 0.041660124448521386 0 0.041939374693649216 0.042030362503604909 0 0.042395677189415969 0.041660124448521386 0 0.043242954275520988 0.041035406742504825 0 0.043268733136884813 0.042686689110309581 0 0.042925635852953198 0.039722955510269678 0 0.042167746874324501 0.040004973904802232 0 0.043242954275520988 0.041035406742504825 0 0.042167746874324501 0.040004973904802232 0 0.042395677189415969 0.041660124448521386 0 0.043242954275520988 0.041035406742504825 0 0.035704883224931913 0.040954160451226851 0 0.035743701374551053 0.039728667214992887 0 0.044851711301818475 0.041967546764003417 0 0.043849238892512611 0.04012022738279819 0 0.043242954275520988 0.041035406742504825 0 0.042925635852953198 0.039722955510269678 0 0.043849238892512611 0.04012022738279819 0 0.043242954275520988 0.041035406742504825 0 0.044851711301818475 0.041967546764003417 0 0.043242954275520988 0.041035406742504825 0 0.043268733136884813 0.042686689110309581 0 0.044851711301818475 0.041967546764003417 0 0.043268733136884813 0.042686689110309581 0 0.044207963037945275 0.044252367295954061 0 0.042395677189415969 0.041660124448521386 0 0.04234997205200302 0.042607958600024358 0 0.043268733136884813 0.042686689110309581 0 0.04234997205200302 0.042607958600024358 0 0.043268733136884813 0.042686689110309581 0 0.04240094298048866 0.043911633056204408 0 0.043268733136884813 0.042686689110309581 0 0.04240094298048866 0.043911633056204408 0 0.043189198875858689 0.044614618193741358 0 0.04240094298048866 0.043911633056204408 0 0.042053809755706197 0.045187854381050684 0 0.041277047567015834 0.044731389270409622 0 0.04240094298048866 0.043911633056204408 0 0.043189198875858689 0.044614618193741358 0 0.042053809755706197 0.045187854381050684 0 0.043189198875858689 0.044614618193741358 0 0.044207963037945275 0.044252367295954061 0 0.043218613699666855 0.046037951306165427 0 0.043268733136884813 0.042686689110309581 0 0.043189198875858689 0.044614618193741358 0 0.044207963037945275 0.044252367295954061 0 0.043260107741372712 0.046105189753856496 0 0.039922547592458259 0.046292625833794988 0 0.044936177735959384 0.045784923674444339 0 0.044207963037945275 0.044252367295954061 0 0.043218613699666855 0.046037951306165427 0 0.037345500670449894 0.045001290928969852 0 0.037773982527306557 0.045845461637612224 0 0.041862270080407729 0.046369036174721302 0 0.035241237735916413 0.045755495027427234 0 0.039922547592458259 0.046292625833794988 0 0.042053809755706197 0.045187854381050684 0 0.042936481780986774 0.046050005127767135 0 0.043218613699666855 0.046037951306165427 0 0.043189198875858689 0.044614618193741358 0 0.042053809755706197 0.045187854381050684 0 0.043218613699666855 0.046037951306165427 0 0.0359739913078349 0.046917894155394248 0 0.036766051976888793 0.045986007622489257 0 0.03777828102368485 0.046267836274196672 0 0.0359739913078349 0.046917894155394248 0 0.035832377589247004 0.045906910584813526 0 0.036766051976888793 0.045986007622489257 0 0.0359739913078349 0.046917894155394248 0 0.035634158953117882 0.04685304025866751 0 0.035832377589247004 0.045906910584813526 0 0.039507965865245798 0.046302998943969477 0 0.039922547592458259 0.046292625833794988 0 0.035832377589247004 0.045906910584813526 0 0.036397636046317045 0.044999544330825113 0 0.03431301230280031 0.044999856466012532 0 0.035832377589247004 0.045906910584813526 0 0.036766051976888793 0.045986007622489257 0 0.036397636046317045 0.044999544330825113 0 0.032979421829947737 0.046308409994536233 0 0.035634158953117882 0.04685304025866751 0 0.03431301230280031 0.044999856466012532 0 0.035634158953117882 0.04685304025866751 0 0.035832377589247004 0.045906910584813526 0 0.03431301230280031 0.044999856466012532 0 0.038481094090278285 0.044999578018326873 0 0.04042642659924954 0.044637643769795017 0 0.036397636046317045 0.044999544330825113 0 0.038479867169134624 0.044999993272861548 0 0.037699481168554351 0.045824309550235733 0 0.038479867169134624 0.044999993272861548 0 0.037699481168554351 0.045824309550235733 0 0.038851100325607693 0.04642118394123454 0 0.036766051976888793 0.045986007622489257 0 0.036397636046317045 0.044999544330825113 0 0.037699481168554351 0.045824309550235733 0 0.042053809755706197 0.045187854381050684 0 0.042936481780986774 0.046050005127767135 0 0.039105574447673049 0.046280165132826678 0 0.039507965865245798 0.046302998943969477 0 0.038925100634159569 0.046290855139590914 0 0.037699481168554351 0.045824309550235733 0 0.03777828102368485 0.046267836274196672 0 0.038851100325607693 0.04642118394123454 0 0.0359739913078349 0.046917894155394248 0 0.03777828102368485 0.046267836274196672 0 0.039105574447673049 0.046280165132826678 0 0.036766051976888793 0.045986007622489257 0 0.037699481168554351 0.045824309550235733 0 0.03777828102368485 0.046267836274196672 0 0.03777828102368485 0.046267836274196672 0 0.039105574447673049 0.046280165132826678 0 0.038851100325607693 0.04642118394123454 0 0.038493277046708851 0.044994650083354015 0 0.042047640034217855 0.043106962008031879 0 0.04167028694910091 0.043312613510819664 0 0.04206321338869428 0.04272362735080279 0 0.042427689871493028 0.042154925736132998 0 0.04167028694910091 0.043312613510819664 0 0.042047640034217855 0.043106962008031879 0 0.04206321338869428 0.04272362735080279 0 0.042165378552766176 0.042328808209415314 0 0.042047640034217855 0.043106962008031879 0 0.041939374693649216 0.042030362503604909 0 0.042165378552766176 0.042328808209415314 0 0.042047640034217855 0.043106962008031879 0 0.04206321338869428 0.04272362735080279 0 0.04167028694910091 0.043312613510819664 0 0.04206321338869428 0.04272362735080279 0 0.042165378552766176 0.042328808209415314 0 0.042427689871493028 0.042154925736132998 0 0.038851100325607693 0.04642118394123454 0 0.041292566234389698 0.043978706413230026 0 0.041939374693649216 0.042030362503604909 0 0.04042642659924954 0.044637643769795017 0 0.041752247635251295 0.04233305391617187 0 0.042053809755706197 0.045187854381050684 0 0.039105574447673049 0.046280165132826678 0 0.041277047567015834 0.044731389270409622 0 0.039105574447673049 0.046280165132826678 0 0.041277047567015834 0.044731389270409622 0 0.041292566234389698 0.043978706413230026 0 0.039105574447673049 0.046280165132826678 0 0.038851100325607693 0.04642118394123454 0 0.041292566234389698 0.043978706413230026 0 0.04240094298048866 0.043911633056204408 0 0.041277047567015834 0.044731389270409622 0 0.041292566234389698 0.043978706413230026 0 0.04234997205200302 0.042607958600024358 0 0.041292566234389698 0.043978706413230026 0 0.041939374693649216 0.042030362503604909 0 0.04234997205200302 0.042607958600024358 0 0.04240094298048866 0.043911633056204408 0 0.041292566234389698 0.043978706413230026 0 0.042395677189415969 0.041660124448521386 0 0.04234997205200302 0.042607958600024358 0 0.041939374693649216 0.042030362503604909 0 0.042165378552766176 0.042328808209415314 0 0.042384974976304633 0.041832922852059161 0 0.042427689871493028 0.042154925736132998 0 0.041939374693649216 0.042030362503604909 0 0.042165378552766176 0.042328808209415314 0 0.042384974976304633 0.041832922852059161 0 0.042384974976304633 0.041832922852059161 0 0.042427689871493028 0.042154925736132998 0 0.042852110336765808 0.041346254668718399 0 0.042427689871493028 0.042154925736132998 0 0.043352983329066314 0.04141778279512754 0 0.04268913515568068 0.042601738698845079 0 0.042427689871493028 0.042154925736132998 0 0.043352983329066314 0.04141778279512754 0 0.042852110336765808 0.041346254668718399 0 0.038493277046708851 0.044994650083354015 0 0.04233107951605887 0.04379316611977524 0 0.044996535810276905 0.044997134791854132 0 0.04268913515568068 0.042601738698845079 0 0.04233107951605887 0.04379316611977524 0 0.043854732588056201 0.042351154430350528 0 0.043352983329066314 0.04141778279512754 0 0.04268913515568068 0.042601738698845079 0 0.043854732588056201 0.042351154430350528 0 0.042427689871493028 0.042154925736132998 0 0.04268913515568068 0.042601738698845079 0 0.04167028694910091 0.043312613510819664 0 0.04268913515568068 0.042601738698845079 0 0.04167028694910091 0.043312613510819664 0 0.04233107951605887 0.04379316611977524 0 0.038493277046708851 0.044994650083354015 0 0.04167028694910091 0.043312613510819664 0 0.04233107951605887 0.04379316611977524 0 0.044996535810276905 0.044997134791854132 0 0.04499688877824861 0.041307012690974143 0 0.043854732588056201 0.042351154430350528 0 0.04233107951605887 0.04379316611977524 0 0.044996535810276905 0.044997134791854132 0 0.043854732588056201 0.042351154430350528 0 0.043352983329066314 0.04141778279512754 0 0.043854732588056201 0.042351154430350528 0 0.044502016501576813 0.040385993645975324 0 0.04499688877824861 0.041307012690974143 0 0.043854732588056201 0.042351154430350528 0 0.044502016501576813 0.040385993645975324 0 0.044562155337364483 0.039521354447142013 0 0.044502016501576813 0.040385993645975324 0 0.044997932642809095 0.036192596340756167 0 0.04499688877824861 0.041307012690974143 0 0.044502016501576813 0.040385993645975324 0 0.044997932642809095 0.036192596340756167 0 0.044694829930659229 0.038899257307574472 0 0.044562155337364483 0.039521354447142013 0 0.044997932642809095 0.036192596340756167 0 0.044694829930659229 0.038899257307574472 0 0.044562155337364483 0.039521354447142013 0 0.04409940340812777 0.039955582561583339 0 0.044694829930659229 0.038899257307574472 0 0.04409940340812777 0.039955582561583339 0 0.044649616989479203 0.039324039918356868 0 0.044069089498697679 0.038658153841894846 0 0.043815954524303771 0.038149272798049583 0 0.044562155337364483 0.039521354447142013 0 0.043919419462624988 0.04045843638917055 0 0.04409940340812777 0.039955582561583339 0 0.044562155337364483 0.039521354447142013 0 0.044502016501576813 0.040385993645975324 0 0.043919419462624988 0.04045843638917055 0 0.043352983329066314 0.04141778279512754 0 0.044502016501576813 0.040385993645975324 0 0.043919419462624988 0.04045843638917055 0 0.043352983329066314 0.04141778279512754 0 0.043378207781026273 0.040924479038513213 0 0.043919419462624988 0.04045843638917055 0 0.043378207781026273 0.040924479038513213 0 0.043919419462624988 0.04045843638917055 0 0.043624203264379928 0.040569979292191576 0 0.043352983329066314 0.04141778279512754 0 0.043378207781026273 0.040924479038513213 0 0.042852110336765808 0.041346254668718399 0 0.042448418223428437 0.041457530682690973 0 0.042852110336765808 0.041346254668718399 0 0.043063553466811566 0.041028660980586482 0 0.043378207781026273 0.040924479038513213 0 0.042852110336765808 0.041346254668718399 0 0.043063553466811566 0.041028660980586482 0 0.042739390586146959 0.041323866216906681 0 0.043063553466811566 0.041028660980586482 0 0.043632765614601006 0.04074247443229561 0 0.043378207781026273 0.040924479038513213 0 0.043063553466811566 0.041028660980586482 0 0.043624203264379928 0.040569979292191576 0 0.04409940340812777 0.039955582561583339 0 0.043632765614601006 0.04074247443229561 0 0.044649616989479203 0.039324039918356868 0 0.043919419462624988 0.04045843638917055 0 0.043624203264379928 0.040569979292191576 0 0.04409940340812777 0.039955582561583339 0 0.043063553466811566 0.041028660980586482 0 0.043624203264379928 0.040569979292191576 0 0.043632765614601006 0.04074247443229561 0 0.043624203264379928 0.040569979292191576 0 0.04409940340812777 0.039955582561583339 0 0.043632765614601006 0.04074247443229561 0 0.040555732526539774 0.040400101673710553 0 0.041470520091545955 0.040400220949271926 0 0.042072818511361069 0.040871083786436349 0 0.041470520091545955 0.040400220949271926 0 0.042072818511361069 0.040871083786436349 0 0.042169179833484567 0.0404961316517191 0 0.040555732526539774 0.040400101673710553 0 0.041470520091545955 0.040400220949271926 0 0.041239084916444131 0.038803827936288324 0 0.041470520091545955 0.040400220949271926 0 0.042169179833484567 0.0404961316517191 0 0.041239084916444131 0.038803827936288324 0 0.040555732526539774 0.040400101673710553 0 0.041239084916444131 0.038803827936288324 0 0.040117296588040433 0.038444517358730709 0 0.042358972551662627 0.040808666991693096 0 0.042169179833484567 0.0404961316517191 0 0.042282846325393628 0.040558757602497379 0 0.042358972551662627 0.040808666991693096 0 0.042072818511361069 0.040871083786436349 0 0.042169179833484567 0.0404961316517191 0 0.042659498983926611 0.041046116266106505 0 0.042306149011819873 0.04088393586755603 0 0.042169179833484567 0.0404961316517191 0 0.042282846325393628 0.040558757602497379 0 0.042257575607036392 0.040393804585860574 0 0.042169179833484567 0.0404961316517191 0 0.045407912803366236 0.037202754477097588 0 0.041239084916444131 0.038803827936288324 0 0.042162961687294782 0.040448482813518115 0 0.044132872161092213 0.038768438293058302 0 0.039875074688454033 0.035740164251337449 0 0.041813743296712828 0.036685345248585521 0 0.040117296588040433 0.038444517358730709 0 0.045407912803366236 0.037202754477097588 0 0.041239084916444131 0.038803827936288324 0 0.041813743296712828 0.036685345248585521 0 0.041239084916444131 0.038803827936288324 0 0.041813743296712828 0.036685345248585521 0 0.040117296588040433 0.038444517358730709 0 0.039875074688454033 0.035740164251337449 0 0.038458455833557878 0.037720035242364787 0 0.040117296588040433 0.038444517358730709 0 0.04499997471690953 0.033629569333601061 0 0.046599910593170826 0.034439808038692135 0 0.044999953908573885 0.036184660879638501 0 0.045001655014405499 0.036185234201904441 0 0.043815954524303771 0.038149272798049583 0 0.046599910593170826 0.034439808038692135 0 0.044999953908573885 0.036184660879638501 0 0.046753635875594696 0.036315672947626616 0 0.044694829930659229 0.038899257307574472 0 0.044997932642809095 0.036192596340756167 0 0.044767743474319985 0.038492508647662502 0 0.040555732526539774 0.040400101673710553 0 0.042072818511361069 0.040871083786436349 0 0.038930116305105157 0.040973570187887269 0 0.038458455833557878 0.037720035242364787 0 0.040117296588040433 0.038444517358730709 0 0.038930116305105157 0.040973570187887269 0 0.040555732526539774 0.040400101673710553 0 0.040117296588040433 0.038444517358730709 0 0.038930116305105157 0.040973570187887269 0 0.042306149011819873 0.04088393586755603 0 0.043815954524303771 0.038149272798049583 0 0.042487251154695704 0.036143747491180142 0 0.043815954524303771 0.038149272798049583 0 0.013169740402770214 0.043905585109037568 0 0.013570929299550786 0.043522415672090968 0 0.014063907864580404 0.043744477156027389 0 0.013169740402770214 0.043905585109037568 0 0.013570929299550786 0.043522415672090968 0 0.012851833259830168 0.043645761329058126 0 0.013169740402770214 0.043905585109037568 0 0.012851833259830168 0.043645761329058126 0 0.012293436662206954 0.044245269919721622 0 0.0069642380585922519 0.042103833757952416 0 0.0071937063628331466 0.041704626700395146 0 0.0067121875775406686 0.041660109708610699 0 0.00932214906429462 0.043088299913314775 0 0.011563499671869303 0.042992516586737847 0 0.013169740402770214 0.043905585109037568 0 0.012293436662206954 0.044245269919721622 0 0.013269120683221043 0.04433558698408159 0 0.008613703261169104 0.041654899295477471 0 0.011563499671869303 0.042992516586737847 0 0.013169740402770214 0.043905585109037568 0 0.014063907864580404 0.043744477156027389 0 0.013269120683221043 0.04433558698408159 0 0.014063907864580404 0.043744477156027389 0 0.014767461252942172 0.043301451815181684 0 0.015146590445406638 0.043679629972639217 0 0.014063907864580404 0.043744477156027389 0 0.014767461252942172 0.043301451815181684 0 0.014134700831925473 0.043434292659712895 0 0.014767461252942172 0.043301451815181684 0 0.015146590445406638 0.043679629972639217 0 0.015857220066010709 0.043153237961248689 0 0.014767461252942172 0.043301451815181684 0 0.014793368526996949 0.042628434607942252 0 0.015567969457113447 0.042580392579173669 0 0.014767461252942172 0.043301451815181684 0 0.014115753284175622 0.043113474325467957 0 0.014793368526996949 0.042628434607942252 0 0.013570929299550786 0.043522415672090968 0 0.014063907864580404 0.043744477156027389 0 0.014134700831925473 0.043434292659712895 0 0.014767461252942172 0.043301451815181684 0 0.014134700831925473 0.043434292659712895 0 0.014115753284175622 0.043113474325467957 0 0.013570929299550786 0.043522415672090968 0 0.014134700831925473 0.043434292659712895 0 0.014115753284175622 0.043113474325467957 0 0.014115753284175622 0.043113474325467957 0 0.014048393326674269 0.042792741153030882 0 0.013395406784303935 0.043167191425508414 0 0.013570929299550786 0.043522415672090968 0 0.014115753284175622 0.043113474325467957 0 0.013395406784303935 0.043167191425508414 0 0.014115753284175622 0.043113474325467957 0 0.014793368526996949 0.042628434607942252 0 0.014048393326674269 0.042792741153030882 0 0.014048393326674269 0.042792741153030882 0 0.01460772133006287 0.042428430721153335 0 0.013820111961916629 0.042756416946391061 0 0.014793368526996949 0.042628434607942252 0 0.014048393326674269 0.042792741153030882 0 0.01460772133006287 0.042428430721153335 0 0.014048393326674269 0.042792741153030882 0 0.013395406784303935 0.043167191425508414 0 0.013282799027506922 0.042902567068811299 0 0.014048393326674269 0.042792741153030882 0 0.013282799027506922 0.042902567068811299 0 0.013820111961916629 0.042756416946391061 0 0.013395406784303935 0.043167191425508414 0 0.012674791048108848 0.043218909512734029 0 0.013282799027506922 0.042902567068811299 0 0.013570929299550786 0.043522415672090968 0 0.013395406784303935 0.043167191425508414 0 0.012851833259830168 0.043645761329058126 0 0.013395406784303935 0.043167191425508414 0 0.012851833259830168 0.043645761329058126 0 0.012674791048108848 0.043218909512734029 0 0.012851833259830168 0.043645761329058126 0 0.012028308153966036 0.043762880857350334 0 0.012293436662206954 0.044245269919721622 0 0.012851833259830168 0.043645761329058126 0 0.012674791048108848 0.043218909512734029 0 0.012028308153966036 0.043762880857350334 0 0.012674791048108848 0.043218909512734029 0 0.011524376625490563 0.043400020803095359 0 0.012028308153966036 0.043762880857350334 0 0.011524376625490563 0.043400020803095359 0 0.010713523653378219 0.044480181396725202 0 0.012028308153966036 0.043762880857350334 0 0.011524376625490563 0.043400020803095359 0 0.010713523653378219 0.044480181396725202 0 0.0081094323737610653 0.043997500588319777 0 0.0089482556874585333 0.043682186612193287 0 0.0078700861788737857 0.043910616579116261 0 0.010713523653378219 0.044480181396725202 0 0.0077491116221865951 0.044103067273349041 0 0.0081094323737610653 0.043997500588319777 0 0.0072812640185217613 0.042878313874695893 0 0.0079949950102978819 0.042834858293991133 0 0.0078938338600824994 0.042457879372633726 0 0.010713523653378219 0.044480181396725202 0 0.012028308153966036 0.043762880857350334 0 0.012293436662206954 0.044245269919721622 0 0.0091626044405701806 0.043816501327205305 0 0.0092037639817507226 0.042557954339079579 0 0.0099254350412161935 0.043977662111529162 0 0.0091626044405701806 0.043816501327205305 0 0.0086605139177672145 0.044305954720102049 0 0.0099254350412161935 0.043977662111529162 0 0.0086605139177672145 0.044305954720102049 0 0.0085709864003256017 0.045011413346655274 0 0.0099254350412161935 0.043977662111529162 0 0.0086605139177672145 0.044305954720102049 0 0.008503202701370019 0.043812528455423681 0 0.008114020261521443 0.044011480373517077 0 0.0091626044405701806 0.043816501327205305 0 0.0086605139177672145 0.044305954720102049 0 0.008503202701370019 0.043812528455423681 0 0.0091626044405701806 0.043816501327205305 0 0.0087901282693223746 0.043389285911161937 0 0.008503202701370019 0.043812528455423681 0 0.0087901282693223746 0.043389285911161937 0 0.008503202701370019 0.043812528455423681 0 0.0080049088251984059 0.0435057783482838 0 0.0072812640185217613 0.042878313874695893 0 0.0080049088251984059 0.0435057783482838 0 0.0077491116221865951 0.044103067273349041 0 0.008503202701370019 0.043812528455423681 0 0.0080049088251984059 0.0435057783482838 0 0.008114020261521443 0.044011480373517077 0 0.0086605139177672145 0.044305954720102049 0 0.008114020261521443 0.044011480373517077 0 0.0080739865495225924 0.044622798686727853 0 0.0080049088251984059 0.0435057783482838 0 0.008114020261521443 0.044011480373517077 0 0.0077491116221865951 0.044103067273349041 0 0.008114020261521443 0.044011480373517077 0 0.0077491116221865951 0.044103067273349041 0 0.0080739865495225924 0.044622798686727853 0 0.0077491116221865951 0.044103067273349041 0 0.0081094323737610653 0.043997500588319777 0 0.007678966538522224 0.044862756966127182 0 0.0072812640185217613 0.042878313874695893 0 0.0080049088251984059 0.0435057783482838 0 0.0079949950102978819 0.042834858293991133 0 0.0079949950102978819 0.042834858293991133 0 0.0082461199394615482 0.042715368741674989 0 0.008300918905535179 0.042928280973935966 0 0.0079949950102978819 0.042834858293991133 0 0.0082005592482633869 0.042509328666026289 0 0.0078938338600824994 0.042457879372633726 0 0.0079949950102978819 0.042834858293991133 0 0.0082461199394615482 0.042715368741674989 0 0.0082005592482633869 0.042509328666026289 0 0.0080049088251984059 0.0435057783482838 0 0.0079949950102978819 0.042834858293991133 0 0.008300918905535179 0.042928280973935966 0 -0.0048610967464385486 0.035340209426427023 0 -0.0044890542638747642 0.036320923051568747 0 -0.0066037147997312171 0.036441457819443752 0 0.010117741303719599 0.042896734834353266 0 0.0020417311555106137 0.041487993746459478 0 0.0087901282693223746 0.043389285911161937 0 0.0080049088251984059 0.0435057783482838 0 0.0092037639817507226 0.042557954339079579 0 0.0080049088251984059 0.0435057783482838 0 0.008300918905535179 0.042928280973935966 0 0.0088155067962405742 0.042800791533533548 0 0.0091626044405701806 0.043816501327205305 0 0.0087901282693223746 0.043389285911161937 0 0.0092037639817507226 0.042557954339079579 0 0.008300918905535179 0.042928280973935966 0 0.0084956795245412359 0.042585077424193686 0 0.0088155067962405742 0.042800791533533548 0 0.0082461199394615482 0.042715368741674989 0 0.0084956795245412359 0.042585077424193686 0 0.0082005592482633869 0.042509328666026289 0 0.0082461199394615482 0.042715368741674989 0 0.008300918905535179 0.042928280973935966 0 0.0084956795245412359 0.042585077424193686 0 0.0023653559686263913 0.038096509182149886 0 -0.00097900465375415748 0.038424797280951578 0 0.0084956795245412359 0.042585077424193686 0 0.0088155067962405742 0.042800791533533548 0 0.0086533601490347573 0.042444350463212079 0 0.0020417311555106137 0.041487993746459478 0 -0.00097900465375415748 0.038424797280951578 0 -0.00097900465375415748 0.038424797280951578 0 -0.0011775788136851417 0.037268170110968543 0 0.0086245274941016137 0.042432854634369119 0 0.0082888893318945403 0.042209838743760275 0 0.008057856822773473 0.041779821891619523 0 -0.0096545007633608779 0.034814576142461466 0 -0.01059315085934198 0.032490830802915059 0 -0.009312317602333019 0.03310945244177519 0 0.0084956795245412359 0.042585077424193686 0 0.0086245274941016137 0.042432854634369119 0 0.0082888893318945403 0.042209838743760275 0 0.0084956795245412359 0.042585077424193686 0 0.0082888893318945403 0.042209838743760275 0 0.0082005592482633869 0.042509328666026289 0 0.0082888893318945403 0.042209838743760275 0 0.0081695552787564556 0.041962354038677561 0 0.008057856822773473 0.041779821891619523 0 0.0081695552787564556 0.041962354038677561 0 0.008144265395223893 0.042221220147314095 0 0.0080579717160094988 0.042106172637777203 0 0.0082888893318945403 0.042209838743760275 0 0.0081695552787564556 0.041962354038677561 0 0.008144265395223893 0.042221220147314095 0 0.0082888893318945403 0.042209838743760275 0 0.008144265395223893 0.042221220147314095 0 0.0082005592482633869 0.042509328666026289 0 0.008144265395223893 0.042221220147314095 0 0.0082005592482633869 0.042509328666026289 0 0.0078938338600824994 0.042457879372633726 0 0.008144265395223893 0.042221220147314095 0 0.0078938338600824994 0.042457879372633726 0 0.0080579717160094988 0.042106172637777203 0 0.0080579717160094988 0.042106172637777203 0 0.0082805386008064502 0.041752102022343023 0 0.0077198075653576179 0.042245099155043923 0 0.0078938338600824994 0.042457879372633726 0 0.0080579717160094988 0.042106172637777203 0 0.0077198075653576179 0.042245099155043923 0 0.0082805386008064502 0.041752102022343023 0 0.008057856822773473 0.041779821891619523 0 0.0083586034237121062 0.043054311878419245 0 0.0081695552787564556 0.041962354038677561 0 0.0082805386008064502 0.041752102022343023 0 0.008057856822773473 0.041779821891619523 0 0.0081695552787564556 0.041962354038677561 0 0.0080579717160094988 0.042106172637777203 0 0.0082805386008064502 0.041752102022343023 0 -0.01059315085934198 0.032490830802915059 0 -0.0096111027722775647 0.032193508592721694 0 -0.0098306508888399494 0.031069131913081135 0 -0.0096111027722775647 0.032193508592721694 0 -0.0098306508888399494 0.031069131913081135 0 -0.0087086761582104433 0.032102754734605617 0 -0.01059315085934198 0.032490830802915059 0 -0.0096111027722775647 0.032193508592721694 0 -0.009312317602333019 0.03310945244177519 0 -0.0096111027722775647 0.032193508592721694 0 -0.009312317602333019 0.03310945244177519 0 -0.0087086761582104433 0.032102754734605617 0 0.0072812640185217613 0.042878313874695893 0 0.0069642380585922519 0.042103833757952416 0 0.0073344645812960536 0.042091937972554047 0 0.0089482556874585333 0.043682186612193287 0 0.00932214906429462 0.043088299913314775 0 0.0072812640185217613 0.042878313874695893 0 0.0078938338600824994 0.042457879372633726 0 0.0077198075653576179 0.042245099155043923 0 0.0072812640185217613 0.042878313874695893 0 0.0077198075653576179 0.042245099155043923 0 0.0073344645812960536 0.042091937972554047 0 0.0082805386008064502 0.041752102022343023 0 0.0077198075653576179 0.042245099155043923 0 0.0073344645812960536 0.042091937972554047 0 0.0085168899449472226 0.041798670753265446 0 0.008613703261169104 0.041654899295477471 0 0.0082805386008064502 0.041752102022343023 0 0.010777716507210782 0.041874471059378443 0 0.009334955546790355 0.042535132381375171 0 0.0082805386008064502 0.041752102022343023 0 0.0073344645812960536 0.042091937972554047 0 0.0071937063628331466 0.041704626700395146 0 0.0069642380585922519 0.042103833757952416 0 0.0073344645812960536 0.042091937972554047 0 0.0071937063628331466 0.041704626700395146 0 0.010777716507210782 0.041874471059378443 0 0.011876014042334447 0.043192882964557908 0 0.010063942293315182 0.043468564736646335 0 0.010777716507210782 0.041874471059378443 0 0.009334955546790355 0.042535132381375171 0 0.010063942293315182 0.043468564736646335 0 0.009334955546790355 0.042535132381375171 0 0.010063942293315182 0.043468564736646335 0 0.0083586034237121062 0.043054311878419245 0 0.010063942293315182 0.043468564736646335 0 0.0083586034237121062 0.043054311878419245 0 0.0091290878250768846 0.044787948349600593 0 0.010063942293315182 0.043468564736646335 0 0.010376826815006028 0.044569660690555873 0 0.0091290878250768846 0.044787948349600593 0 0.011876014042334447 0.043192882964557908 0 0.010063942293315182 0.043468564736646335 0 0.011512760530657399 0.044167079818538499 0 0.010376826815006028 0.044569660690555873 0 0.011512760530657399 0.044167079818538499 0 0.011239512001464114 0.044811358285777127 0 0.011512760530657399 0.044167079818538499 0 0.011239512001464114 0.044811358285777127 0 0.012094428533498465 0.04511463373249066 0 0.010063942293315182 0.043468564736646335 0 0.010376826815006028 0.044569660690555873 0 0.011512760530657399 0.044167079818538499 0 -0.01059315085934198 0.032490830802915059 0 -0.0098306508888399494 0.031069131913081135 0 -0.011472177218177093 0.030145178795395817 0 -0.0098306508888399494 0.031069131913081135 0 -0.010512797675551737 0.02904358057706893 0 -0.0084452707117291838 0.030193470456858832 0 -0.0098306508888399494 0.031069131913081135 0 -0.011472177218177093 0.030145178795395817 0 -0.010512797675551737 0.02904358057706893 0 0.0082805386008064502 0.041752102022343023 0 0.009334955546790355 0.042535132381375171 0 0.0083586034237121062 0.043054311878419245 0 -0.0011775788136851417 0.037268170110968543 0 -0.0015819361294221606 0.036436500667695569 0 -0.011472177218177093 0.030145178795395817 0 -0.010512797675551737 0.02904358057706893 0 -0.01212747217000658 0.027950521563247566 0 -0.010512797675551737 0.02904358057706893 0 -0.011067452204763972 0.027501049770649176 0 -0.01212747217000658 0.027950521563247566 0 -0.0015819361294221606 0.036436500667695569 0 -0.0013830594760108118 0.037165230516486333 0 -0.010512797675551737 0.02904358057706893 0 -0.0097400411211563225 0.027647459101472795 0 -0.0084452707117291838 0.030193470456858832 0 -0.010512797675551737 0.02904358057706893 0 -0.0097400411211563225 0.027647459101472795 0 -0.011067452204763972 0.027501049770649176 0 -0.0097400411211563225 0.027647459101472795 0 -0.011067452204763972 0.027501049770649176 0 -0.011199709419630192 0.026743645267738841 0 -0.011067452204763972 0.027501049770649176 0 -0.011711994012015505 0.026652240143758565 0 -0.011199709419630192 0.026743645267738841 0 -0.011067452204763972 0.027501049770649176 0 -0.01212747217000658 0.027950521563247566 0 -0.011711994012015505 0.026652240143758565 0 -0.01145233668558389 0.026331237222781322 0 -0.011601119150063533 0.026337649474848727 0 -0.011506627384261605 0.026217575486131305 0 -0.01145233668558389 0.026331237222781322 0 -0.011601119150063533 0.026337649474848727 0 -0.011605013689702169 0.026304163422007757 0 -0.011711994012015505 0.026652240143758565 0 -0.011601119150063533 0.026337649474848727 0 -0.011506627384261605 0.026217575486131305 0 -0.01145233668558389 0.026331237222781322 0 -0.011506627384261605 0.026217575486131305 0 -0.011525170641059283 0.025944543033784236 0 -0.011506627384261605 0.026217575486131305 0 -0.011199709419630192 0.026743645267738841 0 -0.011525170641059283 0.025944543033784236 0 -0.011711994012015505 0.026652240143758565 0 -0.011506627384261605 0.026217575486131305 0 -0.011199709419630192 0.026743645267738841 0 -0.013397131090671279 0.023432196807944772 0 -0.011525170641059283 0.025944543033784236 0 -0.01305651041082294 0.025760850954136747 0 -0.0097400411211563225 0.027647459101472795 0 -0.011199709419630192 0.026743645267738841 0 -0.011525170641059283 0.025944543033784236 0 -0.011520895403659996 0.025780083477938115 0 -0.011496544783711513 0.025930154158217537 0 0.011030004770053142 0.045443400084078371 0 0.010740386041736426 0.046055836514545465 0 0.011492841347935972 0.045958433682800184 0 0.011030004770053142 0.045443400084078371 0 0.010206683734024693 0.04547958571000605 0 0.010740386041736426 0.046055836514545465 0 0.011030004770053142 0.045443400084078371 0 0.011492841347935972 0.045958433682800184 0 0.012094428533498465 0.04511463373249066 0 0.011030004770053142 0.045443400084078371 0 0.011239512001464114 0.044811358285777127 0 0.012094428533498465 0.04511463373249066 0 0.010376826815006028 0.044569660690555873 0 0.011030004770053142 0.045443400084078371 0 0.011239512001464114 0.044811358285777127 0 -0.01212747217000658 0.027950521563247566 0 -0.011711994012015505 0.026652240143758565 0 -0.012521018073704451 0.026177060123161823 0 0.010376826815006028 0.044569660690555873 0 0.011030004770053142 0.045443400084078371 0 0.010206683734024693 0.04547958571000605 0 0.010376826815006028 0.044569660690555873 0 0.0091290878250768846 0.044787948349600593 0 0.010206683734024693 0.04547958571000605 0 0.0091290878250768846 0.044787948349600593 0 0.010206683734024693 0.04547958571000605 0 0.0098764505280114611 0.046487998242853427 0 -0.0013830594760108118 0.037165230516486333 0 -0.00054090883395926123 0.03207212559752063 0 0.010206683734024693 0.04547958571000605 0 0.0098764505280114611 0.046487998242853427 0 0.010740386041736426 0.046055836514545465 0 0.0098764505280114611 0.046487998242853427 0 0.010683592769460959 0.046932682728354144 0 0.010740386041736426 0.046055836514545465 0 -0.011711994012015505 0.026652240143758565 0 -0.011601119150063533 0.026337649474848727 0 -0.011628489230159194 0.026343730082895363 0 -0.014348967225753366 0.025010563739161308 0 -0.00054090883395926123 0.03207212559752063 0 -0.011601119150063533 0.026337649474848727 0 -0.011628489230159194 0.026343730082895363 0 -0.011605013689702169 0.026304163422007757 0 0.0030216355626525673 0.027845296522768608 0 0.0047101317365594864 0.032124731871448861 0 0.0086707895049382387 0.030914746377597585 0 -0.00054090883395926123 0.03207212559752063 0 0.012368270082445213 0.032264974530436974 0 -0.00054090883395926123 0.03207212559752063 0 0.0020685680974201139 0.026360599058323074 0 0.0020685680974201139 0.026360599058323074 0 0.012368270082445213 0.032264974530436974 0 0.010683592769460959 0.046932682728354144 0 0.011492841347935972 0.045958433682800184 0 0.012893542243326749 0.04630027893112159 0 0.012368270082445213 0.032264974530436974 0 0.015702342103116027 0.03917816240967207 0 0.018034862315255841 0.032014884020003208 0 0.016352773661049858 0.031188666078744112 0 0.018484015507137637 0.030574575896085334 0 0.010683592769460959 0.046932682728354144 0 0.010740386041736426 0.046055836514545465 0 0.011492841347935972 0.045958433682800184 0 0.018034862315255841 0.032014884020003208 0 0.018484015507137637 0.030574575896085334 0 0.019509254065367916 0.03135318488598033 0 0.020652993582085506 0.031474407127180637 0 0.019509254065367916 0.03135318488598033 0 0.02054587572705014 0.030171552095655751 0 0.015702342103116027 0.03917816240967207 0 0.017636547230953765 0.037803870197786298 0 0.018484015507137637 0.030574575896085334 0 0.019509254065367916 0.03135318488598033 0 0.02054587572705014 0.030171552095655751 0 0.01343125265474155 0.044965779395016142 0 0.014340404846865662 0.044572197331256481 0 0.01476677577495312 0.045557534909199303 0 0.012893542243326749 0.04630027893112159 0 0.01343125265474155 0.044965779395016142 0 0.01476677577495312 0.045557534909199303 0 0.012893542243326749 0.04630027893112159 0 0.01343125265474155 0.044965779395016142 0 0.012094428533498465 0.04511463373249066 0 0.011492841347935972 0.045958433682800184 0 0.012893542243326749 0.04630027893112159 0 0.012094428533498465 0.04511463373249066 0 0.01343125265474155 0.044965779395016142 0 0.012094428533498465 0.04511463373249066 0 0.012616486770508875 0.044415018645743709 0 0.011512760530657399 0.044167079818538499 0 0.012094428533498465 0.04511463373249066 0 0.012616486770508875 0.044415018645743709 0 0.011512760530657399 0.044167079818538499 0 0.012616486770508875 0.044415018645743709 0 0.012449529400606306 0.043797632013185706 0 0.011876014042334447 0.043192882964557908 0 0.011512760530657399 0.044167079818538499 0 0.012449529400606306 0.043797632013185706 0 0.012449529400606306 0.043797632013185706 0 0.013516227882666251 0.044031620803720722 0 0.013009291909508747 0.043418713812658952 0 0.012616486770508875 0.044415018645743709 0 0.012449529400606306 0.043797632013185706 0 0.013516227882666251 0.044031620803720722 0 0.01343125265474155 0.044965779395016142 0 0.012616486770508875 0.044415018645743709 0 0.013516227882666251 0.044031620803720722 0 0.01343125265474155 0.044965779395016142 0 0.014340404846865662 0.044572197331256481 0 0.013516227882666251 0.044031620803720722 0 0.014340404846865662 0.044572197331256481 0 0.014377854513816372 0.043980848453293281 0 0.013516227882666251 0.044031620803720722 0 0.014377854513816372 0.043980848453293281 0 0.013836948818144682 0.043412649400943665 0 0.014678460940008131 0.043895198215877888 0 0.013836948818144682 0.043412649400943665 0 0.013313996940611465 0.042554481488680199 0 0.013009291909508747 0.043418713812658952 0 0.013836948818144682 0.043412649400943665 0 0.013571147608359761 0.042961511245193339 0 0.014678460940008131 0.043895198215877888 0 0.014063907864580404 0.043744477156027389 0 0.013269120683221043 0.04433558698408159 0 0.014678460940008131 0.043895198215877888 0 0.011563499671869303 0.042992516586737847 0 0.015291507754463004 0.04408982353534114 0 0.013516227882666251 0.044031620803720722 0 0.013836948818144682 0.043412649400943665 0 0.013009291909508747 0.043418713812658952 0 0.014377854513816372 0.043980848453293281 0 0.013516227882666251 0.044031620803720722 0 0.013836948818144682 0.043412649400943665 0 0.013183709376254306 0.043678171470808373 0 0.011563499671869303 0.042992516586737847 0 0.011876014042334447 0.043192882964557908 0 0.013313996940611465 0.042554481488680199 0 0.013009291909508747 0.043418713812658952 0 0.010777716507210782 0.041874471059378443 0 0.011876014042334447 0.043192882964557908 0 0.013313996940611465 0.042554481488680199 0 0.011876014042334447 0.043192882964557908 0 0.012449529400606306 0.043797632013185706 0 0.013009291909508747 0.043418713812658952 0 0.015146590445406638 0.043679629972639217 0 0.015259892888075154 0.044314515794761734 0 0.016219858895585654 0.044068690590745092 0 0.014063907864580404 0.043744477156027389 0 0.015146590445406638 0.043679629972639217 0 0.014678460940008131 0.043895198215877888 0 0.015146590445406638 0.043679629972639217 0 0.014678460940008131 0.043895198215877888 0 0.015259892888075154 0.044314515794761734 0 0.014340404846865662 0.044572197331256481 0 0.014377854513816372 0.043980848453293281 0 0.015259892888075154 0.044314515794761734 0 0.014377854513816372 0.043980848453293281 0 0.014678460940008131 0.043895198215877888 0 0.015259892888075154 0.044314515794761734 0 0.015259892888075154 0.044314515794761734 0 0.016211011684551805 0.044981959180407767 0 0.016219858895585654 0.044068690590745092 0 0.022077107207294725 0.030154003301614111 0 0.02054587572705014 0.030171552095655751 0 0.022175626485919211 0.030909774855839883 0 0.015259892888075154 0.044314515794761734 0 0.016211011684551805 0.044981959180407767 0 0.01476677577495312 0.045557534909199303 0 0.014340404846865662 0.044572197331256481 0 0.015259892888075154 0.044314515794761734 0 0.01476677577495312 0.045557534909199303 0 0.019125324813910046 0.037596297421842735 0 0.017636547230953765 0.037803870197786298 0 0.020652993582085506 0.031474407127180637 0 0.02054587572705014 0.030171552095655751 0 0.022175626485919211 0.030909774855839883 0 0.022077107207294725 0.030154003301614111 0 0.022175626485919211 0.030909774855839883 0 0.023600348392023789 0.030954945312230468 0 0.023398001425120961 0.031402126008846801 0 0.022175626485919211 0.030909774855839883 0 0.023600348392023789 0.030954945312230468 0 0.019125324813910046 0.037596297421842735 0 0.020112557340775536 0.03739861154026277 0 0.022077107207294725 0.030154003301614111 0 0.023600348392023789 0.030954945312230468 0 0.02324932647376423 0.03020180367262796 0 0.023600348392023789 0.030954945312230468 0 0.02412876504489956 0.030778464856572249 0 0.02324932647376423 0.03020180367262796 0 0.02412876504489956 0.030778464856572249 0 0.024238920186224613 0.029997325360506942 0 0.02324932647376423 0.03020180367262796 0 0.024477833942254834 0.0315714238543367 0 0.023600348392023789 0.030954945312230468 0 0.02412876504489956 0.030778464856572249 0 0.025700602073992929 0.032899908876381286 0 0.026050460078746888 0.032160357618715475 0 0.027118502738166347 0.033615639782159139 0 0.025899255268112015 0.035183282283811491 0 0.02689506578882743 0.035671595575090947 0 0.025899255268112015 0.035183282283811491 0 0.02614271244244883 0.036066589955453726 0 0.026089145717106459 0.036146094297946664 0 0.025899255268112015 0.035183282283811491 0 0.02614271244244883 0.036066589955453726 0 0.026390601798437923 0.036064053907984561 0 0.02614271244244883 0.036066589955453726 0 0.026390601798437923 0.036064053907984561 0 0.0263105466341171 0.036403404080142948 0 0.02614271244244883 0.036066589955453726 0 0.0263105466341171 0.036403404080142948 0 0.026325364351642757 0.036541342319720352 0 0.02689506578882743 0.035671595575090947 0 0.026390601798437923 0.036064053907984561 0 0.026526091713386983 0.036550235866953926 0 0.026050460078746888 0.032160357618715475 0 0.021910469580663845 0.037939577017000625 0 0.025899255268112015 0.035183282283811491 0 0.02689506578882743 0.035671595575090947 0 0.026390601798437923 0.036064053907984561 0 0.021910469580663845 0.037939577017000625 0 0.019131932000486813 0.044541303911593763 0 0.018290757337460307 0.045228538707150372 0 0.019858191183729886 0.043873818480690788 0 0.018612180012667432 0.044254947505142923 0 0.018306869817087668 0.044610469875107785 0 0.017773585720092529 0.044308026654235166 0 0.018612180012667432 0.044254947505142923 0 0.021910469580663845 0.037939577017000625 0 0.023703628767829589 0.040779996421841047 0 0.026526091713386983 0.036550235866953926 0 0.0263105466341171 0.036403404080142948 0 0.026324915282393547 0.036623524432628694 0 0.018290757337460307 0.045228538707150372 0 0.019858191183729886 0.043873818480690788 0 0.021109441370668256 0.044433441252612928 0 0.026390601798437923 0.036064053907984561 0 0.026526091713386983 0.036550235866953926 0 0.0263105466341171 0.036403404080142948 0 0.019858191183729886 0.043873818480690788 0 0.021109441370668256 0.044433441252612928 0 0.021683827800051795 0.04254096412575261 0 0.019858191183729886 0.043873818480690788 0 0.018612180012667432 0.044254947505142923 0 0.018794560998040867 0.043335392632872477 0 0.019858191183729886 0.043873818480690788 0 0.018794560998040867 0.043335392632872477 0 0.019839974528937845 0.042486960343027923 0 0.019858191183729886 0.043873818480690788 0 0.021683827800051795 0.04254096412575261 0 0.019839974528937845 0.042486960343027923 0 0.017773585720092529 0.044308026654235166 0 0.018612180012667432 0.044254947505142923 0 0.017859237783879777 0.043650267784966452 0 0.018612180012667432 0.044254947505142923 0 0.018794560998040867 0.043335392632872477 0 0.017859237783879777 0.043650267784966452 0 0.018794560998040867 0.043335392632872477 0 0.017859237783879777 0.043650267784966452 0 0.018064965511446075 0.042497294245050145 0 0.017859237783879777 0.043650267784966452 0 0.017166763725468777 0.044027810198285021 0 0.016853807462761754 0.043297350626318447 0 0.017166763725468777 0.044027810198285021 0 0.016219858895585654 0.044068690590745092 0 0.016853807462761754 0.043297350626318447 0 0.017773585720092529 0.044308026654235166 0 0.017859237783879777 0.043650267784966452 0 0.017166763725468777 0.044027810198285021 0 0.016219858895585654 0.044068690590745092 0 0.015857220066010709 0.043153237961248689 0 0.016853807462761754 0.043297350626318447 0 0.015146590445406638 0.043679629972639217 0 0.016219858895585654 0.044068690590745092 0 0.015857220066010709 0.043153237961248689 0 0.016211011684551805 0.044981959180407767 0 0.016219858895585654 0.044068690590745092 0 0.017201688906506807 0.044713125535198565 0 0.017166763725468777 0.044027810198285021 0 0.016219858895585654 0.044068690590745092 0 0.017201688906506807 0.044713125535198565 0 0.017773585720092529 0.044308026654235166 0 0.017166763725468777 0.044027810198285021 0 0.017201688906506807 0.044713125535198565 0 0.018306869817087668 0.044610469875107785 0 0.017773585720092529 0.044308026654235166 0 0.017201688906506807 0.044713125535198565 0 0.021910469580663845 0.037939577017000625 0 0.020112557340775536 0.03739861154026277 0 0.027287467247865033 0.036944695407415837 0 0.027063214842647745 0.036909095651958226 0 0.026987041115784777 0.037034454319700573 0 0.027271437726832787 0.036890537221807074 0 0.027287467247865033 0.036944695407415837 0 0.027063214842647745 0.036909095651958226 0 0.027063214842647745 0.036909095651958226 0 0.026851311283856868 0.036857728847978034 0 0.026987041115784777 0.037034454319700573 0 0.026851311283856868 0.036857728847978034 0 0.027059642779774667 0.036946516562913652 0 0.026741939430518315 0.036829630511229172 0 0.027063214842647745 0.036909095651958226 0 0.026851311283856868 0.036857728847978034 0 0.027059642779774667 0.036946516562913652 0 0.027380304081959843 0.03696094781955523 0 0.027059642779774667 0.036946516562913652 0 0.027182612461865534 0.037077412861604861 0 0.027271437726832787 0.036890537221807074 0 0.027063214842647745 0.036909095651958226 0 0.027059642779774667 0.036946516562913652 0 0.027380304081959843 0.03696094781955523 0 0.027271437726832787 0.036890537221807074 0 0.027059642779774667 0.036946516562913652 0 0.027059642779774667 0.036946516562913652 0 0.027182612461865534 0.037077412861604861 0 0.027166418249131487 0.03721296434310753 0 0.027059642779774667 0.036946516562913652 0 0.027166418249131487 0.03721296434310753 0 0.026741939430518315 0.036829630511229172 0 0.027166418249131487 0.03721296434310753 0 0.026741939430518315 0.036829630511229172 0 0.026421350200022564 0.03664423333706103 0 0.021478539777217292 0.032585056937104007 0 0.021152694513245789 0.03302087229740755 0 0.021935119519577939 0.033001492540520316 0 0.026237038423173868 0.034227472509316376 0 0.023774553233727895 0.034970398129169876 0 0.021226654831931216 0.032641738915334922 0 0.021116170958489094 0.032784784708586166 0 0.021152694513245789 0.03302087229740755 0 0.026741939430518315 0.036829630511229172 0 0.026421350200022564 0.03664423333706103 0 0.02655831054316413 0.0366596436366175 0 0.026851311283856868 0.036857728847978034 0 0.026741939430518315 0.036829630511229172 0 0.02655831054316413 0.0366596436366175 0 0.026851311283856868 0.036857728847978034 0 0.026802221310860689 0.03693127852962845 0 0.026987041115784777 0.037034454319700573 0 0.026851311283856868 0.036857728847978034 0 0.02655831054316413 0.0366596436366175 0 0.026802221310860689 0.03693127852962845 0 0.02655831054316413 0.0366596436366175 0 0.026756146283630631 0.036960311308043982 0 0.026802221310860689 0.03693127852962845 0 0.02655831054316413 0.0366596436366175 0 0.026089145717106459 0.036146094297946664 0 0.026480851491159006 0.036664613855595718 0 0.02655831054316413 0.0366596436366175 0 0.026480851491159006 0.036664613855595718 0 0.026756146283630631 0.036960311308043982 0 0.02579024016960162 0.035599466921213165 0 0.026421350200022564 0.03664423333706103 0 0.026089145717106459 0.036146094297946664 0 0.026421350200022564 0.03664423333706103 0 0.02655831054316413 0.0366596436366175 0 0.026089145717106459 0.036146094297946664 0 0.02579024016960162 0.035599466921213165 0 0.025899255268112015 0.035183282283811491 0 0.026089145717106459 0.036146094297946664 0 0.02614271244244883 0.036066589955453726 0 0.026089145717106459 0.036146094297946664 0 0.026325364351642757 0.036541342319720352 0 0.026089145717106459 0.036146094297946664 0 0.026325364351642757 0.036541342319720352 0 0.026480851491159006 0.036664613855595718 0 0.026325364351642757 0.036541342319720352 0 0.026324915282393547 0.036623524432628694 0 0.026894410019480203 0.037162984745877425 0 0.0263105466341171 0.036403404080142948 0 0.026325364351642757 0.036541342319720352 0 0.026324915282393547 0.036623524432628694 0 0.021109441370668256 0.044433441252612928 0 0.021683827800051795 0.04254096412575261 0 0.024215579447005305 0.042509985344063431 0 0.023703628767829589 0.040779996421841047 0 0.025389800710546084 0.03981682048124642 0 0.024215579447005305 0.042509985344063431 0 0.026816950483723456 0.038963482968492801 0 0.024472017725753598 0.040239381596524036 0 0.026325364351642757 0.036541342319720352 0 0.026894410019480203 0.037162984745877425 0 0.026480851491159006 0.036664613855595718 0 0.026894410019480203 0.037162984745877425 0 0.026480851491159006 0.036664613855595718 0 0.026756146283630631 0.036960311308043982 0 0.026894410019480203 0.037162984745877425 0 0.026756146283630631 0.036960311308043982 0 0.026910300368446764 0.037464457418842516 0 0.026756146283630631 0.036960311308043982 0 0.026802221310860689 0.03693127852962845 0 0.026910300368446764 0.037464457418842516 0 0.026802221310860689 0.03693127852962845 0 0.026910300368446764 0.037464457418842516 0 0.026987041115784777 0.037034454319700573 0 0.026894410019480203 0.037162984745877425 0 0.026910300368446764 0.037464457418842516 0 0.026816950483723456 0.038963482968492801 0 0.025389800710546084 0.03981682048124642 0 0.026500539819121999 0.039180001244259979 0 0.027700526770576998 0.037701638620739761 0 0.026816950483723456 0.038963482968492801 0 0.027132272298554382 0.037409218562087156 0 0.026910300368446764 0.037464457418842516 0 0.026816950483723456 0.038963482968492801 0 0.027132272298554382 0.037409218562087156 0 0.026910300368446764 0.037464457418842516 0 0.027132272298554382 0.037409218562087156 0 0.026987041115784777 0.037034454319700573 0 0.027287467247865033 0.036944695407415837 0 0.027132272298554382 0.037409218562087156 0 0.026987041115784777 0.037034454319700573 0 0.027272655129668703 0.038310909727008541 0 0.027429207850841381 0.037705920614443701 0 0.02676223046361478 0.03822078824790421 0 0.027272655129668703 0.038310909727008541 0 0.026256782591524547 0.038947502922960696 0 0.02676223046361478 0.03822078824790421 0 0.026816950483723456 0.038963482968492801 0 0.027272655129668703 0.038310909727008541 0 0.026256782591524547 0.038947502922960696 0 0.027700526770576998 0.037701638620739761 0 0.026816950483723456 0.038963482968492801 0 0.027272655129668703 0.038310909727008541 0 0.026816950483723456 0.038963482968492801 0 0.026256782591524547 0.038947502922960696 0 0.024472017725753598 0.040239381596524036 0 0.026256782591524547 0.038947502922960696 0 0.024472017725753598 0.040239381596524036 0 0.025514351749826952 0.038532168485928588 0 0.026256782591524547 0.038947502922960696 0 0.025514351749826952 0.038532168485928588 0 0.02676223046361478 0.03822078824790421 0 0.024472017725753598 0.040239381596524036 0 0.023312282640834674 0.039553010982720162 0 0.025514351749826952 0.038532168485928588 0 0.021683827800051795 0.04254096412575261 0 0.024215579447005305 0.042509985344063431 0 0.024472017725753598 0.040239381596524036 0 0.021683827800051795 0.04254096412575261 0 0.024472017725753598 0.040239381596524036 0 0.021732937279033592 0.041133075190816805 0 0.021683827800051795 0.04254096412575261 0 0.021732937279033592 0.041133075190816805 0 0.019839974528937845 0.042486960343027923 0 0.021732937279033592 0.041133075190816805 0 0.023312282640834674 0.039553010982720162 0 0.021098395471027959 0.040363748160110395 0 0.024472017725753598 0.040239381596524036 0 0.021732937279033592 0.041133075190816805 0 0.023312282640834674 0.039553010982720162 0 0.023312282640834674 0.039553010982720162 0 0.021098395471027959 0.040363748160110395 0 0.022010431419032781 0.038963094715131569 0 0.023312282640834674 0.039553010982720162 0 0.022010431419032781 0.038963094715131569 0 0.024145308970480846 0.038275429377321611 0 0.022010431419032781 0.038963094715131569 0 0.02308745599671392 0.037548782687495313 0 0.024145308970480846 0.038275429377321611 0 0.022010431419032781 0.038963094715131569 0 0.02308745599671392 0.037548782687495313 0 0.020990063589886331 0.037259658370538636 0 0.022455559324046158 0.036456794246556269 0 0.02308745599671392 0.037548782687495313 0 0.020990063589886331 0.037259658370538636 0 0.022455559324046158 0.036456794246556269 0 0.020990063589886331 0.037259658370538636 0 0.021417522896310409 0.035844294391788364 0 0.022455559324046158 0.036456794246556269 0 0.02308745599671392 0.037548782687495313 0 0.024087268713440312 0.036596685290481303 0 0.02308745599671392 0.037548782687495313 0 0.024087268713440312 0.036596685290481303 0 0.025392877504178759 0.037423238539099575 0 0.02308745599671392 0.037548782687495313 0 0.025392877504178759 0.037423238539099575 0 0.024145308970480846 0.038275429377321611 0 0.024087268713440312 0.036596685290481303 0 0.025392877504178759 0.037423238539099575 0 0.025509920703193457 0.036522541664531769 0 0.025392877504178759 0.037423238539099575 0 0.024145308970480846 0.038275429377321611 0 0.025514351749826952 0.038532168485928588 0 0.023312282640834674 0.039553010982720162 0 0.024145308970480846 0.038275429377321611 0 0.025514351749826952 0.038532168485928588 0 0.025514351749826952 0.038532168485928588 0 0.02688175838574498 0.037516932925814005 0 0.02676223046361478 0.03822078824790421 0 0.025392877504178759 0.037423238539099575 0 0.025514351749826952 0.038532168485928588 0 0.02688175838574498 0.037516932925814005 0 0.025392877504178759 0.037423238539099575 0 0.02688175838574498 0.037516932925814005 0 0.027533514232587999 0.036638894067599674 0 0.025392877504178759 0.037423238539099575 0 0.027533514232587999 0.036638894067599674 0 0.025509920703193457 0.036522541664531769 0 0.02688175838574498 0.037516932925814005 0 0.027538339684857933 0.037101238998616178 0 0.027533514232587999 0.036638894067599674 0 0.02688175838574498 0.037516932925814005 0 0.027538339684857933 0.037101238998616178 0 0.027429207850841381 0.037705920614443701 0 0.02688175838574498 0.037516932925814005 0 0.027429207850841381 0.037705920614443701 0 0.02676223046361478 0.03822078824790421 0 0.016539027399676172 0.042113983863137555 0 0.015567969457113447 0.042580392579173669 0 0.015566995018449452 0.042062951681057004 0 0.016539027399676172 0.042113983863137555 0 0.015567969457113447 0.042580392579173669 0 0.015857220066010709 0.043153237961248689 0 0.014767461252942172 0.043301451815181684 0 0.015567969457113447 0.042580392579173669 0 0.015857220066010709 0.043153237961248689 0 0.016539027399676172 0.042113983863137555 0 0.016853807462761754 0.043297350626318447 0 0.018064965511446075 0.042497294245050145 0 0.016539027399676172 0.042113983863137555 0 0.015857220066010709 0.043153237961248689 0 0.016853807462761754 0.043297350626318447 0 0.017859237783879777 0.043650267784966452 0 0.016853807462761754 0.043297350626318447 0 0.018064965511446075 0.042497294245050145 0 0.018794560998040867 0.043335392632872477 0 0.018064965511446075 0.042497294245050145 0 0.019839974528937845 0.042486960343027923 0 0.018064965511446075 0.042497294245050145 0 0.019839974528937845 0.042486960343027923 0 0.019804466657372781 0.041425108518739172 0 0.021732937279033592 0.041133075190816805 0 0.019839974528937845 0.042486960343027923 0 0.019804466657372781 0.041425108518739172 0 0.018064965511446075 0.042497294245050145 0 0.019804466657372781 0.041425108518739172 0 0.018401558177063904 0.040511789468263087 0 0.021098395471027959 0.040363748160110395 0 0.019804466657372781 0.041425108518739172 0 0.018401558177063904 0.040511789468263087 0 0.021732937279033592 0.041133075190816805 0 0.021098395471027959 0.040363748160110395 0 0.019804466657372781 0.041425108518739172 0 0.016539027399676172 0.042113983863137555 0 0.018064965511446075 0.042497294245050145 0 0.018401558177063904 0.040511789468263087 0 0.016539027399676172 0.042113983863137555 0 0.018401558177063904 0.040511789468263087 0 0.01637035705570062 0.041410719234087824 0 0.018401558177063904 0.040511789468263087 0 0.015426794506310839 0.04184048811826116 0 0.01637035705570062 0.041410719234087824 0 0.022010431419032781 0.038963094715131569 0 0.018401558177063904 0.040511789468263087 0 0.020990063589886331 0.037259658370538636 0 0.021098395471027959 0.040363748160110395 0 0.022010431419032781 0.038963094715131569 0 0.018401558177063904 0.040511789468263087 0 0.020990063589886331 0.037259658370538636 0 0.019049984734168756 0.036267330493999557 0 0.02038579390553124 0.036191821128775045 0 0.018401558177063904 0.040511789468263087 0 0.020990063589886331 0.037259658370538636 0 0.019049984734168756 0.036267330493999557 0 0.020990063589886331 0.037259658370538636 0 0.02038579390553124 0.036191821128775045 0 0.021417522896310409 0.035844294391788364 0 0.018277744819304855 0.040661787224484644 0 0.017341220202620244 0.039232694517544624 0 0.015426794506310839 0.04184048811826116 0 0.015391489664520502 0.041988334641369217 0 0.01637035705570062 0.041410719234087824 0 0.015391489664520502 0.041988334641369217 0 0.01637035705570062 0.041410719234087824 0 0.015566995018449452 0.042062951681057004 0 0.016539027399676172 0.042113983863137555 0 0.01637035705570062 0.041410719234087824 0 0.015566995018449452 0.042062951681057004 0 0.014793368526996949 0.042628434607942252 0 0.015567969457113447 0.042580392579173669 0 0.015566995018449452 0.042062951681057004 0 0.014793368526996949 0.042628434607942252 0 0.015566995018449452 0.042062951681057004 0 0.01460772133006287 0.042428430721153335 0 0.015391489664520502 0.041988334641369217 0 0.015566995018449452 0.042062951681057004 0 0.01460772133006287 0.042428430721153335 0 0.01460772133006287 0.042428430721153335 0 0.014575361905683955 0.04250191419436216 0 0.013789112176382852 0.042845403065925464 0 0.015391489664520502 0.041988334641369217 0 0.01460772133006287 0.042428430721153335 0 0.014575361905683955 0.04250191419436216 0 0.014001718389520355 0.042931158987330464 0 0.01343601017328799 0.043186451638013969 0 0.013789112176382852 0.042845403065925464 0 0.014575361905683955 0.04250191419436216 0 0.014001718389520355 0.042931158987330464 0 0.013789112176382852 0.042845403065925464 0 0.014355517329455047 0.042748164443294323 0 0.014812560724824776 0.042371014498281158 0 0.014260941787074729 0.042775134970562387 0 0.014575361905683955 0.04250191419436216 0 0.014001718389520355 0.042931158987330464 0 0.014355517329455047 0.042748164443294323 0 0.014355517329455047 0.042748164443294323 0 0.014260941787074729 0.042775134970562387 0 0.014045928509793283 0.043005268585796425 0 0.014001718389520355 0.042931158987330464 0 0.014355517329455047 0.042748164443294323 0 0.014045928509793283 0.043005268585796425 0 0.014575361905683955 0.04250191419436216 0 0.014355517329455047 0.042748164443294323 0 0.014812560724824776 0.042371014498281158 0 0.015391489664520502 0.041988334641369217 0 0.014575361905683955 0.04250191419436216 0 0.014812560724824776 0.042371014498281158 0 0.015426794506310839 0.04184048811826116 0 0.015391489664520502 0.041988334641369217 0 0.014812560724824776 0.042371014498281158 0 0.017341220202620244 0.039232694517544624 0 0.017009467817755503 0.038879045535699756 0 0.015426794506310839 0.04184048811826116 0 0.014812560724824776 0.042371014498281158 0 0.014260941787074729 0.042775134970562387 0 0.019049984734168756 0.036267330493999557 0 0.020158092721199766 0.035509076166561473 0 0.019714158587060805 0.034868289122989275 0 0.020158092721199766 0.035509076166561473 0 0.020000860016238256 0.034878137766477565 0 0.021390841143882181 0.035668560020266228 0 0.02038579390553124 0.036191821128775045 0 0.020158092721199766 0.035509076166561473 0 0.021417522896310409 0.035844294391788364 0 0.020158092721199766 0.035509076166561473 0 0.021390841143882181 0.035668560020266228 0 0.021417522896310409 0.035844294391788364 0 0.019049984734168756 0.036267330493999557 0 0.02038579390553124 0.036191821128775045 0 0.020158092721199766 0.035509076166561473 0 0.020158092721199766 0.035509076166561473 0 0.020000860016238256 0.034878137766477565 0 0.019714158587060805 0.034868289122989275 0 0.019723304346641081 0.035260996878422449 0 0.020738173624183131 0.035619904373416708 0 0.019714158587060805 0.034868289122989275 0 0.019672526325800643 0.035472557316644636 0 0.020226316733255915 0.035950419012969449 0 0.020000860016238256 0.034878137766477565 0 0.019714158587060805 0.034868289122989275 0 0.019672526325800643 0.035472557316644636 0 0.017009467817755503 0.038879045535699756 0 0.01703812804130413 0.039552246137861569 0 0.019723304346641081 0.035260996878422449 0 0.019776028323090167 0.035890038014027313 0 0.019484549556165708 0.035662686437559245 0 0.019423797010986961 0.036079296407411046 0 0.019777202059427641 0.036218798435439126 0 0.019484549556165708 0.035662686437559245 0 0.019423797010986961 0.036079296407411046 0 0.019214595075836317 0.03593725715641323 0 0.019423797010986961 0.036079296407411046 0 0.019214595075836317 0.03593725715641323 0 0.019218302211313636 0.036233333720663313 0 0.01953960502446932 0.036609571987056666 0 0.019777202059427641 0.036218798435439126 0 0.019772624541645852 0.036785407194069225 0 0.019423797010986961 0.036079296407411046 0 0.019424704884527893 0.036353987719781496 0 0.019218302211313636 0.036233333720663313 0 0.019423797010986961 0.036079296407411046 0 0.019424704884527893 0.036353987719781496 0 0.019777202059427641 0.036218798435439126 0 0.019424704884527893 0.036353987719781496 0 0.01953960502446932 0.036609571987056666 0 0.019777202059427641 0.036218798435439126 0 0.019424704884527893 0.036353987719781496 0 0.01953960502446932 0.036609571987056666 0 0.019231483898583594 0.036610524330475618 0 0.019424704884527893 0.036353987719781496 0 0.019218302211313636 0.036233333720663313 0 0.019231483898583594 0.036610524330475618 0 0.019776028323090167 0.035890038014027313 0 0.020115753047179014 0.036686636423678788 0 0.019777202059427641 0.036218798435439126 0 0.020140984067192884 0.036750504493352293 0 0.019772624541645852 0.036785407194069225 0 0.019672526325800643 0.035472557316644636 0 0.020226316733255915 0.035950419012969449 0 0.020140984067192884 0.036750504493352293 0 0.013950329942079818 0.04308649931432048 0 0.013846174879307793 0.043108181820429255 0 0.013819071595866343 0.043074970396238796 0 0.013950329942079818 0.04308649931432048 0 0.013819071595866343 0.043074970396238796 0 0.013817485949990362 0.042918116824691606 0 0.01703812804130413 0.039552246137861569 0 0.016700181463771072 0.039067726037845661 0 0.013950329942079818 0.04308649931432048 0 0.013846174879307793 0.043108181820429255 0 0.014045928509793283 0.043005268585796425 0 0.013846174879307793 0.043108181820429255 0 0.013819071595866343 0.043074970396238796 0 0.013595756714837726 0.043153054968697563 0 0.013595756714837726 0.043153054968697563 0 0.013583898605453327 0.043251704914341764 0 0.012908922763815948 0.043523395052915956 0 0.013846174879307793 0.043108181820429255 0 0.013595756714837726 0.043153054968697563 0 0.013583898605453327 0.043251704914341764 0 0.014001718389520355 0.042931158987330464 0 0.013583898605453327 0.043251704914341764 0 0.01343601017328799 0.043186451638013969 0 0.014001718389520355 0.042931158987330464 0 0.013583898605453327 0.043251704914341764 0 0.014045928509793283 0.043005268585796425 0 0.014260941787074729 0.042775134970562387 0 0.013950329942079818 0.04308649931432048 0 0.014045928509793283 0.043005268585796425 0 0.013846174879307793 0.043108181820429255 0 0.013583898605453327 0.043251704914341764 0 0.014045928509793283 0.043005268585796425 0 0.027538339684857933 0.037101238998616178 0 0.028117617123938957 0.038042125003351857 0 0.027533514232587999 0.036638894067599674 0 0.027533514232587999 0.036638894067599674 0 0.02579682843941038 0.033249851863686564 0 0.024801546700321725 0.0353758380285321 0 0.027533514232587999 0.036638894067599674 0 0.024801546700321725 0.0353758380285321 0 0.025509920703193457 0.036522541664531769 0 0.027600748707455078 0.036571604553459876 0 0.02784344227120792 0.035684867523563306 0 0.028117617123938957 0.038042125003351857 0 0.027533514232587999 0.036638894067599674 0 0.029439352496046921 0.038122044176905824 0 0.028117617123938957 0.038042125003351857 0 0.029439352496046921 0.038122044176905824 0 0.029399375002032529 0.039179467830390363 0 0.02579682843941038 0.033249851863686564 0 0.024801546700321725 0.0353758380285321 0 0.023198980608433725 0.033274003067633132 0 0.024801546700321725 0.0353758380285321 0 0.023320882352658272 0.035568422594337172 0 0.023198980608433725 0.033274003067633132 0 0.024087268713440312 0.036596685290481303 0 0.024801546700321725 0.0353758380285321 0 0.025509920703193457 0.036522541664531769 0 0.024087268713440312 0.036596685290481303 0 0.024801546700321725 0.0353758380285321 0 0.023320882352658272 0.035568422594337172 0 0.023320882352658272 0.035568422594337172 0 0.02211039870290259 0.035712134879389096 0 0.023198980608433725 0.033274003067633132 0 0.022455559324046158 0.036456794246556269 0 0.024087268713440312 0.036596685290481303 0 0.023320882352658272 0.035568422594337172 0 0.022455559324046158 0.036456794246556269 0 0.023320882352658272 0.035568422594337172 0 0.02211039870290259 0.035712134879389096 0 0.021779502224768432 0.036450516302587457 0 0.020738173624183131 0.035619904373416708 0 0.022455559324046158 0.036456794246556269 0 0.021582709364723496 0.035423374436763258 0 0.021417522896310409 0.035844294391788364 0 0.020738173624183131 0.035619904373416708 0 0.020803862910317751 0.035609380613554252 0 0.020738173624183131 0.035619904373416708 0 0.021006985943109409 0.034024112447073186 0 0.019484549556165708 0.035662686437559245 0 0.018976603669677072 0.035621596083370448 0 0.019214595075836317 0.03593725715641323 0 0.019484549556165708 0.035662686437559245 0 0.019209118184987283 0.035111746631287882 0 0.018976603669677072 0.035621596083370448 0 0.018976603669677072 0.035621596083370448 0 0.019015912957338402 0.03606797647649352 0 0.018749399135311318 0.036157066650893979 0 0.018976603669677072 0.035621596083370448 0 0.019214595075836317 0.03593725715641323 0 0.019015912957338402 0.03606797647649352 0 0.019214595075836317 0.03593725715641323 0 0.019015912957338402 0.03606797647649352 0 0.019218302211313636 0.036233333720663313 0 0.019218302211313636 0.036233333720663313 0 0.019231483898583594 0.036610524330475618 0 0.019001719664188049 0.03635385459406891 0 0.019015912957338402 0.03606797647649352 0 0.019218302211313636 0.036233333720663313 0 0.019001719664188049 0.03635385459406891 0 0.019001719664188049 0.03635385459406891 0 0.018749399135311318 0.036157066650893979 0 0.018970744117898761 0.036617579526629342 0 0.019231483898583594 0.036610524330475618 0 0.019001719664188049 0.03635385459406891 0 0.018925485032731448 0.036638325493346342 0 0.019497990156142581 0.03639932916164499 0 0.019994480672624122 0.038079708296960585 0 0.019015912957338402 0.03606797647649352 0 0.019001719664188049 0.03635385459406891 0 0.018749399135311318 0.036157066650893979 0 0.024238445792496191 0.036448759693400626 0 0.019994480672624122 0.038079708296960585 0 0.024238445792496191 0.036448759693400626 0 0.026369604216526756 0.040542598983018048 0 0.030350435010136581 0.03940524532127318 0 0.029399375002032529 0.039179467830390363 0 0.030002275656433146 0.040626221863875212 0 0.023278585853196868 0.03794006813050483 0 0.022531412566797516 0.03972275551860225 0 0.024054324269865309 0.039425719740080016 0 0.021006985943109409 0.034024112447073186 0 0.024238445792496191 0.036448759693400626 0 0.029439352496046921 0.038122044176905824 0 0.030350435010136581 0.03940524532127318 0 0.029399375002032529 0.039179467830390363 0 0.02579682843941038 0.033249851863686564 0 0.023198980608433725 0.033274003067633132 0 0.024347185175837734 0.030723298208937901 0 0.02784344227120792 0.035684867523563306 0 0.024238445792496191 0.036448759693400626 0 0.028117617123938957 0.038042125003351857 0 0.029399375002032529 0.039179467830390363 0 0.028740668604629711 0.039687584054954948 0 0.028740668604629711 0.039687584054954948 0 0.029018573061820492 0.04079851145069939 0 0.030002275656433146 0.040626221863875212 0 0.029399375002032529 0.039179467830390363 0 0.028740668604629711 0.039687584054954948 0 0.030002275656433146 0.040626221863875212 0 0.028363901048421951 0.040226514061097819 0 0.028740668604629711 0.039687584054954948 0 0.029018573061820492 0.04079851145069939 0 0.027920290524748165 0.039293240580069978 0 0.028117617123938957 0.038042125003351857 0 0.028740668604629711 0.039687584054954948 0 0.029087110470906074 0.041720620562951463 0 0.029018573061820492 0.04079851145069939 0 0.029790915860625707 0.041740358638558378 0 0.028405486746001088 0.041430731207267653 0 0.029087110470906074 0.041720620562951463 0 0.029018573061820492 0.04079851145069939 0 0.026025555585137129 0.041238312677709929 0 0.026369604216526756 0.040542598983018048 0 0.029018573061820492 0.04079851145069939 0 0.029790915860625707 0.041740358638558378 0 0.030002275656433146 0.040626221863875212 0 0.021809083815597468 0.041480588277092195 0 0.022903813973262716 0.041682307924671674 0 0.022338002912503683 0.042880110813871462 0 0.029087110470906074 0.041720620562951463 0 0.029790915860625707 0.041740358638558378 0 0.029523119856595569 0.042856210261443435 0 0.022903813973262716 0.041682307924671674 0 0.023825294098620383 0.041012127222672182 0 0.023587060591677003 0.04257395486355476 0 0.022903813973262716 0.041682307924671674 0 0.022531412566797516 0.03972275551860225 0 0.023825294098620383 0.041012127222672182 0 0.021809083815597468 0.041480588277092195 0 0.022903813973262716 0.041682307924671674 0 0.022531412566797516 0.03972275551860225 0 0.022531412566797516 0.03972275551860225 0 0.024054324269865309 0.039425719740080016 0 0.023825294098620383 0.041012127222672182 0 0.019231483898583594 0.036610524330475618 0 0.018925485032731448 0.036638325493346342 0 0.019108011440330714 0.037126411104835257 0 0.019994480672624122 0.038079708296960585 0 0.021312286102153341 0.040643784050090177 0 0.018928687152543915 0.038639486724021364 0 0.019903209795785113 0.040496742580155579 0 0.018617732531002032 0.040820862769991875 0 0.019994480672624122 0.038079708296960585 0 0.019287279601797991 0.038373113374272599 0 0.019903209795785113 0.040496742580155579 0 0.018617732531002032 0.040820862769991875 0 0.020875273151103029 0.042347693228673912 0 0.021312286102153341 0.040643784050090177 0 0.01955694995808344 0.044951695095134546 0 0.018617732531002032 0.040820862769991875 0 0.018315913281587302 0.042992791100529809 0 0.020875273151103029 0.042347693228673912 0 0.01955694995808344 0.044951695095134546 0 0.018017266716418089 0.043447816057867295 0 0.016912295764883359 0.046371145513944174 0 0.018342060423480435 0.047209792463462678 0 0.016430016656329375 0.047657916341232738 0 0.016912295764883359 0.046371145513944174 0 0.018700067427679708 0.044999957171585697 0 0.018342060423480435 0.047209792463462678 0 0.016912295764883359 0.046371145513944174 0 0.018700067427679708 0.044999957171585697 0 0.01640221375686856 0.044999946030190578 0 0.018699212085181348 0.045003999953252938 0 0.01955694995808344 0.044951695095134546 0 0.018700289107558148 0.04499998244335511 0 0.019562758958508029 0.045993204760285213 0 0.020246570138964238 0.044999976179287672 0 0.018700289107558148 0.04499998244335511 0 0.019562758958508029 0.045993204760285213 0 0.018446555951664185 0.047221580927475394 0 0.019562758958508029 0.045993204760285213 0 0.018446555951664185 0.047221580927475394 0 0.019746761174321899 0.046910238705588483 0 0.01955694995808344 0.044951695095134546 0 0.020892947405872084 0.044926437500210553 0 0.022903813973262716 0.041682307924671674 0 0.023587060591677003 0.04257395486355476 0 0.022338002912503683 0.042880110813871462 0 0.021809083815597468 0.041480588277092195 0 0.0211055903571555 0.043196282111110165 0 0.022338002912503683 0.042880110813871462 0 0.026025555585137129 0.041238312677709929 0 0.023519572383581044 0.044401383562022667 0 0.019562758958508029 0.045993204760285213 0 0.021083879028129748 0.046595476284260105 0 0.019746761174321899 0.046910238705588483 0 0.023519572383581044 0.044401383562022667 0 0.020892947405872084 0.044926437500210553 0 0.021083879028129748 0.046595476284260105 0 0.020246570138964238 0.044999976179287672 0 0.02179295644720855 0.044999982735843519 0 0.019562758958508029 0.045993204760285213 0 0.021083879028129748 0.046595476284260105 0 0.020246570138964238 0.044999976179287672 0 0.026350682153588351 0.044848770500328733 0 0.023519572383581044 0.044401383562022667 0 0.023519572383581044 0.044401383562022667 0 0.021791362115654762 0.045003232152899891 0 0.023531208680418903 0.046083472198451214 0 0.021134607756244008 0.046597808451986703 0 0.021792328037938312 0.04500038576793175 0 0.028782750153130605 0.042459635097723505 0 0.029087110470906074 0.041720620562951463 0 0.029523119856595569 0.042856210261443435 0 0.028782750153130605 0.042459635097723505 0 0.028427824214193039 0.043591751836032651 0 0.029523119856595569 0.042856210261443435 0 0.013928675154200744 0.042561112205248337 0 0.013295392220839987 0.042681846829798732 0 0.013817485949990362 0.042918116824691606 0 0.016602460490567125 0.044178441055581684 0 0.015429740991786038 0.044468635167593938 0 0.015739585800076939 0.039398162664285905 0 0.013666071792596147 0.047423876278807689 0 0.013923616374191729 0.047364173881603397 0 0.0134217509927876 0.046423966572344613 0 0.013984072478396519 0.045071398774164731 0 0.016667923261918235 0.043458025949587691 0 0.010968781736339937 0.047550653655909006 0 0.01159466060980192 0.046622323606062152 0 0.010021410696644374 0.046470178716330635 0 0.012745143126283064 0.047302663004269614 0 0.010968781736339937 0.047550653655909006 0 0.01159466060980192 0.046622323606062152 0 0.013984072478396519 0.045071398774164731 0 0.012009905416588368 0.045099198834808042 0 0.013595756714837726 0.043153054968697563 0 0.013295392220839987 0.042681846829798732 0 0.013817485949990362 0.042918116824691606 0 0.013595756714837726 0.043153054968697563 0 0.013295392220839987 0.042681846829798732 0 0.012908922763815948 0.043523395052915956 0 0.016667923261918235 0.043458025949587691 0 0.016700181463771072 0.039067726037845661 0 0.013928675154200744 0.042561112205248337 0 0.013817485949990362 0.042918116824691606 0 0.013953071802816396 0.042963236110327555 0 0.013819071595866343 0.043074970396238796 0 0.013595756714837726 0.043153054968697563 0 0.013817485949990362 0.042918116824691606 0 0.013984072478396519 0.045071398774164731 0 0.016700181463771072 0.039067726037845661 0 0.013950329942079818 0.04308649931432048 0 0.013817485949990362 0.042918116824691606 0 0.013953071802816396 0.042963236110327555 0 0.020206633122843171 0.03750841699834271 0 0.020295895486497326 0.036582883874978794 0 0.020140984067192884 0.036750504493352293 0 0.020226316733255915 0.035950419012969449 0 0.020295895486497326 0.036582883874978794 0 0.020140984067192884 0.036750504493352293 0 0.020206633122843171 0.03750841699834271 0 0.020140984067192884 0.036750504493352293 0 0.019960502199473196 0.037051364511864388 0 0.019772624541645852 0.036785407194069225 0 0.019960502199473196 0.037051364511864388 0 0.019754044137746833 0.037199460095252788 0 0.020140984067192884 0.036750504493352293 0 0.019772624541645852 0.036785407194069225 0 0.019960502199473196 0.037051364511864388 0 0.019231483898583594 0.036610524330475618 0 0.019108011440330714 0.037126411104835257 0 0.019450082418152603 0.036989849845521651 0 0.01953960502446932 0.036609571987056666 0 0.019231483898583594 0.036610524330475618 0 0.019450082418152603 0.036989849845521651 0 0.01953960502446932 0.036609571987056666 0 0.019772624541645852 0.036785407194069225 0 0.019450082418152603 0.036989849845521651 0 0.019772624541645852 0.036785407194069225 0 0.019450082418152603 0.036989849845521651 0 0.019754044137746833 0.037199460095252788 0 0.019450082418152603 0.036989849845521651 0 0.019754044137746833 0.037199460095252788 0 0.019324756146975153 0.037677823108681334 0 0.019108011440330714 0.037126411104835257 0 0.019450082418152603 0.036989849845521651 0 0.019324756146975153 0.037677823108681334 0 0.019287279601797991 0.038373113374272599 0 0.018017266716418089 0.043447816057867295 0 0.016667923261918235 0.043458025949587691 0 0.018017266716418089 0.043447816057867295 0 0.014202141328293186 0.048137739016959592 0 0.015211202977999053 0.047215318541967317 0 0.016406902712639993 0.047625151040865614 0 0.020206633122843171 0.03750841699834271 0 0.019754044137746833 0.037199460095252788 0 0.019324756146975153 0.037677823108681334 0 0.020206633122843171 0.03750841699834271 0 0.019960502199473196 0.037051364511864388 0 0.019754044137746833 0.037199460095252788 0 0.014202141328293186 0.048137739016959592 0 0.015211202977999053 0.047215318541967317 0 0.01418217265826965 0.046603451852063368 0 0.016667923261918235 0.043458025949587691 0 0.013988484431209374 0.047241051849618285 0 0.015211202977999053 0.047215318541967317 0 0.01418217265826965 0.046603451852063368 0 0.015485027509303638 0.046170362159338105 0 0.016912295764883359 0.046371145513944174 0 0.016149483765359948 0.047160146786701829 0 0.015485027509303638 0.046170362159338105 0 0.016912295764883359 0.046371145513944174 0 0.016430016656329375 0.047657916341232738 0 0.016149483765359948 0.047160146786701829 0 0.018017266716418089 0.043447816057867295 0 0.017994269177407572 0.045784685701158144 0 0.015211202977999053 0.047215318541967317 0 0.016406902712639993 0.047625151040865614 0 0.016149483765359948 0.047160146786701829 0 0.015211202977999053 0.047215318541967317 0 0.016149483765359948 0.047160146786701829 0 0.015485027509303638 0.046170362159338105 0 0.016912295764883359 0.046371145513944174 0 0.01640221375686856 0.044999946030190578 0 0.015485027509303638 0.046170362159338105 0 0.013988484431209374 0.047241051849618285 0 0.014104249637405386 0.044999595965411053 0 0.01640221375686856 0.044999946030190578 0 0.015485027509303638 0.046170362159338105 0 0.014104452267834853 0.044999984519943331 0 0.01418217265826965 0.046603451852063368 0 0.015485027509303638 0.046170362159338105 0 0.014104452267834853 0.044999984519943331 0 0.014103868094221093 0.044999960593758874 0 0.01297346972076286 0.044999993864087165 0 0.013627922792144297 0.045702684015290838 0 0.012972945541277059 0.044999785456774584 0 0.013056033689750435 0.04661028635103464 0 0.01297346972076286 0.044999993864087165 0 0.013627922792144297 0.045702684015290838 0 0.0134217509927876 0.046423966572344613 0 0.012971542556420306 0.04499963127508072 0 0.012617425255109262 0.046107996538012445 0 0.011527818805089159 0.045787920362015296 0 0.013946692852821617 0.046383564810922158 0 0.014103868094221093 0.044999960593758874 0 0.013627922792144297 0.045702684015290838 0 0.013923616374191729 0.047364173881603397 0 0.013946692852821617 0.046383564810922158 0 0.0134217509927876 0.046423966572344613 0 0.012745143126283064 0.047302663004269614 0 0.012617425255109262 0.046107996538012445 0 0.01159466060980192 0.046622323606062152 0 0.013984072478396519 0.045071398774164731 0 0.013056033689750435 0.04661028635103464 0 0.013946692852821617 0.046383564810922158 0 0.013627922792144297 0.045702684015290838 0 0.0134217509927876 0.046423966572344613 0 0.01159466060980192 0.046622323606062152 0 0.011527818805089159 0.045787920362015296 0 0.010021410696644374 0.046470178716330635 0 0.012617425255109262 0.046107996538012445 0 0.01159466060980192 0.046622323606062152 0 0.011527818805089159 0.045787920362015296 0 0.012971542556420306 0.04499963127508072 0 0.011527818805089159 0.045787920362015296 0 0.010491053921760418 0.044999628789524321 0 0.010491053921760418 0.044999628789524321 0 0.0088141192281564265 0.04593516183900094 0 0.010021410696644374 0.046470178716330635 0 0.011527818805089159 0.045787920362015296 0 0.010491053921760418 0.044999628789524321 0 0.010021410696644374 0.046470178716330635 0 0.010491053921760418 0.044999628789524321 0 0.0088141192281564265 0.04593516183900094 0 0.0080095347465891868 0.044999693010932804 0 0.0088141192281564265 0.04593516183900094 0 0.010021410696644374 0.046470178716330635 0 0.0085008094042496717 0.04656795359308763 0 0.0080095347465891868 0.044999693010932804 0 0.0073921806296780189 0.046234125555111159 0 0.0055285000134866124 0.044999513725784729 0 0.0088141192281564265 0.04593516183900094 0 0.0080095347465891868 0.044999693010932804 0 0.0073921806296780189 0.046234125555111159 0 0.0088141192281564265 0.04593516183900094 0 0.0073921806296780189 0.046234125555111159 0 0.0085008094042496717 0.04656795359308763 0 0.0073921806296780189 0.046234125555111159 0 0.0073126393104449927 0.046854123339370141 0 0.0050479095086913492 0.046281416450699928 0 0.0073921806296780189 0.046234125555111159 0 0.0073126393104449927 0.046854123339370141 0 0.0081292246194884996 0.046576255849039551 0 0.0073126393104449927 0.046854123339370141 0 0.0081292246194884996 0.046576255849039551 0 0.0088419811550971526 0.04542328730284239 0 0.0073921806296780189 0.046234125555111159 0 0.0081292246194884996 0.046576255849039551 0 0.0085008094042496717 0.04656795359308763 0 0.0081292246194884996 0.046576255849039551 0 0.0085008094042496717 0.04656795359308763 0 0.0085593114060906229 0.046561034334141195 0 0.0091289773259252208 0.045396155873414688 0 0.010647005139771596 0.045206072704170895 0 0.0088419811550971526 0.04542328730284239 0 0.012110225570475815 0.043201742544384157 0 0.010847755779109276 0.045267110506349927 0 0.0085593114060906229 0.046561034334141195 0 0.0088419811550971526 0.04542328730284239 0 0.0089619833424029339 0.047252270786881052 0 0.0089361265321635346 0.045380124252078831 0 0.0088419811550971526 0.04542328730284239 0 0.010847755779109276 0.045267110506349927 0 0.0081292246194884996 0.046576255849039551 0 0.0085593114060906229 0.046561034334141195 0 0.0088419811550971526 0.04542328730284239 0 0.0073126393104449927 0.046854123339370141 0 0.0089361265321635346 0.045380124252078831 0 0.0088419811550971526 0.04542328730284239 0 0.0062803130939384031 0.045351056921172465 0 0.0089361265321635346 0.045380124252078831 0 0.0064605671712119643 0.046068606922865622 0 0.0089361265321635346 0.045380124252078831 0 0.0070772967194632618 0.046700600613819344 0 0.0064605671712119643 0.046068606922865622 0 0.0068748104397365626 0.046006269186709074 0 0.0085693418388548721 0.045618304784038249 0 0.010968781736339937 0.047550653655909006 0 0.010021410696644374 0.046470178716330635 0 0.0089619833424029339 0.047252270786881052 0 0.010021410696644374 0.046470178716330635 0 0.0085008094042496717 0.04656795359308763 0 0.0089619833424029339 0.047252270786881052 0 0.0085008094042496717 0.04656795359308763 0 0.0085593114060906229 0.046561034334141195 0 0.0089619833424029339 0.047252270786881052 0 0.012009905416588368 0.045099198834808042 0 0.010647005139771596 0.045206072704170895 0 0.013295392220839987 0.042681846829798732 0 0.012110225570475815 0.043201742544384157 0 0.012908922763815948 0.043523395052915956 0 0.013583898605453327 0.043251704914341764 0 0.012908922763815948 0.043523395052915956 0 0.012809401712169171 0.043619896390201737 0 0.012908922763815948 0.043523395052915956 0 0.012809401712169171 0.043619896390201737 0 0.011991685103190965 0.044311074016970375 0 0.013583898605453327 0.043251704914341764 0 0.012809401712169171 0.043619896390201737 0 0.01343601017328799 0.043186451638013969 0 0.012809401712169171 0.043619896390201737 0 0.01343601017328799 0.043186451638013969 0 0.013113715204632602 0.0432067421703577 0 0.012482342831445581 0.043534836352555978 0 0.012059833046634782 0.043536053467319473 0 0.012952517492911689 0.04304446359487734 0 0.012809401712169171 0.043619896390201737 0 0.012482342831445581 0.043534836352555978 0 0.013113715204632602 0.0432067421703577 0 0.012809401712169171 0.043619896390201737 0 0.012482342831445581 0.043534836352555978 0 0.011991685103190965 0.044311074016970375 0 0.012482342831445581 0.043534836352555978 0 0.011991685103190965 0.044311074016970375 0 0.012059833046634782 0.043536053467319473 0 0.012110225570475815 0.043201742544384157 0 0.012908922763815948 0.043523395052915956 0 0.011991685103190965 0.044311074016970375 0 0.012110225570475815 0.043201742544384157 0 0.011991685103190965 0.044311074016970375 0 0.010847755779109276 0.045267110506349927 0 0.0089361265321635346 0.045380124252078831 0 0.010847755779109276 0.045267110506349927 0 0.0070772967194632618 0.046700600613819344 0 0.011991685103190965 0.044311074016970375 0 0.010847755779109276 0.045267110506349927 0 0.012059833046634782 0.043536053467319473 0 0.010847755779109276 0.045267110506349927 0 0.0070772967194632618 0.046700600613819344 0 0.0068674186552092741 0.048176099313895569 0 0.010847755779109276 0.045267110506349927 0 0.012703272582842247 0.043072303861664045 0 0.012059833046634782 0.043536053467319473 0 0.010783522532400218 0.045256994871142299 0 0.0097513609147122215 0.045517224961367002 0 0.012703272582842247 0.043072303861664045 0 0.012059833046634782 0.043536053467319473 0 0.012651835657266741 0.042778811951526621 0 0.012059833046634782 0.043536053467319473 0 0.012651835657266741 0.042778811951526621 0 0.012952517492911689 0.04304446359487734 0 0.012703272582842247 0.043072303861664045 0 0.012651835657266741 0.042778811951526621 0 0.011364587784470531 0.042342213089686651 0 0.012674791048108848 0.043218909512734029 0 0.011524376625490563 0.043400020803095359 0 0.012651835657266741 0.042778811951526621 0 0.012651835657266741 0.042778811951526621 0 0.013282799027506922 0.042902567068811299 0 0.012952517492911689 0.04304446359487734 0 0.012674791048108848 0.043218909512734029 0 0.012651835657266741 0.042778811951526621 0 0.013282799027506922 0.042902567068811299 0 0.013282799027506922 0.042902567068811299 0 0.013820111961916629 0.042756416946391061 0 0.012952517492911689 0.04304446359487734 0 0.013820111961916629 0.042756416946391061 0 0.013789112176382852 0.042845403065925464 0 0.012952517492911689 0.04304446359487734 0 0.01460772133006287 0.042428430721153335 0 0.013820111961916629 0.042756416946391061 0 0.013789112176382852 0.042845403065925464 0 0.01343601017328799 0.043186451638013969 0 0.013789112176382852 0.042845403065925464 0 0.013113715204632602 0.0432067421703577 0 0.013789112176382852 0.042845403065925464 0 0.013113715204632602 0.0432067421703577 0 0.012952517492911689 0.04304446359487734 0 0.012482342831445581 0.043534836352555978 0 0.013113715204632602 0.0432067421703577 0 0.012952517492911689 0.04304446359487734 0 0.0064466709487203608 0.047073458709097078 0 0.0084995315866217801 0.046549634913923617 0 0.0047363578447511901 0.048400091739704429 0 0.0064466709487203608 0.047073458709097078 0 0.0084995315866217801 0.046549634913923617 0 0.0077303941091260119 0.04563735438466416 0 0.0064466709487203608 0.047073458709097078 0 0.0077303941091260119 0.04563735438466416 0 0.0067490307464402426 0.046212808041035489 0 0.0084995315866217801 0.046549634913923617 0 0.0085709864003256017 0.045011413346655274 0 0.0099254350412161935 0.043977662111529162 0 0.0062049578398676768 0.049286701913448736 0 0.00072903741042125176 0.04591659595056001 0 0.0084995315866217801 0.046549634913923617 0 0.0085709864003256017 0.045011413346655274 0 0.0077303941091260119 0.04563735438466416 0 0.0086605139177672145 0.044305954720102049 0 0.0085709864003256017 0.045011413346655274 0 0.0080739865495225924 0.044622798686727853 0 0.0081094323737610653 0.043997500588319777 0 0.007678966538522224 0.044862756966127182 0 0.0067490307464402426 0.046212808041035489 0 0.0085709864003256017 0.045011413346655274 0 0.0080739865495225924 0.044622798686727853 0 0.0077303941091260119 0.04563735438466416 0 0.0080739865495225924 0.044622798686727853 0 0.0077303941091260119 0.04563735438466416 0 0.007678966538522224 0.044862756966127182 0 0.0077491116221865951 0.044103067273349041 0 0.0080739865495225924 0.044622798686727853 0 0.007678966538522224 0.044862756966127182 0 0.0077303941091260119 0.04563735438466416 0 0.007678966538522224 0.044862756966127182 0 0.0067490307464402426 0.046212808041035489 0 0.0081126421521189873 0.044107591012902271 0 0.0084057751052337704 0.044732049258758018 0 0.0081094323737610653 0.043997500588319777 0 0.0067490307464402426 0.046212808041035489 0 0.0053179695490187962 0.047007906964378648 0 0.011524376625490563 0.043400020803095359 0 0.0081094323737610653 0.043997500588319777 0 0.011364587784470531 0.042342213089686651 0 0.011524376625490563 0.043400020803095359 0 0.012651835657266741 0.042778811951526621 0 0.011364587784470531 0.042342213089686651 0 0.0097513609147122215 0.045517224961367002 0 0.0084057751052337704 0.044732049258758018 0 0.0068674186552092741 0.048176099313895569 0 0.0053179695490187962 0.047007906964378648 0 0.0054723676930340361 0.047926071487162013 0 0.0067490307464402426 0.046212808041035489 0 0.0053179695490187962 0.047007906964378648 0 0.0054723676930340361 0.047926071487162013 0 0.0064466709487203608 0.047073458709097078 0 0.0067490307464402426 0.046212808041035489 0 0.0054723676930340361 0.047926071487162013 0 0.0064466709487203608 0.047073458709097078 0 0.0054723676930340361 0.047926071487162013 0 0.0047363578447511901 0.048400091739704429 0 0.0070772967194632618 0.046700600613819344 0 0.0068674186552092741 0.048176099313895569 0 0.0054723676930340361 0.047926071487162013 0 0.0070772967194632618 0.046700600613819344 0 0.0054723676930340361 0.047926071487162013 0 0.0053644468658504601 0.046993488261112611 0 0.0070772967194632618 0.046700600613819344 0 0.0053644468658504601 0.046993488261112611 0 0.0064605671712119643 0.046068606922865622 0 0.0054723676930340361 0.047926071487162013 0 0.0053644468658504601 0.046993488261112611 0 0.0047363578447511901 0.048400091739704429 0 0.0053644468658504601 0.046993488261112611 0 0.0047363578447511901 0.048400091739704429 0 0.0030236788114416514 0.047350143813451581 0 0.0062049578398676768 0.049286701913448736 0 0.0047645556286547682 0.048235528492940417 0 0.0026209212669647884 0.05140798447718422 0 0.0022735028454296193 0.048880051620004257 0 0.0013159978766558687 0.050121696797928002 0 0.0026209212669647884 0.05140798447718422 0 0.0047363578447511901 0.048400091739704429 0 0.0022735028454296193 0.048880051620004257 0 0.0047363578447511901 0.048400091739704429 0 0.0022735028454296193 0.048880051620004257 0 0.0030236788114416514 0.047350143813451581 0 0.0022735028454296193 0.048880051620004257 0 0.0030236788114416514 0.047350143813451581 0 0.00097495401290209594 0.047972100722472683 0 0.0030236788114416514 0.047350143813451581 0 0.0011241071542875823 0.046654751596043625 0 0.00097495401290209594 0.047972100722472683 0 0.0030236788114416514 0.047350143813451581 0 0.0036576802144441846 0.046260218078270424 0 0.0011241071542875823 0.046654751596043625 0 0.0053644468658504601 0.046993488261112611 0 0.0030236788114416514 0.047350143813451581 0 0.0036576802144441846 0.046260218078270424 0 0.0036576802144441846 0.046260218078270424 0 0.0011241071542875823 0.046654751596043625 0 0.0023269826184062611 0.045649629664231875 0 0.0062803130939384031 0.045351056921172465 0 0.0064605671712119643 0.046068606922865622 0 0.0052822107773733773 0.046037270998659049 0 0.0053644468658504601 0.046993488261112611 0 0.0064605671712119643 0.046068606922865622 0 0.0052822107773733773 0.046037270998659049 0 0.0053644468658504601 0.046993488261112611 0 0.0036576802144441846 0.046260218078270424 0 0.0052822107773733773 0.046037270998659049 0 0.0036576802144441846 0.046260218078270424 0 0.0052822107773733773 0.046037270998659049 0 0.0045453051972084435 0.045114945081747057 0 0.0062803130939384031 0.045351056921172465 0 0.0052822107773733773 0.046037270998659049 0 0.0045453051972084435 0.045114945081747057 0 0.0068748104397365626 0.046006269186709074 0 0.0048197356506090973 0.045689394583766856 0 0.0036576802144441846 0.046260218078270424 0 0.0045453051972084435 0.045114945081747057 0 0.0023269826184062611 0.045649629664231875 0 0.0048197356506090973 0.045689394583766856 0 0.0030460258540445863 0.045000081798964031 0 0.0045453051972084435 0.045114945081747057 0 0.0030453531014418577 0.044998275441695282 0 0.0023269826184062611 0.045649629664231875 0 0.0073921806296780189 0.046234125555111159 0 0.0050479095086913492 0.046281416450699928 0 0.0055285000134866124 0.044999513725784729 0 0.0050479095086913492 0.046281416450699928 0 0.003045868766092683 0.04500001150383897 0 0.0055285000134866124 0.044999513725784729 0 0.0011241071542875823 0.046654751596043625 0 0.00076784376855499085 0.045805684960368825 0 0.0023269826184062611 0.045649629664231875 0 0.0030453531014418577 0.044998275441695282 0 0.0023269826184062611 0.045649629664231875 0 0.00038962964375412499 0.04499942122172873 0 0.00076784376855499085 0.045805684960368825 0 0.0023269826184062611 0.045649629664231875 0 0.00038962964375412499 0.04499942122172873 0 0.00076784376855499085 0.045805684960368825 0 0.00038962964375412499 0.04499942122172873 0 -0.00076196228514623402 0.045972525881986588 0 0.00038962964375412499 0.04499942122172873 0 -0.00076196228514623402 0.045972525881986588 0 -0.0022676396081016664 0.044999305589807859 0 0.0011241071542875823 0.046654751596043625 0 0.00076784376855499085 0.045805684960368825 0 -0.00076196228514623402 0.045972525881986588 0 -0.00076196228514623402 0.045972525881986588 0 -0.0018634143493469479 0.046413921694996745 0 -0.0023974941416540635 0.045754930548419788 0 -0.00076196228514623402 0.045972525881986588 0 -0.0018634143493469479 0.046413921694996745 0 -0.00077622433454839317 0.046723565428801371 0 -0.00076196228514623402 0.045972525881986588 0 -0.0022676396081016664 0.044999305589807859 0 -0.0023974941416540635 0.045754930548419788 0 -0.0022676396081016664 0.044999305589807859 0 -0.0023974941416540635 0.045754930548419788 0 -0.0049239734712790625 0.044999760628895852 0 -0.0023974941416540635 0.045754930548419788 0 -0.0049239734712790625 0.044999760628895852 0 -0.0032336634167906687 0.046219659014149615 0 -0.0049324992758722026 0.045001429810998791 0 -0.0075842794530236596 0.045001926436524252 0 -0.0093114114211084037 0.04471366348747767 0 -0.0049262531542834526 0.044999425843443186 0 -0.0062789073359138959 0.04515321659134526 0 -0.0049324992758722026 0.045001429810998791 0 -0.0075842794530236596 0.045001926436524252 0 -0.0067459956962378038 0.045449475267416113 0 -0.0096282829775593912 0.043110777736343815 0 -0.006941405713547206 0.044514575741580915 0 -0.0075842794530236596 0.045001926436524252 0 -0.0094589381480574119 0.043094589945359044 0 -0.0065783669590068969 0.045246407390967247 0 -0.0075842794530236596 0.045001926436524252 0 -0.0093114114211084037 0.04471366348747767 0 -0.0094589381480574119 0.043094589945359044 0 -0.0018634143493469479 0.046413921694996745 0 -0.0023974941416540635 0.045754930548419788 0 -0.0032336634167906687 0.046219659014149615 0 -0.0062789073359138959 0.04515321659134526 0 -0.0070086356228845625 0.044235433875666599 0 -0.0093114114211084037 0.04471366348747767 0 -0.010648046468525723 0.042016131689130057 0 -0.012155388752164731 0.041339546113047 0 -0.0018634143493469479 0.046413921694996745 0 -0.0032336634167906687 0.046219659014149615 0 -0.0018950623492850378 0.047189100733146042 0 -0.0093114114211084037 0.04471366348747767 0 -0.010648046468525723 0.042016131689130057 0 -0.0094589381480574119 0.043094589945359044 0 -0.0094589381480574119 0.043094589945359044 0 -0.0097067120790938714 0.041988883453862015 0 -0.0087236367323368178 0.042066840090290505 0 -0.0097067120790938714 0.041988883453862015 0 -0.010979075128582455 0.040815014426102504 0 -0.0087236367323368178 0.042066840090290505 0 -0.010648046468525723 0.042016131689130057 0 -0.0094589381480574119 0.043094589945359044 0 -0.0097067120790938714 0.041988883453862015 0 -0.010648046468525723 0.042016131689130057 0 -0.0097067120790938714 0.041988883453862015 0 -0.010979075128582455 0.040815014426102504 0 -0.010979075128582455 0.040815014426102504 0 -0.011216964771287223 0.040695719950593727 0 -0.013257526598710424 0.040260029904652876 0 -0.012155388752164731 0.041339546113047 0 -0.012890590577670722 0.039992532283553088 0 -0.012210203498638461 0.040046029568572249 0 -0.011216964771287223 0.040695719950593727 0 -0.012155388752164731 0.041339546113047 0 -0.012210203498638461 0.040046029568572249 0 -0.0070086356228845625 0.044235433875666599 0 -0.0068712201907116166 0.044262975129534199 0 -0.010979075128582455 0.040815014426102504 0 -0.011216964771287223 0.040695719950593727 0 -0.012155388752164731 0.041339546113047 0 -0.010648046468525723 0.042016131689130057 0 -0.010979075128582455 0.040815014426102504 0 -0.012155388752164731 0.041339546113047 0 -0.0018950623492850378 0.047189100733146042 0 -0.00027408355334389251 0.047365592241779067 0 -0.00092290599897554152 0.048402304052703342 0 0.0011241071542875823 0.046654751596043625 0 -0.00027408355334389251 0.047365592241779067 0 0.00097495401290209594 0.047972100722472683 0 0.0011241071542875823 0.046654751596043625 0 -0.00027408355334389251 0.047365592241779067 0 -0.00077622433454839317 0.046723565428801371 0 0.0011241071542875823 0.046654751596043625 0 -0.00076196228514623402 0.045972525881986588 0 -0.00077622433454839317 0.046723565428801371 0 -0.0018634143493469479 0.046413921694996745 0 -0.0018950623492850378 0.047189100733146042 0 -0.00077622433454839317 0.046723565428801371 0 -0.0018950623492850378 0.047189100733146042 0 -0.00027408355334389251 0.047365592241779067 0 -0.00077622433454839317 0.046723565428801371 0 -0.01534552200629336 0.04161897371547587 0 -0.015314177374968482 0.041656462144629439 0 -0.015343553782599474 0.041685784103490206 0 -0.01534552200629336 0.04161897371547587 0 -0.015314177374968482 0.041656462144629439 0 -0.015303234733781272 0.041634617716203602 0 -0.01534552200629336 0.04161897371547587 0 -0.015382924655358792 0.041667929188599018 0 -0.015343553782599474 0.041685784103490206 0 -0.01534552200629336 0.04161897371547587 0 -0.015382924655358792 0.041667929188599018 0 -0.015414978144564367 0.041574729506357933 0 -0.015382924655358792 0.041667929188599018 0 -0.015343553782599474 0.041685784103490206 0 -0.01534859605857478 0.041744488139256214 0 -0.011975947989017039 0.044955542544035644 0 -0.014259808792370531 0.043833965958474136 0 -0.015320874127954616 0.041685450739226637 0 -0.015297818036256152 0.041696383279866481 0 -0.01534859605857478 0.041744488139256214 0 -0.015297818036256152 0.041696383279866481 0 -0.01534859605857478 0.041744488139256214 0 -0.015285221330746784 0.04168971525888409 0 -0.015343553782599474 0.041685784103490206 0 -0.015320874127954616 0.041685450739226637 0 -0.01534859605857478 0.041744488139256214 0 -0.015314177374968482 0.041656462144629439 0 -0.015320874127954616 0.041685450739226637 0 -0.015298745765220124 0.041671693365186231 0 -0.015314177374968482 0.041656462144629439 0 -0.015343553782599474 0.041685784103490206 0 -0.015320874127954616 0.041685450739226637 0 -0.015320874127954616 0.041685450739226637 0 -0.015297818036256152 0.041696383279866481 0 -0.015298745765220124 0.041671693365186231 0 -0.01120407211378811 0.045933530045803181 0 -0.010529991167138902 0.046145033929683214 0 -0.011502632657979435 0.046657109349084028 0 -0.010855047173727598 0.045679348539230287 0 -0.011975947989017039 0.044955542544035644 0 -0.010178935413833332 0.044999969735368919 0 -0.010427328011719654 0.046220593709439255 0 -0.0088088701439479698 0.04534240691225018 0 -0.01120407211378811 0.045933530045803181 0 -0.010178935413833332 0.044999969735368919 0 -0.010427328011719654 0.046220593709439255 0 -0.0095763676994124261 0.045751370875768062 0 -0.0088088701439479698 0.04534240691225018 0 -0.0084519050690619567 0.046028636188208717 0 -0.010178935413833332 0.044999969735368919 0 -0.0088088701439479698 0.04534240691225018 0 -0.0075500823340967143 0.044998873077311707 0 -0.011975947989017039 0.044955542544035644 0 -0.008512630116312106 0.045259199266950337 0 -0.011975947989017039 0.044955542544035644 0 -0.0097936500878147478 0.043012466669670117 0 -0.015382924655358792 0.041667929188599018 0 -0.01534859605857478 0.041744488139256214 0 -0.015461363575638185 0.041713943666294717 0 -0.015382924655358792 0.041667929188599018 0 -0.015461363575638185 0.041713943666294717 0 -0.015414978144564367 0.041574729506357933 0 -0.0097936500878147478 0.043012466669670117 0 -0.006941405713547206 0.044514575741580915 0 -0.0062660254330973893 0.043859311558146159 0 -0.0081222663770339487 0.043260786930609446 0 -0.0073647668184372139 0.042197151988907985 0 -0.0084519050690619567 0.046028636188208717 0 -0.0073632509095687632 0.045510466701002748 0 -0.0065783669590068969 0.045246407390967247 0 -0.0088088701439479698 0.04534240691225018 0 -0.0084519050690619567 0.046028636188208717 0 -0.0073632509095687632 0.045510466701002748 0 -0.0088088701439479698 0.04534240691225018 0 -0.0075500823340967143 0.044998873077311707 0 -0.0073632509095687632 0.045510466701002748 0 -0.0075500823340967143 0.044998873077311707 0 -0.0073632509095687632 0.045510466701002748 0 -0.0067459956962378038 0.045449475267416113 0 -0.0049324992758722026 0.045001429810998791 0 -0.0075500823340967143 0.044998873077311707 0 -0.0067459956962378038 0.045449475267416113 0 -0.0075842794530236596 0.045001926436524252 0 -0.0067459956962378038 0.045449475267416113 0 -0.0065783669590068969 0.045246407390967247 0 -0.0073632509095687632 0.045510466701002748 0 -0.0067459956962378038 0.045449475267416113 0 -0.0065783669590068969 0.045246407390967247 0 -0.0094589381480574119 0.043094589945359044 0 -0.0081222663770339487 0.043260786930609446 0 -0.0087236367323368178 0.042066840090290505 0 -0.0081222663770339487 0.043260786930609446 0 -0.0087236367323368178 0.042066840090290505 0 -0.0073647668184372139 0.042197151988907985 0 -0.011326615561575435 0.04087440070568539 0 -0.009981322612387801 0.040111585332490686 0 -0.0087236367323368178 0.042066840090290505 0 -0.007815158448851561 0.040289618627721929 0 -0.0073647668184372139 0.042197151988907985 0 -0.010979075128582455 0.040815014426102504 0 -0.0087236367323368178 0.042066840090290505 0 -0.007815158448851561 0.040289618627721929 0 -0.007815158448851561 0.040289618627721929 0 -0.0073647668184372139 0.042197151988907985 0 -0.0060109573757576914 0.041722425831195328 0 -0.007815158448851561 0.040289618627721929 0 -0.0060109573757576914 0.041722425831195328 0 -0.0058586316423781693 0.039626309154047613 0 -0.0062660254330973893 0.043859311558146159 0 -0.0073647668184372139 0.042197151988907985 0 -0.0060109573757576914 0.041722425831195328 0 -0.015461363575638185 0.041713943666294717 0 -0.015522123970749089 0.041494997260956172 0 -0.015414978144564367 0.041574729506357933 0 -0.0097936500878147478 0.043012466669670117 0 -0.01068000310790005 0.041447235261153376 0 -0.01068000310790005 0.041447235261153376 0 -0.012490896242029344 0.040876283263105447 0 -0.015522123970749089 0.041494997260956172 0 -0.01535559438689346 0.041314899648121427 0 -0.015563620331090922 0.041161343934876075 0 -0.01535559438689346 0.041314899648121427 0 -0.015374095913732122 0.041513243776848646 0 -0.015296666069421915 0.041562639253548334 0 -0.015522123970749089 0.041494997260956172 0 -0.01535559438689346 0.041314899648121427 0 -0.015374095913732122 0.041513243776848646 0 -0.015522123970749089 0.041494997260956172 0 -0.015374095913732122 0.041513243776848646 0 -0.015414978144564367 0.041574729506357933 0 -0.01534552200629336 0.04161897371547587 0 -0.015374095913732122 0.041513243776848646 0 -0.015414978144564367 0.041574729506357933 0 -0.01534552200629336 0.04161897371547587 0 -0.015374095913732122 0.041513243776848646 0 -0.015315409351576548 0.0415963562980474 0 -0.015224012287655223 0.040894228943595956 0 -0.015202636909341968 0.04077675864069881 0 -0.015227883172067689 0.040936410794187118 0 -0.01535559438689346 0.041314899648121427 0 -0.015563620331090922 0.041161343934876075 0 -0.015227883172067689 0.040936410794187118 0 -0.012490896242029344 0.040876283263105447 0 -0.016402216420765354 0.041159387497842363 0 -0.012490896242029344 0.040876283263105447 0 -0.015011440627502055 0.040700650903949476 0 -0.014103568667762812 0.040403586955676266 0 -0.01374278582568479 0.040667183477986035 0 -0.014276698338531027 0.040652705442276019 0 -0.009981322612387801 0.040111585332490686 0 -0.012490896242029344 0.040876283263105447 0 -0.013257526598710424 0.040260029904652876 0 -0.014103568667762812 0.040403586955676266 0 -0.01374278582568479 0.040667183477986035 0 -0.013257526598710424 0.040260029904652876 0 -0.01374278582568479 0.040667183477986035 0 -0.012649252803863533 0.040818787867008634 0 -0.01374278582568479 0.040667183477986035 0 -0.013628064575210328 0.040811838795485396 0 -0.012649252803863533 0.040818787867008634 0 -0.013628064575210328 0.040811838795485396 0 -0.01435317923057085 0.040580402009888064 0 -0.014232858478242225 0.040641984993231524 0 -0.013422216117829082 0.040148036258452806 0 -0.014152307515108695 0.040057610951006559 0 -0.013241298185377526 0.039489915133849487 0 -0.013975157049700903 0.039533181092770098 0 -0.013447156953607937 0.039523922739326998 0 -0.01435317923057085 0.040580402009888064 0 -0.014232858478242225 0.040641984993231524 0 -0.014566308311497746 0.040386825056492708 0 -0.01374278582568479 0.040667183477986035 0 -0.014232858478242225 0.040641984993231524 0 -0.014276698338531027 0.040652705442276019 0 -0.01374278582568479 0.040667183477986035 0 -0.013628064575210328 0.040811838795485396 0 -0.014232858478242225 0.040641984993231524 0 -0.014232858478242225 0.040641984993231524 0 -0.014276698338531027 0.040652705442276019 0 -0.01484921468441084 0.040488711372519234 0 -0.014232858478242225 0.040641984993231524 0 -0.01484921468441084 0.040488711372519234 0 -0.014566308311497746 0.040386825056492708 0 -0.015011440627502055 0.040700650903949476 0 -0.01476938840930293 0.040563538555357763 0 -0.01484921468441084 0.040488711372519234 0 -0.015110664482139055 0.040711465529649077 0 -0.015116599614424799 0.040697682128305587 0 -0.015202636909341968 0.04077675864069881 0 -0.01484921468441084 0.040488711372519234 0 -0.015110664482139055 0.040711465529649077 0 -0.015202636909341968 0.04077675864069881 0 -0.015110664482139055 0.040711465529649077 0 -0.015227883172067689 0.040936410794187118 0 -0.012890590577670722 0.039992532283553088 0 -0.013103420118398846 0.039588290246534326 0 -0.013217609748313458 0.039642949275987216 0 0.00069528851151870095 0.049081796688027209 0 -0.00092290599897554152 0.048402304052703342 0 -5.0368169848650148e-05 0.05016858389280103 0 -0.0068712201907116166 0.044262975129534199 0 -0.007000269399816939 0.044616819077887553 0 0.0013159978766558687 0.050121696797928002 0 0.00069528851151870095 0.049081796688027209 0 -5.0368169848650148e-05 0.05016858389280103 0 0.0022735028454296193 0.048880051620004257 0 0.0013159978766558687 0.050121696797928002 0 0.00069528851151870095 0.049081796688027209 0 0.00069528851151870095 0.049081796688027209 0 0.00097495401290209594 0.047972100722472683 0 -0.00092290599897554152 0.048402304052703342 0 0.0022735028454296193 0.048880051620004257 0 0.00069528851151870095 0.049081796688027209 0 0.00097495401290209594 0.047972100722472683 0 -0.00027408355334389251 0.047365592241779067 0 0.00097495401290209594 0.047972100722472683 0 -0.00092290599897554152 0.048402304052703342 0 -0.012890590577670722 0.039992532283553088 0 -0.012210203498638461 0.040046029568572249 0 -0.012870461378444694 0.039566125072037883 0 -0.011216964771287223 0.040695719950593727 0 -0.013257526598710424 0.040260029904652876 0 -0.012649252803863533 0.040818787867008634 0 -0.011513831778847608 0.040598601819087414 0 -0.012461827847183015 0.040313873385698668 0 -0.011216964771287223 0.040695719950593727 0 -0.012210203498638461 0.040046029568572249 0 -0.012418504545313475 0.03974006474204058 0 -0.013422216117829082 0.040148036258452806 0 -0.012461827847183015 0.040313873385698668 0 -0.013241298185377526 0.039489915133849487 0 -0.012418504545313475 0.03974006474204058 0 -0.012870461378444694 0.039566125072037883 0 -0.012210203498638461 0.040046029568572249 0 -0.012418504545313475 0.03974006474204058 0 -0.012870461378444694 0.039566125072037883 0 -0.012890590577670722 0.039992532283553088 0 -0.012870461378444694 0.039566125072037883 0 -0.013103420118398846 0.039588290246534326 0 -0.012870461378444694 0.039566125072037883 0 -0.013349974839332904 0.0395322217641009 0 -0.013103420118398846 0.039588290246534326 0 -0.013241298185377526 0.039489915133849487 0 -0.012870461378444694 0.039566125072037883 0 -0.013447156953607937 0.039523922739326998 0 -0.012870461378444694 0.039566125072037883 0 -0.013447156953607937 0.039523922739326998 0 -0.013349974839332904 0.0395322217641009 0 -0.013447156953607937 0.039523922739326998 0 -0.013349974839332904 0.0395322217641009 0 -0.013755846704645542 0.03961722918344901 0 -0.013975157049700903 0.039533181092770098 0 -0.013447156953607937 0.039523922739326998 0 -0.013755846704645542 0.03961722918344901 0 -0.013349974839332904 0.0395322217641009 0 -0.013398038421330151 0.039580895634718401 0 -0.013629313108323635 0.039630062386635863 0 -0.013398038421330151 0.039580895634718401 0 -0.013272979469153264 0.039564532543590131 0 -0.013280721820659949 0.039595778716473351 0 -0.013349974839332904 0.0395322217641009 0 -0.013398038421330151 0.039580895634718401 0 -0.013272979469153264 0.039564532543590131 0 -0.013272979469153264 0.039564532543590131 0 -0.013103420118398846 0.039588290246534326 0 -0.013217609748313458 0.039642949275987216 0 -0.013272979469153264 0.039564532543590131 0 -0.013217609748313458 0.039642949275987216 0 -0.013280721820659949 0.039595778716473351 0 -0.013349974839332904 0.0395322217641009 0 -0.013272979469153264 0.039564532543590131 0 -0.013103420118398846 0.039588290246534326 0 0.0026209212669647884 0.05140798447718422 0 0.0013159978766558687 0.050121696797928002 0 0.00086213549705010527 0.05236494831039893 0 -0.007000269399816939 0.044616819077887553 0 -0.0035941424845702288 0.046679978363152595 0 0.0013159978766558687 0.050121696797928002 0 -5.0368169848650148e-05 0.05016858389280103 0 0.00067038995357321504 0.051980793660309228 0 0.0020396837867656778 0.052231452538126617 0 -0.0035941424845702288 0.046679978363152595 0 0.0026209212669647884 0.05140798447718422 0 0.00086213549705010527 0.05236494831039893 0 0.0012997138464589553 0.053451560026631081 0 -0.0035941424845702288 0.046679978363152595 0 0.00072903741042125176 0.04591659595056001 0 -0.0037405754336429062 0.044350501019547406 0 -0.0039668037391473593 0.043754261285421092 0 -0.0035039525206918957 0.043275783177243378 0 -0.0035941424845702288 0.046679978363152595 0 -0.0088006367863319342 0.040699994145470098 0 0.0020417311555106137 0.041487993746459478 0 0.00072903741042125176 0.04591659595056001 0 -0.013398038421330151 0.039580895634718401 0 -0.013459264265395446 0.039667728672278309 0 -0.013629313108323635 0.039630062386635863 0 -0.013398038421330151 0.039580895634718401 0 -0.013280721820659949 0.039595778716473351 0 -0.013459264265395446 0.039667728672278309 0 -0.0035039525206918957 0.043275783177243378 0 -0.0034454905778385169 0.042663768227966296 0 -0.0033127824938093383 0.042274865646898925 0 -0.0088006367863319342 0.040699994145470098 0 -0.0099111184242614246 0.040539760723029714 0 -0.013459264265395446 0.039667728672278309 0 -0.013721548433470582 0.039870684629372675 0 -0.013775004206455331 0.039728059991517364 0 -0.013459264265395446 0.039667728672278309 0 -0.013775004206455331 0.039728059991517364 0 -0.013629313108323635 0.039630062386635863 0 -0.0038252603757629828 0.042826153832927004 0 -0.00364544673546954 0.043221334255939964 0 -0.0034454905778385169 0.042663768227966296 0 -0.0038252603757629828 0.042826153832927004 0 -0.0036179244087050704 0.042641488494356589 0 -0.0034454905778385169 0.042663768227966296 0 -0.0039668037391473593 0.043754261285421092 0 -0.0035039525206918957 0.043275783177243378 0 -0.0034454905778385169 0.042663768227966296 0 0.00072903741042125176 0.04591659595056001 0 -0.0047369118411851206 0.04201321654732313 0 0.0020417311555106137 0.041487993746459478 0 -0.0050492786208249513 0.039662366609719349 0 -0.00097900465375415748 0.038424797280951578 0 -0.0090927202108573961 0.034521962910971558 0 -0.0096545007633608779 0.034814576142461466 0 -0.009312317602333019 0.03310945244177519 0 -0.0079552909941084157 0.03344821928639493 0 -0.0044890542638747642 0.036320923051568747 0 -0.0066896864658959549 0.037838966206509006 0 -0.0066037147997312171 0.036441457819443752 0 -0.0066896864658959549 0.037838966206509006 0 -0.0066037147997312171 0.036441457819443752 0 -0.0083047258177763091 0.037534693410895235 0 -0.0036179244087050704 0.042641488494356589 0 -0.0034454905778385169 0.042663768227966296 0 -0.0033127824938093383 0.042274865646898925 0 -0.0050492786208249513 0.039662366609719349 0 -0.0099111184242614246 0.040539760723029714 0 -0.0066896864658959549 0.037838966206509006 0 -0.0083047258177763091 0.037534693410895235 0 -0.0075603160037246205 0.038422748172457881 0 -0.01398876753099529 0.039548647679945967 0 -0.014067811897277537 0.039761680208971299 0 -0.01431144410055378 0.039805133674664719 0 -0.0083047258177763091 0.037534693410895235 0 -0.0075603160037246205 0.038422748172457881 0 -0.0088164227335713035 0.03928373480164473 0 -0.014520508104294942 0.022618463777014083 0 -0.014695997014697709 0.022723395012559093 0 -0.014577885060849394 0.02288637921321918 0 -0.011122514476978628 0.030583203064616319 0 -0.014971061444541736 0.032801978564001494 0 -0.0099111184242614246 0.040539760723029714 0 -0.014971061444541736 0.032801978564001494 0 -0.011122514476978628 0.030583203064616319 0 -0.011372221840869801 0.025995617657951667 0 -0.0072530126209634791 0.032897975275846737 0 -0.0087086761582104433 0.032102754734605617 0 -0.0084452707117291838 0.030193470456858832 0 -0.009312317602333019 0.03310945244177519 0 -0.0079552909941084157 0.03344821928639493 0 -0.0087086761582104433 0.032102754734605617 0 -0.0079552909941084157 0.03344821928639493 0 -0.0072530126209634791 0.032897975275846737 0 -0.0087086761582104433 0.032102754734605617 0 -0.0090927202108573961 0.034521962910971558 0 -0.011122514476978628 0.030583203064616319 0 -0.01431144410055378 0.039805133674664719 0 -0.014051716033061533 0.039785145457767013 0 -0.014481778138837787 0.039774557827883465 0 -0.014511914736200419 0.039765389482243965 0 -0.01431144410055378 0.039805133674664719 0 -0.014439786656861589 0.039867040556213137 0 -0.014511914736200419 0.039765389482243965 0 -0.01431144410055378 0.039805133674664719 0 -0.014481778138837787 0.039774557827883465 0 -0.014511914736200419 0.039765389482243965 0 -0.014481778138837787 0.039774557827883465 0 -0.01473071142008299 0.039724038955304686 0 -0.0099111184242614246 0.040539760723029714 0 -0.015620501790427184 0.039900860365495838 0 -0.014067811897277537 0.039761680208971299 0 -0.01431144410055378 0.039805133674664719 0 -0.014439786656861589 0.039867040556213137 0 -0.013721548433470582 0.039870684629372675 0 -0.01431144410055378 0.039805133674664719 0 -0.014051716033061533 0.039785145457767013 0 -0.013721548433470582 0.039870684629372675 0 -0.014051716033061533 0.039785145457767013 0 -0.013775004206455331 0.039728059991517364 0 -0.014051716033061533 0.039785145457767013 0 -0.014481778138837787 0.039774557827883465 0 -0.014001194707095987 0.03974552346846822 0 -0.014001194707095987 0.03974552346846822 0 -0.013755846704645542 0.03961722918344901 0 -0.014265115887968425 0.039815620956601537 0 -0.014481778138837787 0.039774557827883465 0 -0.014001194707095987 0.03974552346846822 0 -0.014265115887968425 0.039815620956601537 0 -0.014001194707095987 0.03974552346846822 0 -0.013775004206455331 0.039728059991517364 0 -0.013629313108323635 0.039630062386635863 0 -0.014051716033061533 0.039785145457767013 0 -0.014001194707095987 0.03974552346846822 0 -0.013775004206455331 0.039728059991517364 0 -0.013349974839332904 0.0395322217641009 0 -0.013629313108323635 0.039630062386635863 0 -0.013755846704645542 0.03961722918344901 0 -0.014001194707095987 0.03974552346846822 0 -0.013629313108323635 0.039630062386635863 0 -0.013755846704645542 0.03961722918344901 0 -0.013975157049700903 0.039533181092770098 0 -0.014681001212880906 0.039973204157835729 0 -0.014265115887968425 0.039815620956601537 0 -0.013975157049700903 0.039533181092770098 0 -0.013755846704645542 0.03961722918344901 0 -0.014265115887968425 0.039815620956601537 0 -0.01435317923057085 0.040580402009888064 0 -0.014566308311497746 0.040386825056492708 0 -0.014681001212880906 0.039973204157835729 0 -0.014566308311497746 0.040386825056492708 0 -0.014681001212880906 0.039973204157835729 0 -0.014907837788576793 0.040142915911792941 0 -0.014152307515108695 0.040057610951006559 0 -0.014576887635115542 0.040005470740068209 0 -0.014681001212880906 0.039973204157835729 0 -0.014907837788576793 0.040142915911792941 0 -0.014986050074080806 0.039842839877831777 0 -0.014681001212880906 0.039973204157835729 0 -0.014684580857225701 0.039817605685740484 0 -0.014986050074080806 0.039842839877831777 0 -0.014681001212880906 0.039973204157835729 0 -0.014265115887968425 0.039815620956601537 0 -0.014684580857225701 0.039817605685740484 0 -0.01484921468441084 0.040488711372519234 0 -0.015148399585468746 0.040248226937356607 0 -0.015173707830508195 0.040613388530025829 0 -0.01484921468441084 0.040488711372519234 0 -0.014907837788576793 0.040142915911792941 0 -0.015148399585468746 0.040248226937356607 0 -0.01484921468441084 0.040488711372519234 0 -0.015173707830508195 0.040613388530025829 0 -0.015116599614424799 0.040697682128305587 0 -0.01484921468441084 0.040488711372519234 0 -0.014566308311497746 0.040386825056492708 0 -0.014907837788576793 0.040142915911792941 0 -0.014907837788576793 0.040142915911792941 0 -0.015195818054510667 0.03987557267690877 0 -0.014986050074080806 0.039842839877831777 0 -0.014907837788576793 0.040142915911792941 0 -0.015148399585468746 0.040248226937356607 0 -0.015195818054510667 0.03987557267690877 0 -0.015148399585468746 0.040248226937356607 0 -0.015195818054510667 0.03987557267690877 0 -0.015232592169554639 0.039886645204707312 0 -0.015195818054510667 0.03987557267690877 0 -0.015352685387157174 0.039573583004006388 0 -0.015232592169554639 0.039886645204707312 0 -0.015195818054510667 0.03987557267690877 0 -0.015284264312770248 0.039556009240412068 0 -0.014986050074080806 0.039842839877831777 0 -0.015195818054510667 0.03987557267690877 0 -0.015284264312770248 0.039556009240412068 0 -0.015352685387157174 0.039573583004006388 0 -0.015352685387157174 0.039573583004006388 0 -0.015567664544331731 0.039148309720459608 0 -0.015371514686008338 0.039444740021496158 0 -0.015284264312770248 0.039556009240412068 0 -0.015352685387157174 0.039573583004006388 0 -0.015567664544331731 0.039148309720459608 0 -0.015352685387157174 0.039573583004006388 0 -0.015371514686008338 0.039444740021496158 0 -0.015232592169554639 0.039886645204707312 0 -0.014481778138837787 0.039774557827883465 0 -0.014684580857225701 0.039817605685740484 0 -0.014930670015296323 0.03967980543602502 0 -0.014481778138837787 0.039774557827883465 0 -0.014265115887968425 0.039815620956601537 0 -0.014684580857225701 0.039817605685740484 0 -0.014684580857225701 0.039817605685740484 0 -0.014986050074080806 0.039842839877831777 0 -0.014930670015296323 0.03967980543602502 0 -0.015284264312770248 0.039556009240412068 0 -0.014930670015296323 0.03967980543602502 0 -0.015209987531695219 0.039512938406357105 0 -0.015284264312770248 0.039556009240412068 0 -0.014986050074080806 0.039842839877831777 0 -0.014930670015296323 0.03967980543602502 0 -0.014481778138837787 0.039774557827883465 0 -0.014930670015296323 0.03967980543602502 0 -0.01473071142008299 0.039724038955304686 0 -0.014930670015296323 0.03967980543602502 0 -0.01473071142008299 0.039724038955304686 0 -0.015110841072139272 0.039557136490433124 0 -0.01473071142008299 0.039724038955304686 0 -0.015110841072139272 0.039557136490433124 0 -0.01482607815716743 0.039812749073825156 0 -0.015209987531695219 0.039512938406357105 0 -0.015110841072139272 0.039557136490433124 0 -0.015437380227176353 0.03927093287876092 0 -0.014930670015296323 0.03967980543602502 0 -0.015209987531695219 0.039512938406357105 0 -0.015110841072139272 0.039557136490433124 0 -0.015110841072139272 0.039557136490433124 0 -0.01540484922182685 0.039390237378333068 0 -0.015437380227176353 0.03927093287876092 0 -0.019436697937980273 0.036487821915543561 0 -0.019691510277706627 0.034760299352389112 0 -0.023937796481378844 0.033269719520888724 0 -0.023542077510302947 0.03217850668987484 0 -0.023487564711779013 0.03197978296222468 0 -0.023937796481378844 0.033269719520888724 0 -0.023542077510302947 0.03217850668987484 0 -0.023782643392629432 0.032704750506759257 0 -0.015110841072139272 0.039557136490433124 0 -0.01540484922182685 0.039390237378333068 0 -0.01482607815716743 0.039812749073825156 0 -0.023542077510302947 0.03217850668987484 0 -0.023502989808375226 0.032474004164751574 0 -0.023253998232768448 0.032342407296409817 0 -0.020654803075061096 0.034634386339060089 0 -0.019691510277706627 0.034760299352389112 0 -0.015567664544331731 0.039148309720459608 0 -0.015668967148188866 0.038906885481493438 0 -0.015754050023371304 0.038527184778750313 0 -0.015284264312770248 0.039556009240412068 0 -0.015567664544331731 0.039148309720459608 0 -0.015437380227176353 0.03927093287876092 0 -0.015284264312770248 0.039556009240412068 0 -0.015209987531695219 0.039512938406357105 0 -0.015437380227176353 0.03927093287876092 0 -0.015567664544331731 0.039148309720459608 0 -0.015437380227176353 0.03927093287876092 0 -0.015668967148188866 0.038906885481493438 0 -0.01540484922182685 0.039390237378333068 0 -0.015668967148188866 0.038906885481493438 0 -0.015929231407176482 0.038371394349862628 0 -0.01540484922182685 0.039390237378333068 0 -0.015437380227176353 0.03927093287876092 0 -0.015668967148188866 0.038906885481493438 0 -0.015668967148188866 0.038906885481493438 0 -0.015929231407176482 0.038371394349862628 0 -0.015754050023371304 0.038527184778750313 0 -0.021394595016827014 0.034934680107549902 0 -0.023162290226384323 0.03182676183047322 0 -0.020965685785133682 0.033128700426750902 0 -0.021394595016827014 0.034934680107549902 0 -0.023466812638324057 0.033019056170403564 0 -0.023162290226384323 0.03182676183047322 0 -0.019436697937980273 0.036487821915543561 0 -0.018458205613079124 0.0365178808471626 0 -0.023937796481378844 0.033269719520888724 0 -0.021394595016827014 0.034934680107549902 0 -0.023466812638324057 0.033019056170403564 0 -0.023662051986741178 0.032484195025599391 0 -0.023162290226384323 0.03182676183047322 0 -0.023888101910200816 0.032187818472540757 0 -0.023162290226384323 0.03182676183047322 0 -0.023888101910200816 0.032187818472540757 0 -0.023334949035550289 0.030649273698417939 0 -0.023466812638324057 0.033019056170403564 0 -0.023662051986741178 0.032484195025599391 0 -0.023162290226384323 0.03182676183047322 0 -0.023162290226384323 0.03182676183047322 0 -0.023015497691063973 0.030376399459236144 0 -0.023166463711494459 0.03041521169726695 0 -0.023114310847898351 0.031779499850984286 0 -0.021219778093451852 0.031449187386476604 0 -0.023162290226384323 0.03182676183047322 0 -0.020965685785133682 0.033128700426750902 0 -0.018931593360326755 0.032346815688518729 0 -0.023162290226384323 0.03182676183047322 0 -0.023334949035550289 0.030649273698417939 0 -0.023166463711494459 0.03041521169726695 0 -0.023775476421438835 0.03270114361117131 0 -0.0235836378930709 0.032625341980972798 0 -0.023782643392629432 0.032704750506759257 0 -0.023775476421438835 0.03270114361117131 0 -0.0235836378930709 0.032625341980972798 0 -0.023508776151345796 0.032708598242050899 0 -0.0235836378930709 0.032625341980972798 0 -0.023508776151345796 0.032708598242050899 0 -0.023305910692307814 0.032543619500772211 0 -0.0235836378930709 0.032625341980972798 0 -0.023502989808375226 0.032474004164751574 0 -0.023782643392629432 0.032704750506759257 0 -0.023542077510302947 0.03217850668987484 0 -0.023502989808375226 0.032474004164751574 0 -0.023782643392629432 0.032704750506759257 0 -0.0235836378930709 0.032625341980972798 0 -0.023502989808375226 0.032474004164751574 0 -0.023305910692307814 0.032543619500772211 0 -0.023937796481378844 0.033269719520888724 0 -0.023782643392629432 0.032704750506759257 0 -0.023874886847326738 0.032728833844014267 0 -0.023937796481378844 0.033269719520888724 0 -0.023466812638324057 0.033019056170403564 0 -0.023874886847326738 0.032728833844014267 0 -0.023466812638324057 0.033019056170403564 0 -0.023662051986741178 0.032484195025599391 0 -0.023874886847326738 0.032728833844014267 0 -0.023775476421438835 0.03270114361117131 0 -0.023782643392629432 0.032704750506759257 0 -0.023874886847326738 0.032728833844014267 0 -0.023662051986741178 0.032484195025599391 0 -0.023874886847326738 0.032728833844014267 0 -0.023888101910200816 0.032187818472540757 0 -0.023874886847326738 0.032728833844014267 0 -0.023888101910200816 0.032187818472540757 0 -0.023785384727734556 0.032739676043529287 0 -0.022105583783307629 0.029473350755298302 0 -0.024746282378922239 0.033193953281194163 0 -0.017384014215687318 0.022050891064528108 0 -0.016276587297463931 0.022086030994086389 0 -0.016750563576291001 0.022322815970728695 0 -0.022105583783307629 0.029473350755298302 0 -0.019785489424901902 0.027437935117836879 0 -0.024254243405955646 0.032947531402531066 0 -0.023785384727734556 0.032739676043529287 0 -0.023459217529594935 0.032978269844966768 0 -0.023775476421438835 0.03270114361117131 0 -0.023785384727734556 0.032739676043529287 0 -0.023508776151345796 0.032708598242050899 0 -0.023775476421438835 0.03270114361117131 0 -0.023874886847326738 0.032728833844014267 0 -0.023785384727734556 0.032739676043529287 0 -0.023785384727734556 0.032739676043529287 0 -0.023508776151345796 0.032708598242050899 0 -0.023459217529594935 0.032978269844966768 0 -0.023459217529594935 0.032978269844966768 0 -0.023113425782427616 0.03269355908996921 0 -0.022527294965614352 0.032784389056442202 0 -0.016276587297463931 0.022086030994086389 0 -0.014922700558767907 0.022042178269104408 0 -0.015706957667983173 0.022556100976247561 0 -0.019785489424901902 0.027437935117836879 0 -0.017805260745772041 0.026260678512911279 0 -0.014922700558767907 0.022042178269104408 0 -0.015706957667983173 0.022556100976247561 0 -0.015086481859816174 0.02293439096000327 0 -0.023113425782427616 0.03269355908996921 0 -0.022756897874229486 0.032456384018709782 0 -0.022527294965614352 0.032784389056442202 0 -0.023508776151345796 0.032708598242050899 0 -0.023459217529594935 0.032978269844966768 0 -0.023113425782427616 0.03269355908996921 0 -0.023508776151345796 0.032708598242050899 0 -0.023113425782427616 0.03269355908996921 0 -0.023305910692307814 0.032543619500772211 0 -0.023113425782427616 0.03269355908996921 0 -0.023305910692307814 0.032543619500772211 0 -0.022756897874229486 0.032456384018709782 0 -0.022756897874229486 0.032456384018709782 0 -0.023030706069695556 0.03236119311662191 0 -0.022876748679738976 0.03209489925948919 0 -0.023305910692307814 0.032543619500772211 0 -0.022756897874229486 0.032456384018709782 0 -0.023030706069695556 0.03236119311662191 0 -0.023502989808375226 0.032474004164751574 0 -0.023305910692307814 0.032543619500772211 0 -0.023253998232768448 0.032342407296409817 0 -0.023030706069695556 0.03236119311662191 0 -0.023253998232768448 0.032342407296409817 0 -0.022876748679738976 0.03209489925948919 0 -0.023305910692307814 0.032543619500772211 0 -0.023030706069695556 0.03236119311662191 0 -0.023253998232768448 0.032342407296409817 0 -0.015193143917918091 0.023697716333432921 0 -0.015408335696028052 0.024303507324387429 0 -0.014861900271550287 0.02397690819769472 0 -0.022756897874229486 0.032456384018709782 0 -0.022287691688732462 0.032165128710011148 0 -0.022527294965614352 0.032784389056442202 0 -0.018916762875479606 0.02857463858369946 0 -0.017805260745772041 0.026260678512911279 0 -0.022756897874229486 0.032456384018709782 0 -0.022287691688732462 0.032165128710011148 0 -0.022876748679738976 0.03209489925948919 0 -0.014842192509314595 0.023469694140326652 0 -0.014861900271550287 0.02397690819769472 0 -0.014895312719089398 0.02334697555353387 0 -0.017805260745772041 0.026260678512911279 0 -0.014017286123475001 0.023867213865561739 0 -0.017805260745772041 0.026260678512911279 0 -0.015120158082610795 0.021917020392134549 0 -0.014842192509314595 0.023469694140326652 0 -0.015086481859816174 0.02293439096000327 0 -0.014895312719089398 0.02334697555353387 0 -0.014861900271550287 0.02397690819769472 0 -0.014895312719089398 0.02334697555353387 0 -0.01483807132065338 0.023642453139732365 0 -0.014861900271550287 0.02397690819769472 0 -0.01461938055599008 0.024254188030088188 0 -0.01483807132065338 0.023642453139732365 0 -0.013397131090671279 0.023432196807944772 0 -0.01305651041082294 0.025760850954136747 0 -0.01461938055599008 0.024254188030088188 0 -0.015183768482794437 0.02381121138028908 0 -0.01461938055599008 0.024254188030088188 0 -0.014944850490488068 0.023703119903657723 0 -0.01461938055599008 0.024254188030088188 0 -0.01483807132065338 0.023642453139732365 0 -0.014944850490488068 0.023703119903657723 0 -0.013984179533291069 0.024765148407493966 0 -0.01457744209660816 0.024335100309514135 0 -0.013397131090671279 0.023432196807944772 0 -0.01461938055599008 0.024254188030088188 0 -0.014689125559007879 0.023734723543257633 0 -0.013397131090671279 0.023432196807944772 0 -0.014689125559007879 0.023734723543257633 0 -0.014590524061077279 0.023221819498384068 0 -0.015193143917918091 0.023697716333432921 0 -0.014861900271550287 0.02397690819769472 0 -0.014689125559007879 0.023734723543257633 0 -0.014861900271550287 0.02397690819769472 0 -0.01461938055599008 0.024254188030088188 0 -0.014689125559007879 0.023734723543257633 0 -0.015193143917918091 0.023697716333432921 0 -0.014590524061077279 0.023221819498384068 0 -0.014925003987071608 0.023063613471690909 0 -0.015193143917918091 0.023697716333432921 0 -0.014689125559007879 0.023734723543257633 0 -0.014590524061077279 0.023221819498384068 0 -0.011520895403659996 0.025780083477938115 0 -0.011372221840869801 0.025995617657951667 0 -0.013397131090671279 0.023432196807944772 0 -0.014590524061077279 0.023221819498384068 0 -0.014187731202644891 0.022949230203663198 0 -0.014590524061077279 0.023221819498384068 0 -0.014187731202644891 0.022949230203663198 0 -0.014577885060849394 0.02288637921321918 0 -0.0098306508888399494 0.031069131913081135 0 -0.0087086761582104433 0.032102754734605617 0 -0.0084452707117291838 0.030193470456858832 0 -0.014520508104294942 0.022618463777014083 0 -0.014187731202644891 0.022949230203663198 0 -0.014577885060849394 0.02288637921321918 0 -0.014971061444541736 0.032801978564001494 0 -0.018381352593732084 0.026144031196961022 0 -0.014695997014697709 0.022723395012559093 0 -0.014577885060849394 0.02288637921321918 0 -0.014925003987071608 0.023063613471690909 0 -0.014590524061077279 0.023221819498384068 0 -0.014577885060849394 0.02288637921321918 0 -0.014925003987071608 0.023063613471690909 0 -0.021608264966926843 0.030543642379808385 0 -0.021941804377595721 0.03145099841253117 0 -0.022632752878633991 0.031263846362871411 0 -0.014971061444541736 0.032801978564001494 0 -0.019161872281344167 0.036145502436544019 0 -0.021941804377595721 0.03145099841253117 0 -0.022632752878633991 0.031263846362871411 0 -0.022425501790974411 0.031758160957791569 0 -0.014511914736200419 0.039765389482243965 0 -0.01473071142008299 0.039724038955304686 0 -0.014439786656861589 0.039867040556213137 0 -0.01473071142008299 0.039724038955304686 0 -0.01482607815716743 0.039812749073825156 0 -0.014439786656861589 0.039867040556213137 0 -0.023385969480705371 0.031966673503035274 0 -0.022632752878633991 0.031263846362871411 0 -0.022876748679738976 0.03209489925948919 0 -0.019691510277706627 0.034760299352389112 0 -0.019161872281344167 0.036145502436544019 0 -0.023542077510302947 0.03217850668987484 0 -0.023385969480705371 0.031966673503035274 0 -0.022876748679738976 0.03209489925948919 0 -0.023542077510302947 0.03217850668987484 0 -0.023253998232768448 0.032342407296409817 0 -0.022876748679738976 0.03209489925948919 0 -0.022287691688732462 0.032165128710011148 0 -0.021941804377595721 0.03145099841253117 0 -0.022425501790974411 0.031758160957791569 0 -0.022287691688732462 0.032165128710011148 0 -0.022876748679738976 0.03209489925948919 0 -0.022425501790974411 0.031758160957791569 0 -0.022632752878633991 0.031263846362871411 0 -0.022876748679738976 0.03209489925948919 0 -0.022425501790974411 0.031758160957791569 0 -0.018916762875479606 0.02857463858369946 0 -0.018381352593732084 0.026144031196961022 0 -0.031246691939703745 0.033667787331514411 0 -0.0330751258979513 0.031011153271927761 0 -0.033464732973279177 0.032976570378849289 0 -0.022568761999512001 0.032616340188974718 0 -0.032275662774115657 0.029897828577984942 0 -0.026816053739171553 0.028253198478291087 0 -0.02900856688966736 0.027520070205904676 0 -0.029881253343398213 0.029963303047563901 0 -0.015497975612698401 0.035473907197870976 0 -0.015646147834216684 0.035556721370496223 0 -0.015551485071822899 0.036565305322825037 0 -0.022568761999512001 0.032616340188974718 0 -0.021683993678203901 0.032457032174099058 0 -0.015495745666184453 0.035463615752448059 0 -0.015646147834216684 0.035556721370496223 0 -0.016702761463847006 0.035087443468115299 0 -0.022568761999512001 0.032616340188974718 0 -0.01432572159317598 0.035830417175262357 0 -0.015646147834216684 0.035556721370496223 0 -0.016702761463847006 0.035087443468115299 0 -0.016703368301266376 0.035544628610893636 0 -0.015646147834216684 0.035556721370496223 0 -0.016703368301266376 0.035544628610893636 0 -0.015551485071822899 0.036565305322825037 0 -0.014662827451155507 0.036592964013125513 0 -0.014628079043104614 0.038230872122512721 0 -0.016703368301266376 0.035544628610893636 0 -0.015551485071822899 0.036565305322825037 0 -0.016097073317601976 0.037472640148839956 0 -0.015551485071822899 0.036565305322825037 0 -0.015284050853941496 0.037516463886870348 0 -0.016097073317601976 0.037472640148839956 0 -0.022568761999512001 0.032616340188974718 0 -0.023910157698081119 0.034392490656576645 0 -0.015050871237672526 0.037246531152536615 0 -0.015551485071822899 0.036565305322825037 0 -0.014619979629990155 0.03714288162273776 0 -0.015050871237672526 0.037246531152536615 0 -0.015551485071822899 0.036565305322825037 0 -0.015284050853941496 0.037516463886870348 0 -0.015497975612698401 0.035473907197870976 0 -0.015551485071822899 0.036565305322825037 0 -0.014619979629990155 0.03714288162273776 0 -0.0330751258979513 0.031011153271927761 0 -0.033640103710487486 0.031582134510662996 0 -0.034429136397056435 0.030415089505403472 0 -0.0330751258979513 0.031011153271927761 0 -0.033640103710487486 0.031582134510662996 0 -0.033464732973279177 0.032976570378849289 0 -0.034366428189255276 0.031811038174699262 0 -0.033970396024221125 0.030769059804169108 0 -0.034725769500579762 0.031182336217758438 0 -0.033640103710487486 0.031582134510662996 0 -0.035140744152980068 0.031975365361268437 0 -0.033640103710487486 0.031582134510662996 0 -0.03551551475450835 0.032284925908937431 0 -0.033464732973279177 0.032976570378849289 0 -0.034725769500579762 0.031182336217758438 0 -0.033640103710487486 0.031582134510662996 0 -0.034429136397056435 0.030415089505403472 0 -0.035640459801366438 0.030784368360161841 0 -0.035140744152980068 0.031975365361268437 0 -0.036867627250923636 0.031159521502164018 0 -0.033970396024221125 0.030769059804169108 0 -0.037006053905676989 0.030870400005951537 0 -0.034725769500579762 0.031182336217758438 0 -0.035640459801366438 0.030784368360161841 0 -0.035140744152980068 0.031975365361268437 0 -0.034725769500579762 0.031182336217758438 0 -0.035640459801366438 0.030784368360161841 0 -0.034429136397056435 0.030415089505403472 0 -0.031165711661031745 0.026820638521510825 0 -0.032298332975937413 0.02817046850373291 0 -0.033277300923769494 0.027586461400254652 0 -0.033970396024221125 0.030769059804169108 0 -0.034332237418543167 0.029380389737580486 0 -0.031165711661031745 0.026820638521510825 0 -0.031070688612253896 0.028458992536825253 0 -0.032298332975937413 0.02817046850373291 0 -0.031070688612253896 0.028458992536825253 0 -0.032298332975937413 0.02817046850373291 0 -0.03244632306198697 0.02953176998971686 0 -0.033970396024221125 0.030769059804169108 0 -0.032275662774115657 0.029897828577984942 0 -0.031165711661031745 0.026820638521510825 0 -0.031070688612253896 0.028458992536825253 0 -0.02900856688966736 0.027520070205904676 0 -0.031070688612253896 0.028458992536825253 0 -0.02900856688966736 0.027520070205904676 0 -0.029881253343398213 0.029963303047563901 0 -0.02793874549143998 0.029355450270937455 0 -0.028180002952769151 0.02769627710465164 0 -0.029881253343398213 0.029963303047563901 0 -0.03244632306198697 0.02953176998971686 0 -0.032851500927763011 0.03164733515007194 0 -0.031070688612253896 0.028458992536825253 0 -0.029881253343398213 0.029963303047563901 0 -0.03244632306198697 0.02953176998971686 0 -0.028180002952769151 0.02769627710465164 0 -0.024602632711203078 0.026958907876492598 0 -0.024786063056983366 0.029099504149485339 0 -0.024980672991911881 0.029050427397426862 0 -0.024793159165738116 0.029221049258574473 0 -0.024681123889190203 0.028903528616278835 0 -0.024786063056983366 0.029099504149485339 0 -0.024980672991911881 0.029050427397426862 0 -0.024681123889190203 0.028903528616278835 0 -0.024786063056983366 0.029099504149485339 0 -0.02465582894101712 0.029118079323239659 0 -0.024681123889190203 0.028903528616278835 0 -0.02465582894101712 0.029118079323239659 0 -0.024440759316060563 0.02912564221027595 0 -0.024786063056983366 0.029099504149485339 0 -0.02465582894101712 0.029118079323239659 0 -0.024730718097099477 0.029175530197554037 0 -0.02465582894101712 0.029118079323239659 0 -0.024440759316060563 0.02912564221027595 0 -0.024590895662462323 0.029252825780778789 0 -0.024440759316060563 0.02912564221027595 0 -0.024397039292818543 0.028941648500652103 0 -0.024235265619564978 0.029090140344240772 0 -0.024309536213153071 0.028736503103636863 0 -0.024681123889190203 0.028903528616278835 0 -0.024397039292818543 0.028941648500652103 0 -0.022568761999512001 0.032616340188974718 0 -0.02793874549143998 0.029355450270937455 0 -0.024681123889190203 0.028903528616278835 0 -0.024440759316060563 0.02912564221027595 0 -0.024397039292818543 0.028941648500652103 0 -0.024309536213153071 0.028736503103636863 0 -0.024397039292818543 0.028941648500652103 0 -0.024169267679164799 0.028933938952730207 0 -0.015806605691585374 0.035338740795415297 0 -0.016702761463847006 0.035087443468115299 0 -0.016283275742306865 0.034396937759494511 0 -0.016702761463847006 0.035087443468115299 0 -0.016283275742306865 0.034396937759494511 0 -0.017150613518509567 0.033652039271736406 0 -0.022568761999512001 0.032616340188974718 0 -0.02028609972903344 0.031569148882859659 0 -0.024397039292818543 0.028941648500652103 0 -0.024169267679164799 0.028933938952730207 0 -0.024235265619564978 0.029090140344240772 0 -0.024169267679164799 0.028933938952730207 0 -0.024235265619564978 0.029090140344240772 0 -0.024011972566808648 0.029148505762219813 0 -0.02028609972903344 0.031569148882859659 0 -0.018543960595555804 0.03171887007833589 0 -0.016283275742306865 0.034396937759494511 0 -0.016918584813705274 0.03328053619892811 0 -0.017150613518509567 0.033652039271736406 0 -0.024440759316060563 0.02912564221027595 0 -0.024235265619564978 0.029090140344240772 0 -0.024145981579761649 0.029323143377614658 0 -0.018543960595555804 0.03171887007833589 0 -0.024000667874307168 0.026472468439557275 0 -0.024235265619564978 0.029090140344240772 0 -0.024011972566808648 0.029148505762219813 0 -0.024145981579761649 0.029323143377614658 0 -0.020597064033485372 0.028623626060222517 0 -0.020433366811068929 0.028893792647352388 0 -0.020829977594161258 0.028940638685930092 0 -0.018543960595555804 0.03171887007833589 0 -0.019115531843835732 0.028755980395135702 0 -0.011942503976450322 0.034251338159120008 0 -0.012801500534973654 0.034156829819161759 0 -0.012583814599787907 0.03318428649598186 0 -0.018543960595555804 0.03171887007833589 0 -0.014975363137628556 0.033948314034755983 0 -0.011942503976450322 0.034251338159120008 0 -0.012277595678939912 0.034834924205825936 0 -0.012801500534973654 0.034156829819161759 0 -0.012277595678939912 0.034834924205825936 0 -0.012973771367132852 0.034904245511630634 0 -0.012801500534973654 0.034156829819161759 0 -0.012277595678939912 0.034834924205825936 0 -0.012973771367132852 0.034904245511630634 0 -0.012871366470365124 0.035650748709938236 0 -0.012973771367132852 0.034904245511630634 0 -0.012801500534973654 0.034156829819161759 0 -0.01378520643043743 0.034292090540434986 0 -0.012973771367132852 0.034904245511630634 0 -0.01378520643043743 0.034292090540434986 0 -0.013594371499770224 0.035360662565586135 0 -0.012801500534973654 0.034156829819161759 0 -0.01378520643043743 0.034292090540434986 0 -0.012583814599787907 0.03318428649598186 0 -0.015000971159438881 0.033113921031767357 0 -0.01378520643043743 0.034292090540434986 0 -0.012583814599787907 0.03318428649598186 0 -0.015000971159438881 0.033113921031767357 0 -0.01378520643043743 0.034292090540434986 0 -0.014508469206054492 0.035819649076799617 0 -0.01378520643043743 0.034292090540434986 0 -0.013594371499770224 0.035360662565586135 0 -0.014508469206054492 0.035819649076799617 0 -0.013594371499770224 0.035360662565586135 0 -0.014508469206054492 0.035819649076799617 0 -0.013582190068726284 0.036218795106151627 0 -0.014508469206054492 0.035819649076799617 0 -0.013582190068726284 0.036218795106151627 0 -0.014036305923093746 0.037433417985491609 0 -0.014508469206054492 0.035819649076799617 0 -0.015213831292994941 0.037476996365200708 0 -0.014036305923093746 0.037433417985491609 0 -0.012665158940468142 0.037559367125388987 0 -0.012437501579197109 0.035102850731966125 0 -0.012930223573079427 0.03640371726091355 0 -0.014662827451155507 0.036592964013125513 0 -0.014975363137628556 0.033948314034755983 0 -0.013582190068726284 0.036218795106151627 0 -0.013357397131672048 0.036955483599969592 0 -0.014036305923093746 0.037433417985491609 0 -0.016702761463847006 0.035087443468115299 0 -0.016703368301266376 0.035544628610893636 0 -0.017150613518509567 0.033652039271736406 0 -0.013582190068726284 0.036218795106151627 0 -0.012930223573079427 0.03640371726091355 0 -0.013357397131672048 0.036955483599969592 0 -0.012930223573079427 0.03640371726091355 0 -0.013056300615480351 0.037095506448655488 0 -0.013357397131672048 0.036955483599969592 0 -0.012437501579197109 0.035102850731966125 0 -0.012930223573079427 0.03640371726091355 0 -0.012871366470365124 0.035650748709938236 0 -0.014975363137628556 0.033948314034755983 0 -0.014077180163086489 0.034532904005270385 0 -0.012973771367132852 0.034904245511630634 0 -0.013594371499770224 0.035360662565586135 0 -0.012871366470365124 0.035650748709938236 0 -0.013582190068726284 0.036218795106151627 0 -0.012930223573079427 0.03640371726091355 0 -0.012871366470365124 0.035650748709938236 0 -0.013594371499770224 0.035360662565586135 0 -0.013582190068726284 0.036218795106151627 0 -0.012871366470365124 0.035650748709938236 0 -0.020965685785133682 0.033128700426750902 0 -0.018931593360326755 0.032346815688518729 0 -0.016060135503325856 0.035917170498025078 0 -0.015000971159438881 0.033113921031767357 0 -0.018931593360326755 0.032346815688518729 0 -0.016060135503325856 0.035917170498025078 0 -0.017697560902219571 0.031794666471592653 0 -0.021219778093451852 0.031449187386476604 0 -0.015000971159438881 0.033113921031767357 0 -0.014508469206054492 0.035819649076799617 0 -0.016060135503325856 0.035917170498025078 0 -0.014508469206054492 0.035819649076799617 0 -0.016060135503325856 0.035917170498025078 0 -0.015213831292994941 0.037476996365200708 0 -0.016060135503325856 0.035917170498025078 0 -0.015849113755879607 0.037747323520354724 0 -0.015213831292994941 0.037476996365200708 0 -0.015929231407176482 0.038371394349862628 0 -0.016060135503325856 0.035917170498025078 0 -0.015849113755879607 0.037747323520354724 0 -0.021394595016827014 0.034934680107549902 0 -0.020965685785133682 0.033128700426750902 0 -0.016060135503325856 0.035917170498025078 0 -0.018458205613079124 0.0365178808471626 0 -0.015982033417396738 0.035938938957735915 0 -0.015929231407176482 0.038371394349862628 0 -0.015754050023371304 0.038527184778750313 0 -0.015849113755879607 0.037747323520354724 0 -0.015754050023371304 0.038527184778750313 0 -0.015849113755879607 0.037747323520354724 0 -0.015485917014184553 0.038390697457896 0 -0.015485917014184553 0.038390697457896 0 -0.015213831292994941 0.037476996365200708 0 -0.014746581630453946 0.038600643553188679 0 -0.015849113755879607 0.037747323520354724 0 -0.015485917014184553 0.038390697457896 0 -0.015213831292994941 0.037476996365200708 0 -0.015485917014184553 0.038390697457896 0 -0.0153954258613131 0.039054716058846042 0 -0.014746581630453946 0.038600643553188679 0 -0.0153954258613131 0.039054716058846042 0 -0.014746581630453946 0.038600643553188679 0 -0.014754691406931229 0.039366537336712269 0 -0.015567664544331731 0.039148309720459608 0 -0.015754050023371304 0.038527184778750313 0 -0.0153954258613131 0.039054716058846042 0 -0.015754050023371304 0.038527184778750313 0 -0.015485917014184553 0.038390697457896 0 -0.0153954258613131 0.039054716058846042 0 -0.013318286902394691 0.037474150226834202 0 -0.014036305923093746 0.037433417985491609 0 -0.013636564258004708 0.038286519341565899 0 -0.012665158940468142 0.037559367125388987 0 -0.013318286902394691 0.037474150226834202 0 -0.013636564258004708 0.038286519341565899 0 -0.012665158940468142 0.037559367125388987 0 -0.013056300615480351 0.037095506448655488 0 -0.013318286902394691 0.037474150226834202 0 -0.012665158940468142 0.037559367125388987 0 -0.012930223573079427 0.03640371726091355 0 -0.013056300615480351 0.037095506448655488 0 -0.013056300615480351 0.037095506448655488 0 -0.013357397131672048 0.036955483599969592 0 -0.013318286902394691 0.037474150226834202 0 -0.013357397131672048 0.036955483599969592 0 -0.013318286902394691 0.037474150226834202 0 -0.014036305923093746 0.037433417985491609 0 -0.015213831292994941 0.037476996365200708 0 -0.014036305923093746 0.037433417985491609 0 -0.014746581630453946 0.038600643553188679 0 -0.014036305923093746 0.037433417985491609 0 -0.014746581630453946 0.038600643553188679 0 -0.013636564258004708 0.038286519341565899 0 -0.014746581630453946 0.038600643553188679 0 -0.013636564258004708 0.038286519341565899 0 -0.014055474368844093 0.039146152884820616 0 -0.012665158940468142 0.037559367125388987 0 -0.013636564258004708 0.038286519341565899 0 -0.013144607805394597 0.03915471798450202 0 -0.013636564258004708 0.038286519341565899 0 -0.014055474368844093 0.039146152884820616 0 -0.013144607805394597 0.03915471798450202 0 -0.014055474368844093 0.039146152884820616 0 -0.013820815235202432 0.039697642275284495 0 -0.013144607805394597 0.03915471798450202 0 -0.014055474368844093 0.039146152884820616 0 -0.014304274655082784 0.039555938920939733 0 -0.013820815235202432 0.039697642275284495 0 -0.014746581630453946 0.038600643553188679 0 -0.014055474368844093 0.039146152884820616 0 -0.014754691406931229 0.039366537336712269 0 -0.014055474368844093 0.039146152884820616 0 -0.014304274655082784 0.039555938920939733 0 -0.014754691406931229 0.039366537336712269 0 -0.014304274655082784 0.039555938920939733 0 -0.014744076609285808 0.039894421172354914 0 -0.014754691406931229 0.039366537336712269 0 -0.014304274655082784 0.039555938920939733 0 -0.014744076609285808 0.039894421172354914 0 -0.014341078766496693 0.039990612221319048 0 -0.014744076609285808 0.039894421172354914 0 -0.014341078766496693 0.039990612221319048 0 -0.014769141353448832 0.040223892008326476 0 -0.014341078766496693 0.039990612221319048 0 -0.013820815235202432 0.039697642275284495 0 -0.014025135318060097 0.04020832546618533 0 -0.014304274655082784 0.039555938920939733 0 -0.014341078766496693 0.039990612221319048 0 -0.013820815235202432 0.039697642275284495 0 -0.015567664544331731 0.039148309720459608 0 -0.0153954258613131 0.039054716058846042 0 -0.015371514686008338 0.039444740021496158 0 -0.015371514686008338 0.039444740021496158 0 -0.015186421138269681 0.039536176507456777 0 -0.015232592169554639 0.039886645204707312 0 -0.0153954258613131 0.039054716058846042 0 -0.015371514686008338 0.039444740021496158 0 -0.015186421138269681 0.039536176507456777 0 -0.0153954258613131 0.039054716058846042 0 -0.015186421138269681 0.039536176507456777 0 -0.014754691406931229 0.039366537336712269 0 -0.015186421138269681 0.039536176507456777 0 -0.014754691406931229 0.039366537336712269 0 -0.01506753773140051 0.039893277529010243 0 -0.014744076609285808 0.039894421172354914 0 -0.014754691406931229 0.039366537336712269 0 -0.01506753773140051 0.039893277529010243 0 -0.014744076609285808 0.039894421172354914 0 -0.01506753773140051 0.039893277529010243 0 -0.015122459207222799 0.040272409232556566 0 -0.014744076609285808 0.039894421172354914 0 -0.015122459207222799 0.040272409232556566 0 -0.014769141353448832 0.040223892008326476 0 -0.015186421138269681 0.039536176507456777 0 -0.01506753773140051 0.039893277529010243 0 -0.015232592169554639 0.039886645204707312 0 -0.01506753773140051 0.039893277529010243 0 -0.015232592169554639 0.039886645204707312 0 -0.015122459207222799 0.040272409232556566 0 -0.015148399585468746 0.040248226937356607 0 -0.015232592169554639 0.039886645204707312 0 -0.015122459207222799 0.040272409232556566 0 -0.015148399585468746 0.040248226937356607 0 -0.015122459207222799 0.040272409232556566 0 -0.015173707830508195 0.040613388530025829 0 -0.015122459207222799 0.040272409232556566 0 -0.015246809978376578 0.040738689753743701 0 -0.014938990490340892 0.040530278593364492 0 -0.015122459207222799 0.040272409232556566 0 -0.015246809978376578 0.040738689753743701 0 -0.015173707830508195 0.040613388530025829 0 -0.015122459207222799 0.040272409232556566 0 -0.014769141353448832 0.040223892008326476 0 -0.014938990490340892 0.040530278593364492 0 -0.015246809978376578 0.040738689753743701 0 -0.014938990490340892 0.040530278593364492 0 -0.015134474383457139 0.040816834245841864 0 -0.015509204563215532 0.041163137211198846 0 -0.015246809978376578 0.040738689753743701 0 -0.015134474383457139 0.040816834245841864 0 -0.015509204563215532 0.041163137211198846 0 -0.015221504349699787 0.040844354559010997 0 -0.015246809978376578 0.040738689753743701 0 -0.015221504349699787 0.040844354559010997 0 -0.015246809978376578 0.040738689753743701 0 -0.015173707830508195 0.040613388530025829 0 -0.015221504349699787 0.040844354559010997 0 -0.015173707830508195 0.040613388530025829 0 -0.015116599614424799 0.040697682128305587 0 -0.014253103581562003 0.040429636336594993 0 -0.01444971678336667 0.040288826825577731 0 -0.014537788039994157 0.04054745947378343 0 -0.014253103581562003 0.040429636336594993 0 -0.014068638290468017 0.040435711557523922 0 -0.014025135318060097 0.04020832546618533 0 -0.014253103581562003 0.040429636336594993 0 -0.014068638290468017 0.040435711557523922 0 -0.014286881325029371 0.040619262734051677 0 -0.014253103581562003 0.040429636336594993 0 -0.014025135318060097 0.04020832546618533 0 -0.01444971678336667 0.040288826825577731 0 -0.014341078766496693 0.039990612221319048 0 -0.014025135318060097 0.04020832546618533 0 -0.01444971678336667 0.040288826825577731 0 -0.014341078766496693 0.039990612221319048 0 -0.01444971678336667 0.040288826825577731 0 -0.014769141353448832 0.040223892008326476 0 -0.01444971678336667 0.040288826825577731 0 -0.014769141353448832 0.040223892008326476 0 -0.014938990490340892 0.040530278593364492 0 -0.01444971678336667 0.040288826825577731 0 -0.014938990490340892 0.040530278593364492 0 -0.014537788039994157 0.04054745947378343 0 -0.014938990490340892 0.040530278593364492 0 -0.014537788039994157 0.04054745947378343 0 -0.014849473525728936 0.040725441802047187 0 -0.015021821906686611 0.041046376600116313 0 -0.014517517293465695 0.04090952182139148 0 -0.015613595800153871 0.04211544150995284 0 -0.014605222868758757 0.0407814428095611 0 -0.014849473525728936 0.040725441802047187 0 -0.015021821906686611 0.041046376600116313 0 -0.014537788039994157 0.04054745947378343 0 -0.014605222868758757 0.0407814428095611 0 -0.014849473525728936 0.040725441802047187 0 -0.014938990490340892 0.040530278593364492 0 -0.014849473525728936 0.040725441802047187 0 -0.015134474383457139 0.040816834245841864 0 -0.014849473525728936 0.040725441802047187 0 -0.015134474383457139 0.040816834245841864 0 -0.015021821906686611 0.041046376600116313 0 -0.015509204563215532 0.041163137211198846 0 -0.015134474383457139 0.040816834245841864 0 -0.015021821906686611 0.041046376600116313 0 -0.015509204563215532 0.041163137211198846 0 -0.015021821906686611 0.041046376600116313 0 -0.015613595800153871 0.04211544150995284 0 -0.014605222868758757 0.0407814428095611 0 -0.015021821906686611 0.041046376600116313 0 -0.014517517293465695 0.04090952182139148 0 -0.014517517293465695 0.04090952182139148 0 -0.014286881325029371 0.040619262734051677 0 -0.014110731556815534 0.040664482275236655 0 -0.014605222868758757 0.0407814428095611 0 -0.014517517293465695 0.04090952182139148 0 -0.014286881325029371 0.040619262734051677 0 -0.014537788039994157 0.04054745947378343 0 -0.014605222868758757 0.0407814428095611 0 -0.014286881325029371 0.040619262734051677 0 -0.014253103581562003 0.040429636336594993 0 -0.014537788039994157 0.04054745947378343 0 -0.014286881325029371 0.040619262734051677 0 -0.014068638290468017 0.040435711557523922 0 -0.014286881325029371 0.040619262734051677 0 -0.014110731556815534 0.040664482275236655 0 -0.014517517293465695 0.04090952182139148 0 -0.014110731556815534 0.040664482275236655 0 -0.01401625251969147 0.04084040969760129 0 -0.014110731556815534 0.040664482275236655 0 -0.014155153617421418 0.040560594221256699 0 -0.01401625251969147 0.04084040969760129 0 -0.014155153617421418 0.040560594221256699 0 -0.014448689105117164 0.040281584905802206 0 -0.01401625251969147 0.04084040969760129 0 -0.016053888096931718 0.042198642885292209 0 -0.015364189167609043 0.042250668212958122 0 -0.014155153617421418 0.040560594221256699 0 -0.014448689105117164 0.040281584905802206 0 -0.014402465702299853 0.040346935786294176 0 -0.014155153617421418 0.040560594221256699 0 -0.014402465702299853 0.040346935786294176 0 -0.01408906268157221 0.040370833999833385 0 -0.014068638290468017 0.040435711557523922 0 -0.014110731556815534 0.040664482275236655 0 -0.014155153617421418 0.040560594221256699 0 -0.014068638290468017 0.040435711557523922 0 -0.014155153617421418 0.040560594221256699 0 -0.01408906268157221 0.040370833999833385 0 -0.017296091326034425 0.043797159331113944 0 -0.017461198935721643 0.043719372783822999 0 -0.017384846573008511 0.043692244789780947 0 -0.014402465702299853 0.040346935786294176 0 -0.01434004417843269 0.039968784309819559 0 -0.014583148848390879 0.039393651527348479 0 -0.014448689105117164 0.040281584905802206 0 -0.014402465702299853 0.040346935786294176 0 -0.01434004417843269 0.039968784309819559 0 -0.014583148848390879 0.039393651527348479 0 -0.014579902212100565 0.038833765017221314 0 -0.01444567927841557 0.039015519535107908 0 -0.014583148848390879 0.039393651527348479 0 -0.015434602822572802 0.038807329090700407 0 -0.014579902212100565 0.038833765017221314 0 -0.014402465702299853 0.040346935786294176 0 -0.014583148848390879 0.039393651527348479 0 -0.015434602822572802 0.038807329090700407 0 -0.01408906268157221 0.040370833999833385 0 -0.013944368869409222 0.040315561830839043 0 -0.013642656157697894 0.04019212103122545 0 -0.014402465702299853 0.040346935786294176 0 -0.01408906268157221 0.040370833999833385 0 -0.013642656157697894 0.04019212103122545 0 -0.014423081248345558 0.040226587822632692 0 -0.014539505496385715 0.039447648655102696 0 -0.014068638290468017 0.040435711557523922 0 -0.01408906268157221 0.040370833999833385 0 -0.013944368869409222 0.040315561830839043 0 -0.014025135318060097 0.04020832546618533 0 -0.013944368869409222 0.040315561830839043 0 -0.013642656157697894 0.04019212103122545 0 -0.014068638290468017 0.040435711557523922 0 -0.014025135318060097 0.04020832546618533 0 -0.013944368869409222 0.040315561830839043 0 -0.013820815235202432 0.039697642275284495 0 -0.014025135318060097 0.04020832546618533 0 -0.013642656157697894 0.04019212103122545 0 -0.015434602822572802 0.038807329090700407 0 -0.014579902212100565 0.038833765017221314 0 -0.014890161346092922 0.038202761445848804 0 -0.014890161346092922 0.038202761445848804 0 -0.015284050853941496 0.037516463886870348 0 -0.016097073317601976 0.037472640148839956 0 -0.014890161346092922 0.038202761445848804 0 -0.014782855589264293 0.037712101414925543 0 -0.015284050853941496 0.037516463886870348 0 -0.015050871237672526 0.037246531152536615 0 -0.014619979629990155 0.03714288162273776 0 -0.014782855589264293 0.037712101414925543 0 -0.015050871237672526 0.037246531152536615 0 -0.014782855589264293 0.037712101414925543 0 -0.015284050853941496 0.037516463886870348 0 -0.015434602822572802 0.038807329090700407 0 -0.014890161346092922 0.038202761445848804 0 -0.016097073317601976 0.037472640148839956 0 -0.013820815235202432 0.039697642275284495 0 -0.013642656157697894 0.04019212103122545 0 -0.013144607805394597 0.03915471798450202 0 -0.014539505496385715 0.039447648655102696 0 -0.014628079043104614 0.038230872122512721 0 -0.036097950611089447 0.02962996688971796 0 -0.034429136397056435 0.030415089505403472 0 -0.034606935190968025 0.029278297821364256 0 -0.035640459801366438 0.030784368360161841 0 -0.036097950611089447 0.02962996688971796 0 -0.034429136397056435 0.030415089505403472 0 -0.035640459801366438 0.030784368360161841 0 -0.036097950611089447 0.02962996688971796 0 -0.036437976374742671 0.030348474309752758 0 -0.014890161346092922 0.038202761445848804 0 -0.014782855589264293 0.037712101414925543 0 -0.014242852510467113 0.038536781157247846 0 -0.023910157698081119 0.034392490656576645 0 -0.024301328726445425 0.034051330503274059 0 -0.0330751258979513 0.031011153271927761 0 -0.034429136397056435 0.030415089505403472 0 -0.034606935190968025 0.029278297821364256 0 -0.014619979629990155 0.03714288162273776 0 -0.014782855589264293 0.037712101414925543 0 -0.014242852510467113 0.038536781157247846 0 -0.014579902212100565 0.038833765017221314 0 -0.014890161346092922 0.038202761445848804 0 -0.014242852510467113 0.038536781157247846 0 -0.014579902212100565 0.038833765017221314 0 -0.014242852510467113 0.038536781157247846 0 -0.01444567927841557 0.039015519535107908 0 -0.034606935190968025 0.029278297821364256 0 -0.035956404710367901 0.028770860819205827 0 -0.03579243062955563 0.028073001954641283 0 -0.036097950611089447 0.02962996688971796 0 -0.034606935190968025 0.029278297821364256 0 -0.035956404710367901 0.028770860819205827 0 -0.024301328726445425 0.034051330503274059 0 -0.025865707081919091 0.032586772861270971 0 -0.035956404710367901 0.028770860819205827 0 -0.03579243062955563 0.028073001954641283 0 -0.036569313467076432 0.028150324946565792 0 -0.014478804906864387 0.038922113591006217 0 -0.014546006796428576 0.038996670331385964 0 -0.01444567927841557 0.039015519535107908 0 -0.014478804906864387 0.038922113591006217 0 -0.014546006796428576 0.038996670331385964 0 -0.014618938493483939 0.038808762122237217 0 -0.014583148848390879 0.039393651527348479 0 -0.01444567927841557 0.039015519535107908 0 -0.014429755064971113 0.038811699342050164 0 -0.014407778961857272 0.038904213314381743 0 -0.014447150869000162 0.041066505925194681 0 -0.014242852510467113 0.038536781157247846 0 -0.014546006796428576 0.038996670331385964 0 -0.01444567927841557 0.039015519535107908 0 -0.014478804906864387 0.038922113591006217 0 -0.01444567927841557 0.039015519535107908 0 -0.014429755064971113 0.038811699342050164 0 -0.017296091326034425 0.043797159331113944 0 -0.017461198935721643 0.043719372783822999 0 -0.017644074701233817 0.043697998065259772 0 -0.014448689105117164 0.040281584905802206 0 -0.01434004417843269 0.039968784309819559 0 -0.0131664645282042 0.040175281943722864 0 -0.01434004417843269 0.039968784309819559 0 -0.014583148848390879 0.039393651527348479 0 -0.0131664645282042 0.040175281943722864 0 -0.016053888096931718 0.042198642885292209 0 -0.014447150869000162 0.041066505925194681 0 -0.017551512114121041 0.043698053150667895 0 -0.017461198935721643 0.043719372783822999 0 -0.017644074701233817 0.043697998065259772 0 -0.017608617821708205 0.043671135582693886 0 -0.017551512114121041 0.043698053150667895 0 -0.017644074701233817 0.043697998065259772 0 -0.017608617821708205 0.043671135582693886 0 -0.017551512114121041 0.043698053150667895 0 -0.017606589397596486 0.043630363211712611 0 -0.017608617821708205 0.043671135582693886 0 -0.01763330487307424 0.043656982219768971 0 -0.017606589397596486 0.043630363211712611 0 -0.017551512114121041 0.043698053150667895 0 -0.017606589397596486 0.043630363211712611 0 -0.017528730036360875 0.043651323954395735 0 -0.017461198935721643 0.043719372783822999 0 -0.017528730036360875 0.043651323954395735 0 -0.017384846573008511 0.043692244789780947 0 -0.017551512114121041 0.043698053150667895 0 -0.017461198935721643 0.043719372783822999 0 -0.017528730036360875 0.043651323954395735 0 -0.014447150869000162 0.041066505925194681 0 -0.022153400721440501 0.036668273247036746 0 -0.01438369711604087 0.038740170749737873 0 -0.014490333559829564 0.038762595768508275 0 -0.01521893534928403 0.038392301662165167 0 -0.014618938493483939 0.038808762122237217 0 -0.014490333559829564 0.038762595768508275 0 -0.01521893534928403 0.038392301662165167 0 -0.017644074701233817 0.043697998065259772 0 -0.017671447568415523 0.043617069470362167 0 -0.017768991478591723 0.043537384364401188 0 -0.014546006796428576 0.038996670331385964 0 -0.014618938493483939 0.038808762122237217 0 -0.01521893534928403 0.038392301662165167 0 -0.014478804906864387 0.038922113591006217 0 -0.014618938493483939 0.038808762122237217 0 -0.014490333559829564 0.038762595768508275 0 -0.014478804906864387 0.038922113591006217 0 -0.014429755064971113 0.038811699342050164 0 -0.014490333559829564 0.038762595768508275 0 -0.014447150869000162 0.041066505925194681 0 -0.014379082689349664 0.04087953531628933 0 -0.017644074701233817 0.043697998065259772 0 -0.01763330487307424 0.043656982219768971 0 -0.017671447568415523 0.043617069470362167 0 -0.017608617821708205 0.043671135582693886 0 -0.017644074701233817 0.043697998065259772 0 -0.01763330487307424 0.043656982219768971 0 -0.01763330487307424 0.043656982219768971 0 -0.017671447568415523 0.043617069470362167 0 -0.017606589397596486 0.043630363211712611 0 -0.017679115158852277 0.043558392656385912 0 -0.017721410430495934 0.043503002922586381 0 -0.017768991478591723 0.043537384364401188 0 -0.017671447568415523 0.043617069470362167 0 -0.017679115158852277 0.043558392656385912 0 -0.017768991478591723 0.043537384364401188 0 -0.017671447568415523 0.043617069470362167 0 -0.017679115158852277 0.043558392656385912 0 -0.017606589397596486 0.043630363211712611 0 -0.017679115158852277 0.043558392656385912 0 -0.017721410430495934 0.043503002922586381 0 -0.017649353171257855 0.043497728737859946 0 -0.017721410430495934 0.043503002922586381 0 -0.017712400522724381 0.043441389000480467 0 -0.017710327459279473 0.043533310193964982 0 -0.017721410430495934 0.043503002922586381 0 -0.017649353171257855 0.043497728737859946 0 -0.017712400522724381 0.043441389000480467 0 -0.017330988105996214 0.043589201530297897 0 -0.017664921806161298 0.043678974498559689 0 -0.017353628533660164 0.043840338936726612 0 -0.017654944074600658 0.043901696810102947 0 -0.01758057155525895 0.043860162465725702 0 -0.017649353171257855 0.043497728737859946 0 -0.017329269136266156 0.043373645147790157 0 -0.017712400522724381 0.043441389000480467 0 -0.017649353171257855 0.043497728737859946 0 -0.017533879043715731 0.043579122631458911 0 -0.017329269136266156 0.043373645147790157 0 -0.017679115158852277 0.043558392656385912 0 -0.017649353171257855 0.043497728737859946 0 -0.017533879043715731 0.043579122631458911 0 -0.017679115158852277 0.043558392656385912 0 -0.017606589397596486 0.043630363211712611 0 -0.017533879043715731 0.043579122631458911 0 -0.017606589397596486 0.043630363211712611 0 -0.017533879043715731 0.043579122631458911 0 -0.017528730036360875 0.043651323954395735 0 -0.017533879043715731 0.043579122631458911 0 -0.017528730036360875 0.043651323954395735 0 -0.017384846573008511 0.043692244789780947 0 -0.017296091326034425 0.043797159331113944 0 -0.017384846573008511 0.043692244789780947 0 -0.017347860520237277 0.043585685089447705 0 -0.017533879043715731 0.043579122631458911 0 -0.017384846573008511 0.043692244789780947 0 -0.017347860520237277 0.043585685089447705 0 -0.017296091326034425 0.043797159331113944 0 -0.017347860520237277 0.043585685089447705 0 -0.017067543130736367 0.043602505174031296 0 -0.017347860520237277 0.043585685089447705 0 -0.017067543130736367 0.043602505174031296 0 -0.017329269136266156 0.043373645147790157 0 -0.017533879043715731 0.043579122631458911 0 -0.017347860520237277 0.043585685089447705 0 -0.017329269136266156 0.043373645147790157 0 -0.017067543130736367 0.043602505174031296 0 -0.016596443049764341 0.043796094820794919 0 -0.016674895946590097 0.043528042223942617 0 -0.017296091326034425 0.043797159331113944 0 -0.017067543130736367 0.043602505174031296 0 -0.016596443049764341 0.043796094820794919 0 -0.017330988105996214 0.043589201530297897 0 -0.016754346198765428 0.043562891741839464 0 -0.017067543130736367 0.043602505174031296 0 -0.017329269136266156 0.043373645147790157 0 -0.016674895946590097 0.043528042223942617 0 -0.016986936927310417 0.043648522047551867 0 -0.017353628533660164 0.043840338936726612 0 -0.016674895946590097 0.043528042223942617 0 -0.016986936927310417 0.043648522047551867 0 -0.017353628533660164 0.043840338936726612 0 -0.017158828073041719 0.043693610013002274 0 -0.016986936927310417 0.043648522047551867 0 -0.016674895946590097 0.043528042223942617 0 -0.016693762881081896 0.043501096169382539 0 -0.016986936927310417 0.043648522047551867 0 -0.017158828073041719 0.043693610013002274 0 -0.016854329605327088 0.043594317988481152 0 -0.016986936927310417 0.043648522047551867 0 -0.016693762881081896 0.043501096169382539 0 -0.016854329605327088 0.043594317988481152 0 -0.017353628533660164 0.043840338936726612 0 -0.017500569081820468 0.04378723046620437 0 -0.01758057155525895 0.043860162465725702 0 -0.017353628533660164 0.043840338936726612 0 -0.017500569081820468 0.04378723046620437 0 -0.017158828073041719 0.043693610013002274 0 -0.017500569081820468 0.04378723046620437 0 -0.01769908632517354 0.043994118217012289 0 -0.01758057155525895 0.043860162465725702 0 -0.017158828073041719 0.043693610013002274 0 -0.017400244810640404 0.043761264083109992 0 -0.016840926674927523 0.043639784202347029 0 -0.017500569081820468 0.04378723046620437 0 -0.017158828073041719 0.043693610013002274 0 -0.017400244810640404 0.043761264083109992 0 -0.017158828073041719 0.043693610013002274 0 -0.016854329605327088 0.043594317988481152 0 -0.016840926674927523 0.043639784202347029 0 -0.017500569081820468 0.04378723046620437 0 -0.017400244810640404 0.043761264083109992 0 -0.017956048991744539 0.044033428109452516 0 -0.017400244810640404 0.043761264083109992 0 -0.01752003771100212 0.043760506202295463 0 -0.017956048991744539 0.044033428109452516 0 -0.017400244810640404 0.043761264083109992 0 -0.01752003771100212 0.043760506202295463 0 -0.017110146729935185 0.043551176600050083 0 -0.01769908632517354 0.043994118217012289 0 -0.017827655231726393 0.044361626094709228 0 -0.017956048991744539 0.044033428109452516 0 -0.017500569081820468 0.04378723046620437 0 -0.01769908632517354 0.043994118217012289 0 -0.017956048991744539 0.044033428109452516 0 -0.01769908632517354 0.043994118217012289 0 -0.017666433285125849 0.043956244144180437 0 -0.017752465436323975 0.044287877363239816 0 -0.01769908632517354 0.043994118217012289 0 -0.017752465436323975 0.044287877363239816 0 -0.017827655231726393 0.044361626094709228 0 -0.01769908632517354 0.043994118217012289 0 -0.017666433285125849 0.043956244144180437 0 -0.01758057155525895 0.043860162465725702 0 -0.017666433285125849 0.043956244144180437 0 -0.017653852808988582 0.043991376356415472 0 -0.017752465436323975 0.044287877363239816 0 -0.017653852808988582 0.043991376356415472 0 -0.017680823578877826 0.044401909277309234 0 -0.017481818439310022 0.044143630572734301 0 -0.017653852808988582 0.043991376356415472 0 -0.017680823578877826 0.044401909277309234 0 -0.017752465436323975 0.044287877363239816 0 -0.017653852808988582 0.043991376356415472 0 -0.017654944074600658 0.043901696810102947 0 -0.017658869445842114 0.0438248207698336 0 -0.017666433285125849 0.043956244144180437 0 -0.017653852808988582 0.043991376356415472 0 -0.017654944074600658 0.043901696810102947 0 -0.017664921806161298 0.043678974498559689 0 -0.017637841636603115 0.043810689089321828 0 -0.017666433285125849 0.043956244144180437 0 -0.017654944074600658 0.043901696810102947 0 -0.01758057155525895 0.043860162465725702 0 -0.015110664482139055 0.040711465529649077 0 -0.015148070399679737 0.040751552792196666 0 -0.015227883172067689 0.040936410794187118 0 -0.015110664482139055 0.040711465529649077 0 -0.015148070399679737 0.040751552792196666 0 -0.015116599614424799 0.040697682128305587 0 -0.015148070399679737 0.040751552792196666 0 -0.015116599614424799 0.040697682128305587 0 -0.015179030274077477 0.040782072124375623 0 -0.015221504349699787 0.040844354559010997 0 -0.015116599614424799 0.040697682128305587 0 -0.015179030274077477 0.040782072124375623 0 -0.015509204563215532 0.041163137211198846 0 -0.015179030274077477 0.040782072124375623 0 -0.01517668123207545 0.040708238017443513 0 -0.01558592048131003 0.041321125855924075 0 -0.015753258452142802 0.04203454655864533 0 -0.015509204563215532 0.041163137211198846 0 -0.016440137520729918 0.043360937016083262 0 -0.015613595800153871 0.04211544150995284 0 -0.015509204563215532 0.041163137211198846 0 -0.015221504349699787 0.040844354559010997 0 -0.015179030274077477 0.040782072124375623 0 -0.015148070399679737 0.040751552792196666 0 -0.01517668123207545 0.040708238017443513 0 -0.01502801262468856 0.040949828411689294 0 -0.015148070399679737 0.040751552792196666 0 -0.015179030274077477 0.040782072124375623 0 -0.01517668123207545 0.040708238017443513 0 -0.016440137520729918 0.043360937016083262 0 -0.01619641848912147 0.043234399257183663 0 -0.016428798541937746 0.043550154396120422 0 -0.01619641848912147 0.043234399257183663 0 -0.016557651317081444 0.043473164478336095 0 -0.016428798541937746 0.043550154396120422 0 -0.016440137520729918 0.043360937016083262 0 -0.01619641848912147 0.043234399257183663 0 -0.015961955191219158 0.042828878726803389 0 -0.016440137520729918 0.043360937016083262 0 -0.015961955191219158 0.042828878726803389 0 -0.015613595800153871 0.04211544150995284 0 -0.015728384203785431 0.042201299234963033 0 -0.015364189167609043 0.042250668212958122 0 -0.015961955191219158 0.042828878726803389 0 -0.015613595800153871 0.04211544150995284 0 -0.01614617351713582 0.043019213962007141 0 -0.014517517293465695 0.04090952182139148 0 -0.015613595800153871 0.04211544150995284 0 -0.01401625251969147 0.04084040969760129 0 -0.015613595800153871 0.04211544150995284 0 -0.01614617351713582 0.043019213962007141 0 -0.016596443049764341 0.043796094820794919 0 -0.01619641848912147 0.043234399257183663 0 -0.015961955191219158 0.042828878726803389 0 -0.01614617351713582 0.043019213962007141 0 -0.01614617351713582 0.043019213962007141 0 -0.016435952627894216 0.043345733978718839 0 -0.016458926506382174 0.043389928634932781 0 -0.01619641848912147 0.043234399257183663 0 -0.01614617351713582 0.043019213962007141 0 -0.016435952627894216 0.043345733978718839 0 -0.01614617351713582 0.043019213962007141 0 -0.016458926506382174 0.043389928634932781 0 -0.016596443049764341 0.043796094820794919 0 -0.016458926506382174 0.043389928634932781 0 -0.016596443049764341 0.043796094820794919 0 -0.016674895946590097 0.043528042223942617 0 -0.016435952627894216 0.043345733978718839 0 -0.016674895946590097 0.043528042223942617 0 -0.016693762881081896 0.043501096169382539 0 -0.016435952627894216 0.043345733978718839 0 -0.016458926506382174 0.043389928634932781 0 -0.016674895946590097 0.043528042223942617 0 -0.016435952627894216 0.043345733978718839 0 -0.016693762881081896 0.043501096169382539 0 -0.016557651317081444 0.043473164478336095 0 -0.01619641848912147 0.043234399257183663 0 -0.016435952627894216 0.043345733978718839 0 -0.016557651317081444 0.043473164478336095 0 -0.016693762881081896 0.043501096169382539 0 -0.016557651317081444 0.043473164478336095 0 -0.016854329605327088 0.043594317988481152 0 -0.016840926674927523 0.043639784202347029 0 -0.016583329662296736 0.043585895290701913 0 -0.016428798541937746 0.043550154396120422 0 -0.016557651317081444 0.043473164478336095 0 -0.016854329605327088 0.043594317988481152 0 -0.016840926674927523 0.043639784202347029 0 -0.016557651317081444 0.043473164478336095 0 -0.016840926674927523 0.043639784202347029 0 -0.016428798541937746 0.043550154396120422 0 -0.016840926674927523 0.043639784202347029 0 -0.016918580652124638 0.043630318179191357 0 -0.016583329662296736 0.043585895290701913 0 -0.017400244810640404 0.043761264083109992 0 -0.016840926674927523 0.043639784202347029 0 -0.016918580652124638 0.043630318179191357 0 -0.017400244810640404 0.043761264083109992 0 -0.016918580652124638 0.043630318179191357 0 -0.017110146729935185 0.043551176600050083 0 -0.017110146729935185 0.043551176600050083 0 -0.016583329662296736 0.043585895290701913 0 -0.016605546096745149 0.043192468296824056 0 -0.01752003771100212 0.043760506202295463 0 -0.017110146729935185 0.043551176600050083 0 -0.017245730446293434 0.043409767157347588 0 -0.016918580652124638 0.043630318179191357 0 -0.017110146729935185 0.043551176600050083 0 -0.016583329662296736 0.043585895290701913 0 -0.016583329662296736 0.043585895290701913 0 -0.016320786924627111 0.043608221031777854 0 -0.015891377536858025 0.043183340621866184 0 -0.016583329662296736 0.043585895290701913 0 -0.015891377536858025 0.043183340621866184 0 -0.016605546096745149 0.043192468296824056 0 -0.016440137520729918 0.043360937016083262 0 -0.016428798541937746 0.043550154396120422 0 -0.016320786924627111 0.043608221031777854 0 -0.016583329662296736 0.043585895290701913 0 -0.016428798541937746 0.043550154396120422 0 -0.016320786924627111 0.043608221031777854 0 -0.015753258452142802 0.04203454655864533 0 -0.015669217079307452 0.042266517714855699 0 -0.015669217079307452 0.042266517714855699 0 -0.015485766223032342 0.042206343658452113 0 -0.01502801262468856 0.040949828411689294 0 -0.015179762067303253 0.041187495115452555 0 -0.015045142268333417 0.041354499987374151 0 -0.01502801262468856 0.040949828411689294 0 -0.015179762067303253 0.041187495115452555 0 -0.015227883172067689 0.040936410794187118 0 -0.01535559438689346 0.041314899648121427 0 -0.015179762067303253 0.041187495115452555 0 -0.015227883172067689 0.040936410794187118 0 -0.015148070399679737 0.040751552792196666 0 -0.01502801262468856 0.040949828411689294 0 -0.015227883172067689 0.040936410794187118 0 -0.01534552200629336 0.04161897371547587 0 -0.015315409351576548 0.0415963562980474 0 -0.015303234733781272 0.041634617716203602 0 -0.015315409351576548 0.0415963562980474 0 -0.015296666069421915 0.041562639253548334 0 -0.015297815757564453 0.041626838248067677 0 -0.015315409351576548 0.0415963562980474 0 -0.015297815757564453 0.041626838248067677 0 -0.015303234733781272 0.041634617716203602 0 -0.015296114050143425 0.041618020380443495 0 -0.015296666069421915 0.041562639253548334 0 -0.015292308545510431 0.041621986420974047 0 -0.015296114050143425 0.041618020380443495 0 -0.015296666069421915 0.041562639253548334 0 -0.015297815757564453 0.041626838248067677 0 -0.015296114050143425 0.041618020380443495 0 -0.015316229803619619 0.041612792113389932 0 -0.015304445727328015 0.041622571370956499 0 -0.015296114050143425 0.041618020380443495 0 -0.015304445727328015 0.041622571370956499 0 -0.015297815757564453 0.041626838248067677 0 -0.015296666069421915 0.041562639253548334 0 -0.015230862574973986 0.041478179225484087 0 -0.015292308545510431 0.041621986420974047 0 -0.015374095913732122 0.041513243776848646 0 -0.015315409351576548 0.0415963562980474 0 -0.015296666069421915 0.041562639253548334 0 -0.01535559438689346 0.041314899648121427 0 -0.015179762067303253 0.041187495115452555 0 -0.015230862574973986 0.041478179225484087 0 -0.01535559438689346 0.041314899648121427 0 -0.015296666069421915 0.041562639253548334 0 -0.015230862574973986 0.041478179225484087 0 -0.015485766223032342 0.042206343658452113 0 -0.015428149477814184 0.04177214553762762 0 -0.015179762067303253 0.041187495115452555 0 -0.015045142268333417 0.041354499987374151 0 -0.015230862574973986 0.041478179225484087 0 -0.015045142268333417 0.041354499987374151 0 -0.015230862574973986 0.041478179225484087 0 -0.015419210797561405 0.041779884960024889 0 -0.015230862574973986 0.041478179225484087 0 -0.015292308545510431 0.041621986420974047 0 -0.015419210797561405 0.041779884960024889 0 -0.015292308545510431 0.041621986420974047 0 -0.015314314875231145 0.041629615709044346 0 -0.015419210797561405 0.041779884960024889 0 -0.015314314875231145 0.041629615709044346 0 -0.015349222335579093 0.041573561421634465 0 -0.015316229803619619 0.041612792113389932 0 -0.015296114050143425 0.041618020380443495 0 -0.015292308545510431 0.041621986420974047 0 -0.015314314875231145 0.041629615709044346 0 -0.015296114050143425 0.041618020380443495 0 -0.015314314875231145 0.041629615709044346 0 -0.015316229803619619 0.041612792113389932 0 -0.015314314875231145 0.041629615709044346 0 -0.015349222335579093 0.041573561421634465 0 -0.015419210797561405 0.041779884960024889 0 -0.018076415454128272 0.044641788923887267 0 -0.018603445698679798 0.044780731044835514 0 -0.017565354760544525 0.044273790635661815 0 -0.017433508813565726 0.044573015806721898 0 -0.018076415454128272 0.044641788923887267 0 -0.018610930589403583 0.044918964614791043 0 -0.015349222335579093 0.041573561421634465 0 -0.015419210797561405 0.041779884960024889 0 -0.016948823992314288 0.042537669184391474 0 -0.01658959739671095 0.042939011753634987 0 -0.017672598883103519 0.043732506973928484 0 -0.017646336548568481 0.045733027769848486 0 -0.015673847657879807 0.045852070980918355 0 -0.015419210797561405 0.041779884960024889 0 -0.016210959060079484 0.042704159936739573 0 -0.016948823992314288 0.042537669184391474 0 -0.017433508813565726 0.044573015806721898 0 -0.018076415454128272 0.044641788923887267 0 -0.017565354760544525 0.044273790635661815 0 -0.015891377536858025 0.043183340621866184 0 -0.015419210797561405 0.041779884960024889 0 -0.016210959060079484 0.042704159936739573 0 -0.015891377536858025 0.043183340621866184 0 -0.016210959060079484 0.042704159936739573 0 -0.016605546096745149 0.043192468296824056 0 -0.016210959060079484 0.042704159936739573 0 -0.016605546096745149 0.043192468296824056 0 -0.016948823992314288 0.042537669184391474 0 -0.016605546096745149 0.043192468296824056 0 -0.017245730446293434 0.043409767157347588 0 -0.016948823992314288 0.042537669184391474 0 -0.017110146729935185 0.043551176600050083 0 -0.016605546096745149 0.043192468296824056 0 -0.017245730446293434 0.043409767157347588 0 -0.018610930589403583 0.044918964614791043 0 -0.018603445698679798 0.044780731044835514 0 -0.018317796210030574 0.044751965688783257 0 -0.018076415454128272 0.044641788923887267 0 -0.018610930589403583 0.044918964614791043 0 -0.018603445698679798 0.044780731044835514 0 -0.016858687959414472 0.046884508298062365 0 -0.015813949747941147 0.04606255027596147 0 -0.017035288337175804 0.046082778703672819 0 -0.016858687959414472 0.046884508298062365 0 -0.015813949747941147 0.04606255027596147 0 -0.014975045173563038 0.046521521262599362 0 -0.015813949747941147 0.04606255027596147 0 -0.017035288337175804 0.046082778703672819 0 -0.01670439079820029 0.045603635670371116 0 -0.015813949747941147 0.04606255027596147 0 -0.01670439079820029 0.045603635670371116 0 -0.015432808640448447 0.044999457540256617 0 -0.01670439079820029 0.045603635670371116 0 -0.015432808640448447 0.044999457540256617 0 -0.018059017008693373 0.04499977318162323 0 -0.015432808640448447 0.044999457540256617 0 -0.014275415596176079 0.045833296566705845 0 -0.012805786352664963 0.044999792496072194 0 -0.015813949747941147 0.04606255027596147 0 -0.015432808640448447 0.044999457540256617 0 -0.014275415596176079 0.045833296566705845 0 -0.016858687959414472 0.046884508298062365 0 -0.014975045173563038 0.046521521262599362 0 -0.01410707449259351 0.047159095268468551 0 -0.015813949747941147 0.04606255027596147 0 -0.014275415596176079 0.045833296566705845 0 -0.014975045173563038 0.046521521262599362 0 -0.014275415596176079 0.045833296566705845 0 -0.014975045173563038 0.046521521262599362 0 -0.013738779071606031 0.046401614660258064 0 -0.017433508813565726 0.044573015806721898 0 -0.017565354760544525 0.044273790635661815 0 -0.01545933859916916 0.043609900698424436 0 -0.014975045173563038 0.046521521262599362 0 -0.01410707449259351 0.047159095268468551 0 -0.013738779071606031 0.046401614660258064 0 -0.013738779071606031 0.046401614660258064 0 -0.013084935936940658 0.046012195378909312 0 -0.012653113943628952 0.046509177153263893 0 -0.01410707449259351 0.047159095268468551 0 -0.013738779071606031 0.046401614660258064 0 -0.012653113943628952 0.046509177153263893 0 -0.014275415596176079 0.045833296566705845 0 -0.013738779071606031 0.046401614660258064 0 -0.013084935936940658 0.046012195378909312 0 -0.012805786352664963 0.044999792496072194 0 -0.013084935936940658 0.046012195378909312 0 -0.012272103854392192 0.045992080438167729 0 -0.014275415596176079 0.045833296566705845 0 -0.012805786352664963 0.044999792496072194 0 -0.013084935936940658 0.046012195378909312 0 -0.013084935936940658 0.046012195378909312 0 -0.012272103854392192 0.045992080438167729 0 -0.012653113943628952 0.046509177153263893 0 -0.01120407211378811 0.045933530045803181 0 -0.010178935413833332 0.044999969735368919 0 -0.012805786352664963 0.044999792496072194 0 -0.01120407211378811 0.045933530045803181 0 -0.012805786352664963 0.044999792496072194 0 -0.012272103854392192 0.045992080438167729 0 -0.01120407211378811 0.045933530045803181 0 -0.012272103854392192 0.045992080438167729 0 -0.011914116105200906 0.046309240104590574 0 -0.01658959739671095 0.042939011753634987 0 -0.014259808792370531 0.043833965958474136 0 -0.01120407211378811 0.045933530045803181 0 -0.011502632657979435 0.046657109349084028 0 -0.011914116105200906 0.046309240104590574 0 -0.015673847657879807 0.045852070980918355 0 -0.014259808792370531 0.043833965958474136 0 -0.011502632657979435 0.046657109349084028 0 -0.011914116105200906 0.046309240104590574 0 -0.012653113943628952 0.046509177153263893 0 -0.01410707449259351 0.047159095268468551 0 -0.011502632657979435 0.046657109349084028 0 -0.012653113943628952 0.046509177153263893 0 -0.015349222335579093 0.041573561421634465 0 -0.015316229803619619 0.041612792113389932 0 -0.015278630425588101 0.04167763674243842 0 -0.014352599656889746 0.043740435727533777 0 -0.014259808792370531 0.043833965958474136 0 -0.015278630425588101 0.04167763674243842 0 -0.015298745765220124 0.041671693365186231 0 -0.015294383891307904 0.041657070008655976 0 -0.015297818036256152 0.041696383279866481 0 -0.015278630425588101 0.04167763674243842 0 -0.015298745765220124 0.041671693365186231 0 -0.012272103854392192 0.045992080438167729 0 -0.011914116105200906 0.046309240104590574 0 -0.012653113943628952 0.046509177153263893 0 -0.015316229803619619 0.041612792113389932 0 -0.015278630425588101 0.04167763674243842 0 -0.015295981452870873 0.041641015129089298 0 -0.015316229803619619 0.041612792113389932 0 -0.015295981452870873 0.041641015129089298 0 -0.015304445727328015 0.041622571370956499 0 -0.015295981452870873 0.041641015129089298 0 -0.015304445727328015 0.041622571370956499 0 -0.015297815757564453 0.041626838248067677 0 -0.015295981452870873 0.041641015129089298 0 -0.015297815757564453 0.041626838248067677 0 -0.015303234733781272 0.041634617716203602 0 -0.015314177374968482 0.041656462144629439 0 -0.015303234733781272 0.041634617716203602 0 -0.015294383891307904 0.041657070008655976 0 -0.015314177374968482 0.041656462144629439 0 -0.015298745765220124 0.041671693365186231 0 -0.015294383891307904 0.041657070008655976 0 -0.015295981452870873 0.041641015129089298 0 -0.015303234733781272 0.041634617716203602 0 -0.015294383891307904 0.041657070008655976 0 -0.015278630425588101 0.04167763674243842 0 -0.015295981452870873 0.041641015129089298 0 -0.015294383891307904 0.041657070008655976 0 -0.018148592887784181 0.045153004401680651 0 -0.017884167136730248 0.044810815067790749 0 -0.017951729998797836 0.044814467458148606 0 -0.018148592887784181 0.045153004401680651 0 -0.017951729998797836 0.044814467458148606 0 -0.018154192420980587 0.045301037367867288 0 -0.018148592887784181 0.045153004401680651 0 -0.018154192420980587 0.045301037367867288 0 -0.018515134821522124 0.045521442564354392 0 -0.018148592887784181 0.045153004401680651 0 -0.017884167136730248 0.044810815067790749 0 -0.018242406480190498 0.045282727413396631 0 -0.017632636258238264 0.044950671370545606 0 -0.017884167136730248 0.044810815067790749 0 -0.018242406480190498 0.045282727413396631 0 -0.017632636258238264 0.044950671370545606 0 -0.017884167136730248 0.044810815067790749 0 -0.017680823578877826 0.044401909277309234 0 -0.017632636258238264 0.044950671370545606 0 -0.017680823578877826 0.044401909277309234 0 -0.017481818439310022 0.044143630572734301 0 -0.017884167136730248 0.044810815067790749 0 -0.017680823578877826 0.044401909277309234 0 -0.017752465436323975 0.044287877363239816 0 -0.017884167136730248 0.044810815067790749 0 -0.017752465436323975 0.044287877363239816 0 -0.017951729998797836 0.044814467458148606 0 -0.017752465436323975 0.044287877363239816 0 -0.017951729998797836 0.044814467458148606 0 -0.017827655231726393 0.044361626094709228 0 -0.017827655231726393 0.044361626094709228 0 -0.017956048991744539 0.044033428109452516 0 -0.01803573319679096 0.045087334046020743 0 -0.017951729998797836 0.044814467458148606 0 -0.017827655231726393 0.044361626094709228 0 -0.01803573319679096 0.045087334046020743 0 -0.018610930589403583 0.044918964614791043 0 -0.017956048991744539 0.044033428109452516 0 -0.018317796210030574 0.044751965688783257 0 -0.01752003771100212 0.043760506202295463 0 -0.017245730446293434 0.043409767157347588 0 -0.017956048991744539 0.044033428109452516 0 -0.017245730446293434 0.043409767157347588 0 -0.016948823992314288 0.042537669184391474 0 -0.017956048991744539 0.044033428109452516 0 -0.017672598883103519 0.043732506973928484 0 -0.017925528079581185 0.043967845754077958 0 -0.017956048991744539 0.044033428109452516 0 -0.018317796210030574 0.044751965688783257 0 -0.01803573319679096 0.045087334046020743 0 -0.018603445698679798 0.044780731044835514 0 -0.018317796210030574 0.044751965688783257 0 -0.01803573319679096 0.045087334046020743 0 -0.016858687959414472 0.046884508298062365 0 -0.017646586592966494 0.046044592463256664 0 -0.01803573319679096 0.045087334046020743 0 -0.017646336548568481 0.045733027769848486 0 -0.017881182265300794 0.045189710070723817 0 -0.017951729998797836 0.044814467458148606 0 -0.01803573319679096 0.045087334046020743 0 -0.018154192420980587 0.045301037367867288 0 -0.017646586592966494 0.046044592463256664 0 -0.01803573319679096 0.045087334046020743 0 -0.018093103665162768 0.045705976411342136 0 -0.01803573319679096 0.045087334046020743 0 -0.018154192420980587 0.045301037367867288 0 -0.018093103665162768 0.045705976411342136 0 -0.018154192420980587 0.045301037367867288 0 -0.018093103665162768 0.045705976411342136 0 -0.018515134821522124 0.045521442564354392 0 -0.018093103665162768 0.045705976411342136 0 -0.01831320432947834 0.045760508102894247 0 -0.018515134821522124 0.045521442564354392 0 -0.018093103665162768 0.045705976411342136 0 -0.01831320432947834 0.045760508102894247 0 -0.017773245554880523 0.045899192327741076 0 -0.01831320432947834 0.045760508102894247 0 -0.018867530113227886 0.045683270182537108 0 -0.018515134821522124 0.045521442564354392 0 -0.016858687959414472 0.046884508298062365 0 -0.017035288337175804 0.046082778703672819 0 -0.017646586592966494 0.046044592463256664 0 -0.017035288337175804 0.046082778703672819 0 -0.017646586592966494 0.046044592463256664 0 -0.017773245554880523 0.045899192327741076 0 -0.017646586592966494 0.046044592463256664 0 -0.018093103665162768 0.045705976411342136 0 -0.017773245554880523 0.045899192327741076 0 -0.01831320432947834 0.045760508102894247 0 -0.017773245554880523 0.045899192327741076 0 -0.017556775045989886 0.045708948449983591 0 -0.017035288337175804 0.046082778703672819 0 -0.01670439079820029 0.045603635670371116 0 -0.017556775045989886 0.045708948449983591 0 -0.017035288337175804 0.046082778703672819 0 -0.017773245554880523 0.045899192327741076 0 -0.017556775045989886 0.045708948449983591 0 -0.01831320432947834 0.045760508102894247 0 -0.018059017008693373 0.04499977318162323 0 -0.017556775045989886 0.045708948449983591 0 -0.01670439079820029 0.045603635670371116 0 -0.018059017008693373 0.04499977318162323 0 -0.017556775045989886 0.045708948449983591 0 -0.018059017008693373 0.04499977318162323 0 -0.019693287867623491 0.045614616808184585 0 -0.020682587507303785 0.04499956573825608 0 -0.01831320432947834 0.045760508102894247 0 -0.018059017008693373 0.04499977318162323 0 -0.018867530113227886 0.045683270182537108 0 -0.018059017008693373 0.04499977318162323 0 -0.018867530113227886 0.045683270182537108 0 -0.019693287867623491 0.045614616808184585 0 -0.020687470527816221 0.045000923826469481 0 -0.025108107520692043 0.042256330516976623 0 -0.019693287867623491 0.045614616808184585 0 -0.020682587507303785 0.04499956573825608 0 -0.02122748766791948 0.046365708049045253 0 -0.019537576813139678 0.044365841815527621 0 -0.025108107520692043 0.042256330516976623 0 -0.019693287867623491 0.045614616808184585 0 -0.01884547219097173 0.045575421999228247 0 -0.018471548879081715 0.045747331516952226 0 -0.018867530113227886 0.045683270182537108 0 -0.019693287867623491 0.045614616808184585 0 -0.01884547219097173 0.045575421999228247 0 -0.01884547219097173 0.045575421999228247 0 -0.018242406480190498 0.045282727413396631 0 -0.018471548879081715 0.045747331516952226 0 -0.018867530113227886 0.045683270182537108 0 -0.01884547219097173 0.045575421999228247 0 -0.018515134821522124 0.045521442564354392 0 -0.01884547219097173 0.045575421999228247 0 -0.018242406480190498 0.045282727413396631 0 -0.018515134821522124 0.045521442564354392 0 -0.018148592887784181 0.045153004401680651 0 -0.018242406480190498 0.045282727413396631 0 -0.018515134821522124 0.045521442564354392 0 -0.025108107520692043 0.042256330516976623 0 -0.030145889685879786 0.041510007442889962 0 -0.035730360982750405 0.036250922686651373 0 -0.035001316818885235 0.035196765640008128 0 -0.036303568695806761 0.035676775543794212 0 -0.017632636258238264 0.044950671370545606 0 -0.018242406480190498 0.045282727413396631 0 -0.018471548879081715 0.045747331516952226 0 -0.026861311297628088 0.040284175294563351 0 -0.025108107520692043 0.042256330516976623 0 -0.021250806405972524 0.046113986378852813 0 -0.022862776931586653 0.044999962172417446 0 -0.023497405474593152 0.04716898888964758 0 -0.020685723815945595 0.044999977014584587 0 -0.021250806405972524 0.046113986378852813 0 -0.022862776931586653 0.044999962172417446 0 -0.022862776931586653 0.044999962172417446 0 -0.02503980308943847 0.044999963847471625 0 -0.023497405474593152 0.04716898888964758 0 -0.02503980308943847 0.044999963847471625 0 -0.023497405474593152 0.04716898888964758 0 -0.02580114464934927 0.046534927695217977 0 -0.030145889685879786 0.041510007442889962 0 -0.03338104409771539 0.04031545171528178 0 -0.023497405474593152 0.04716898888964758 0 -0.02571772910477264 0.04818495255745698 0 -0.02580114464934927 0.046534927695217977 0 -0.035730360982750405 0.036250922686651373 0 -0.036547579467952403 0.036340467317214305 0 -0.036670689562770621 0.036728010882382492 0 -0.035730360982750405 0.036250922686651373 0 -0.036303568695806761 0.035676775543794212 0 -0.036547579467952403 0.036340467317214305 0 -0.036303568695806761 0.035676775543794212 0 -0.036982029576413798 0.03627797685418032 0 -0.037432717416512475 0.036213323110162898 0 -0.036303568695806761 0.035676775543794212 0 -0.036547579467952403 0.036340467317214305 0 -0.036982029576413798 0.03627797685418032 0 -0.036982029576413798 0.03627797685418032 0 -0.037350432120852178 0.03629541282716079 0 -0.037432717416512475 0.036213323110162898 0 -0.03720396149120743 0.036453714068369017 0 -0.036982029576413798 0.03627797685418032 0 -0.037063328033104727 0.036620868578246528 0 -0.03720396149120743 0.036453714068369017 0 -0.036982029576413798 0.03627797685418032 0 -0.037350432120852178 0.03629541282716079 0 -0.036547579467952403 0.036340467317214305 0 -0.036982029576413798 0.03627797685418032 0 -0.037063328033104727 0.036620868578246528 0 -0.036547579467952403 0.036340467317214305 0 -0.036670689562770621 0.036728010882382492 0 -0.037063328033104727 0.036620868578246528 0 -0.03720396149120743 0.036453714068369017 0 -0.037063328033104727 0.036620868578246528 0 -0.037493657444952581 0.036618238980416502 0 -0.037063328033104727 0.036620868578246528 0 -0.037254953026416224 0.036896020529897551 0 -0.037493657444952581 0.036618238980416502 0 -0.036670689562770621 0.036728010882382492 0 -0.037063328033104727 0.036620868578246528 0 -0.037254953026416224 0.036896020529897551 0 -0.036670689562770621 0.036728010882382492 0 -0.037254953026416224 0.036896020529897551 0 -0.036880010978723787 0.037135762724988995 0 -0.035730360982750405 0.036250922686651373 0 -0.036670689562770621 0.036728010882382492 0 -0.036418232997180243 0.03703969519272346 0 -0.026861311297628088 0.040284175294563351 0 -0.02700658784764037 0.040502329838791082 0 -0.036670689562770621 0.036728010882382492 0 -0.036418232997180243 0.03703969519272346 0 -0.036880010978723787 0.037135762724988995 0 -0.037909241180575856 0.036991071690980461 0 -0.038126661699976763 0.036682885282648181 0 -0.037872026491400819 0.036770438261673255 0 -0.038126661699976763 0.036682885282648181 0 -0.037872026491400819 0.036770438261673255 0 -0.038148146402972608 0.036711620009561886 0 -0.037254953026416224 0.036896020529897551 0 -0.037872026491400819 0.036770438261673255 0 -0.037493657444952581 0.036618238980416502 0 -0.037909241180575856 0.036991071690980461 0 -0.037872026491400819 0.036770438261673255 0 -0.037493657444952581 0.036618238980416502 0 -0.037909241180575856 0.036991071690980461 0 -0.037493657444952581 0.036618238980416502 0 -0.037430652257692369 0.036262022495641845 0 -0.03962429512340343 0.036830685139873455 0 -0.03338104409771539 0.04031545171528178 0 -0.03720396149120743 0.036453714068369017 0 -0.037493657444952581 0.036618238980416502 0 -0.037350432120852178 0.03629541282716079 0 -0.037493657444952581 0.036618238980416502 0 -0.037350432120852178 0.03629541282716079 0 -0.037430652257692369 0.036262022495641845 0 -0.034360684728251906 0.039413959901162567 0 -0.03338104409771539 0.04031545171528178 0 -0.037909241180575856 0.036991071690980461 0 -0.037230174368567778 0.039921216384374951 0 -0.037431721279151203 0.037574815883768459 0 -0.037909241180575856 0.036991071690980461 0 -0.040487241292346765 0.03792704112379592 0 -0.037230174368567778 0.039921216384374951 0 -0.037230174368567778 0.039921216384374951 0 -0.036636851785519141 0.041383817153896871 0 -0.03259837433577549 0.041667903969811244 0 -0.040487241292346765 0.03792704112379592 0 -0.037230174368567778 0.039921216384374951 0 -0.036636851785519141 0.041383817153896871 0 -0.02571772910477264 0.04818495255745698 0 -0.027523208311096416 0.046605220015989643 0 -0.02580114464934927 0.046534927695217977 0 -0.03338104409771539 0.04031545171528178 0 -0.031886955849742889 0.044377297256888451 0 -0.02503980308943847 0.044999963847471625 0 -0.02580114464934927 0.046534927695217977 0 -0.027216805628257481 0.044999955052031249 0 -0.027523208311096416 0.046605220015989643 0 -0.02580114464934927 0.046534927695217977 0 -0.027216805628257481 0.044999955052031249 0 -0.027523208311096416 0.046605220015989643 0 -0.027216805628257481 0.044999955052031249 0 -0.029393765812348687 0.045000001261714058 0 -0.036636851785519141 0.041383817153896871 0 -0.029409608109686933 0.045002103725415063 0 -0.03259837433577549 0.041667903969811244 0 -0.031886955849742889 0.044377297256888451 0 -0.029395268373096407 0.044999086560848479 0 -0.029409608109686933 0.045002103725415063 0 -0.031037318257984958 0.041910125020362184 0 -0.030929075753330981 0.044994483961773642 0 -0.029409608109686933 0.045002103725415063 0 -0.031037318257984958 0.041910125020362184 0 -0.03259837433577549 0.041667903969811244 0 -0.031037318257984958 0.041910125020362184 0 -0.03259837433577549 0.041667903969811244 0 -0.031738538167968747 0.040224821215691889 0 -0.037288228805585424 0.039943757311387038 0 -0.034794744046952888 0.038976487112934263 0 -0.037230174368567778 0.039921216384374951 0 -0.03259837433577549 0.041667903969811244 0 -0.031738538167968747 0.040224821215691889 0 -0.032714750118799645 0.045528081225833496 0 -0.03335290738639124 0.044999416597751356 0 -0.03417198499105395 0.045838715030372054 0 -0.032714750118799645 0.045528081225833496 0 -0.032399500800249142 0.046273627876100711 0 -0.03417198499105395 0.045838715030372054 0 -0.032714750118799645 0.045528081225833496 0 -0.030940251565016216 0.044999948518008009 0 -0.032399500800249142 0.046273627876100711 0 -0.031037318257984958 0.041910125020362184 0 -0.030929075753330981 0.044994483961773642 0 -0.030598222868562334 0.041624608407811507 0 -0.032714750118799645 0.045528081225833496 0 -0.03335290738639124 0.044999416597751356 0 -0.030940251565016216 0.044999948518008009 0 -0.03093826783605326 0.044998736807731324 0 -0.03557825994484267 0.043118777584915405 0 -0.031037318257984958 0.041910125020362184 0 -0.030598222868562334 0.041624608407811507 0 -0.03090044686199854 0.040905767948376338 0 -0.031037318257984958 0.041910125020362184 0 -0.03090044686199854 0.040905767948376338 0 -0.031658187945476535 0.039986878417148916 0 -0.03557825994484267 0.043118777584915405 0 -0.036494026339562016 0.042065191903891699 0 -0.032399500800249142 0.046273627876100711 0 -0.03417198499105395 0.045838715030372054 0 -0.035333406944858481 0.046587339061178935 0 -0.042406750191127121 0.042257375490027671 0 -0.042536124904804143 0.042394534348194471 0 -0.043181521706085288 0.042596637413469335 0 -0.03557825994484267 0.043118777584915405 0 -0.039621740268696318 0.044791384707507167 0 -0.042536124904804143 0.042394534348194471 0 -0.043181521706085288 0.042596637413469335 0 -0.043213383475496928 0.042765318643155734 0 -0.03090044686199854 0.040905767948376338 0 -0.031658187945476535 0.039986878417148916 0 -0.033834879773322002 0.038640241997169061 0 -0.036494026339562016 0.042065191903891699 0 -0.038628376026813675 0.040759131462392774 0 -0.03746615349888701 0.037321145583080778 0 -0.037874600906477353 0.036544714820638889 0 -0.036925876492114665 0.036447372407748133 0 -0.034462765537631557 0.038506898369487015 0 -0.034529242664649185 0.03761628832787349 0 -0.031658187945476535 0.039986878417148916 0 -0.033834879773322002 0.038640241997169061 0 -0.03480771537935224 0.037497939120038092 0 -0.03746615349888701 0.037321145583080778 0 -0.036925876492114665 0.036447372407748133 0 -0.03480771537935224 0.037497939120038092 0 -0.038126661699976763 0.036682885282648181 0 -0.037431721279151203 0.037574815883768459 0 -0.038329079244283006 0.036232775827668921 0 -0.037874600906477353 0.036544714820638889 0 -0.037431721279151203 0.037574815883768459 0 -0.038329079244283006 0.036232775827668921 0 -0.034462765537631557 0.038506898369487015 0 -0.034794744046952888 0.038976487112934263 0 -0.031037318257984958 0.041910125020362184 0 -0.031658187945476535 0.039986878417148916 0 -0.031738538167968747 0.040224821215691889 0 -0.03746615349888701 0.037321145583080778 0 -0.037874600906477353 0.036544714820638889 0 -0.037431721279151203 0.037574815883768459 0 -0.037909241180575856 0.036991071690980461 0 -0.038126661699976763 0.036682885282648181 0 -0.037431721279151203 0.037574815883768459 0 -0.038126661699976763 0.036682885282648181 0 -0.038329079244283006 0.036232775827668921 0 -0.038422273156997817 0.036047316379600604 0 -0.038329079244283006 0.036232775827668921 0 -0.038566548231766314 0.035749266974856725 0 -0.038422273156997817 0.036047316379600604 0 -0.037874600906477353 0.036544714820638889 0 -0.038329079244283006 0.036232775827668921 0 -0.038183993836497621 0.035585636529581056 0 -0.038329079244283006 0.036232775827668921 0 -0.038980216235149939 0.035171396545645099 0 -0.038183993836497621 0.035585636529581056 0 -0.038980216235149939 0.035171396545645099 0 -0.038098695362980405 0.034047497248226387 0 -0.039738361689119393 0.032922638411889055 0 -0.038329079244283006 0.036232775827668921 0 -0.038980216235149939 0.035171396545645099 0 -0.038566548231766314 0.035749266974856725 0 -0.038980216235149939 0.035171396545645099 0 -0.038566548231766314 0.035749266974856725 0 -0.038442941790371644 0.036092969644076232 0 -0.039390983960674177 0.035254311785113804 0 -0.03905693996745694 0.034191851588897121 0 -0.038566548231766314 0.035749266974856725 0 -0.038442941790371644 0.036092969644076232 0 -0.038422273156997817 0.036047316379600604 0 -0.036925876492114665 0.036447372407748133 0 -0.037360898279952585 0.035564071292570269 0 -0.036176347735503205 0.035531141113126732 0 -0.037360898279952585 0.035564071292570269 0 -0.037033120540851006 0.034285608486602094 0 -0.036176347735503205 0.035531141113126732 0 -0.036925876492114665 0.036447372407748133 0 -0.03480771537935224 0.037497939120038092 0 -0.036176347735503205 0.035531141113126732 0 -0.037874600906477353 0.036544714820638889 0 -0.036925876492114665 0.036447372407748133 0 -0.037360898279952585 0.035564071292570269 0 -0.037874600906477353 0.036544714820638889 0 -0.037360898279952585 0.035564071292570269 0 -0.038183993836497621 0.035585636529581056 0 -0.037360898279952585 0.035564071292570269 0 -0.038183993836497621 0.035585636529581056 0 -0.038098695362980405 0.034047497248226387 0 -0.038980216235149939 0.035171396545645099 0 -0.038183993836497621 0.035585636529581056 0 -0.038098695362980405 0.034047497248226387 0 -0.037360898279952585 0.035564071292570269 0 -0.038098695362980405 0.034047497248226387 0 -0.037033120540851006 0.034285608486602094 0 -0.038098695362980405 0.034047497248226387 0 -0.037033120540851006 0.034285608486602094 0 -0.037362572666244584 0.032737671166237124 0 -0.038098695362980405 0.034047497248226387 0 -0.038754358601509775 0.030966746124873906 0 -0.039738361689119393 0.032922638411889055 0 -0.038098695362980405 0.034047497248226387 0 -0.037362572666244584 0.032737671166237124 0 -0.038754358601509775 0.030966746124873906 0 -0.037362572666244584 0.032737671166237124 0 -0.038754358601509775 0.030966746124873906 0 -0.038084615821846565 0.029893847861729203 0 -0.03905693996745694 0.034191851588897121 0 -0.03998351995975935 0.029519019606138411 0 -0.042002916123053874 0.03370534792122467 0 -0.039738361689119393 0.032922638411889055 0 -0.040567190219682463 0.031062834201796282 0 -0.038980216235149939 0.035171396545645099 0 -0.042002916123053874 0.03370534792122467 0 -0.039738361689119393 0.032922638411889055 0 -0.039220967917354889 0.029046246019516695 0 -0.039264861274850113 0.02892584624600816 0 -0.039237089018449259 0.028968751133948437 0 -0.038754358601509775 0.030966746124873906 0 -0.039738361689119393 0.032922638411889055 0 -0.040567190219682463 0.031062834201796282 0 -0.039264861274850113 0.02892584624600816 0 -0.039237089018449259 0.028968751133948437 0 -0.039201037714723136 0.028888687055714585 0 -0.039261560893087903 0.028963266233140231 0 -0.039237089018449259 0.028968751133948437 0 -0.039201037714723136 0.028888687055714585 0 -0.039261560893087903 0.028963266233140231 0 -0.039237089018449259 0.028968751133948437 0 -0.039259359459517897 0.029022110428205808 0 -0.03905693996745694 0.034191851588897121 0 -0.039384205309620918 0.033290356646054182 0 -0.038664923484945511 0.037980755996228223 0 -0.037963652596154689 0.038307864962293769 0 -0.038000070646910133 0.037782074145506807 0 -0.039220967917354889 0.029046246019516695 0 -0.039237089018449259 0.028968751133948437 0 -0.039259359459517897 0.029022110428205808 0 -0.037963652596154689 0.038307864962293769 0 -0.037425312890766171 0.037956533751017887 0 -0.037272814863917245 0.038601192364572962 0 -0.039384205309620918 0.033290356646054182 0 -0.033761163172951025 0.035128547615226033 0 -0.037963652596154689 0.038307864962293769 0 -0.037425312890766171 0.037956533751017887 0 -0.038000070646910133 0.037782074145506807 0 -0.039261560893087903 0.028963266233140231 0 -0.039259359459517897 0.029022110428205808 0 -0.039301455355804857 0.029019691157386205 0 -0.033761163172951025 0.035128547615226033 0 -0.038825647477062915 0.027172703799260949 0 -0.038014874493249841 0.026403148127432764 0 -0.03764878214969488 0.027345706233025166 0 -0.038576214698650226 0.027356882013300735 0 -0.039261560893087903 0.028963266233140231 0 -0.039301455355804857 0.029019691157386205 0 -0.039299880707509151 0.02888279895561682 0 -0.017553996635256915 0.042601612096708034 0 -0.018889788590846855 0.041734860394953943 0 -0.018396712606362536 0.042608996334022972 0 -0.033761163172951025 0.035128547615226033 0 -0.022153400721440501 0.036668273247036746 0 -0.038014874493249841 0.026403148127432764 0 -0.036586575479204096 0.027032722280072984 0 -0.03764878214969488 0.027345706233025166 0 -0.017721410430495934 0.043503002922586381 0 -0.017768991478591723 0.043537384364401188 0 -0.017728376888651559 0.043490834581651643 0 -0.022153400721440501 0.036668273247036746 0 -0.017464736498462127 0.044018276083239612 0 -0.017721410430495934 0.043503002922586381 0 -0.017728376888651559 0.043490834581651643 0 -0.017710327459279473 0.043533310193964982 0 -0.017553996635256915 0.042601612096708034 0 -0.017687063012850293 0.04333624732155502 0 -0.017676109441949903 0.043751968182058919 0 -0.037425312890766171 0.037956533751017887 0 -0.037272814863917245 0.038601192364572962 0 -0.036858085247111344 0.03770935566033809 0 -0.033761163172951025 0.035128547615226033 0 -0.026558197670192848 0.041628269005317763 0 -0.017553996635256915 0.042601612096708034 0 -0.018396712606362536 0.042608996334022972 0 -0.017687063012850293 0.04333624732155502 0 -0.017464736498462127 0.044018276083239612 0 -0.017955545044780849 0.043010900637414438 0 -0.017728376888651559 0.043490834581651643 0 -0.017710327459279473 0.043533310193964982 0 -0.017687063012850293 0.04333624732155502 0 -0.037425312890766171 0.037956533751017887 0 -0.036858085247111344 0.03770935566033809 0 -0.037244262856447996 0.037609178727549306 0 -0.017710327459279473 0.043533310193964982 0 -0.017687063012850293 0.04333624732155502 0 -0.017676109441949903 0.043751968182058919 0 -0.036858085247111344 0.03770935566033809 0 -0.037244262856447996 0.037609178727549306 0 -0.037186804719677981 0.037300082576706271 0 -0.017712400522724381 0.043441389000480467 0 -0.017710327459279473 0.043533310193964982 0 -0.017658869445842114 0.0438248207698336 0 -0.017710327459279473 0.043533310193964982 0 -0.017676109441949903 0.043751968182058919 0 -0.017658869445842114 0.0438248207698336 0 -0.02700658784764037 0.040502329838791082 0 -0.026558197670192848 0.041628269005317763 0 -0.017653852808988582 0.043991376356415472 0 -0.017481818439310022 0.044143630572734301 0 -0.017658869445842114 0.0438248207698336 0 -0.017481818439310022 0.044143630572734301 0 -0.017676109441949903 0.043751968182058919 0 -0.017658869445842114 0.0438248207698336 0 -0.036858085247111344 0.03770935566033809 0 -0.037186804719677981 0.037300082576706271 0 -0.036880010978723787 0.037135762724988995 0 -0.036418232997180243 0.03703969519272346 0 -0.036858085247111344 0.03770935566033809 0 -0.036880010978723787 0.037135762724988995 0 -0.037254953026416224 0.036896020529897551 0 -0.037186804719677981 0.037300082576706271 0 -0.036880010978723787 0.037135762724988995 0 -0.037254953026416224 0.036896020529897551 0 -0.037872026491400819 0.036770438261673255 0 -0.037609155377343731 0.037057213653747915 0 -0.037254953026416224 0.036896020529897551 0 -0.037186804719677981 0.037300082576706271 0 -0.037609155377343731 0.037057213653747915 0 -0.037186804719677981 0.037300082576706271 0 -0.037609155377343731 0.037057213653747915 0 -0.037581155318259292 0.037513076526462907 0 -0.037609155377343731 0.037057213653747915 0 -0.037942997352453503 0.037303129335120574 0 -0.037581155318259292 0.037513076526462907 0 -0.037609155377343731 0.037057213653747915 0 -0.038148146402972608 0.036711620009561886 0 -0.037942997352453503 0.037303129335120574 0 -0.037872026491400819 0.036770438261673255 0 -0.037609155377343731 0.037057213653747915 0 -0.038148146402972608 0.036711620009561886 0 -0.038126661699976763 0.036682885282648181 0 -0.038148146402972608 0.036711620009561886 0 -0.038422273156997817 0.036047316379600604 0 -0.038164630407646151 0.036539903960036299 0 -0.03859372086482242 0.037041093816214628 0 -0.038148146402972608 0.036711620009561886 0 -0.037942997352453503 0.037303129335120574 0 -0.038411061548939245 0.037441074228883625 0 -0.038664923484945511 0.037980755996228223 0 -0.038411061548939245 0.037441074228883625 0 -0.038000070646910133 0.037782074145506807 0 -0.037942997352453503 0.037303129335120574 0 -0.038411061548939245 0.037441074228883625 0 -0.038000070646910133 0.037782074145506807 0 -0.03905693996745694 0.034191851588897121 0 -0.03859372086482242 0.037041093816214628 0 -0.037425312890766171 0.037956533751017887 0 -0.038000070646910133 0.037782074145506807 0 -0.037581155318259292 0.037513076526462907 0 -0.037425312890766171 0.037956533751017887 0 -0.037244262856447996 0.037609178727549306 0 -0.037581155318259292 0.037513076526462907 0 -0.037244262856447996 0.037609178727549306 0 -0.037186804719677981 0.037300082576706271 0 -0.037581155318259292 0.037513076526462907 0 -0.037942997352453503 0.037303129335120574 0 -0.038000070646910133 0.037782074145506807 0 -0.037581155318259292 0.037513076526462907 0 -0.043671257126939617 0.042037321783789397 0 -0.044995028408973105 0.040785525340405561 0 -0.044773156807120705 0.040074463993034021 0 -0.044995028408973105 0.040785525340405561 0 -0.044773156807120705 0.040074463993034021 0 -0.044999577975595992 0.038754085815394808 0 -0.043671257126939617 0.042037321783789397 0 -0.043686749959110441 0.041671434113224694 0 -0.044773156807120705 0.040074463993034021 0 -0.044999752211940483 0.040785296555303663 0 -0.044124156879176125 0.04321823447431318 0 -0.043671257126939617 0.042037321783789397 0 -0.044995028408973105 0.040785525340405561 0 -0.042880098951831723 0.04315947208385968 0 -0.045000423162366167 0.04078619212264311 0 -0.045374177806139587 0.043317304107586677 0 -0.044997165831785216 0.044999530898867185 0 -0.045374177806139587 0.043317304107586677 0 -0.044997165831785216 0.044999530898867185 0 -0.043005864490756177 0.044998889591694714 0 -0.042880098951831723 0.04315947208385968 0 -0.042997482074195965 0.044997756399625867 0 -0.042629354717353345 0.04408186655833099 0 -0.044124156879176125 0.04321823447431318 0 -0.043000942823085184 0.044999045043826243 0 -0.043671257126939617 0.042037321783789397 0 -0.042880098951831723 0.04315947208385968 0 -0.042629354717353345 0.04408186655833099 0 -0.043671257126939617 0.042037321783789397 0 -0.042629354717353345 0.04408186655833099 0 -0.042166565625166491 0.043690048079410404 0 -0.042629354717353345 0.04408186655833099 0 -0.042166565625166491 0.043690048079410404 0 -0.040904544887270876 0.044562538586592509 0 -0.042997482074195965 0.044997756399625867 0 -0.042629354717353345 0.04408186655833099 0 -0.040590699221851177 0.044998658991151359 0 -0.042629354717353345 0.04408186655833099 0 -0.040590699221851177 0.044998658991151359 0 -0.040904544887270876 0.044562538586592509 0 -0.040590699221851177 0.044998658991151359 0 -0.040904544887270876 0.044562538586592509 0 -0.038177955474623465 0.044998623595218015 0 -0.042166565625166491 0.043690048079410404 0 -0.040904544887270876 0.044562538586592509 0 -0.040220846692050602 0.044735613553508968 0 -0.042166565625166491 0.043690048079410404 0 -0.042363600430637915 0.043056129799698757 0 -0.040220846692050602 0.044735613553508968 0 -0.043671257126939617 0.042037321783789397 0 -0.042166565625166491 0.043690048079410404 0 -0.042363600430637915 0.043056129799698757 0 -0.043686749959110441 0.041671434113224694 0 -0.042363600430637915 0.043056129799698757 0 -0.042667508286327552 0.042286531004295788 0 -0.043671257126939617 0.042037321783789397 0 -0.043686749959110441 0.041671434113224694 0 -0.042363600430637915 0.043056129799698757 0 -0.042363600430637915 0.043056129799698757 0 -0.042051490858781695 0.043335969088767447 0 -0.042667508286327552 0.042286531004295788 0 -0.042051490858781695 0.043335969088767447 0 -0.043193900144919584 0.042924018132816495 0 -0.043096850728612635 0.042209757347711978 0 -0.041775727996607545 0.043453993558045946 0 -0.040741727320429938 0.044149987551524564 0 -0.043193900144919584 0.042924018132816495 0 -0.043349840024736221 0.042248847231500318 0 -0.043096850728612635 0.042209757347711978 0 -0.038760172241363328 0.04577429337271819 0 -0.040220846692050602 0.044735613553508968 0 -0.037454640741881727 0.045402288167591627 0 -0.042363600430637915 0.043056129799698757 0 -0.042051490858781695 0.043335969088767447 0 -0.040220846692050602 0.044735613553508968 0 -0.042051490858781695 0.043335969088767447 0 -0.038760172241363328 0.04577429337271819 0 -0.040220846692050602 0.044735613553508968 0 -0.040904544887270876 0.044562538586592509 0 -0.040220846692050602 0.044735613553508968 0 -0.038177955474623465 0.044998623595218015 0 -0.038177955474623465 0.044998623595218015 0 -0.037454640741881727 0.045402288167591627 0 -0.035765585917149657 0.044999207351042618 0 -0.040220846692050602 0.044735613553508968 0 -0.038177955474623465 0.044998623595218015 0 -0.037454640741881727 0.045402288167591627 0 -0.037454640741881727 0.045402288167591627 0 -0.035239438859185186 0.045511681358331384 0 -0.035333406944858481 0.046587339061178935 0 -0.037454640741881727 0.045402288167591627 0 -0.035765585917149657 0.044999207351042618 0 -0.035239438859185186 0.045511681358331384 0 -0.03335290738639124 0.044999416597751356 0 -0.03417198499105395 0.045838715030372054 0 -0.035239438859185186 0.045511681358331384 0 -0.03335290738639124 0.044999416597751356 0 -0.035765585917149657 0.044999207351042618 0 -0.035239438859185186 0.045511681358331384 0 -0.03417198499105395 0.045838715030372054 0 -0.035239438859185186 0.045511681358331384 0 -0.035333406944858481 0.046587339061178935 0 -0.043193900144919584 0.042924018132816495 0 -0.043181521706085288 0.042596637413469335 0 -0.043213383475496928 0.042765318643155734 0 -0.040741727320429938 0.044149987551524564 0 -0.039621740268696318 0.044791384707507167 0 -0.038760172241363328 0.04577429337271819 0 -0.037454640741881727 0.045402288167591627 0 -0.035333406944858481 0.046587339061178935 0 -0.043193900144919584 0.042924018132816495 0 -0.043213383475496928 0.042765318643155734 0 -0.043349840024736221 0.042248847231500318 0 -0.033834879773322002 0.038640241997169061 0 -0.03480771537935224 0.037497939120038092 0 -0.035647496327115898 0.035723609104307101 0 -0.038628376026813675 0.040759131462392774 0 -0.039513280826635855 0.039082791276220073 0 -0.03480771537935224 0.037497939120038092 0 -0.036176347735503205 0.035531141113126732 0 -0.035647496327115898 0.035723609104307101 0 -0.036176347735503205 0.035531141113126732 0 -0.035647496327115898 0.035723609104307101 0 -0.036535970997774531 0.033675457301766902 0 -0.039513280826635855 0.039082791276220073 0 -0.039998524810798318 0.037458175922713652 0 -0.035647496327115898 0.035723609104307101 0 -0.036535970997774531 0.033675457301766902 0 -0.036449000036187701 0.033744977362324152 0 -0.037033120540851006 0.034285608486602094 0 -0.036176347735503205 0.035531141113126732 0 -0.036535970997774531 0.033675457301766902 0 -0.037362572666244584 0.032737671166237124 0 -0.036535970997774531 0.033675457301766902 0 -0.037025813166179547 0.0326553680373236 0 -0.037033120540851006 0.034285608486602094 0 -0.037362572666244584 0.032737671166237124 0 -0.036535970997774531 0.033675457301766902 0 -0.037556524090915984 0.03262533964503786 0 -0.037502667491397905 0.031218381424287855 0 -0.037362572666244584 0.032737671166237124 0 -0.037770889030872487 0.029591531661870139 0 -0.038084615821846565 0.029893847861729203 0 -0.036535970997774531 0.033675457301766902 0 -0.037025813166179547 0.0326553680373236 0 -0.037128418673779917 0.032617848701674897 0 -0.037025813166179547 0.0326553680373236 0 -0.037128418673779917 0.032617848701674897 0 -0.03755880847800816 0.032205499471145892 0 -0.036535970997774531 0.033675457301766902 0 -0.037128418673779917 0.032617848701674897 0 -0.036449000036187701 0.033744977362324152 0 -0.037128418673779917 0.032617848701674897 0 -0.037418182718896562 0.032412067988221431 0 -0.036449000036187701 0.033744977362324152 0 -0.037128418673779917 0.032617848701674897 0 -0.037418182718896562 0.032412067988221431 0 -0.038026409860766143 0.031886301662177083 0 -0.040723267554492862 0.036090809941357077 0 -0.039998524810798318 0.037458175922713652 0 -0.044002151001489992 0.039787632905751755 0 -0.043491587167805081 0.041133182225527101 0 -0.042983445759359751 0.041494429262102776 0 -0.043491587167805081 0.041133182225527101 0 -0.043096850728612635 0.042209757347711978 0 -0.042983445759359751 0.041494429262102776 0 -0.043349840024736221 0.042248847231500318 0 -0.043491587167805081 0.041133182225527101 0 -0.043096850728612635 0.042209757347711978 0 -0.042051490858781695 0.043335969088767447 0 -0.043096850728612635 0.042209757347711978 0 -0.042983445759359751 0.041494429262102776 0 -0.042051490858781695 0.043335969088767447 0 -0.042667508286327552 0.042286531004295788 0 -0.042983445759359751 0.041494429262102776 0 -0.043686749959110441 0.041671434113224694 0 -0.042667508286327552 0.042286531004295788 0 -0.042522987757399135 0.041739808263328917 0 -0.042667508286327552 0.042286531004295788 0 -0.042769334026987016 0.04121759578732323 0 -0.042522987757399135 0.041739808263328917 0 -0.042769334026987016 0.04121759578732323 0 -0.041922721416971592 0.040406945920799374 0 -0.042522987757399135 0.041739808263328917 0 -0.042667508286327552 0.042286531004295788 0 -0.042769334026987016 0.04121759578732323 0 -0.042983445759359751 0.041494429262102776 0 -0.042769334026987016 0.04121759578732323 0 -0.042983445759359751 0.041494429262102776 0 -0.043180490845112551 0.039852631974507516 0 -0.044002151001489992 0.039787632905751755 0 -0.042983445759359751 0.041494429262102776 0 -0.043180490845112551 0.039852631974507516 0 -0.044002151001489992 0.039787632905751755 0 -0.043180490845112551 0.039852631974507516 0 -0.044380971826973085 0.037525384598112811 0 -0.042478427159660506 0.040286175842873848 0 -0.044248299953097439 0.036248874692650909 0 -0.043180490845112551 0.039852631974507516 0 -0.042150818822592973 0.038203055218577607 0 -0.043326699634667072 0.036881139956368776 0 -0.042769334026987016 0.04121759578732323 0 -0.043180490845112551 0.039852631974507516 0 -0.041922721416971592 0.040406945920799374 0 -0.044238915165481299 0.038211582590983041 0 -0.044248299953097439 0.036248874692650909 0 -0.043180490845112551 0.039852631974507516 0 -0.041922721416971592 0.040406945920799374 0 -0.041639762345180784 0.038918194144114807 0 -0.046614470639864666 0.036004991859858136 0 -0.046537953542006801 0.033936377391949844 0 -0.044999633651395095 0.034688511794302053 0 -0.044999633651395095 0.034688511794302053 0 -0.04499928888501125 0.03672071279441879 0 -0.045568362453035388 0.037364861673885162 0 -0.046614470639864666 0.036004991859858136 0 -0.044999633651395095 0.034688511794302053 0 -0.045568362453035388 0.037364861673885162 0 -0.04499928888501125 0.03672071279441879 0 -0.045568362453035388 0.037364861673885162 0 -0.044999577975595992 0.038754085815394808 0 -0.046614470639864666 0.036004991859858136 0 -0.045568362453035388 0.037364861673885162 0 -0.046077243676217211 0.038625548779726286 0 -0.045568362453035388 0.037364861673885162 0 -0.046077243676217211 0.038625548779726286 0 -0.044773156807120705 0.040074463993034021 0 -0.044238915165481299 0.038211582590983041 0 -0.044189189162993213 0.040030532759007094 0 -0.043837626170276082 0.041272736412308962 0 -0.044189189162993213 0.040030532759007094 0 -0.043686749959110441 0.041671434113224694 0 -0.046077243676217211 0.038625548779726286 0 -0.044773156807120705 0.040074463993034021 0 -0.045568362453035388 0.037364861673885162 0 -0.044773156807120705 0.040074463993034021 0 -0.044999577975595992 0.038754085815394808 0 -0.044317011036038842 0.031141227160058509 0 -0.044553034005953812 0.028804161882804269 0 -0.044488354058075025 0.029676663181811631 0 -0.042519663610898907 0.032278162344933421 0 -0.044710514018584641 0.028325308645918049 0 -0.04499844408891495 0.028558065410677062 0 -0.045932440148828586 0.029780491411336825 0 -0.044710514018584641 0.028325308645918049 0 -0.042309906260302774 0.02915518717110864 0 -0.040331727888933223 0.0305292826766685 0 -0.041269113572810649 0.029913749259720779 0 -0.042309906260302774 0.02915518717110864 0 -0.041269113572810649 0.029913749259720779 0 -0.042232245270897327 0.029307876725261795 0 -0.04320992231624457 0.034042280078173136 0 -0.042519663610898907 0.032278162344933421 0 -0.042052755137553008 0.035888215593469733 0 -0.043449567362938118 0.029438604515201194 0 -0.042389233827284906 0.032319418396370057 0 -0.044488354058075025 0.029676663181811631 0 -0.04320992231624457 0.034042280078173136 0 -0.044420369236487817 0.034230125785550618 0 -0.044488354058075025 0.029676663181811631 0 -0.04320992231624457 0.034042280078173136 0 -0.042519663610898907 0.032278162344933421 0 -0.044317011036038842 0.031141227160058509 0 -0.044273198049360446 0.033820011127689335 0 -0.045932440148828586 0.029780491411336825 0 -0.045000289196462769 0.030606451759351245 0 -0.046390342614590872 0.031829967293504985 0 -0.04499844408891495 0.028558065410677062 0 -0.045932440148828586 0.029780491411336825 0 -0.045000289196462769 0.030606451759351245 0 -0.045000289196462769 0.030606451759351245 0 -0.044999801620523999 0.032656348180005831 0 -0.046390342614590872 0.031829967293504985 0 -0.046764876009311701 0.033773442229531422 0 -0.044999801620523999 0.032656348180005831 0 -0.046390342614590872 0.031829967293504985 0 -0.044248299953097439 0.036248874692650909 0 -0.045001837834477372 0.032655943518678107 0 -0.046537953542006801 0.033936377391949844 0 -0.044999633651395095 0.034688511794302053 0 -0.045000067806260959 0.032656308433922525 0 -0.044248299953097439 0.036248874692650909 0 -0.044273198049360446 0.033820011127689335 0 -0.042150818822592973 0.038203055218577607 0 -0.042052755137553008 0.035888215593469733 0 -0.043326699634667072 0.036881139956368776 0 -0.04320992231624457 0.034042280078173136 0 -0.043326699634667072 0.036881139956368776 0 -0.044420369236487817 0.034230125785550618 0 -0.04320992231624457 0.034042280078173136 0 -0.042052755137553008 0.035888215593469733 0 -0.043326699634667072 0.036881139956368776 0 -0.041554234501984463 0.034465372144868105 0 -0.042389233827284906 0.032319418396370057 0 -0.038715213069115566 0.031433151138850618 0 -0.039425221629991354 0.031056719818906439 0 -0.040331727888933223 0.0305292826766685 0 -0.043326699634667072 0.036881139956368776 0 -0.044380971826973085 0.037525384598112811 0 -0.044420369236487817 0.034230125785550618 0 -0.043180490845112551 0.039852631974507516 0 -0.043326699634667072 0.036881139956368776 0 -0.044380971826973085 0.037525384598112811 0 -0.040723267554492862 0.036090809941357077 0 -0.041554234501984463 0.034465372144868105 0 -0.038715213069115566 0.031433151138850618 0 -0.039425221629991354 0.031056719818906439 0 -0.038632777911989429 0.031535883861425175 0 -0.041454061455389442 0.028125112267053037 0 -0.039936872050927885 0.029126844076248361 0 -0.042754358317730438 0.025571632569184061 0 -0.04198248180496212 0.026060390845047108 0 -0.04119883416584972 0.026709596573912767 0 -0.039425221629991354 0.031056719818906439 0 -0.040159696327165983 0.030668394568012385 0 -0.038632777911989429 0.031535883861425175 0 -0.039425221629991354 0.031056719818906439 0 -0.040331727888933223 0.0305292826766685 0 -0.040159696327165983 0.030668394568012385 0 -0.040331727888933223 0.0305292826766685 0 -0.041269113572810649 0.029913749259720779 0 -0.040159696327165983 0.030668394568012385 0 -0.041269113572810649 0.029913749259720779 0 -0.040159696327165983 0.030668394568012385 0 -0.042232245270897327 0.029307876725261795 0 -0.042754358317730438 0.025571632569184061 0 -0.043537947644557207 0.025530875591167828 0 -0.044284588119039965 0.025316699488705099 0 -0.041454061455389442 0.028125112267053037 0 -0.043187344030889453 0.027187039873972259 0 -0.042754358317730438 0.025571632569184061 0 -0.042826156673833923 0.025656479540625818 0 -0.04198248180496212 0.026060390845047108 0 -0.042754358317730438 0.025571632569184061 0 -0.042826156673833923 0.025656479540625818 0 -0.043537947644557207 0.025530875591167828 0 -0.042826156673833923 0.025656479540625818 0 -0.04198248180496212 0.026060390845047108 0 -0.042544894391858344 0.025473447168147003 0 -0.04198248180496212 0.026060390845047108 0 -0.04182224168149324 0.025870550424733508 0 -0.042544894391858344 0.025473447168147003 0 -0.04198248180496212 0.026060390845047108 0 -0.04182224168149324 0.025870550424733508 0 -0.041203940519557079 0.026876112189551122 0 -0.041136247403539918 0.026812876465451295 0 -0.04055891420871565 0.026652715919236625 0 -0.04182224168149324 0.025870550424733508 0 -0.041203940519557079 0.026876112189551122 0 -0.04178481191040645 0.025187593301017972 0 -0.041203940519557079 0.026876112189551122 0 -0.039243015717750421 0.027799972036305791 0 -0.039384141488258306 0.028092201184960273 0 -0.041203940519557079 0.026876112189551122 0 -0.040040431776907387 0.027340781732306769 0 -0.039243015717750421 0.027799972036305791 0 -0.041203940519557079 0.026876112189551122 0 -0.04119883416584972 0.026709596573912767 0 -0.040040431776907387 0.027340781732306769 0 -0.04198248180496212 0.026060390845047108 0 -0.041203940519557079 0.026876112189551122 0 -0.04119883416584972 0.026709596573912767 0 -0.038715213069115566 0.031433151138850618 0 -0.038632777911989429 0.031535883861425175 0 -0.038026409860766143 0.031886301662177083 0 -0.038632777911989429 0.031535883861425175 0 -0.038026409860766143 0.031886301662177083 0 -0.03755880847800816 0.032205499471145892 0 -0.037418182718896562 0.032412067988221431 0 -0.038715213069115566 0.031433151138850618 0 -0.038026409860766143 0.031886301662177083 0 -0.037128418673779917 0.032617848701674897 0 -0.038026409860766143 0.031886301662177083 0 -0.03755880847800816 0.032205499471145892 0 -0.04119883416584972 0.026709596573912767 0 -0.039189040132925332 0.027704493069390778 0 -0.040040431776907387 0.027340781732306769 0 -0.039936872050927885 0.029126844076248361 0 -0.038428083050169433 0.029989793359171592 0 -0.039189040132925332 0.027704493069390778 0 -0.040040431776907387 0.027340781732306769 0 -0.039243015717750421 0.027799972036305791 0 -0.038525998345218096 0.028408646824304724 0 -0.038696095873283667 0.028433580727354749 0 -0.038545210949230344 0.02888375879047243 0 -0.039189040132925332 0.027704493069390778 0 -0.038525998345218096 0.028408646824304724 0 -0.039243015717750421 0.027799972036305791 0 -0.037502667491397905 0.031218381424287855 0 -0.038428083050169433 0.029989793359171592 0 -0.037770889030872487 0.029591531661870139 0 -0.039189040132925332 0.027704493069390778 0 -0.038525998345218096 0.028408646824304724 0 -0.037770889030872487 0.029591531661870139 0 -0.038525998345218096 0.028408646824304724 0 -0.038084615821846565 0.029893847861729203 0 -0.038525998345218096 0.028408646824304724 0 -0.039243015717750421 0.027799972036305791 0 -0.038696095873283667 0.028433580727354749 0 -0.039220768463795512 0.027842135999576401 0 -0.038946892046807374 0.028157024022262469 0 -0.039243015717750421 0.027799972036305791 0 -0.039168257772244038 0.027902227299318547 0 -0.039384141488258306 0.028092201184960273 0 -0.039168257772244038 0.027902227299318547 0 -0.039175029665259702 0.027786529475232708 0 -0.039384141488258306 0.028092201184960273 0 -0.039175029665259702 0.027786529475232708 0 -0.039384141488258306 0.028092201184960273 0 -0.038982004719702111 0.027505846111142682 0 -0.04055891420871565 0.026652715919236625 0 -0.039475856235972551 0.026652147404049895 0 -0.039901686179600784 0.025772575400135715 0 -0.040024012199721612 0.026499763660471957 0 -0.04145453334989329 0.025605763126462028 0 -0.04178481191040645 0.025187593301017972 0 -0.039901686179600784 0.025772575400135715 0 -0.04145453334989329 0.025605763126462028 0 -0.039175029665259702 0.027786529475232708 0 -0.038982004719702111 0.027505846111142682 0 -0.039300866852859717 0.027481128777727327 0 -0.039901686179600784 0.025772575400135715 0 -0.040024012199721612 0.026499763660471957 0 -0.039074407916796984 0.026500843245235436 0 -0.038982004719702111 0.027505846111142682 0 -0.039300866852859717 0.027481128777727327 0 -0.039074407916796984 0.026500843245235436 0 -0.039475856235972551 0.026652147404049895 0 -0.039125204441405423 0.026512568320018883 0 -0.039074601779849061 0.026063489392700864 0 -0.040024012199721612 0.026499763660471957 0 -0.039074407916796984 0.026500843245235436 0 -0.039074601779849061 0.026063489392700864 0 -0.039074407916796984 0.026500843245235436 0 -0.038803112397338177 0.025846193960386368 0 -0.039435278423942247 0.026128849626392423 0 -0.040024012199721612 0.026499763660471957 0 -0.039163283393083684 0.026208632817265785 0 -0.039074601779849061 0.026063489392700864 0 -0.039435278423942247 0.026128849626392423 0 -0.040024012199721612 0.026499763660471957 0 -0.040024012199721612 0.026499763660471957 0 -0.041854928172417503 0.026375668026180878 0 -0.042114622169936715 0.028044075118397307 0 -0.040024012199721612 0.026499763660471957 0 -0.041854928172417503 0.026375668026180878 0 -0.04145453334989329 0.025605763126462028 0 -0.039752551691164539 0.026803798387795764 0 -0.042351031951748372 0.025061031867190088 0 -0.039435278423942247 0.026128849626392423 0 -0.039163283393083684 0.026208632817265785 0 -0.03917927383534836 0.025835101120477107 0 -0.044591099432329501 0.024722945162743894 0 -0.044905284015107766 0.024163788655106867 0 -0.045018800230816614 0.023947154723485128 0 -0.042351031951748372 0.025061031867190088 0 -0.045745283096361895 0.021933926668104977 0 -0.045709016734469976 0.024391541022065717 0 -0.045018800230816614 0.023947154723485128 0 -0.044969895935003792 0.023843383051901972 0 -0.042898225333190265 0.021760255964343521 0 -0.043050991380518211 0.021825820045422332 0 -0.042914499263360655 0.021859473926280078 0 -0.045709016734469976 0.024391541022065717 0 -0.044591099432329501 0.024722945162743894 0 -0.045018800230816614 0.023947154723485128 0 -0.044905284015107766 0.024163788655106867 0 -0.045018800230816614 0.023947154723485128 0 -0.045078279930619303 0.023904979551525259 0 -0.042351031951748372 0.025061031867190088 0 -0.044289804172379973 0.025952059375237996 0 -0.041854928172417503 0.026375668026180878 0 -0.042114622169936715 0.028044075118397307 0 -0.043809362909653003 0.025628842092394983 0 -0.045709016734469976 0.024391541022065717 0 -0.044591099432329501 0.024722945162743894 0 -0.043809362909653003 0.025628842092394983 0 -0.043809362909653003 0.025628842092394983 0 -0.04145453334989329 0.025605763126462028 0 -0.042544894391858344 0.025473447168147003 0 -0.041854928172417503 0.026375668026180878 0 -0.043809362909653003 0.025628842092394983 0 -0.04145453334989329 0.025605763126462028 0 -0.04182224168149324 0.025870550424733508 0 -0.04178481191040645 0.025187593301017972 0 -0.042544894391858344 0.025473447168147003 0 -0.04178481191040645 0.025187593301017972 0 -0.04145453334989329 0.025605763126462028 0 -0.042544894391858344 0.025473447168147003 0 -0.042826156673833923 0.025656479540625818 0 -0.042544894391858344 0.025473447168147003 0 -0.043622409236911998 0.025556092406397425 0 -0.042826156673833923 0.025656479540625818 0 -0.043622409236911998 0.025556092406397425 0 -0.043537947644557207 0.025530875591167828 0 -0.043537947644557207 0.025530875591167828 0 -0.044171183944212114 0.025539827318241965 0 -0.044284588119039965 0.025316699488705099 0 -0.043622409236911998 0.025556092406397425 0 -0.043537947644557207 0.025530875591167828 0 -0.044171183944212114 0.025539827318241965 0 -0.044171183944212114 0.025539827318241965 0 -0.044359597862937271 0.025185008199784996 0 -0.044725123854601929 0.025154724310659932 0 -0.043622409236911998 0.025556092406397425 0 -0.044171183944212114 0.025539827318241965 0 -0.044359597862937271 0.025185008199784996 0 -0.043809362909653003 0.025628842092394983 0 -0.043622409236911998 0.025556092406397425 0 -0.044359597862937271 0.025185008199784996 0 -0.043809362909653003 0.025628842092394983 0 -0.042544894391858344 0.025473447168147003 0 -0.043622409236911998 0.025556092406397425 0 -0.044591099432329501 0.024722945162743894 0 -0.044359597862937271 0.025185008199784996 0 -0.044950200272078522 0.024147010455856523 0 -0.044591099432329501 0.024722945162743894 0 -0.043809362909653003 0.025628842092394983 0 -0.044359597862937271 0.025185008199784996 0 -0.044591099432329501 0.024722945162743894 0 -0.044950200272078522 0.024147010455856523 0 -0.044905284015107766 0.024163788655106867 0 -0.044950200272078522 0.024147010455856523 0 -0.044905284015107766 0.024163788655106867 0 -0.045078279930619303 0.023904979551525259 0 -0.044950200272078522 0.024147010455856523 0 -0.045051190431547462 0.024112267855636544 0 -0.045623850707074566 0.022767982962542014 0 -0.044359597862937271 0.025185008199784996 0 -0.044950200272078522 0.024147010455856523 0 -0.045051190431547462 0.024112267855636544 0 -0.044359597862937271 0.025185008199784996 0 -0.045051190431547462 0.024112267855636544 0 -0.044725123854601929 0.025154724310659932 0 -0.044725123854601929 0.025154724310659932 0 -0.045100026105592786 0.024166370322601136 0 -0.044982415805368277 0.025086112644654757 0 -0.045051190431547462 0.024112267855636544 0 -0.044725123854601929 0.025154724310659932 0 -0.045100026105592786 0.024166370322601136 0 -0.045051190431547462 0.024112267855636544 0 -0.045100026105592786 0.024166370322601136 0 -0.045355740425790166 0.02283508630830413 0 -0.045100026105592786 0.024166370322601136 0 -0.044999536109048673 0.023844970960310678 0 -0.045355740425790166 0.02283508630830413 0 -0.044999536109048673 0.023844970960310678 0 -0.044982415805368277 0.025086112644654757 0 -0.04488559886584377 0.026229939205447094 0 -0.045100026105592786 0.024166370322601136 0 -0.044999536109048673 0.023844970960310678 0 -0.044982415805368277 0.025086112644654757 0 -0.044982415805368277 0.025086112644654757 0 -0.04488559886584377 0.026229939205447094 0 -0.044634669520686954 0.025646462077172229 0 -0.044999536109048673 0.023844970960310678 0 -0.044996276470141559 0.02650700975123416 0 -0.04488559886584377 0.026229939205447094 0 -0.044996276470141559 0.02650700975123416 0 -0.04488559886584377 0.026229939205447094 0 -0.043602624675813502 0.02781793256796419 0 -0.044725123854601929 0.025154724310659932 0 -0.044982415805368277 0.025086112644654757 0 -0.044634669520686954 0.025646462077172229 0 -0.044171183944212114 0.025539827318241965 0 -0.044725123854601929 0.025154724310659932 0 -0.044634669520686954 0.025646462077172229 0 -0.044480642204282488 0.026314904751411832 0 -0.043187344030889453 0.027187039873972259 0 -0.044171183944212114 0.025539827318241965 0 -0.044634669520686954 0.025646462077172229 0 -0.044284588119039965 0.025316699488705099 0 -0.04488559886584377 0.026229939205447094 0 -0.044634669520686954 0.025646462077172229 0 -0.044284588119039965 0.025316699488705099 0 -0.042309906260302774 0.02915518717110864 0 -0.042232245270897327 0.029307876725261795 0 -0.043602624675813502 0.02781793256796419 0 -0.044488354058075025 0.029676663181811631 0 -0.045000383922349528 0.026509184371967736 0 -0.044710514018584641 0.028325308645918049 0 -0.04499844408891495 0.028558065410677062 0 -0.045000383922349528 0.026509184371967736 0 -0.044710514018584641 0.028325308645918049 0 -0.042309906260302774 0.02915518717110864 0 -0.044996276470141559 0.02650700975123416 0 -0.043602624675813502 0.02781793256796419 0 -0.04488559886584377 0.026229939205447094 0 -0.042232245270897327 0.029307876725261795 0 -0.043602624675813502 0.02781793256796419 0 -0.043449567362938118 0.029438604515201194 0 -0.044999447105568219 0.026509274715822061 0 -0.03887529313625239 0.029002566266877274 0 -0.037915938112491013 0.028922493540478718 0 -0.038529304511640397 0.028691075474295308 0 -0.03887529313625239 0.029002566266877274 0 -0.038276089038391033 0.029310187784774885 0 -0.037915938112491013 0.028922493540478718 0 -0.03887529313625239 0.029002566266877274 0 -0.039164682393386399 0.02917693920243258 0 -0.038861011019788817 0.029315227071265534 0 -0.03887529313625239 0.029002566266877274 0 -0.038861011019788817 0.029315227071265534 0 -0.038276089038391033 0.029310187784774885 0 -0.039267671617903697 0.028928762803157954 0 -0.039298423131000799 0.029055269433587275 0 -0.039280852612129005 0.028912983446385147 0 -0.03887529313625239 0.029002566266877274 0 -0.039267671617903697 0.028928762803157954 0 -0.039153759462341196 0.028615928493765617 0 -0.039267671617903697 0.028928762803157954 0 -0.039164682393386399 0.02917693920243258 0 -0.039298423131000799 0.029055269433587275 0 -0.03887529313625239 0.029002566266877274 0 -0.039267671617903697 0.028928762803157954 0 -0.039164682393386399 0.02917693920243258 0 -0.039164682393386399 0.02917693920243258 0 -0.039315509700223676 0.029185687217870362 0 -0.039211411378766083 0.029512958608052149 0 -0.039164682393386399 0.02917693920243258 0 -0.039298423131000799 0.029055269433587275 0 -0.039315509700223676 0.029185687217870362 0 -0.039298423131000799 0.029055269433587275 0 -0.039315509700223676 0.029185687217870362 0 -0.039298625355959529 0.028909764185811794 0 -0.039315509700223676 0.029185687217870362 0 -0.039298625355959529 0.028909764185811794 0 -0.039453485836380628 0.028909006540124828 0 -0.039315509700223676 0.029185687217870362 0 -0.039211411378766083 0.029512958608052149 0 -0.039453485836380628 0.028909006540124828 0 -0.039195630369770675 0.029783335736448514 0 -0.039211411378766083 0.029512958608052149 0 -0.038620961609581762 0.029678476314080379 0 -0.039164682393386399 0.02917693920243258 0 -0.039211411378766083 0.029512958608052149 0 -0.038861011019788817 0.029315227071265534 0 -0.038861011019788817 0.029315227071265534 0 -0.038620961609581762 0.029678476314080379 0 -0.038276089038391033 0.029310187784774885 0 -0.039211411378766083 0.029512958608052149 0 -0.038861011019788817 0.029315227071265534 0 -0.038620961609581762 0.029678476314080379 0 -0.039195630369770675 0.029783335736448514 0 -0.038620961609581762 0.029678476314080379 0 -0.038323330804083691 0.030139992578318058 0 -0.038620961609581762 0.029678476314080379 0 -0.037819585553934713 0.029844858344744037 0 -0.038323330804083691 0.030139992578318058 0 -0.037819585553934713 0.029844858344744037 0 -0.037145218080852471 0.029858748593670988 0 -0.037298465850891416 0.02919879045691972 0 -0.037819585553934713 0.029844858344744037 0 -0.038276089038391033 0.029310187784774885 0 -0.037298465850891416 0.02919879045691972 0 -0.038620961609581762 0.029678476314080379 0 -0.037819585553934713 0.029844858344744037 0 -0.038276089038391033 0.029310187784774885 0 -0.037819585553934713 0.029844858344744037 0 -0.037145218080852471 0.029858748593670988 0 -0.036867627250923636 0.031159521502164018 0 -0.036437976374742671 0.030348474309752758 0 -0.037145218080852471 0.029858748593670988 0 -0.036867627250923636 0.031159521502164018 0 -0.036097950611089447 0.02962996688971796 0 -0.037145218080852471 0.029858748593670988 0 -0.037298465850891416 0.02919879045691972 0 -0.036097950611089447 0.02962996688971796 0 -0.036437976374742671 0.030348474309752758 0 -0.037145218080852471 0.029858748593670988 0 -0.036097950611089447 0.02962996688971796 0 -0.036594404339451769 0.028859169518429199 0 -0.037298465850891416 0.02919879045691972 0 -0.036097950611089447 0.02962996688971796 0 -0.035956404710367901 0.028770860819205827 0 -0.036594404339451769 0.028859169518429199 0 -0.036594404339451769 0.028859169518429199 0 -0.037298465850891416 0.02919879045691972 0 -0.037291323116797823 0.028519323293048373 0 -0.038276089038391033 0.029310187784774885 0 -0.037298465850891416 0.02919879045691972 0 -0.037915938112491013 0.028922493540478718 0 -0.037298465850891416 0.02919879045691972 0 -0.037915938112491013 0.028922493540478718 0 -0.037291323116797823 0.028519323293048373 0 -0.037915938112491013 0.028922493540478718 0 -0.038085913527176295 0.028231392696127993 0 -0.038529304511640397 0.028691075474295308 0 -0.037915938112491013 0.028922493540478718 0 -0.037291323116797823 0.028519323293048373 0 -0.038085913527176295 0.028231392696127993 0 -0.037291323116797823 0.028519323293048373 0 -0.038085913527176295 0.028231392696127993 0 -0.037202483185216587 0.027871327114615135 0 -0.035956404710367901 0.028770860819205827 0 -0.036594404339451769 0.028859169518429199 0 -0.036569313467076432 0.028150324946565792 0 -0.036594404339451769 0.028859169518429199 0 -0.037291323116797823 0.028519323293048373 0 -0.036569313467076432 0.028150324946565792 0 -0.037291323116797823 0.028519323293048373 0 -0.036569313467076432 0.028150324946565792 0 -0.037202483185216587 0.027871327114615135 0 -0.03579243062955563 0.028073001954641283 0 -0.036586575479204096 0.027032722280072984 0 -0.036569313467076432 0.028150324946565792 0 -0.025865707081919091 0.032586772861270971 0 -0.022153400721440501 0.036668273247036746 0 -0.036586575479204096 0.027032722280072984 0 -0.036569313467076432 0.028150324946565792 0 -0.037202483185216587 0.027871327114615135 0 -0.036586575479204096 0.027032722280072984 0 -0.03764878214969488 0.027345706233025166 0 -0.037202483185216587 0.027871327114615135 0 -0.038085913527176295 0.028231392696127993 0 -0.03764878214969488 0.027345706233025166 0 -0.037202483185216587 0.027871327114615135 0 -0.038825647477062915 0.027172703799260949 0 -0.03925568026199764 0.028885088126103721 0 -0.038085913527176295 0.028231392696127993 0 -0.03764878214969488 0.027345706233025166 0 -0.038576214698650226 0.027356882013300735 0 -0.03887529313625239 0.029002566266877274 0 -0.038529304511640397 0.028691075474295308 0 -0.039153759462341196 0.028615928493765617 0 -0.038085913527176295 0.028231392696127993 0 -0.038576214698650226 0.027356882013300735 0 -0.039153759462341196 0.028615928493765617 0 -0.038085913527176295 0.028231392696127993 0 -0.038529304511640397 0.028691075474295308 0 -0.039153759462341196 0.028615928493765617 0 -0.039153759462341196 0.028615928493765617 0 -0.039201037714723136 0.028888687055714585 0 -0.039305633588381468 0.028914856370195956 0 -0.039267671617903697 0.028928762803157954 0 -0.039153759462341196 0.028615928493765617 0 -0.039305633588381468 0.028914856370195956 0 -0.039261560893087903 0.028963266233140231 0 -0.039299880707509151 0.02888279895561682 0 -0.039201037714723136 0.028888687055714585 0 -0.039299880707509151 0.02888279895561682 0 -0.039153759462341196 0.028615928493765617 0 -0.039201037714723136 0.028888687055714585 0 -0.039264861274850113 0.02892584624600816 0 -0.039201037714723136 0.028888687055714585 0 -0.039438175496333862 0.029158043501454171 0 -0.038754358601509775 0.030966746124873906 0 -0.040567190219682463 0.031062834201796282 0 -0.039438175496333862 0.029158043501454171 0 -0.03998351995975935 0.029519019606138411 0 -0.039503312949203985 0.02938904905184881 0 -0.039438175496333862 0.029158043501454171 0 -0.03895309798698212 0.028695554250498856 0 -0.039262105447402808 0.028908792143965991 0 -0.039438175496333862 0.029158043501454171 0 -0.039305633588381468 0.028914856370195956 0 -0.039262105447402808 0.028908792143965991 0 -0.039201037714723136 0.028888687055714585 0 -0.039438175496333862 0.029158043501454171 0 -0.039305633588381468 0.028914856370195956 0 -0.038754358601509775 0.030966746124873906 0 -0.038084615821846565 0.029893847861729203 0 -0.038545210949230344 0.02888375879047243 0 -0.038525998345218096 0.028408646824304724 0 -0.038084615821846565 0.029893847861729203 0 -0.038545210949230344 0.02888375879047243 0 -0.038754358601509775 0.030966746124873906 0 -0.039438175496333862 0.029158043501454171 0 -0.038545210949230344 0.02888375879047243 0 -0.039438175496333862 0.029158043501454171 0 -0.038545210949230344 0.02888375879047243 0 -0.03895309798698212 0.028695554250498856 0 -0.038696095873283667 0.028433580727354749 0 -0.038545210949230344 0.02888375879047243 0 -0.03895309798698212 0.028695554250498856 0 -0.03895309798698212 0.028695554250498856 0 -0.039065890327415427 0.028685089974571736 0 -0.038858398882713099 0.028528064091034883 0 -0.038946892046807374 0.028157024022262469 0 -0.03914882629199358 0.028143907123893416 0 -0.038696095873283667 0.028433580727354749 0 -0.03895309798698212 0.028695554250498856 0 -0.038858398882713099 0.028528064091034883 0 -0.039305633588381468 0.028914856370195956 0 -0.039280852612129005 0.028912983446385147 0 -0.039262105447402808 0.028908792143965991 0 -0.039267671617903697 0.028928762803157954 0 -0.039305633588381468 0.028914856370195956 0 -0.039280852612129005 0.028912983446385147 0 -0.03895309798698212 0.028695554250498856 0 -0.039280852612129005 0.028912983446385147 0 -0.039262105447402808 0.028908792143965991 0 -0.03895309798698212 0.028695554250498856 0 -0.039280852612129005 0.028912983446385147 0 -0.039065890327415427 0.028685089974571736 0 -0.039280852612129005 0.028912983446385147 0 -0.039065890327415427 0.028685089974571736 0 -0.039298625355959529 0.028909764185811794 0 -0.039298423131000799 0.029055269433587275 0 -0.039280852612129005 0.028912983446385147 0 -0.039298625355959529 0.028909764185811794 0 -0.039169750886223258 0.028595233599651586 0 -0.038935493665856663 0.028372607030591211 0 -0.039484498412523696 0.028329259749177285 0 -0.039065890327415427 0.028685089974571736 0 -0.039298625355959529 0.028909764185811794 0 -0.039169750886223258 0.028595233599651586 0 -0.039298625355959529 0.028909764185811794 0 -0.039169750886223258 0.028595233599651586 0 -0.039484498412523696 0.028329259749177285 0 -0.039065890327415427 0.028685089974571736 0 -0.039169750886223258 0.028595233599651586 0 -0.038935493665856663 0.028372607030591211 0 -0.039065890327415427 0.028685089974571736 0 -0.038935493665856663 0.028372607030591211 0 -0.038858398882713099 0.028528064091034883 0 -0.039890435867562392 0.027376538634278559 0 -0.039634036562945001 0.027158592817805551 0 -0.039895486348623138 0.027268535187949524 0 -0.039421333685260233 0.027864450993050183 0 -0.039681723947054562 0.027565486315145802 0 -0.038935493665856663 0.028372607030591211 0 -0.039484498412523696 0.028329259749177285 0 -0.039675529883303348 0.027542792654039677 0 -0.039890435867562392 0.027376538634278559 0 -0.039675529883303348 0.027542792654039677 0 -0.039895486348623138 0.027268535187949524 0 -0.039175029665259702 0.027786529475232708 0 -0.039469368796258855 0.027782604120210941 0 -0.039300866852859717 0.027481128777727327 0 -0.039168257772244038 0.027902227299318547 0 -0.039175029665259702 0.027786529475232708 0 -0.039469368796258855 0.027782604120210941 0 -0.039421333685260233 0.027864450993050183 0 -0.03914882629199358 0.028143907123893416 0 -0.039469368796258855 0.027782604120210941 0 -0.039300866852859717 0.027481128777727327 0 -0.039634036562945001 0.027158592817805551 0 -0.039890435867562392 0.027376538634278559 0 -0.039469368796258855 0.027782604120210941 0 -0.039634036562945001 0.027158592817805551 0 -0.039300866852859717 0.027481128777727327 0 -0.039634036562945001 0.027158592817805551 0 -0.039074407916796984 0.026500843245235436 0 -0.039634036562945001 0.027158592817805551 0 -0.03941734939459892 0.026469948569913616 0 -0.039074407916796984 0.026500843245235436 0 -0.039634036562945001 0.027158592817805551 0 -0.03941734939459892 0.026469948569913616 0 -0.040056116317357213 0.02688547761527468 0 -0.03941734939459892 0.026469948569913616 0 -0.038803112397338177 0.025846193960386368 0 -0.039634801767636042 0.025902682861364011 0 -0.03941734939459892 0.026469948569913616 0 -0.040056116317357213 0.02688547761527468 0 -0.039634801767636042 0.025902682861364011 0 -0.03941734939459892 0.026469948569913616 0 -0.039074407916796984 0.026500843245235436 0 -0.038803112397338177 0.025846193960386368 0 -0.039750739906421043 0.027369658607504357 0 -0.039675529883303348 0.027542792654039677 0 -0.039895486348623138 0.027268535187949524 0 -0.040646173779217254 0.027374904474256591 0 -0.040034405300027213 0.026974816113052281 0 -0.039750739906421043 0.027369658607504357 0 -0.039895486348623138 0.027268535187949524 0 -0.040056116317357213 0.02688547761527468 0 -0.039634036562945001 0.027158592817805551 0 -0.039895486348623138 0.027268535187949524 0 -0.040056116317357213 0.02688547761527468 0 -0.040056116317357213 0.02688547761527468 0 -0.04031402271703511 0.025982423813519413 0 -0.039634801767636042 0.025902682861364011 0 -0.040056116317357213 0.02688547761527468 0 -0.041188688991284521 0.026229050250518762 0 -0.04031402271703511 0.025982423813519413 0 -0.04146321456937152 0.027440173527456906 0 -0.040056116317357213 0.02688547761527468 0 -0.041188688991284521 0.026229050250518762 0 -0.041188688991284521 0.026229050250518762 0 -0.041955620522454183 0.02689883693881991 0 -0.042410945035189607 0.025999273796538432 0 -0.04146321456937152 0.027440173527456906 0 -0.041188688991284521 0.026229050250518762 0 -0.041955620522454183 0.02689883693881991 0 -0.041005436664185782 0.027769787595531312 0 -0.042448940368322183 0.024952230751206811 0 -0.041955620522454183 0.02689883693881991 0 -0.042737520510492844 0.02791082758401971 0 -0.042410945035189607 0.025999273796538432 0 -0.042362614656910498 0.024663789462012004 0 -0.042229285882514178 0.024909554661053886 0 -0.04218827135990677 0.024506330117394431 0 -0.042509851005671832 0.024666705835680237 0 -0.042595740969035137 0.024472140922618228 0 -0.042423475875541815 0.024480415239497288 0 -0.042362614656910498 0.024663789462012004 0 -0.042509851005671832 0.024666705835680237 0 -0.042423475875541815 0.024480415239497288 0 -0.042362614656910498 0.024663789462012004 0 -0.042423475875541815 0.024480415239497288 0 -0.04218827135990677 0.024506330117394431 0 -0.042362614656910498 0.024663789462012004 0 -0.042465984175463739 0.024830700159538196 0 -0.042509851005671832 0.024666705835680237 0 -0.042465984175463739 0.024830700159538196 0 -0.042229285882514178 0.024909554661053886 0 -0.042576177928702157 0.025061424433580778 0 -0.042362614656910498 0.024663789462012004 0 -0.042465984175463739 0.024830700159538196 0 -0.042229285882514178 0.024909554661053886 0 -0.041005436664185782 0.027769787595531312 0 -0.039137365408223518 0.028907442441543918 0 -0.040646173779217254 0.027374904474256591 0 -0.041005436664185782 0.027769787595531312 0 -0.039750739906421043 0.027369658607504357 0 -0.039675529883303348 0.027542792654039677 0 -0.03994283463776982 0.027559124442269128 0 -0.04146321456937152 0.027440173527456906 0 -0.041955620522454183 0.02689883693881991 0 -0.042737520510492844 0.02791082758401971 0 -0.039675529883303348 0.027542792654039677 0 -0.03994283463776982 0.027559124442269128 0 -0.03975705674066618 0.027960240160067065 0 -0.041005436664185782 0.027769787595531312 0 -0.039527254675495935 0.029771538563733376 0 -0.039484498412523696 0.028329259749177285 0 -0.03975705674066618 0.027960240160067065 0 -0.039894844110389807 0.028436374938203141 0 -0.039484498412523696 0.028329259749177285 0 -0.039675529883303348 0.027542792654039677 0 -0.03975705674066618 0.027960240160067065 0 -0.03994283463776982 0.027559124442269128 0 -0.03975705674066618 0.027960240160067065 0 -0.039894844110389807 0.028436374938203141 0 -0.0395044372984888 0.031254496325398777 0 -0.03936238588053674 0.030565846551635197 0 -0.038487574693592971 0.030901625492819149 0 -0.03936238588053674 0.030565846551635197 0 -0.038820640730829269 0.030426567956664759 0 -0.038487574693592971 0.030901625492819149 0 -0.039195630369770675 0.029783335736448514 0 -0.03936238588053674 0.030565846551635197 0 -0.038820640730829269 0.030426567956664759 0 -0.039298434909999007 0.029327973377849859 0 -0.039527254675495935 0.029771538563733376 0 -0.039195630369770675 0.029783335736448514 0 -0.039211411378766083 0.029512958608052149 0 -0.03936238588053674 0.030565846551635197 0 -0.039195630369770675 0.029783335736448514 0 -0.038458361359747874 0.031039625776081596 0 -0.038323330804083691 0.030139992578318058 0 -0.039230241130824933 0.029807527909708854 0 -0.038364742330529104 0.031055549924736494 0 -0.039298625355959529 0.028909764185811794 0 -0.039484498412523696 0.028329259749177285 0 -0.039453485836380628 0.028909006540124828 0 -0.039211411378766083 0.029512958608052149 0 -0.039894844110389807 0.028436374938203141 0 -0.039453485836380628 0.028909006540124828 0 -0.039484498412523696 0.028329259749177285 0 -0.039894844110389807 0.028436374938203141 0 -0.039453485836380628 0.028909006540124828 0 -0.035142882267953597 0.031076642177688664 0 -0.036765478456188702 0.030578202217446161 0 -0.036449869275370333 0.031561441851389802 0 -0.036765478456188702 0.030578202217446161 0 -0.03754121932622824 0.031115799955614462 0 -0.036449869275370333 0.031561441851389802 0 -0.035640459801366438 0.030784368360161841 0 -0.036437976374742671 0.030348474309752758 0 -0.036867627250923636 0.031159521502164018 0 -0.037006053905676989 0.030870400005951537 0 -0.038112314701679952 0.030256336800964637 0 -0.036765478456188702 0.030578202217446161 0 -0.038323330804083691 0.030139992578318058 0 -0.03754121932622824 0.031115799955614462 0 -0.037819585553934713 0.029844858344744037 0 -0.036867627250923636 0.031159521502164018 0 -0.038323330804083691 0.030139992578318058 0 -0.038458361359747874 0.031039625776081596 0 -0.038323330804083691 0.030139992578318058 0 -0.03754121932622824 0.031115799955614462 0 -0.03754121932622824 0.031115799955614462 0 -0.037723289176668971 0.032013324609189035 0 -0.036449869275370333 0.031561441851389802 0 -0.038458361359747874 0.031039625776081596 0 -0.03754121932622824 0.031115799955614462 0 -0.037723289176668971 0.032013324609189035 0 -0.038364742330529104 0.031055549924736494 0 -0.039137365408223518 0.028907442441543918 0 -0.035509686895309756 0.028383755526802001 0 -0.033277300923769494 0.027586461400254652 0 -0.033550139382244507 0.028456947903976685 0 -0.035509686895309756 0.028383755526802001 0 -0.033550139382244507 0.028456947903976685 0 -0.034264988963696542 0.030037992717196985 0 -0.039137365408223518 0.028907442441543918 0 -0.034332237418543167 0.029380389737580486 0 -0.032298332975937413 0.02817046850373291 0 -0.03244632306198697 0.02953176998971686 0 -0.033550139382244507 0.028456947903976685 0 -0.032298332975937413 0.02817046850373291 0 -0.033277300923769494 0.027586461400254652 0 -0.033550139382244507 0.028456947903976685 0 -0.03244632306198697 0.02953176998971686 0 -0.034166422976798803 0.02993991360758632 0 -0.032851500927763011 0.03164733515007194 0 -0.03244632306198697 0.02953176998971686 0 -0.033550139382244507 0.028456947903976685 0 -0.034166422976798803 0.02993991360758632 0 -0.034353275190090606 0.028845795150846398 0 -0.036313650731976399 0.027276135121108946 0 -0.036313650731976399 0.027276135121108946 0 -0.028180002952769151 0.02769627710465164 0 -0.042465984175463739 0.024830700159538196 0 -0.042695478311945229 0.024885812968102754 0 -0.042509851005671832 0.024666705835680237 0 -0.042465984175463739 0.024830700159538196 0 -0.042576177928702157 0.025061424433580778 0 -0.042695478311945229 0.024885812968102754 0 -0.039137365408223518 0.028907442441543918 0 -0.036313650731976399 0.027276135121108946 0 -0.042695478311945229 0.024885812968102754 0 -0.042509851005671832 0.024666705835680237 0 -0.042595740969035137 0.024472140922618228 0 -0.036313650731976399 0.027276135121108946 0 -0.03617593239435709 0.024325289134461504 0 -0.028180002952769151 0.02769627710465164 0 -0.03617593239435709 0.024325289134461504 0 -0.033762697500362537 0.025986447481422953 0 -0.03347387578696661 0.026343721256191166 0 -0.034075380267312744 0.026656188282972424 0 -0.025065185061886482 0.024149339052021684 0 -0.02512388304153217 0.024133697859108971 0 -0.025023069415455873 0.024108745877362885 0 -0.025100369488748511 0.024172142373480521 0 -0.025065185061886482 0.024149339052021684 0 -0.02512388304153217 0.024133697859108971 0 -0.02512388304153217 0.024133697859108971 0 -0.025062903145090104 0.024075835559421232 0 -0.025144983372174412 0.024065513918722845 0 -0.03617593239435709 0.024325289134461504 0 -0.033999052400780293 0.023966923515595887 0 -0.02512388304153217 0.024133697859108971 0 -0.025062903145090104 0.024075835559421232 0 -0.025023069415455873 0.024108745877362885 0 -0.025023069415455873 0.024108745877362885 0 -0.024902212490078474 0.024123121460913104 0 -0.025028423670824879 0.024149885300543565 0 -0.025065185061886482 0.024149339052021684 0 -0.025023069415455873 0.024108745877362885 0 -0.025028423670824879 0.024149885300543565 0 -0.025023069415455873 0.024108745877362885 0 -0.024902212490078474 0.024123121460913104 0 -0.024951993660947604 0.024082394588178371 0 -0.024902212490078474 0.024123121460913104 0 -0.024951993660947604 0.024082394588178371 0 -0.024693878049856174 0.024016588570316199 0 -0.025062903145090104 0.024075835559421232 0 -0.025023069415455873 0.024108745877362885 0 -0.024951993660947604 0.024082394588178371 0 -0.025062903145090104 0.024075835559421232 0 -0.024951993660947604 0.024082394588178371 0 -0.025133420168753175 0.024107005707443101 0 -0.025062903145090104 0.024075835559421232 0 -0.025133420168753175 0.024107005707443101 0 -0.025144983372174412 0.024065513918722845 0 -0.024946686465087846 0.024117670280644411 0 -0.025133420168753175 0.024107005707443101 0 -0.025007659278372518 0.024312792568350661 0 -0.024951993660947604 0.024082394588178371 0 -0.024946686465087846 0.024117670280644411 0 -0.025133420168753175 0.024107005707443101 0 -0.025133420168753175 0.024107005707443101 0 -0.025007659278372518 0.024312792568350661 0 -0.025376168121390697 0.024279875913424395 0 -0.023996461249763717 0.023803425088635293 0 -0.024644576140175969 0.02405480570574349 0 -0.024902212490078474 0.024123121460913104 0 -0.024693878049856174 0.024016588570316199 0 -0.024989102686921671 0.023720159534454773 0 -0.024946686465087846 0.024117670280644411 0 -0.025007659278372518 0.024312792568350661 0 -0.024693878049856174 0.024016588570316199 0 -0.023165834182949239 0.023542171376484875 0 -0.024693878049856174 0.024016588570316199 0 -0.024054356772825736 0.023142047107067059 0 -0.024693878049856174 0.024016588570316199 0 -0.024054356772825736 0.023142047107067059 0 -0.024989102686921671 0.023720159534454773 0 -0.024951993660947604 0.024082394588178371 0 -0.024946686465087846 0.024117670280644411 0 -0.024693878049856174 0.024016588570316199 0 -0.037839137687688311 0.020597558508625383 0 -0.037465255351814865 0.016436784862306094 0 -0.036095767265431768 0.014836704559647074 0 -0.032796522126450199 0.013590442842158145 0 -0.0348903265615172 0.013415134338892101 0 -0.042462296943033911 0.022761693445045413 0 -0.042423799452196244 0.022387048399882318 0 -0.04259612413919097 0.022423529855814594 0 -0.042462296943033911 0.022761693445045413 0 -0.042423799452196244 0.022387048399882318 0 -0.04200639005390621 0.022496146962099329 0 -0.044045556764894044 0.021169801024110278 0 -0.04200639005390621 0.022496146962099329 0 -0.042396372661529763 0.021188222670014176 0 -0.037839137687688311 0.020597558508625383 0 -0.043175958057781634 0.021716696666944778 0 -0.036095767265431768 0.014836704559647074 0 -0.036578117124465633 0.014498951648261288 0 -0.0348903265615172 0.013415134338892101 0 -0.032721293785581286 0.021644696570811469 0 -0.033101574634134046 0.021778814482282961 0 -0.032971095065870766 0.021469988879051001 0 -0.037839137687688311 0.020597558508625383 0 -0.032199736255090532 0.022654390352155333 0 -0.037839137687688311 0.020597558508625383 0 -0.032206568476184951 0.02047993893708409 0 -0.032199736255090532 0.022654390352155333 0 -0.032206568476184951 0.02047993893708409 0 -0.025694977013811987 0.024180590753227982 0 -0.025742269823974463 0.024278532052319498 0 -0.025376168121390697 0.024279875913424395 0 -0.025742269823974463 0.024278532052319498 0 -0.025376168121390697 0.024279875913424395 0 -0.025394816389569284 0.024492403212749758 0 -0.023068918207254398 0.02366669887738785 0 -0.032199736255090532 0.022654390352155333 0 -0.025133420168753175 0.024107005707443101 0 -0.025694977013811987 0.024180590753227982 0 -0.025376168121390697 0.024279875913424395 0 -0.025007659278372518 0.024312792568350661 0 -0.025376168121390697 0.024279875913424395 0 -0.025394816389569284 0.024492403212749758 0 -0.042462296943033911 0.022761693445045413 0 -0.042393688102776682 0.02306500698558419 0 -0.042896824507148566 0.023637757020758307 0 -0.042462296943033911 0.022761693445045413 0 -0.04259612413919097 0.022423529855814594 0 -0.042896824507148566 0.023637757020758307 0 -0.042393688102776682 0.02306500698558419 0 -0.042387838056904513 0.023637349765129521 0 -0.042896824507148566 0.023637757020758307 0 -0.032199736255090532 0.022654390352155333 0 -0.033999052400780293 0.023966923515595887 0 -0.025133420168753175 0.024107005707443101 0 -0.025306763488543285 0.024138206545703037 0 -0.025144983372174412 0.024065513918722845 0 -0.042393688102776682 0.02306500698558419 0 -0.042064896072181605 0.02327051748377798 0 -0.04200639005390621 0.022496146962099329 0 -0.042462296943033911 0.022761693445045413 0 -0.042393688102776682 0.02306500698558419 0 -0.04200639005390621 0.022496146962099329 0 -0.042393688102776682 0.02306500698558419 0 -0.042064896072181605 0.02327051748377798 0 -0.042387838056904513 0.023637349765129521 0 -0.042064896072181605 0.02327051748377798 0 -0.042077597943061172 0.023938762910006819 0 -0.042387838056904513 0.023637349765129521 0 -0.042077597943061172 0.023938762910006819 0 -0.042387838056904513 0.023637349765129521 0 -0.042416384159828985 0.024135327825948627 0 -0.043127483363411753 0.024576724641188909 0 -0.042416384159828985 0.024135327825948627 0 -0.042896824507148566 0.023637757020758307 0 -0.042387838056904513 0.023637349765129521 0 -0.042416384159828985 0.024135327825948627 0 -0.042896824507148566 0.023637757020758307 0 -0.03617593239435709 0.024325289134461504 0 -0.044965445334922055 0.024757188702530891 0 -0.042595740969035137 0.024472140922618228 0 -0.042416384159828985 0.024135327825948627 0 -0.042423475875541815 0.024480415239497288 0 -0.042077597943061172 0.023938762910006819 0 -0.042410945035189607 0.025999273796538432 0 -0.041532815765155467 0.025160158248595126 0 -0.042077597943061172 0.023938762910006819 0 -0.042416384159828985 0.024135327825948627 0 -0.04218827135990677 0.024506330117394431 0 -0.042416384159828985 0.024135327825948627 0 -0.042423475875541815 0.024480415239497288 0 -0.04218827135990677 0.024506330117394431 0 -0.042059310043304876 0.024122660656571471 0 -0.042448940368322183 0.024952230751206811 0 -0.041188688991284521 0.026229050250518762 0 -0.042410945035189607 0.025999273796538432 0 -0.041532815765155467 0.025160158248595126 0 -0.041532815765155467 0.025160158248595126 0 -0.040767543536641387 0.025173811803478365 0 -0.041302120586649164 0.024433990030569668 0 -0.041188688991284521 0.026229050250518762 0 -0.04031402271703511 0.025982423813519413 0 -0.040767543536641387 0.025173811803478365 0 -0.041188688991284521 0.026229050250518762 0 -0.041532815765155467 0.025160158248595126 0 -0.040767543536641387 0.025173811803478365 0 -0.04031402271703511 0.025982423813519413 0 -0.039898429898118981 0.025035274769934838 0 -0.039634801767636042 0.025902682861364011 0 -0.04031402271703511 0.025982423813519413 0 -0.040767543536641387 0.025173811803478365 0 -0.039898429898118981 0.025035274769934838 0 -0.039898429898118981 0.025035274769934838 0 -0.040889095504976825 0.023771644983229104 0 -0.03964633793402067 0.024039735751629134 0 -0.040767543536641387 0.025173811803478365 0 -0.039898429898118981 0.025035274769934838 0 -0.040889095504976825 0.023771644983229104 0 -0.042077597943061172 0.023938762910006819 0 -0.040889095504976825 0.023771644983229104 0 -0.041302120586649164 0.024433990030569668 0 -0.040767543536641387 0.025173811803478365 0 -0.040889095504976825 0.023771644983229104 0 -0.041302120586649164 0.024433990030569668 0 -0.042077597943061172 0.023938762910006819 0 -0.041532815765155467 0.025160158248595126 0 -0.041302120586649164 0.024433990030569668 0 -0.038803112397338177 0.025846193960386368 0 -0.039634801767636042 0.025902682861364011 0 -0.039128987733603182 0.025058076875130751 0 -0.039898429898118981 0.025035274769934838 0 -0.039634801767636042 0.025902682861364011 0 -0.039128987733603182 0.025058076875130751 0 -0.039898429898118981 0.025035274769934838 0 -0.03964633793402067 0.024039735751629134 0 -0.039128987733603182 0.025058076875130751 0 -0.03964633793402067 0.024039735751629134 0 -0.039128987733603182 0.025058076875130751 0 -0.038838519870492402 0.023952349662605083 0 -0.038803112397338177 0.025846193960386368 0 -0.039128987733603182 0.025058076875130751 0 -0.03853816044204738 0.02491691761906762 0 -0.038803112397338177 0.025846193960386368 0 -0.03853816044204738 0.02491691761906762 0 -0.038324278744290376 0.025441851658904887 0 -0.03853816044204738 0.02491691761906762 0 -0.038162901958009143 0.023997955040796739 0 -0.038838519870492402 0.023952349662605083 0 -0.039128987733603182 0.025058076875130751 0 -0.03853816044204738 0.02491691761906762 0 -0.038838519870492402 0.023952349662605083 0 -0.03853816044204738 0.02491691761906762 0 -0.038324278744290376 0.025441851658904887 0 -0.037917537345088882 0.024431584140542521 0 -0.03853816044204738 0.02491691761906762 0 -0.038162901958009143 0.023997955040796739 0 -0.037917537345088882 0.024431584140542521 0 -0.038035904057802744 0.023145331404305688 0 -0.037700751281288664 0.023664965242046088 0 -0.037407475774368711 0.022476699344714749 0 -0.038035904057802744 0.023145331404305688 0 -0.037700751281288664 0.023664965242046088 0 -0.038162901958009143 0.023997955040796739 0 -0.037700751281288664 0.023664965242046088 0 -0.038162901958009143 0.023997955040796739 0 -0.037917537345088882 0.024431584140542521 0 -0.038035904057802744 0.023145331404305688 0 -0.038162901958009143 0.023997955040796739 0 -0.038838519870492402 0.023952349662605083 0 -0.038035904057802744 0.023145331404305688 0 -0.038774747402702731 0.022788277463631108 0 -0.038838519870492402 0.023952349662605083 0 -0.038035904057802744 0.023145331404305688 0 -0.038774747402702731 0.022788277463631108 0 -0.038208020751430809 0.022418409124803394 0 -0.038774747402702731 0.022788277463631108 0 -0.038838519870492402 0.023952349662605083 0 -0.039285707567088005 0.023368990604380812 0 -0.03964633793402067 0.024039735751629134 0 -0.038838519870492402 0.023952349662605083 0 -0.039285707567088005 0.023368990604380812 0 -0.03964633793402067 0.024039735751629134 0 -0.039285707567088005 0.023368990604380812 0 -0.039944288562437591 0.023055700478611971 0 -0.039285707567088005 0.023368990604380812 0 -0.039319126105562131 0.022650129708565683 0 -0.039944288562437591 0.023055700478611971 0 -0.038774747402702731 0.022788277463631108 0 -0.039285707567088005 0.023368990604380812 0 -0.039319126105562131 0.022650129708565683 0 -0.039319126105562131 0.022650129708565683 0 -0.039007014341270269 0.022048363017620077 0 -0.039631171211475767 0.021973798807337665 0 -0.039007014341270269 0.022048363017620077 0 -0.039631171211475767 0.021973798807337665 0 -0.038767963040750676 0.021144930639145874 0 -0.039007014341270269 0.022048363017620077 0 -0.038451679757221781 0.021991294790952815 0 -0.038767963040750676 0.021144930639145874 0 -0.038451679757221781 0.021991294790952815 0 -0.03794554026410063 0.021624327591828401 0 -0.038767963040750676 0.021144930639145874 0 -0.038774747402702731 0.022788277463631108 0 -0.039007014341270269 0.022048363017620077 0 -0.038451679757221781 0.021991294790952815 0 -0.038774747402702731 0.022788277463631108 0 -0.039319126105562131 0.022650129708565683 0 -0.039007014341270269 0.022048363017620077 0 -0.03794554026410063 0.021624327591828401 0 -0.037367961030477133 0.021363902710575509 0 -0.038767963040750676 0.021144930639145874 0 -0.038035904057802744 0.023145331404305688 0 -0.038208020751430809 0.022418409124803394 0 -0.037795232106684923 0.022337063360894832 0 -0.038774747402702731 0.022788277463631108 0 -0.038451679757221781 0.021991294790952815 0 -0.038208020751430809 0.022418409124803394 0 -0.038208020751430809 0.022418409124803394 0 -0.0380032183260747 0.022041554011153246 0 -0.037795232106684923 0.022337063360894832 0 -0.038451679757221781 0.021991294790952815 0 -0.038208020751430809 0.022418409124803394 0 -0.0380032183260747 0.022041554011153246 0 -0.038451679757221781 0.021991294790952815 0 -0.0380032183260747 0.022041554011153246 0 -0.03794554026410063 0.021624327591828401 0 -0.0380032183260747 0.022041554011153246 0 -0.03794554026410063 0.021624327591828401 0 -0.037594592802651865 0.021837921445597111 0 -0.03794554026410063 0.021624327591828401 0 -0.037594592802651865 0.021837921445597111 0 -0.037367961030477133 0.021363902710575509 0 -0.037594592802651865 0.021837921445597111 0 -0.037367961030477133 0.021363902710575509 0 -0.037148003486987505 0.021599724319094408 0 -0.037594592802651865 0.021837921445597111 0 -0.037148003486987505 0.021599724319094408 0 -0.037411415281941536 0.02205718853052193 0 -0.037148003486987505 0.021599724319094408 0 -0.037411415281941536 0.02205718853052193 0 -0.037144331841761372 0.022031255206077772 0 -0.038035904057802744 0.023145331404305688 0 -0.037795232106684923 0.022337063360894832 0 -0.037407475774368711 0.022476699344714749 0 -0.037411415281941536 0.02205718853052193 0 -0.037795232106684923 0.022337063360894832 0 -0.037407475774368711 0.022476699344714749 0 -0.037411415281941536 0.02205718853052193 0 -0.037407475774368711 0.022476699344714749 0 -0.037144331841761372 0.022031255206077772 0 -0.0380032183260747 0.022041554011153246 0 -0.037594592802651865 0.021837921445597111 0 -0.037795232106684923 0.022337063360894832 0 -0.037594592802651865 0.021837921445597111 0 -0.037411415281941536 0.02205718853052193 0 -0.037795232106684923 0.022337063360894832 0 -0.037389162006128268 0.022475232331241535 0 -0.037407475774368711 0.022476699344714749 0 -0.037144331841761372 0.022031255206077772 0 -0.040889095504976825 0.023771644983229104 0 -0.040588194430940604 0.022401841079832157 0 -0.04200639005390621 0.022496146962099329 0 -0.042064896072181605 0.02327051748377798 0 -0.040889095504976825 0.023771644983229104 0 -0.04200639005390621 0.022496146962099329 0 -0.042064896072181605 0.02327051748377798 0 -0.042077597943061172 0.023938762910006819 0 -0.040889095504976825 0.023771644983229104 0 -0.040889095504976825 0.023771644983229104 0 -0.03964633793402067 0.024039735751629134 0 -0.039944288562437591 0.023055700478611971 0 -0.039319126105562131 0.022650129708565683 0 -0.039944288562437591 0.023055700478611971 0 -0.039631171211475767 0.021973798807337665 0 -0.039944288562437591 0.023055700478611971 0 -0.040588194430940604 0.022401841079832157 0 -0.039631171211475767 0.021973798807337665 0 -0.040889095504976825 0.023771644983229104 0 -0.039944288562437591 0.023055700478611971 0 -0.040588194430940604 0.022401841079832157 0 -0.040588194430940604 0.022401841079832157 0 -0.040053622382053379 0.021441906117679963 0 -0.040966413704944547 0.021629079892956527 0 -0.040053622382053379 0.021441906117679963 0 -0.04068744087715153 0.020534620124461268 0 -0.038767963040750676 0.021144930639145874 0 -0.039631171211475767 0.021973798807337665 0 -0.040053622382053379 0.021441906117679963 0 -0.038767963040750676 0.021144930639145874 0 -0.040789717761790842 0.020372397751798142 0 -0.034696412679893984 0.018869078591463858 0 -0.040588194430940604 0.022401841079832157 0 -0.039631171211475767 0.021973798807337665 0 -0.040053622382053379 0.021441906117679963 0 -0.040053622382053379 0.021441906117679963 0 -0.04068744087715153 0.020534620124461268 0 -0.040966413704944547 0.021629079892956527 0 -0.044045556764894044 0.021169801024110278 0 -0.042396372661529763 0.021188222670014176 0 -0.041743397907232992 0.019840726033724856 0 -0.04068744087715153 0.020534620124461268 0 -0.041705844670216256 0.021138720912791321 0 -0.041743397907232992 0.019840726033724856 0 -0.04068744087715153 0.020534620124461268 0 -0.040966413704944547 0.021629079892956527 0 -0.041705844670216256 0.021138720912791321 0 -0.040588194430940604 0.022401841079832157 0 -0.040966413704944547 0.021629079892956527 0 -0.04200639005390621 0.022496146962099329 0 -0.040966413704944547 0.021629079892956527 0 -0.04200639005390621 0.022496146962099329 0 -0.041705844670216256 0.021138720912791321 0 -0.04200639005390621 0.022496146962099329 0 -0.042396372661529763 0.021188222670014176 0 -0.041705844670216256 0.021138720912791321 0 -0.042396372661529763 0.021188222670014176 0 -0.041705844670216256 0.021138720912791321 0 -0.041743397907232992 0.019840726033724856 0 -0.032026380317738953 0.0119006426716796 0 -0.030737195159062633 0.011316661577543363 0 -0.033071417822365619 0.010983904925190257 0 -0.033626516999370332 0.012334565107892605 0 -0.032796522126450199 0.013590442842158145 0 -0.0348903265615172 0.013415134338892101 0 -0.033626516999370332 0.012334565107892605 0 -0.033162047471729586 0.010876817085802178 0 -0.035390860524064982 0.011832800587786584 0 -0.033626516999370332 0.012334565107892605 0 -0.032026380317738953 0.0119006426716796 0 -0.033162047471729586 0.010876817085802178 0 -0.0320910689851511 0.011112898178714713 0 -0.030753911499587224 0.011274767744107583 0 -0.033626516999370332 0.012334565107892605 0 -0.032026380317738953 0.0119006426716796 0 -0.032796522126450199 0.013590442842158145 0 -0.04068744087715153 0.020534620124461268 0 -0.035126345222975267 0.015286940658033309 0 -0.031164519524097115 0.016517139675227915 0 -0.037465255351814865 0.016436784862306094 0 -0.032378680045500964 0.013890839595085417 0 -0.032026380317738953 0.0119006426716796 0 -0.032796522126450199 0.013590442842158145 0 -0.030021037407613086 0.012300091535791608 0 -0.04068744087715153 0.020534620124461268 0 -0.041743397907232992 0.019840726033724856 0 -0.035126345222975267 0.015286940658033309 0 -0.030021037407613086 0.012300091535791608 0 -0.030737195159062633 0.011316661577543363 0 -0.029452371308814413 0.011172444141604322 0 -0.032026380317738953 0.0119006426716796 0 -0.030021037407613086 0.012300091535791608 0 -0.030737195159062633 0.011316661577543363 0 -0.030737195159062633 0.011316661577543363 0 -0.030495478016202861 0.0099133698478757436 0 -0.033071417822365619 0.010983904925190257 0 -0.030737195159062633 0.011316661577543363 0 -0.030495478016202861 0.0099133698478757436 0 -0.029452371308814413 0.011172444141604322 0 -0.030495478016202861 0.0099133698478757436 0 -0.030915357233152162 0.0092874656015414 0 -0.031289514614114805 0.0097578647907335149 0 -0.030915357233152162 0.0092874656015414 0 -0.031289514614114805 0.0097578647907335149 0 -0.031175675480735889 0.008462324175637588 0 -0.031289514614114805 0.0097578647907335149 0 -0.031175675480735889 0.008462324175637588 0 -0.03207094285501183 0.0083349348345631985 0 -0.030980040940606631 0.0099661150194353103 0 -0.030753911499587224 0.011274767744107583 0 -0.027183024295228793 0.013093579178975658 0 -0.031164519524097115 0.016517139675227915 0 -0.025050348170605065 0.014108769196930731 0 -0.037367961030477133 0.021363902710575509 0 -0.038767963040750676 0.021144930639145874 0 -0.036199498869362509 0.020712921456338226 0 -0.027183024295228793 0.013093579178975658 0 -0.028661686381273428 0.012273136307521356 0 -0.031164519524097115 0.016517139675227915 0 -0.034696412679893984 0.018869078591463858 0 -0.032682096456831011 0.017364281936655811 0 -0.035126345222975267 0.015286940658033309 0 -0.028661686381273428 0.012273136307521356 0 -0.031164519524097115 0.016517139675227915 0 -0.032378680045500964 0.013890839595085417 0 -0.02891885185628509 0.012393899489108346 0 -0.030021037407613086 0.012300091535791608 0 -0.028661686381273428 0.012273136307521356 0 -0.029452371308814413 0.011172444141604322 0 -0.030495478016202861 0.0099133698478757436 0 -0.02874690482890721 0.0099018575930545031 0 -0.029452371308814413 0.011172444141604322 0 -0.028661686381273428 0.012273136307521356 0 -0.02874690482890721 0.0099018575930545031 0 -0.029452371308814413 0.011172444141604322 0 -0.028661686381273428 0.012273136307521356 0 -0.02874690482890721 0.0099018575930545031 0 -0.027186665964860458 0.011256801109916085 0 -0.02874690482890721 0.0099018575930545031 0 -0.027186665964860458 0.011256801109916085 0 -0.026672742664889251 0.0095199377081193453 0 -0.027186665964860458 0.011256801109916085 0 -0.026672742664889251 0.0095199377081193453 0 -0.025614313767496222 0.011228262454275981 0 -0.027183024295228793 0.013093579178975658 0 -0.028661686381273428 0.012273136307521356 0 -0.027186665964860458 0.011256801109916085 0 -0.027183024295228793 0.013093579178975658 0 -0.027186665964860458 0.011256801109916085 0 -0.025814431631297458 0.012295504957235096 0 -0.02874690482890721 0.0099018575930545031 0 -0.026672742664889251 0.0095199377081193453 0 -0.028071690398864039 0.0075875054728587943 0 -0.026672742664889251 0.0095199377081193453 0 -0.028071690398864039 0.0075875054728587943 0 -0.025695259389589793 0.007600446004917551 0 -0.02874690482890721 0.0099018575930545031 0 -0.028071690398864039 0.0075875054728587943 0 -0.0301006115048384 0.0084835596695391272 0 -0.028071690398864039 0.0075875054728587943 0 -0.029720921573133715 0.0064603412734184733 0 -0.028026640390529222 0.0055165972735561957 0 -0.028071690398864039 0.0075875054728587943 0 -0.0301006115048384 0.0084835596695391272 0 -0.029720921573133715 0.0064603412734184733 0 -0.028163261958330094 0.0076475846101649115 0 -0.025466938620315311 0.0053306913398412942 0 -0.028071690398864039 0.0075875054728587943 0 -0.025695259389589793 0.007600446004917551 0 -0.026361660872043859 0.0056395621932605012 0 -0.030915357233152162 0.0092874656015414 0 -0.031175675480735889 0.008462324175637588 0 -0.0301006115048384 0.0084835596695391272 0 -0.030495478016202861 0.0099133698478757436 0 -0.02874690482890721 0.0099018575930545031 0 -0.0301006115048384 0.0084835596695391272 0 -0.031175675480735889 0.008462324175637588 0 -0.0301006115048384 0.0084835596695391272 0 -0.030737782010262282 0.0074861286361266278 0 -0.030495478016202861 0.0099133698478757436 0 -0.030915357233152162 0.0092874656015414 0 -0.0301006115048384 0.0084835596695391272 0 -0.0301006115048384 0.0084835596695391272 0 -0.030737782010262282 0.0074861286361266278 0 -0.029720921573133715 0.0064603412734184733 0 -0.030737782010262282 0.0074861286361266278 0 -0.03085258527114013 0.0064553277572277712 0 -0.029720921573133715 0.0064603412734184733 0 -0.031551171022756598 0.00724515263563305 0 -0.031463087993393563 0.005975115720413802 0 -0.03085258527114013 0.0064553277572277712 0 -0.030737782010262282 0.0074861286361266278 0 -0.031551171022756598 0.00724515263563305 0 -0.03085258527114013 0.0064553277572277712 0 -0.031175675480735889 0.008462324175637588 0 -0.030737782010262282 0.0074861286361266278 0 -0.031551171022756598 0.00724515263563305 0 -0.031551171022756598 0.00724515263563305 0 -0.032473455056298825 0.0068628673487143091 0 -0.032022693259789237 0.0063701881340070916 0 -0.031551171022756598 0.00724515263563305 0 -0.032022693259789237 0.0063701881340070916 0 -0.031463087993393563 0.005975115720413802 0 -0.031175675480735889 0.008462324175637588 0 -0.031551171022756598 0.00724515263563305 0 -0.03207094285501183 0.0083349348345631985 0 -0.031551171022756598 0.00724515263563305 0 -0.03207094285501183 0.0083349348345631985 0 -0.032473455056298825 0.0068628673487143091 0 -0.027303097884079027 0.010259987357569235 0 -0.029284321832218716 0.01016222630772305 0 -0.029572183132712163 0.0081124323792188882 0 -0.029244321873086787 0.0094306768911341116 0 -0.031074045003578615 0.0074866089510495868 0 -0.029284321832218716 0.01016222630772305 0 -0.029572183132712163 0.0081124323792188882 0 -0.030398563907219778 0.009439921179291582 0 -0.032473455056298825 0.0068628673487143091 0 -0.032171147397771251 0.0061709183204250893 0 -0.032022693259789237 0.0063701881340070916 0 -0.029572183132712163 0.0081124323792188882 0 -0.031350737804950096 0.0082944344901682756 0 -0.031960108451916429 0.0062817023064271078 0 -0.032473455056298825 0.0068628673487143091 0 -0.031960108451916429 0.0062817023064271078 0 -0.032171147397771251 0.0061709183204250893 0 -0.031074045003578615 0.0074866089510495868 0 -0.031861109340865612 0.006439918265493721 0 -0.031350737804950096 0.0082944344901682756 0 -0.032309358960606958 0.0074011787442407996 0 -0.031960108451916429 0.0062817023064271078 0 -0.032309358960606958 0.0074011787442407996 0 -0.032590256857079378 0.0064775896403685513 0 -0.033074900258196066 0.0074986441913794883 0 -0.032309358960606958 0.0074011787442407996 0 -0.031960108451916429 0.0062817023064271078 0 -0.032590256857079378 0.0064775896403685513 0 -0.031350737804950096 0.0082944344901682756 0 -0.032309358960606958 0.0074011787442407996 0 -0.032266480953797201 0.008932596475305048 0 -0.032309358960606958 0.0074011787442407996 0 -0.032266480953797201 0.008932596475305048 0 -0.033074900258196066 0.0074986441913794883 0 -0.032274151490296304 0.0088295699527424915 0 -0.033272437513146604 0.0077738504910216484 0 -0.032266480953797201 0.008932596475305048 0 -0.031567638287146649 0.0097589822327473954 0 -0.033446348340136239 0.0094331532435823606 0 -0.032266480953797201 0.008932596475305048 0 -0.033446348340136239 0.0094331532435823606 0 -0.033346129675986831 0.0082143545532272193 0 -0.030074982073594533 0.012808073632069568 0 -0.031077067275732218 0.012898116224180693 0 -0.031567638287146649 0.0097589822327473954 0 -0.031306994556513507 0.011210846571134324 0 -0.033446348340136239 0.0094331532435823606 0 -0.029215912429145913 0.014322596571090649 0 -0.028183546847517192 0.016000476990964827 0 -0.028096010788758351 0.015578516875203815 0 -0.031350737804950096 0.0082944344901682756 0 -0.032266480953797201 0.008932596475305048 0 -0.031567638287146649 0.0097589822327473954 0 -0.029572183132712163 0.0081124323792188882 0 -0.031350737804950096 0.0082944344901682756 0 -0.030398563907219778 0.009439921179291582 0 -0.031350737804950096 0.0082944344901682756 0 -0.030398563907219778 0.009439921179291582 0 -0.031567638287146649 0.0097589822327473954 0 -0.030398563907219778 0.009439921179291582 0 -0.031567638287146649 0.0097589822327473954 0 -0.030311026565019602 0.010438722416643497 0 -0.029284321832218716 0.01016222630772305 0 -0.030398563907219778 0.009439921179291582 0 -0.030311026565019602 0.010438722416643497 0 -0.030311026565019602 0.010438722416643497 0 -0.031306994556513507 0.011210846571134324 0 -0.028873332046122937 0.011717949403591868 0 -0.030074982073594533 0.012808073632069568 0 -0.028576108086673522 0.013375654915554328 0 -0.029215912429145913 0.014322596571090649 0 -0.028920029980193405 0.013863883041725211 0 -0.028481337435254002 0.013331008111195218 0 -0.031567638287146649 0.0097589822327473954 0 -0.030311026565019602 0.010438722416643497 0 -0.031306994556513507 0.011210846571134324 0 -0.029215912429145913 0.014322596571090649 0 -0.029059430267511014 0.014000393874455615 0 -0.028920029980193405 0.013863883041725211 0 -0.026162116011090465 0.017810792904972075 0 -0.026584299032496348 0.017804450203776804 0 -0.0234098986386337 0.022005215770004007 0 -0.024351160756069547 0.021727031804718428 0 -0.024782237592486923 0.020100573583933173 0 -0.029215912429145913 0.014322596571090649 0 -0.029059430267511014 0.014000393874455615 0 -0.028096010788758351 0.015578516875203815 0 -0.0234098986386337 0.022005215770004007 0 -0.023987240421047756 0.022142438189972587 0 -0.024351160756069547 0.021727031804718428 0 -0.024074592868599351 0.02228366396846862 0 -0.024787580752131753 0.023578140247594668 0 -0.023987240421047756 0.022142438189972587 0 -0.02466467385389863 0.023510651856923515 0 -0.02457446013611124 0.022577692488531451 0 -0.023987240421047756 0.022142438189972587 0 -0.024054356772825736 0.023142047107067059 0 -0.024989102686921671 0.023720159534454773 0 -0.023987240421047756 0.022142438189972587 0 -0.024351160756069547 0.021727031804718428 0 -0.02457446013611124 0.022577692488531451 0 -0.023987240421047756 0.022142438189972587 0 -0.023669970909754933 0.022515325852788832 0 -0.024054356772825736 0.023142047107067059 0 -0.0234098986386337 0.022005215770004007 0 -0.023987240421047756 0.022142438189972587 0 -0.023669970909754933 0.022515325852788832 0 -0.023669970909754933 0.022515325852788832 0 -0.024054356772825736 0.023142047107067059 0 -0.023250708108697751 0.022815927180348781 0 -0.029059430267511014 0.014000393874455615 0 -0.028920029980193405 0.013863883041725211 0 -0.028832896515349669 0.013941044265966323 0 -0.026162116011090465 0.017810792904972075 0 -0.026406305334143558 0.020079784283173505 0 -0.023165834182949239 0.023542171376484875 0 -0.023250708108697751 0.022815927180348781 0 -0.022133608919336911 0.023010991834865002 0 -0.0234098986386337 0.022005215770004007 0 -0.023250708108697751 0.022815927180348781 0 -0.022133608919336911 0.023010991834865002 0 -0.0234098986386337 0.022005215770004007 0 -0.023669970909754933 0.022515325852788832 0 -0.023250708108697751 0.022815927180348781 0 -0.023165834182949239 0.023542171376484875 0 -0.024054356772825736 0.023142047107067059 0 -0.023250708108697751 0.022815927180348781 0 -0.023996461249763717 0.023803425088635293 0 -0.026406305334143558 0.020079784283173505 0 -0.028832896515349669 0.013941044265966323 0 -0.028481337435254002 0.013331008111195218 0 -0.02690371373896314 0.013233606476803021 0 -0.026406305334143558 0.020079784283173505 0 -0.029368577618515471 0.013963023132172118 0 -0.028920029980193405 0.013863883041725211 0 -0.028832896515349669 0.013941044265966323 0 -0.028481337435254002 0.013331008111195218 0 -0.032206568476184951 0.02047993893708409 0 -0.026406305334143558 0.020079784283173505 0 -0.036578117124465633 0.014498951648261288 0 -0.0348903265615172 0.013415134338892101 0 -0.035390860524064982 0.011832800587786584 0 -0.029202612953148462 0.018485932030425895 0 -0.029858519954741015 0.01802936192729589 0 -0.028794183494972467 0.017525709601691097 0 -0.032206568476184951 0.02047993893708409 0 -0.029368577618515471 0.013963023132172118 0 -0.033626516999370332 0.012334565107892605 0 -0.0348903265615172 0.013415134338892101 0 -0.035390860524064982 0.011832800587786584 0 -0.030753911499587224 0.011274767744107583 0 -0.029368577618515471 0.013963023132172118 0 -0.029368577618515471 0.013963023132172118 0 -0.02849723821538247 0.012986987365485115 0 -0.028481337435254002 0.013331008111195218 0 -0.02690371373896314 0.013233606476803021 0 -0.027655905871396852 0.012408773280801439 0 -0.027303097884079027 0.010259987357569235 0 -0.027655905871396852 0.012408773280801439 0 -0.026584871172433074 0.012609440416512565 0 -0.030753911499587224 0.011274767744107583 0 -0.029244321873086787 0.0094306768911341116 0 -0.02690371373896314 0.013233606476803021 0 -0.027655905871396852 0.012408773280801439 0 -0.026584871172433074 0.012609440416512565 0 -0.025083555559632438 0.012401947448318322 0 -0.027303097884079027 0.010259987357569235 0 -0.026584871172433074 0.012609440416512565 0 -0.025083555559632438 0.012401947448318322 0 -0.026837474315480774 0.013178559143947914 0 -0.026584871172433074 0.012609440416512565 0 -0.027303097884079027 0.010259987357569235 0 -0.027655905871396852 0.012408773280801439 0 -0.028873332046122937 0.011717949403591868 0 -0.027303097884079027 0.010259987357569235 0 -0.029284321832218716 0.01016222630772305 0 -0.028873332046122937 0.011717949403591868 0 -0.031306994556513507 0.011210846571134324 0 -0.028481337435254002 0.013331008111195218 0 -0.028873332046122937 0.011717949403591868 0 -0.029284321832218716 0.01016222630772305 0 -0.030311026565019602 0.010438722416643497 0 -0.028873332046122937 0.011717949403591868 0 -0.028481337435254002 0.013331008111195218 0 -0.027655905871396852 0.012408773280801439 0 -0.028873332046122937 0.011717949403591868 0 -0.045623584310824639 0.017804996130160275 0 -0.046322091196354796 0.018265030496261631 0 -0.045000057988321809 0.018515538014909249 0 -0.045623584310824639 0.017804996130160275 0 -0.04605980221286797 0.01724322018755756 0 -0.046322091196354796 0.018265030496261631 0 -0.045623584310824639 0.017804996130160275 0 -0.04499983554160137 0.017228317420578954 0 -0.045000057988321809 0.018515538014909249 0 -0.045000219311261157 0.017227448698771963 0 -0.046333588844269712 0.017010200336120787 0 -0.045623584310824639 0.017804996130160275 0 -0.04499983554160137 0.017228317420578954 0 -0.04605980221286797 0.01724322018755756 0 -0.04605980221286797 0.01724322018755756 0 -0.046858528475999042 0.017856212345828987 0 -0.047002901116786122 0.017093738800421466 0 -0.046858528475999042 0.017856212345828987 0 -0.046322091196354796 0.018265030496261631 0 -0.046768178367931672 0.018527408563619435 0 -0.04605980221286797 0.01724322018755756 0 -0.046858528475999042 0.017856212345828987 0 -0.046322091196354796 0.018265030496261631 0 -0.046322091196354796 0.018265030496261631 0 -0.046768178367931672 0.018527408563619435 0 -0.04641501205120465 0.019250285936455828 0 -0.04641501205120465 0.019250285936455828 0 -0.047423305526888906 0.019218860792232735 0 -0.047004858804233336 0.018881059327023809 0 -0.046858528475999042 0.017856212345828987 0 -0.046768178367931672 0.018527408563619435 0 -0.047247166214197431 0.018438438500923682 0 -0.046768178367931672 0.018527408563619435 0 -0.04641501205120465 0.019250285936455828 0 -0.047004858804233336 0.018881059327023809 0 -0.045000004423467389 0.018516648050743115 0 -0.045937509423391955 0.019960032131918805 0 -0.046322091196354796 0.018265030496261631 0 -0.045000057988321809 0.018515538014909249 0 -0.04641501205120465 0.019250285936455828 0 -0.044999950582096056 0.018517677988875755 0 -0.044998811093912572 0.02118167138053836 0 -0.045760089484799968 0.02081535749743927 0 -0.044998811093912572 0.02118167138053836 0 -0.045355740425790166 0.02283508630830413 0 -0.045760089484799968 0.02081535749743927 0 -0.044999536109048673 0.023844970960310678 0 -0.044998811093912572 0.02118167138053836 0 -0.045355740425790166 0.02283508630830413 0 -0.045355740425790166 0.02283508630830413 0 -0.045760089484799968 0.02081535749743927 0 -0.045623850707074566 0.022767982962542014 0 -0.04641501205120465 0.019250285936455828 0 -0.047423305526888906 0.019218860792232735 0 -0.04757386118166794 0.019961148020474748 0 -0.045937509423391955 0.019960032131918805 0 -0.046752447519746332 0.02140127654141083 0 -0.047423305526888906 0.019218860792232735 0 -0.04757386118166794 0.019961148020474748 0 -0.04806873600512749 0.019561689743116617 0 -0.045051190431547462 0.024112267855636544 0 -0.045355740425790166 0.02283508630830413 0 -0.045623850707074566 0.022767982962542014 0 -0.04558048028702999 0.020706109702482323 0 -0.045745283096361895 0.021933926668104977 0 -0.046752447519746332 0.02140127654141083 0 -0.045745283096361895 0.021933926668104977 0 -0.04757386118166794 0.019961148020474748 0 -0.04806873600512749 0.019561689743116617 0 -0.048574138445042069 0.020659324013397016 0 -0.044950200272078522 0.024147010455856523 0 -0.045623850707074566 0.022767982962542014 0 -0.045078279930619303 0.023904979551525259 0 -0.04558048028702999 0.020706109702482323 0 -0.045605284909350792 0.019779077728345227 0 -0.043151503947602532 0.021961693410103195 0 -0.043263742897651607 0.022112432248002269 0 -0.043051593555329677 0.022062884817007827 0 -0.043263742897651607 0.022112432248002269 0 -0.043078144974961645 0.022189475021281848 0 -0.043051593555329677 0.022062884817007827 0 -0.047423305526888906 0.019218860792232735 0 -0.04806873600512749 0.019561689743116617 0 -0.047524213553814559 0.018345061082301811 0 -0.047423305526888906 0.019218860792232735 0 -0.047305906612687687 0.01875499843400498 0 -0.047524213553814559 0.018345061082301811 0 -0.047423305526888906 0.019218860792232735 0 -0.047305906612687687 0.01875499843400498 0 -0.047004858804233336 0.018881059327023809 0 -0.046768178367931672 0.018527408563619435 0 -0.047004858804233336 0.018881059327023809 0 -0.047247166214197431 0.018438438500923682 0 -0.047305906612687687 0.01875499843400498 0 -0.047004858804233336 0.018881059327023809 0 -0.047247166214197431 0.018438438500923682 0 -0.047305906612687687 0.01875499843400498 0 -0.047247166214197431 0.018438438500923682 0 -0.047524213553814559 0.018345061082301811 0 -0.04693805423206824 0.019066905880871898 0 -0.045605284909350792 0.019779077728345227 0 -0.04539766987193463 0.018342549320916508 0 -0.045382462228511312 0.018836559322919329 0 -0.045640787420536268 0.018779003810547416 0 -0.04539766987193463 0.018342549320916508 0 -0.045150506693228093 0.018667945484448476 0 -0.045382462228511312 0.018836559322919329 0 -0.045605284909350792 0.019779077728345227 0 -0.04656321463357186 0.017097265107228553 0 -0.046858528475999042 0.017856212345828987 0 -0.047586513723852836 0.018301436223884478 0 -0.047002901116786122 0.017093738800421466 0 -0.046858528475999042 0.017856212345828987 0 -0.047247166214197431 0.018438438500923682 0 -0.047586513723852836 0.018301436223884478 0 -0.04539766987193463 0.018342549320916508 0 -0.045150506693228093 0.018667945484448476 0 -0.044889081590377536 0.01853467273818004 0 -0.045605284909350792 0.019779077728345227 0 -0.043593999166314901 0.020580491231223116 0 -0.045150506693228093 0.018667945484448476 0 -0.044889081590377536 0.01853467273818004 0 -0.044882378741233915 0.018791274922985796 0 -0.043593999166314901 0.020580491231223116 0 -0.044150308038147318 0.019364502595120021 0 -0.044889081590377536 0.01853467273818004 0 -0.044368420885107104 0.01873771203102597 0 -0.044882378741233915 0.018791274922985796 0 -0.043078144974961645 0.022189475021281848 0 -0.042899917753491654 0.022245713550075281 0 -0.042898428432660736 0.022124791538089491 0 -0.042868369344550704 0.022241275344771341 0 -0.042898428432660736 0.022124791538089491 0 -0.042745865872481976 0.022152760956824093 0 -0.042899917753491654 0.022245713550075281 0 -0.042868369344550704 0.022241275344771341 0 -0.042898428432660736 0.022124791538089491 0 -0.042868369344550704 0.022241275344771341 0 -0.042745865872481976 0.022152760956824093 0 -0.042866740349763552 0.022253426714405024 0 -0.040210447589476117 0.022479888402256277 0 -0.042177390389212373 0.019588066863112975 0 -0.044150308038147318 0.019364502595120021 0 -0.043757684086232151 0.019679654692273101 0 -0.042898428432660736 0.022124791538089491 0 -0.042942616048417148 0.021961405166966447 0 -0.04279300915941734 0.022023431234286215 0 -0.042898428432660736 0.022124791538089491 0 -0.04279300915941734 0.022023431234286215 0 -0.042745865872481976 0.022152760956824093 0 -0.042898428432660736 0.022124791538089491 0 -0.043051593555329677 0.022062884817007827 0 -0.042942616048417148 0.021961405166966447 0 -0.043078144974961645 0.022189475021281848 0 -0.042898428432660736 0.022124791538089491 0 -0.043051593555329677 0.022062884817007827 0 -0.043151503947602532 0.021961693410103195 0 -0.043051593555329677 0.022062884817007827 0 -0.042942616048417148 0.021961405166966447 0 -0.043151503947602532 0.021961693410103195 0 -0.042942616048417148 0.021961405166966447 0 -0.043050991380518211 0.021825820045422332 0 -0.042942616048417148 0.021961405166966447 0 -0.043050991380518211 0.021825820045422332 0 -0.042914499263360655 0.021859473926280078 0 -0.045805217193712791 0.022271504404374254 0 -0.045745283096361895 0.021933926668104977 0 -0.042942616048417148 0.021961405166966447 0 -0.042914499263360655 0.021859473926280078 0 -0.042765464104674959 0.021893056731912698 0 -0.042351031951748372 0.025061031867190088 0 -0.041066356896376367 0.023726398607319548 0 -0.042898225333190265 0.021760255964343521 0 -0.042914499263360655 0.021859473926280078 0 -0.042765464104674959 0.021893056731912698 0 -0.042942616048417148 0.021961405166966447 0 -0.04279300915941734 0.022023431234286215 0 -0.042765464104674959 0.021893056731912698 0 -0.04279300915941734 0.022023431234286215 0 -0.042765464104674959 0.021893056731912698 0 -0.042620232267755284 0.022043596346241607 0 -0.041066356896376367 0.023726398607319548 0 -0.038813367114100446 0.023417775304609704 0 -0.039074601779849061 0.026063489392700864 0 -0.039435278423942247 0.026128849626392423 0 -0.03917927383534836 0.025835101120477107 0 -0.039074601779849061 0.026063489392700864 0 -0.03917927383534836 0.025835101120477107 0 -0.038324278744290376 0.025441851658904887 0 -0.039074601779849061 0.026063489392700864 0 -0.038803112397338177 0.025846193960386368 0 -0.038324278744290376 0.025441851658904887 0 -0.03917927383534836 0.025835101120477107 0 -0.038324278744290376 0.025441851658904887 0 -0.038600382453537599 0.025819515721855535 0 -0.038324278744290376 0.025441851658904887 0 -0.0369139184778981 0.024270593597076309 0 -0.037917537345088882 0.024431584140542521 0 -0.038454206459719149 0.025374150197594012 0 -0.038813367114100446 0.023417775304609704 0 -0.037700751281288664 0.023664965242046088 0 -0.037407475774368711 0.022476699344714749 0 -0.0369139184778981 0.024270593597076309 0 -0.037062909738167907 0.022666793838439905 0 -0.038813367114100446 0.023417775304609704 0 -0.037389162006128268 0.022475232331241535 0 -0.037407475774368711 0.022476699344714749 0 -0.037471759247019974 0.022365005429582974 0 -0.037389162006128268 0.022475232331241535 0 -0.037471759247019974 0.022365005429582974 0 -0.037485637282331848 0.022436489951519062 0 -0.037700751281288664 0.023664965242046088 0 -0.0369139184778981 0.024270593597076309 0 -0.037917537345088882 0.024431584140542521 0 -0.038813367114100446 0.023417775304609704 0 -0.040210447589476117 0.022479888402256277 0 -0.04279300915941734 0.022023431234286215 0 -0.042620232267755284 0.022043596346241607 0 -0.042745865872481976 0.022152760956824093 0 -0.037471759247019974 0.022365005429582974 0 -0.037485637282331848 0.022436489951519062 0 -0.037611124856365349 0.02243858679865347 0 -0.037611124856365349 0.02243858679865347 0 -0.037591028471357306 0.022518237445572669 0 -0.037757269035020607 0.02252564250352845 0 -0.037485637282331848 0.022436489951519062 0 -0.037611124856365349 0.02243858679865347 0 -0.037517375473452241 0.02248024777278794 0 -0.037611124856365349 0.02243858679865347 0 -0.037591028471357306 0.022518237445572669 0 -0.037517375473452241 0.02248024777278794 0 -0.037591028471357306 0.022518237445572669 0 -0.037513516491915672 0.02251146101356389 0 -0.03755913244906043 0.022572378919832804 0 -0.037591028471357306 0.022518237445572669 0 -0.037513516491915672 0.02251146101356389 0 -0.037517375473452241 0.02248024777278794 0 -0.037306378235702924 0.023437290576298488 0 -0.037185590933648052 0.018211873942543526 0 -0.037389162006128268 0.022475232331241535 0 -0.037144331841761372 0.022031255206077772 0 -0.035023219571924342 0.020191127909254657 0 -0.037389162006128268 0.022475232331241535 0 -0.037513516491915672 0.02251146101356389 0 -0.03755913244906043 0.022572378919832804 0 -0.037148003486987505 0.021599724319094408 0 -0.037144331841761372 0.022031255206077772 0 -0.036199498869362509 0.020712921456338226 0 -0.037307117948776752 0.023079120480820808 0 -0.032682096456831011 0.017364281936655811 0 -0.037367961030477133 0.021363902710575509 0 -0.037148003486987505 0.021599724319094408 0 -0.036199498869362509 0.020712921456338226 0 -0.037389162006128268 0.022475232331241535 0 -0.037513516491915672 0.02251146101356389 0 -0.037517375473452241 0.02248024777278794 0 -0.037389162006128268 0.022475232331241535 0 -0.037485637282331848 0.022436489951519062 0 -0.037517375473452241 0.02248024777278794 0 -0.037144331841761372 0.022031255206077772 0 -0.036373245379214637 0.020308424599176315 0 -0.035023219571924342 0.020191127909254657 0 -0.033765139798097782 0.016810680006570662 0 -0.035423998888968744 0.015542541379936225 0 -0.035837146186069861 0.016007290366954311 0 -0.032289861893492221 0.013004655068355906 0 -0.037269637276855234 0.015516636904467524 0 -0.033765139798097782 0.016810680006570662 0 -0.033158260263395752 0.01526610868221207 0 -0.035423998888968744 0.015542541379936225 0 -0.032289861893492221 0.013004655068355906 0 -0.032682096456831011 0.017364281936655811 0 -0.024888893155289554 0.012667938907417891 0 -0.02545726925199316 0.012783923395734191 0 -0.025814431631297458 0.012295504957235096 0 -0.027183024295228793 0.013093579178975658 0 -0.025874351919520672 0.013058286213625002 0 -0.025050348170605065 0.014108769196930731 0 -0.027183024295228793 0.013093579178975658 0 -0.025814431631297458 0.012295504957235096 0 -0.025874351919520672 0.013058286213625002 0 -0.02545726925199316 0.012783923395734191 0 -0.025814431631297458 0.012295504957235096 0 -0.025874351919520672 0.013058286213625002 0 -0.024888893155289554 0.012667938907417891 0 -0.02545726925199316 0.012783923395734191 0 -0.025050348170605065 0.014108769196930731 0 -0.02545726925199316 0.012783923395734191 0 -0.025874351919520672 0.013058286213625002 0 -0.025050348170605065 0.014108769196930731 0 -0.032682096456831011 0.017364281936655811 0 -0.037185590933648052 0.018211873942543526 0 -0.037591028471357306 0.022518237445572669 0 -0.037612686385990836 0.022578454448131727 0 -0.037757269035020607 0.02252564250352845 0 -0.037591028471357306 0.022518237445572669 0 -0.037612686385990836 0.022578454448131727 0 -0.03755913244906043 0.022572378919832804 0 -0.036540023751208635 0.011991868409849549 0 -0.036246568421430272 0.012115946475273566 0 -0.035884505955808679 0.011662333693899666 0 -0.038408282471527111 0.017620089275549287 0 -0.036688568726825549 0.017410280698657118 0 -0.037270359073525723 0.018066894339053053 0 -0.038942213439754812 0.017128857552913577 0 -0.037185590933648052 0.018211873942543526 0 -0.037185590933648052 0.018211873942543526 0 -0.037269637276855234 0.015516636904467524 0 -0.038942213439754812 0.017128857552913577 0 -0.042177390389212373 0.019588066863112975 0 -0.04179559244664649 0.012875535026365568 0 -0.041176784974478901 0.013117272783841732 0 -0.043158493863143139 0.015279598562285886 0 -0.04179559244664649 0.012875535026365568 0 -0.043158493863143139 0.015279598562285886 0 -0.043887529299826401 0.014022901577431269 0 -0.038942213439754812 0.017128857552913577 0 -0.037269637276855234 0.015516636904467524 0 -0.036540023751208635 0.011991868409849549 0 -0.036249053160550347 0.01115365864652999 0 -0.035884505955808679 0.011662333693899666 0 -0.037269637276855234 0.015516636904467524 0 -0.039268284576828294 0.013174687476567547 0 -0.032289861893492221 0.013004655068355906 0 -0.029285655684219633 0.0099018789195611072 0 -0.024888893155289554 0.012667938907417891 0 -0.025614313767496222 0.011228262454275981 0 -0.024131370691651433 0.0091073518265216789 0 -0.024888893155289554 0.012667938907417891 0 -0.025814431631297458 0.012295504957235096 0 -0.025614313767496222 0.011228262454275981 0 -0.027186665964860458 0.011256801109916085 0 -0.025814431631297458 0.012295504957235096 0 -0.025614313767496222 0.011228262454275981 0 -0.026672742664889251 0.0095199377081193453 0 -0.025614313767496222 0.011228262454275981 0 -0.024131370691651433 0.0091073518265216789 0 -0.026672742664889251 0.0095199377081193453 0 -0.025695259389589793 0.007600446004917551 0 -0.024131370691651433 0.0091073518265216789 0 -0.025695259389589793 0.007600446004917551 0 -0.023281929120557886 0.0063225826362424695 0 -0.026361660872043859 0.0056395621932605012 0 -0.029285655684219633 0.0099018789195611072 0 -0.03453006370120873 0.0079704654853887183 0 -0.036249053160550347 0.01115365864652999 0 -0.035724567781570848 0.010753961773407181 0 -0.035946747861999959 0.010290128155660234 0 -0.025695259389589793 0.007600446004917551 0 -0.024131370691651433 0.0091073518265216789 0 -0.023281929120557886 0.0063225826362424695 0 -0.036249053160550347 0.01115365864652999 0 -0.035517579921342843 0.011210381257361943 0 -0.035884505955808679 0.011662333693899666 0 -0.036249053160550347 0.01115365864652999 0 -0.035517579921342843 0.011210381257361943 0 -0.035724567781570848 0.010753961773407181 0 -0.042982097116126043 0.013200602485643375 0 -0.039584240626868224 0.010007466705271122 0 -0.043319191241730851 0.0096622857195572207 0 -0.043063349735709702 0.0091794412292913359 0 -0.043530540714914245 0.009211041195119023 0 -0.039584240626868224 0.010007466705271122 0 -0.03453006370120873 0.0079704654853887183 0 -0.043094708283049822 0.010118127289725403 0 -0.043319191241730851 0.0096622857195572207 0 -0.042619598873419075 0.0095243029552043654 0 -0.043319191241730851 0.0096622857195572207 0 -0.042619598873419075 0.0095243029552043654 0 -0.043063349735709702 0.0091794412292913359 0 -0.046487787855896807 0.0150137367950758 0 -0.046404691127013641 0.01507196759423882 0 -0.04638591447847603 0.014991873644429563 0 -0.046487787855896807 0.0150137367950758 0 -0.04643966284534938 0.014816938956447251 0 -0.04638591447847603 0.014991873644429563 0 -0.042982097116126043 0.013200602485643375 0 -0.044758599026505252 0.012152147677153328 0 -0.046404691127013641 0.01507196759423882 0 -0.046387495803100122 0.015087229670668105 0 -0.04638591447847603 0.014991873644429563 0 -0.045083453638335436 0.017377127591882653 0 -0.046299471489391925 0.015189982342615552 0 -0.045312424030755451 0.014622976768087275 0 -0.046404691127013641 0.01507196759423882 0 -0.046387495803100122 0.015087229670668105 0 -0.046375223716158029 0.015122400675066018 0 -0.046387495803100122 0.015087229670668105 0 -0.046375223716158029 0.015122400675066018 0 -0.046405310383260949 0.015103710420594637 0 -0.046387495803100122 0.015087229670668105 0 -0.046389928649730641 0.015095477446791839 0 -0.046405310383260949 0.015103710420594637 0 -0.046389928649730641 0.015095477446791839 0 -0.046400385664004722 0.015068846788167287 0 -0.046405310383260949 0.015103710420594637 0 -0.046389928649730641 0.015095477446791839 0 -0.046400385664004722 0.015068846788167287 0 -0.046377953585342906 0.015120675391837078 0 -0.046400385664004722 0.015068846788167287 0 -0.046405310383260949 0.015103710420594637 0 -0.046432646827684818 0.014965406056121377 0 -0.046400385664004722 0.015068846788167287 0 -0.0464003561594429 0.015087329718442682 0 -0.046432646827684818 0.014965406056121377 0 -0.046400385664004722 0.015068846788167287 0 -0.0464003561594429 0.015087329718442682 0 -0.046377953585342906 0.015120675391837078 0 -0.046432646827684818 0.014965406056121377 0 -0.045312424030755451 0.014622976768087275 0 -0.045279231212549051 0.013308964043053265 0 -0.0464003561594429 0.015087329718442682 0 -0.046432646827684818 0.014965406056121377 0 -0.046462242324002687 0.015120322830489419 0 -0.046405310383260949 0.015103710420594637 0 -0.046299471489391925 0.015189982342615552 0 -0.046432646827684818 0.014965406056121377 0 -0.046299471489391925 0.015189982342615552 0 -0.046432646827684818 0.014965406056121377 0 -0.045312424030755451 0.014622976768087275 0 -0.046487787855896807 0.0150137367950758 0 -0.046404691127013641 0.01507196759423882 0 -0.046299471489391925 0.015189982342615552 0 -0.046404691127013641 0.01507196759423882 0 -0.046375223716158029 0.015122400675066018 0 -0.046299471489391925 0.015189982342615552 0 -0.042982097116126043 0.013200602485643375 0 -0.045877005743742615 0.015571932064266278 0 -0.046375223716158029 0.015122400675066018 0 -0.046405310383260949 0.015103710420594637 0 -0.046299471489391925 0.015189982342615552 0 -0.045083453638335436 0.017377127591882653 0 -0.043158493863143139 0.015279598562285886 0 -0.045312424030755451 0.014622976768087275 0 -0.042982097116126043 0.013200602485643375 0 -0.039268284576828294 0.013174687476567547 0 -0.043158493863143139 0.015279598562285886 0 -0.045312424030755451 0.014622976768087275 0 -0.043887529299826401 0.014022901577431269 0 -0.038942213439754812 0.017128857552913577 0 -0.04501257645667283 0.015751605256447088 0 -0.039728636624090347 0.017282503515899938 0 -0.043873864009005038 0.017790349668530627 0 -0.042560428584810031 0.01617756494904872 0 -0.045312424030755451 0.014622976768087275 0 -0.045279231212549051 0.013308964043053265 0 -0.043887529299826401 0.014022901577431269 0 -0.04179559244664649 0.012875535026365568 0 -0.045279231212549051 0.013308964043053265 0 -0.043887529299826401 0.014022901577431269 0 -0.0466502496441926 0.015433591203671649 0 -0.046592060854868486 0.01520312671682908 0 -0.046525825521945702 0.01518723114947909 0 -0.04501257645667283 0.015751605256447088 0 -0.042177390389212373 0.019588066863112975 0 -0.0466502496441926 0.015433591203671649 0 -0.046592060854868486 0.01520312671682908 0 -0.046724322118394557 0.01540721737772589 0 -0.042897711553180541 0.022233076907618513 0 -0.042868369344550704 0.022241275344771341 0 -0.042866740349763552 0.022253426714405024 0 -0.044150308038147318 0.019364502595120021 0 -0.042177390389212373 0.019588066863112975 0 -0.044150308038147318 0.019364502595120021 0 -0.045723187486354948 0.017014415818202486 0 -0.0466502496441926 0.015433591203671649 0 -0.046393710825954747 0.015163142410205189 0 -0.046525825521945702 0.01518723114947909 0 -0.0466502496441926 0.015433591203671649 0 -0.046393710825954747 0.015163142410205189 0 -0.046225270540369859 0.015366984583703659 0 -0.0464003561594429 0.015087329718442682 0 -0.046393710825954747 0.015163142410205189 0 -0.046377953585342906 0.015120675391837078 0 -0.0464003561594429 0.015087329718442682 0 -0.046393710825954747 0.015163142410205189 0 -0.046462242324002687 0.015120322830489419 0 -0.046432646827684818 0.014965406056121377 0 -0.046596858177468919 0.015200704147594675 0 -0.046462242324002687 0.015120322830489419 0 -0.045976480277997049 0.014936138356446166 0 -0.04501257645667283 0.015751605256447088 0 -0.046596858177468919 0.015200704147594675 0 -0.046462242324002687 0.015120322830489419 0 -0.046525825521945702 0.01518723114947909 0 -0.04501257645667283 0.015751605256447088 0 -0.045529617487280558 0.015736059640079597 0 -0.046393710825954747 0.015163142410205189 0 -0.046462242324002687 0.015120322830489419 0 -0.046525825521945702 0.01518723114947909 0 -0.046393710825954747 0.015163142410205189 0 -0.046324902823221173 0.015239899132705228 0 -0.046346728085011217 0.015163139276720569 0 -0.046393710825954747 0.015163142410205189 0 -0.046346728085011217 0.015163139276720569 0 -0.046377953585342906 0.015120675391837078 0 -0.045150506693228093 0.018667945484448476 0 -0.044882378741233915 0.018791274922985796 0 -0.045382462228511312 0.018836559322919329 0 -0.045723187486354948 0.017014415818202486 0 -0.045866344895548077 0.016326940009654314 0 -0.046393710825954747 0.015163142410205189 0 -0.046225270540369859 0.015366984583703659 0 -0.045744876126258341 0.01533137004568417 0 -0.046484204208279964 0.0148896939389475 0 -0.045866344895548077 0.016326940009654314 0 -0.046324902823221173 0.015239899132705228 0 -0.046323878345214578 0.015282450167875031 0 -0.046333520166027382 0.015299136452779369 0 -0.045936783286223713 0.016422439298086334 0 -0.046687868305206284 0.016513159490461306 0 -0.046569441448523194 0.016289666204473495 0 -0.045866344895548077 0.016326940009654314 0 -0.046547168835859049 0.016155691263414131 0 -0.045866344895548077 0.016326940009654314 0 -0.04656321463357186 0.017097265107228553 0 -0.046324902823221173 0.015239899132705228 0 -0.046323878345214578 0.015282450167875031 0 -0.046324501669342863 0.015229658479034507 0 -0.046323878345214578 0.015282450167875031 0 -0.046324501669342863 0.015229658479034507 0 -0.046309838553770723 0.015236404467225934 0 -0.046324902823221173 0.015239899132705228 0 -0.046324501669342863 0.015229658479034507 0 -0.046346728085011217 0.015163139276720569 0 -0.046324501669342863 0.015229658479034507 0 -0.046316612212305465 0.015158868475283121 0 -0.046346728085011217 0.015163139276720569 0 -0.046316612212305465 0.015158868475283121 0 -0.046339900876234907 0.015107734376289138 0 -0.046346728085011217 0.015163139276720569 0 -0.046324501669342863 0.015229658479034507 0 -0.046316612212305465 0.015158868475283121 0 -0.046309838553770723 0.015236404467225934 0 -0.046316612212305465 0.015158868475283121 0 -0.046267638622859306 0.015088494260309377 0 -0.046309838553770723 0.015236404467225934 0 -0.046316612212305465 0.015158868475283121 0 -0.046267638622859306 0.015088494260309377 0 -0.04629952484445584 0.01506012818084157 0 -0.046316612212305465 0.015158868475283121 0 -0.04629952484445584 0.01506012818084157 0 -0.046339900876234907 0.015107734376289138 0 -0.04629952484445584 0.01506012818084157 0 -0.046339900876234907 0.015107734376289138 0 -0.046333810571953106 0.015027341886862449 0 -0.046339900876234907 0.015107734376289138 0 -0.046363419209006315 0.01512069508043631 0 -0.046367570845456292 0.015083421004632204 0 -0.046339900876234907 0.015107734376289138 0 -0.046367570845456292 0.015083421004632204 0 -0.046333810571953106 0.015027341886862449 0 -0.046339900876234907 0.015107734376289138 0 -0.046346728085011217 0.015163139276720569 0 -0.046363419209006315 0.01512069508043631 0 -0.046346728085011217 0.015163139276720569 0 -0.046377953585342906 0.015120675391837078 0 -0.046363419209006315 0.01512069508043631 0 -0.046389928649730641 0.015095477446791839 0 -0.046377953585342906 0.015120675391837078 0 -0.046363419209006315 0.01512069508043631 0 -0.046387495803100122 0.015087229670668105 0 -0.046389928649730641 0.015095477446791839 0 -0.046367570845456292 0.015083421004632204 0 -0.046389928649730641 0.015095477446791839 0 -0.046363419209006315 0.01512069508043631 0 -0.046367570845456292 0.015083421004632204 0 -0.04643966284534938 0.014816938956447251 0 -0.04638591447847603 0.014991873644429563 0 -0.046333805951204114 0.014928401781965701 0 -0.046367570845456292 0.015083421004632204 0 -0.04638591447847603 0.014991873644429563 0 -0.046333810571953106 0.015027341886862449 0 -0.046387495803100122 0.015087229670668105 0 -0.046367570845456292 0.015083421004632204 0 -0.04638591447847603 0.014991873644429563 0 -0.04638591447847603 0.014991873644429563 0 -0.046333810571953106 0.015027341886862449 0 -0.046333805951204114 0.014928401781965701 0 -0.04643966284534938 0.014816938956447251 0 -0.046333805951204114 0.014928401781965701 0 -0.046258354361952241 0.014798782783409561 0 -0.04643966284534938 0.014816938956447251 0 -0.046258354361952241 0.014798782783409561 0 -0.046340393849299291 0.014546368382811953 0 -0.046258354361952241 0.014798782783409561 0 -0.046256292324371041 0.014975653531634428 0 -0.04610072945850377 0.014914408994384827 0 -0.046333805951204114 0.014928401781965701 0 -0.046258354361952241 0.014798782783409561 0 -0.046256292324371041 0.014975653531634428 0 -0.04629952484445584 0.01506012818084157 0 -0.046333810571953106 0.015027341886862449 0 -0.046256292324371041 0.014975653531634428 0 -0.046333810571953106 0.015027341886862449 0 -0.046333805951204114 0.014928401781965701 0 -0.046256292324371041 0.014975653531634428 0 -0.046267638622859306 0.015088494260309377 0 -0.04629952484445584 0.01506012818084157 0 -0.046256292324371041 0.014975653531634428 0 -0.046267638622859306 0.015088494260309377 0 -0.046256292324371041 0.014975653531634428 0 -0.046188109981073748 0.015024351220902477 0 -0.046446353257940241 0.013851553122284253 0 -0.046136990248483653 0.014992366457507079 0 -0.046188109981073748 0.015024351220902477 0 -0.04610072945850377 0.014914408994384827 0 -0.046105024049270478 0.015053452671036811 0 -0.046256292324371041 0.014975653531634428 0 -0.046188109981073748 0.015024351220902477 0 -0.04610072945850377 0.014914408994384827 0 -0.046446353257940241 0.013851553122284253 0 -0.046855885089852348 0.013023165236079983 0 -0.04683200260524039 0.012894260529366262 0 -0.046178631235822748 0.01163337167046378 0 -0.047363416439362253 0.010833862060829055 0 -0.046258354361952241 0.014798782783409561 0 -0.04610072945850377 0.014914408994384827 0 -0.046069701523090631 0.014616574872494324 0 -0.04683200260524039 0.012894260529366262 0 -0.044999923410601085 0.012303622442844751 0 -0.046178631235822748 0.01163337167046378 0 -0.044999923410601085 0.012303622442844751 0 -0.046178631235822748 0.01163337167046378 0 -0.044999996553426937 0.0098417244596932015 0 -0.04683200260524039 0.012894260529366262 0 -0.044999923410601085 0.012303622442844751 0 -0.045750502253269411 0.013742806941824514 0 -0.04683200260524039 0.012894260529366262 0 -0.045750502253269411 0.013742806941824514 0 -0.046105024049270478 0.015053452671036811 0 -0.044999923410601085 0.012303622442844751 0 -0.045750502253269411 0.013742806941824514 0 -0.044999957267896552 0.01476566602707638 0 -0.045750502253269411 0.013742806941824514 0 -0.044999957267896552 0.01476566602707638 0 -0.046105024049270478 0.015053452671036811 0 -0.044999957267896552 0.01476566602707638 0 -0.046105024049270478 0.015053452671036811 0 -0.045816701823049935 0.015932105144898678 0 -0.046188109981073748 0.015024351220902477 0 -0.046105024049270478 0.015053452671036811 0 -0.046232733674149151 0.015128087089838168 0 -0.046267638622859306 0.015088494260309377 0 -0.046188109981073748 0.015024351220902477 0 -0.046232733674149151 0.015128087089838168 0 -0.046267638622859306 0.015088494260309377 0 -0.046232733674149151 0.015128087089838168 0 -0.046309838553770723 0.015236404467225934 0 -0.046232733674149151 0.015128087089838168 0 -0.046254207860480172 0.015262705322378712 0 -0.046309838553770723 0.015236404467225934 0 -0.046105024049270478 0.015053452671036811 0 -0.046254207860480172 0.015262705322378712 0 -0.046205350835026096 0.015443687100191063 0 -0.046105024049270478 0.015053452671036811 0 -0.046232733674149151 0.015128087089838168 0 -0.046254207860480172 0.015262705322378712 0 -0.046205350835026096 0.015443687100191063 0 -0.046438996189213363 0.015440208172171684 0 -0.045816701823049935 0.015932105144898678 0 -0.046383487283838752 0.016835257977722118 0 -0.047635697085064731 0.016177058209104249 0 -0.045816701823049935 0.015932105144898678 0 -0.046547168835859049 0.016155691263414131 0 -0.04604619664460953 0.015850337581264477 0 -0.046205350835026096 0.015443687100191063 0 -0.046351079361363796 0.015376095088974697 0 -0.046438996189213363 0.015440208172171684 0 -0.046323878345214578 0.015282450167875031 0 -0.046309838553770723 0.015236404467225934 0 -0.046351079361363796 0.015376095088974697 0 -0.046254207860480172 0.015262705322378712 0 -0.046205350835026096 0.015443687100191063 0 -0.046351079361363796 0.015376095088974697 0 -0.046254207860480172 0.015262705322378712 0 -0.046309838553770723 0.015236404467225934 0 -0.046351079361363796 0.015376095088974697 0 -0.046392258289029334 0.015786368291728206 0 -0.046547168835859049 0.016155691263414131 0 -0.046323878345214578 0.015282450167875031 0 -0.046351079361363796 0.015376095088974697 0 -0.046333520166027382 0.015299136452779369 0 -0.046383487283838752 0.016835257977722118 0 -0.047635697085064731 0.016177058209104249 0 -0.047819368157813576 0.016530025026874794 0 -0.046547168835859049 0.016155691263414131 0 -0.04656321463357186 0.017097265107228553 0 -0.046333588844269712 0.017010200336120787 0 -0.04656321463357186 0.017097265107228553 0 -0.044999877754512314 0.017226914725529844 0 -0.044999957267896552 0.01476566602707638 0 -0.045816701823049935 0.015932105144898678 0 -0.044999877754512314 0.017226914725529844 0 -0.046383487283838752 0.016835257977722118 0 -0.045816701823049935 0.015932105144898678 0 -0.046105024049270478 0.015053452671036811 0 -0.046205350835026096 0.015443687100191063 0 -0.045816701823049935 0.015932105144898678 0 -0.046016469106241839 0.0056860897243419624 0 -0.044999982733702273 0.0073796368158521898 0 -0.044999946032398118 0.0049178367199015846 0 -0.046250769433094585 0.0067032578499801581 0 -0.046016469106241839 0.0056860897243419624 0 -0.044999982733702273 0.0073796368158521898 0 -0.046250769433094585 0.0067032578499801581 0 -0.046016469106241839 0.0056860897243419624 0 -0.046878148822941029 0.0059525787397646003 0 -0.046878148822941029 0.0059525787397646003 0 -0.047317032632582801 0.0066443768751091991 0 -0.047708929392089643 0.005935074460791819 0 -0.046250769433094585 0.0067032578499801581 0 -0.046878148822941029 0.0059525787397646003 0 -0.047317032632582801 0.0066443768751091991 0 -0.046250769433094585 0.0067032578499801581 0 -0.046261755343243817 0.0083574348485157199 0 -0.047880334853495188 0.00856840926849331 0 -0.046704668106554909 0.0066981286103866755 0 -0.046313420627588545 0.0088329691667302628 0 -0.046250769433094585 0.0067032578499801581 0 -0.047317032632582801 0.0066443768751091991 0 -0.047454665738239199 0.0079521513195064675 0 -0.046250769433094585 0.0067032578499801581 0 -0.046261755343243817 0.0083574348485157199 0 -0.044999982733702273 0.0073796368158521898 0 -0.046261755343243817 0.0083574348485157199 0 -0.044999982733702273 0.0073796368158521898 0 -0.044999996553426937 0.0098417244596932015 0 -0.046261755343243817 0.0083574348485157199 0 -0.044999996553426937 0.0098417244596932015 0 -0.046091054319653706 0.0095087370951890578 0 -0.046261755343243817 0.0083574348485157199 0 -0.046091054319653706 0.0095087370951890578 0 -0.046717728743815919 0.0092435290851799294 0 -0.044999996553426937 0.0098417244596932015 0 -0.046091054319653706 0.0095087370951890578 0 -0.046641464897508367 0.010541312376562154 0 -0.046178631235822748 0.01163337167046378 0 -0.044999996553426937 0.0098417244596932015 0 -0.046641464897508367 0.010541312376562154 0 -0.047363416439362253 0.010833862060829055 0 -0.046641464897508367 0.010541312376562154 0 -0.047828772591433935 0.0089988858858955009 0 -0.046178631235822748 0.01163337167046378 0 -0.047363416439362253 0.010833862060829055 0 -0.046641464897508367 0.010541312376562154 0 -0.046855885089852348 0.013023165236079983 0 -0.04515743929090979 0.0098707606755496953 0 -0.046261755343243817 0.0083574348485157199 0 -0.046717728743815919 0.0092435290851799294 0 -0.047880334853495188 0.00856840926849331 0 -0.047119375931434809 0.010262634044751058 0 -0.046313420627588545 0.0088329691667302628 0 -0.046641464897508367 0.010541312376562154 0 -0.046717728743815919 0.0092435290851799294 0 -0.047880334853495188 0.00856840926849331 0 -0.046641464897508367 0.010541312376562154 0 -0.047695154634165036 0.0088481094702436668 0 -0.047828772591433935 0.0089988858858955009 0 -0.046091054319653706 0.0095087370951890578 0 -0.046641464897508367 0.010541312376562154 0 -0.046717728743815919 0.0092435290851799294 0 -0.04515743929090979 0.0098707606755496953 0 -0.044111580791449244 0.011884446016776955 0 -0.041691905450645599 0.0083640037636710154 0 -0.042043208337999662 0.0083645259883044724 0 -0.042154123793675675 0.008942051598517636 0 -0.041691905450645599 0.0083640037636710154 0 -0.042043208337999662 0.0083645259883044724 0 -0.041743685182127344 0.0081738979261781353 0 -0.041649016525682835 0.0083099609907019232 0 -0.041708827902208485 0.008375126040780374 0 -0.041743685182127344 0.0081738979261781353 0 -0.04515743929090979 0.0098707606755496953 0 -0.044189566530715138 0.009092799883682964 0 -0.046313420627588545 0.0088329691667302628 0 -0.04515743929090979 0.0098707606755496953 0 -0.046258354361952241 0.014798782783409561 0 -0.046069701523090631 0.014616574872494324 0 -0.046340393849299291 0.014546368382811953 0 -0.046069701523090631 0.014616574872494324 0 -0.046121632447159631 0.014217517336015811 0 -0.046340393849299291 0.014546368382811953 0 -0.044758599026505252 0.012152147677153328 0 -0.044111580791449244 0.011884446016776955 0 -0.042619598873419075 0.0095243029552043654 0 -0.042154123793675675 0.008942051598517636 0 -0.042773347703026494 0.0087208303060802086 0 -0.042154123793675675 0.008942051598517636 0 -0.042432660347552532 0.0082646140990909906 0 -0.042773347703026494 0.0087208303060802086 0 -0.042043208337999662 0.0083645259883044724 0 -0.042154123793675675 0.008942051598517636 0 -0.042432660347552532 0.0082646140990909906 0 -0.042432660347552532 0.0082646140990909906 0 -0.042128226405962928 0.0080297193345622627 0 -0.042449189363588269 0.0076711438777430892 0 -0.042128226405962928 0.0080297193345622627 0 -0.04198495351273189 0.0076665269786139016 0 -0.042449189363588269 0.0076711438777430892 0 -0.042043208337999662 0.0083645259883044724 0 -0.042432660347552532 0.0082646140990909906 0 -0.042128226405962928 0.0080297193345622627 0 -0.046313420627588545 0.0088329691667302628 0 -0.044977813191018151 0.0074552048024978685 0 -0.047317032632582801 0.0066443768751091991 0 -0.047454665738239199 0.0079521513195064675 0 -0.048196330576033439 0.0066694072155746124 0 -0.041649016525682835 0.0083099609907019232 0 -0.041743685182127344 0.0081738979261781353 0 -0.04198495351273189 0.0076665269786139016 0 -0.042043208337999662 0.0083645259883044724 0 -0.042128226405962928 0.0080297193345622627 0 -0.041743685182127344 0.0081738979261781353 0 -0.042128226405962928 0.0080297193345622627 0 -0.041743685182127344 0.0081738979261781353 0 -0.04198495351273189 0.0076665269786139016 0 -0.048196330576033439 0.0066694072155746124 0 -0.047708929392089643 0.005935074460791819 0 -0.048869424528491676 0.0054558295827731099 0 -0.047317032632582801 0.0066443768751091991 0 -0.048196330576033439 0.0066694072155746124 0 -0.047708929392089643 0.005935074460791819 0 -0.044977813191018151 0.0074552048024978685 0 -0.044057682609895191 0.0038799623754585603 0 -0.04198495351273189 0.0076665269786139016 0 -0.042449189363588269 0.0076711438777430892 0 -0.042353087403518667 0.007013859104359828 0 -0.042449189363588269 0.0076711438777430892 0 -0.042829714091336991 0.0071803018311360134 0 -0.042353087403518667 0.007013859104359828 0 -0.042449189363588269 0.0076711438777430892 0 -0.043072127654107922 0.0078680505113148929 0 -0.042829714091336991 0.0071803018311360134 0 -0.035979072334625863 0.005228502084710371 0 -0.035953414602202693 0.0054285741313829881 0 -0.035921955058032813 0.0051964460655928761 0 -0.039510484256850262 0.0070261187708421042 0 -0.040053155067819514 0.0037703455126771503 0 -0.036817818909268177 -7.3137691674428807e-05 0 -0.040053155067819514 0.0037703455126771503 0 -0.036817818909268177 -7.3137691674428807e-05 0 -0.03625645479702122 0.0040116395577189335 0 -0.035707620901358622 0.0021241965293986101 0 -0.034805732269310372 0.0011580759194238144 0 -0.034484546878321455 0.0017535562656772355 0 -0.036817818909268177 -7.3137691674428807e-05 0 -0.0381170700524813 -0.0025135461247458445 0 -0.035979072334625863 0.005228502084710371 0 -0.035953414602202693 0.0054285741313829881 0 -0.036061128388542758 0.0054213039316261136 0 -0.038540466206553686 -0.0071347832570297746 0 -0.03990016230898337 -0.0066879688710070875 0 -0.039118613808735173 -0.0079547910930653446 0 -0.035953414602202693 0.0054285741313829881 0 -0.035985919987361357 0.0056366499058856214 0 -0.036061128388542758 0.0054213039316261136 0 -0.039510484256850262 0.0070261187708421042 0 -0.040084350381760246 0.007160248106185786 0 -0.042432660347552532 0.0082646140990909906 0 -0.042449189363588269 0.0076711438777430892 0 -0.043072127654107922 0.0078680505113148929 0 -0.042432660347552532 0.0082646140990909906 0 -0.043072127654107922 0.0078680505113148929 0 -0.042773347703026494 0.0087208303060802086 0 -0.042619598873419075 0.0095243029552043654 0 -0.042773347703026494 0.0087208303060802086 0 -0.043063349735709702 0.0091794412292913359 0 -0.043063349735709702 0.0091794412292913359 0 -0.043304219254840536 0.0085417131246033964 0 -0.043530540714914245 0.009211041195119023 0 -0.040084350381760246 0.007160248106185786 0 -0.03453006370120873 0.0079704654853887183 0 -0.042773347703026494 0.0087208303060802086 0 -0.043063349735709702 0.0091794412292913359 0 -0.043304219254840536 0.0085417131246033964 0 -0.043072127654107922 0.0078680505113148929 0 -0.042773347703026494 0.0087208303060802086 0 -0.043304219254840536 0.0085417131246033964 0 -0.035985919987361357 0.0056366499058856214 0 -0.036142609936976287 0.005584623253936786 0 -0.036028223727830967 0.0058462343771171982 0 -0.035985919987361357 0.0056366499058856214 0 -0.036142609936976287 0.005584623253936786 0 -0.036061128388542758 0.0054213039316261136 0 -0.029054440886628754 0.003742871472798791 0 -0.03453006370120873 0.0079704654853887183 0 -0.024735815113129726 0.0037065924202022349 0 -0.023281929120557886 0.0063225826362424695 0 -0.026361660872043859 0.0056395621932605012 0 -0.029054440886628754 0.003742871472798791 0 -0.025466938620315311 0.0053306913398412942 0 -0.023978383067022047 0.0033780189003007536 0 -0.025978178073724576 0.0056548230173280121 0 -0.026698574283903237 0.0035185315924064495 0 -0.023978383067022047 0.0033780189003007536 0 -0.025318938546244511 0.00075993369080948434 0 -0.026698574283903237 0.0035185315924064495 0 -0.033905544171271097 0.00020048269074649449 0 -0.03404280223758719 0.0011284682173509464 0 -0.033280113970013257 0.0013596299911631049 0 -0.029054440886628754 0.003742871472798791 0 -0.03172820876414334 -0.0014015460468220864 0 -0.029054440886628754 0.003742871472798791 0 -0.03625645479702122 0.0040116395577189335 0 -0.033905544171271097 0.00020048269074649449 0 -0.034805732269310372 0.0011580759194238144 0 -0.03404280223758719 0.0011284682173509464 0 -0.034805732269310372 0.0011580759194238144 0 -0.03404280223758719 0.0011284682173509464 0 -0.034484546878321455 0.0017535562656772355 0 -0.03404280223758719 0.0011284682173509464 0 -0.034484546878321455 0.0017535562656772355 0 -0.033280113970013257 0.0013596299911631049 0 -0.03990016230898337 -0.0066879688710070875 0 -0.041236683829007005 -0.0062022935385240849 0 -0.040874375072964646 -0.0074475694455194332 0 -0.0381170700524813 -0.0025135461247458445 0 -0.03172820876414334 -0.0014015460468220864 0 -0.041236683829007005 -0.0062022935385240849 0 -0.040874375072964646 -0.0074475694455194332 0 -0.042070331698679159 -0.0077022318884847982 0 -0.040874375072964646 -0.0074475694455194332 0 -0.041168110527770564 -0.0088207902527446605 0 -0.042070331698679159 -0.0077022318884847982 0 -0.040874375072964646 -0.0074475694455194332 0 -0.04015812209985397 -0.0080490130121751886 0 -0.041168110527770564 -0.0088207902527446605 0 -0.03990016230898337 -0.0066879688710070875 0 -0.04015812209985397 -0.0080490130121751886 0 -0.039118613808735173 -0.0079547910930653446 0 -0.04015812209985397 -0.0080490130121751886 0 -0.039841814832050765 -0.0090991510579708675 0 -0.039118613808735173 -0.0079547910930653446 0 -0.03990016230898337 -0.0066879688710070875 0 -0.040874375072964646 -0.0074475694455194332 0 -0.04015812209985397 -0.0080490130121751886 0 -0.04015812209985397 -0.0080490130121751886 0 -0.039841814832050765 -0.0090991510579708675 0 -0.041168110527770564 -0.0088207902527446605 0 -0.039841814832050765 -0.0090991510579708675 0 -0.041168110527770564 -0.0088207902527446605 0 -0.040654134764521017 -0.0098267209155432321 0 -0.041168110527770564 -0.0088207902527446605 0 -0.040654134764521017 -0.0098267209155432321 0 -0.04164288507980371 -0.010302408144178302 0 -0.040654134764521017 -0.0098267209155432321 0 -0.04164288507980371 -0.010302408144178302 0 -0.040693983992037212 -0.010963364440088998 0 -0.04164288507980371 -0.010302408144178302 0 -0.041364904911261741 -0.011179649892962471 0 -0.040693983992037212 -0.010963364440088998 0 -0.040851534566473578 -0.012143465603244695 0 -0.041364904911261741 -0.011179649892962471 0 -0.042263973602126761 -0.011350685337505771 0 -0.040566699967497073 -0.012222437739149036 0 -0.041583928470752513 -0.012138642163031494 0 -0.040851534566473578 -0.012143465603244695 0 -0.041364904911261741 -0.011179649892962471 0 -0.040693983992037212 -0.010963364440088998 0 -0.040376922183080192 -0.01162813109544816 0 -0.039865614231381782 -0.010461700477304483 0 -0.039518551378007881 -0.011718212307341682 0 -0.040851534566473578 -0.012143465603244695 0 -0.040376922183080192 -0.01162813109544816 0 -0.040693983992037212 -0.010963364440088998 0 -0.040376922183080192 -0.01162813109544816 0 -0.040693983992037212 -0.010963364440088998 0 -0.039865614231381782 -0.010461700477304483 0 -0.039841814832050765 -0.0090991510579708675 0 -0.040654134764521017 -0.0098267209155432321 0 -0.039865614231381782 -0.010461700477304483 0 -0.039841814832050765 -0.0090991510579708675 0 -0.039865614231381782 -0.010461700477304483 0 -0.039130904549327078 -0.0096605363699936719 0 -0.040654134764521017 -0.0098267209155432321 0 -0.040693983992037212 -0.010963364440088998 0 -0.039865614231381782 -0.010461700477304483 0 -0.039130904549327078 -0.0096605363699936719 0 -0.03903036506939956 -0.010473138391427248 0 -0.038341313820702556 -0.009969753792984164 0 -0.039130904549327078 -0.0096605363699936719 0 -0.038341313820702556 -0.009969753792984164 0 -0.038785196177142038 -0.0089456398970483002 0 -0.03903036506939956 -0.010473138391427248 0 -0.038305001880305604 -0.010591775725861568 0 -0.038341313820702556 -0.009969753792984164 0 -0.039865614231381782 -0.010461700477304483 0 -0.039130904549327078 -0.0096605363699936719 0 -0.03903036506939956 -0.010473138391427248 0 -0.042248473472414581 -0.013320531620610775 0 -0.042832881930056008 -0.013305922478995076 0 -0.043003438340120222 -0.013644770695379815 0 -0.039865614231381782 -0.010461700477304483 0 -0.03903036506939956 -0.010473138391427248 0 -0.039518551378007881 -0.011718212307341682 0 -0.03903036506939956 -0.010473138391427248 0 -0.039518551378007881 -0.011718212307341682 0 -0.038305001880305604 -0.010591775725861568 0 -0.040860492433713785 -0.012405635281267299 0 -0.040585924784633749 -0.012516541088185194 0 -0.043267003489991678 -0.01297926510203689 0 -0.042832881930056008 -0.013305922478995076 0 -0.043368257909500003 -0.013347774724337931 0 -0.042832881930056008 -0.013305922478995076 0 -0.043368257909500003 -0.013347774724337931 0 -0.043003438340120222 -0.013644770695379815 0 -0.043368257909500003 -0.013347774724337931 0 -0.043003438340120222 -0.013644770695379815 0 -0.043451271960593625 -0.013539664477994345 0 -0.043003438340120222 -0.013644770695379815 0 -0.043532913254303779 -0.013934418731129463 0 -0.043451271960593625 -0.013539664477994345 0 -0.038305001880305604 -0.010591775725861568 0 -0.038341313820702556 -0.009969753792984164 0 -0.037260889769135275 -0.0095063229194238437 0 -0.040585924784633749 -0.012516541088185194 0 -0.042819282437050035 -0.0074783877604689417 0 -0.038341313820702556 -0.009969753792984164 0 -0.037490770582822248 -0.008606800315047524 0 -0.038258221891502228 -0.0084937957144123905 0 -0.038341313820702556 -0.009969753792984164 0 -0.038258221891502228 -0.0084937957144123905 0 -0.038785196177142038 -0.0089456398970483002 0 -0.038341313820702556 -0.009969753792984164 0 -0.037602813944467774 -0.0086402482084974672 0 -0.037260889769135275 -0.0095063229194238437 0 -0.038108136687345084 -0.010552447588251995 0 -0.039959626177345317 -0.0056394201513070624 0 -0.037490770582822248 -0.008606800315047524 0 -0.038258221891502228 -0.0084937957144123905 0 -0.037668475097907002 -0.0081588682345638784 0 -0.039773572201877438 -0.0033297371515743049 0 -0.039667634323844458 -0.0031601270010993472 0 -0.039449687015390131 -0.003694519550212431 0 -0.039959626177345317 -0.0056394201513070624 0 -0.039275336062847437 -0.0036004185232574063 0 -0.040964723604526639 -0.0026396276060786086 0 -0.039959626177345317 -0.0056394201513070624 0 -0.039841814832050765 -0.0090991510579708675 0 -0.038785196177142038 -0.0089456398970483002 0 -0.039118613808735173 -0.0079547910930653446 0 -0.039841814832050765 -0.0090991510579708675 0 -0.039130904549327078 -0.0096605363699936719 0 -0.038785196177142038 -0.0089456398970483002 0 -0.038258221891502228 -0.0084937957144123905 0 -0.038785196177142038 -0.0089456398970483002 0 -0.039118613808735173 -0.0079547910930653446 0 -0.038540466206553686 -0.0071347832570297746 0 -0.038258221891502228 -0.0084937957144123905 0 -0.039118613808735173 -0.0079547910930653446 0 -0.038540466206553686 -0.0071347832570297746 0 -0.038258221891502228 -0.0084937957144123905 0 -0.037668475097907002 -0.0081588682345638784 0 -0.039513420667738046 0.00022895509612106028 0 -0.038731802349663766 -4.2369514859691034e-05 0 -0.038282315946303103 -0.0012740468392590696 0 -0.036817818909268177 -7.3137691674428807e-05 0 -0.039275336062847437 -0.0036004185232574063 0 -0.040053155067819514 0.0037703455126771503 0 -0.039275336062847437 -0.0036004185232574063 0 -0.040053155067819514 0.0037703455126771503 0 -0.044057682609895191 0.0038799623754585603 0 -0.041853440025527489 0.001708543545213 0 -0.041434734409787184 0.00059857359044817313 0 -0.040478264839501447 0.0012466856080616707 0 -0.040964723604526639 -0.0026396276060786086 0 -0.039275336062847437 -0.0036004185232574063 0 -0.044931988664314679 0.00091479899477762429 0 -0.04485806546556137 0.00070115530364668491 0 -0.045287683577529637 0.00084716671446545685 0 -0.044057682609895191 0.0038799623754585603 0 -0.04755273264723698 0.0036330233884761284 0 -0.040964723604526639 -0.0026396276060786086 0 -0.044057682609895191 0.0038799623754585603 0 -0.044689422405576086 0.00094248029093042893 0 -0.044931988664314679 0.00091479899477762429 0 -0.04485806546556137 0.00070115530364668491 0 -0.041104474509950889 0.00020740905475395409 0 -0.041434734409787184 0.00059857359044817313 0 -0.040478264839501447 0.0012466856080616707 0 -0.046878148822941029 0.0059525787397646003 0 -0.047708929392089643 0.005935074460791819 0 -0.047825363749285581 0.0051135599952785108 0 -0.047708929392089643 0.005935074460791819 0 -0.048869424528491676 0.0054558295827731099 0 -0.047825363749285581 0.0051135599952785108 0 -0.048377607875539935 0.004545865343538024 0 -0.04789162166678592 0.0043876812744794713 0 -0.047140831476642171 0.0050049765694883215 0 -0.04755273264723698 0.0036330233884761284 0 -0.047955759577884179 0.003923286054117024 0 -0.04833648706179914 0.0045224275171084202 0 -0.048164758641248334 0.0033419813027328652 0 -0.049740000395002669 0.003149292868131346 0 -0.04755273264723698 0.0036330233884761284 0 -0.045378672935584591 -0.00088278783518501566 0 -0.04789162166678592 0.0043876812744794713 0 -0.048164758641248334 0.0033419813027328652 0 -0.047257164897143975 0.0039247860205912054 0 -0.04833648706179914 0.0045224275171084202 0 -0.04789162166678592 0.0043876812744794713 0 -0.048164758641248334 0.0033419813027328652 0 -0.044931988664314679 0.00091479899477762429 0 -0.045287683577529637 0.00084716671446545685 0 -0.044893324340725925 0.0011687124623161226 0 -0.044689422405576086 0.00094248029093042893 0 -0.044931988664314679 0.00091479899477762429 0 -0.044893324340725925 0.0011687124623161226 0 -0.040964723604526639 -0.0026396276060786086 0 -0.045378672935584591 -0.00088278783518501566 0 -0.042082001490601532 -0.004593047173839084 0 -0.041988421040778996 -0.004444061078528962 0 -0.042740547312965754 -0.0038497582719863297 0 -0.039959626177345317 -0.0056394201513070624 0 -0.042819282437050035 -0.0074783877604689417 0 -0.041988421040778996 -0.004444061078528962 0 -0.042740547312965754 -0.0038497582719863297 0 -0.042369392625997614 -0.0035149546952877152 0 -0.045378672935584591 -0.00088278783518501566 0 -0.042819282437050035 -0.0074783877604689417 0 -0.043532913254303779 -0.013934418731129463 0 -0.043451271960593625 -0.013539664477994345 0 -0.0439072097868307 -0.013228120161225147 0 -0.042819282437050035 -0.0074783877604689417 0 -0.045112794527282077 -0.0084371416619723073 0 -0.045641426962199243 -0.0043540954032334437 0 -0.045422582279794441 -0.0041615151709850024 0 -0.046413980059895825 -0.0033163895721771371 0 -0.045422582279794441 -0.0041615151709850024 0 -0.045939468765886976 -0.0030629613379611099 0 -0.046413980059895825 -0.0033163895721771371 0 -0.043267003489991678 -0.01297926510203689 0 -0.043368257909500003 -0.013347774724337931 0 -0.0439072097868307 -0.013228120161225147 0 -0.043368257909500003 -0.013347774724337931 0 -0.043451271960593625 -0.013539664477994345 0 -0.0439072097868307 -0.013228120161225147 0 -0.046360539851102285 -0.0028347551332917427 0 -0.045939468765886976 -0.0030629613379611099 0 -0.046413980059895825 -0.0033163895721771371 0 -0.048164758641248334 0.0033419813027328652 0 -0.048183414116635528 0.0013105260729990088 0 -0.046888604612794239 0.0027539903577404618 0 -0.048164758641248334 0.0033419813027328652 0 -0.049740000395002669 0.003149292868131346 0 -0.048183414116635528 0.0013105260729990088 0 -0.045378672935584591 -0.00088278783518501566 0 -0.04768180241586386 -0.00084463111115668855 0 -0.048183414116635528 0.0013105260729990088 0 -0.046888604612794239 0.0027539903577404618 0 -0.046338930842945172 0.0011903463853434428 0 -0.046607401716266136 -0.00056842000321541994 0 -0.048183414116635528 0.0013105260729990088 0 -0.046338930842945172 0.0011903463853434428 0 -0.046360539851102285 -0.0028347551332917427 0 -0.046316188805014827 -0.0025378539219235293 0 -0.046413980059895825 -0.0033163895721771371 0 -0.046331460178275656 -0.0016386044600813444 0 -0.04768180241586386 -0.00084463111115668855 0 -0.04499997531904755 -6.0333307365753107e-06 0 -0.046607401716266136 -0.00056842000321541994 0 -0.046338930842945172 0.0011903463853434428 0 -0.04499997531904755 -6.0333307365753107e-06 0 -0.046338930842945172 0.0011903463853434428 0 -0.044999973385530898 0.0024558585655271763 0 -0.046888604612794239 0.0027539903577404618 0 -0.046338930842945172 0.0011903463853434428 0 -0.044999973385530898 0.0024558585655271763 0 -0.046888604612794239 0.0027539903577404618 0 -0.044999973385530898 0.0024558585655271763 0 -0.046197685705409768 0.0041661647994750018 0 -0.044999973385530898 0.0024558585655271763 0 -0.046197685705409768 0.0041661647994750018 0 -0.044999946032398118 0.0049178367199015846 0 -0.048164758641248334 0.0033419813027328652 0 -0.046888604612794239 0.0027539903577404618 0 -0.047257164897143975 0.0039247860205912054 0 -0.046888604612794239 0.0027539903577404618 0 -0.046197685705409768 0.0041661647994750018 0 -0.047257164897143975 0.0039247860205912054 0 -0.046016469106241839 0.0056860897243419624 0 -0.046197685705409768 0.0041661647994750018 0 -0.047140831476642171 0.0050049765694883215 0 -0.046878148822941029 0.0059525787397646003 0 -0.048377607875539935 0.004545865343538024 0 -0.047140831476642171 0.0050049765694883215 0 -0.046197685705409768 0.0041661647994750018 0 -0.047257164897143975 0.0039247860205912054 0 -0.047140831476642171 0.0050049765694883215 0 -0.046966541472761039 0.0061082864223987003 0 -0.04755273264723698 0.0036330233884761284 0 -0.04789162166678592 0.0043876812744794713 0 -0.047257164897143975 0.0039247860205912054 0 -0.047140831476642171 0.0050049765694883215 0 -0.046016469106241839 0.0056860897243419624 0 -0.046878148822941029 0.0059525787397646003 0 -0.047140831476642171 0.0050049765694883215 0 -0.046016469106241839 0.0056860897243419624 0 -0.046197685705409768 0.0041661647994750018 0 -0.044999946032398118 0.0049178367199015846 0 -0.033829012898939692 0.0036505738964719035 0 -0.032203094135354285 0.0050518664496475062 0 -0.031951983198515013 0.0055691003481203316 0 -0.032005965552570743 0.005459002465986405 0 -0.032092810141923889 0.0050846953299593612 0 -0.035812351744478894 0.0018363491851521327 0 -0.031759906586975549 0.0022995482940578434 0 -0.035460990339243381 -0.00096891144915316023 0 -0.035812351744478894 0.0018363491851521327 0 -0.031759906586975549 0.0022995482940578434 0 -0.032092810141923889 0.0050846953299593612 0 -0.035793525408590911 -0.00037025703222439289 0 -0.036532653572925733 -0.0028575111337493147 0 -0.034699136438744116 -0.0027555254009348192 0 -0.035793525408590911 -0.00037025703222439289 0 -0.036532653572925733 -0.0028575111337493147 0 -0.038321962218130882 -0.0025717598505404855 0 -0.033818356012390062 0.00092317490054606179 0 -0.03693945941096375 -0.0017924855823844238 0 -0.036532653572925733 -0.0028575111337493147 0 -0.038321962218130882 -0.0025717598505404855 0 -0.037501277206209042 -0.0042650721694141866 0 -0.033829012898939692 0.0036505738964719035 0 -0.035615838931907139 0.0010520550619393758 0 -0.03693945941096375 -0.0017924855823844238 0 -0.039771651579687567 -0.0040124813313854747 0 -0.035812351744478894 0.0018363491851521327 0 -0.035460990339243381 -0.00096891144915316023 0 -0.040111425992175813 -0.0034893283743433912 0 -0.035460990339243381 -0.00096891144915316023 0 -0.040111425992175813 -0.0034893283743433912 0 -0.039922382057451293 -0.0042830033780080256 0 -0.031951983198515013 0.0055691003481203316 0 -0.031374764595754279 0.0055698694758799057 0 -0.031648630071545981 0.005517395484096306 0 -0.031118015278924275 0.0054555509404296734 0 -0.031374764595754279 0.0055698694758799057 0 -0.030895331826286801 0.0053119034321379537 0 -0.031118015278924275 0.0054555509404296734 0 -0.031374764595754279 0.0055698694758799057 0 -0.031419276678045872 0.0054994690298063083 0 -0.031374764595754279 0.0055698694758799057 0 -0.031419276678045872 0.0054994690298063083 0 -0.031648630071545981 0.005517395484096306 0 -0.031118015278924275 0.0054555509404296734 0 -0.031419276678045872 0.0054994690298063083 0 -0.031159094452517244 0.005510515940914602 0 -0.031482395977463197 0.0055119635257586596 0 -0.031652032125680442 0.0054882389124260578 0 -0.031935331108230013 0.0054245590654682782 0 -0.031652032125680442 0.0054882389124260578 0 -0.03183428946630109 0.0054886534095364911 0 -0.031935331108230013 0.0054245590654682782 0 -0.031419276678045872 0.0054994690298063083 0 -0.031482395977463197 0.0055119635257586596 0 -0.031159094452517244 0.005510515940914602 0 -0.031419276678045872 0.0054994690298063083 0 -0.031482395977463197 0.0055119635257586596 0 -0.031652032125680442 0.0054882389124260578 0 -0.031419276678045872 0.0054994690298063083 0 -0.031652032125680442 0.0054882389124260578 0 -0.031648630071545981 0.005517395484096306 0 -0.031951983198515013 0.0055691003481203316 0 -0.031648630071545981 0.005517395484096306 0 -0.03183428946630109 0.0054886534095364911 0 -0.031652032125680442 0.0054882389124260578 0 -0.031648630071545981 0.005517395484096306 0 -0.03183428946630109 0.0054886534095364911 0 -0.031951983198515013 0.0055691003481203316 0 -0.03183428946630109 0.0054886534095364911 0 -0.032005965552570743 0.005459002465986405 0 -0.03183428946630109 0.0054886534095364911 0 -0.031972263000323277 0.0057308655074663623 0 -0.032005965552570743 0.005459002465986405 0 -0.03183428946630109 0.0054886534095364911 0 -0.031972263000323277 0.0057308655074663623 0 -0.031935331108230013 0.0054245590654682782 0 -0.031935331108230013 0.0054245590654682782 0 -0.031960108451916429 0.0062817023064271078 0 -0.032590256857079378 0.0064775896403685513 0 -0.031972263000323277 0.0057308655074663623 0 -0.031935331108230013 0.0054245590654682782 0 -0.031960108451916429 0.0062817023064271078 0 -0.031972263000323277 0.0057308655074663623 0 -0.031960108451916429 0.0062817023064271078 0 -0.032171147397771251 0.0061709183204250893 0 -0.031972263000323277 0.0057308655074663623 0 -0.032171147397771251 0.0061709183204250893 0 -0.032113957800954697 0.0056872120416860761 0 -0.032171147397771251 0.0061709183204250893 0 -0.032022693259789237 0.0063701881340070916 0 -0.032113957800954697 0.0056872120416860761 0 -0.032113957800954697 0.0056872120416860761 0 -0.032005965552570743 0.005459002465986405 0 -0.032092810141923889 0.0050846953299593612 0 -0.031972263000323277 0.0057308655074663623 0 -0.032113957800954697 0.0056872120416860761 0 -0.032005965552570743 0.005459002465986405 0 -0.032113957800954697 0.0056872120416860761 0 -0.032092810141923889 0.0050846953299593612 0 -0.031463087993393563 0.005975115720413802 0 -0.032092810141923889 0.0050846953299593612 0 -0.031463087993393563 0.005975115720413802 0 -0.031006943882687456 0.0051483178731387544 0 -0.031759906586975549 0.0022995482940578434 0 -0.032092810141923889 0.0050846953299593612 0 -0.031006943882687456 0.0051483178731387544 0 -0.032022693259789237 0.0063701881340070916 0 -0.032113957800954697 0.0056872120416860761 0 -0.031463087993393563 0.005975115720413802 0 -0.031463087993393563 0.005975115720413802 0 -0.030335135560684037 0.0052528924855565285 0 -0.031006943882687456 0.0051483178731387544 0 -0.031463087993393563 0.005975115720413802 0 -0.03085258527114013 0.0064553277572277712 0 -0.030335135560684037 0.0052528924855565285 0 -0.03085258527114013 0.0064553277572277712 0 -0.030335135560684037 0.0052528924855565285 0 -0.029720921573133715 0.0064603412734184733 0 -0.030335135560684037 0.0052528924855565285 0 -0.029720921573133715 0.0064603412734184733 0 -0.029216031587622222 0.0043254383499015522 0 -0.030335135560684037 0.0052528924855565285 0 -0.029216031587622222 0.0043254383499015522 0 -0.030302038783301843 0.0040255683888202791 0 -0.029216031587622222 0.0043254383499015522 0 -0.032766979228685218 0.0019580230739669226 0 -0.030682616144760016 0.0018763630752697406 0 -0.029335938912597073 0.0042544289029520501 0 -0.03146029743550452 0.0029556600944653437 0 -0.030335135560684037 0.0052528924855565285 0 -0.031006943882687456 0.0051483178731387544 0 -0.030302038783301843 0.0040255683888202791 0 -0.025978178073724576 0.0056548230173280121 0 -0.028026640390529222 0.0055165972735561957 0 -0.026698574283903237 0.0035185315924064495 0 -0.028071690398864039 0.0075875054728587943 0 -0.025978178073724576 0.0056548230173280121 0 -0.028026640390529222 0.0055165972735561957 0 -0.029720921573133715 0.0064603412734184733 0 -0.028026640390529222 0.0055165972735561957 0 -0.029216031587622222 0.0043254383499015522 0 -0.028026640390529222 0.0055165972735561957 0 -0.029216031587622222 0.0043254383499015522 0 -0.026698574283903237 0.0035185315924064495 0 -0.029216031587622222 0.0043254383499015522 0 -0.026698574283903237 0.0035185315924064495 0 -0.027740293791348375 0.0015039615182579763 0 -0.025318938546244511 0.00075993369080948434 0 -0.026698574283903237 0.0035185315924064495 0 -0.027740293791348375 0.0015039615182579763 0 -0.03172820876414334 -0.0014015460468220864 0 -0.0264775357933325 0.00081753682893279654 0 -0.027573623230166752 0.00043416350626508893 0 -0.029832175662174266 -0.0011382439292611042 0 -0.030682616144760016 0.0018763630752697406 0 -0.029216031587622222 0.0043254383499015522 0 -0.027740293791348375 0.0015039615182579763 0 -0.030682616144760016 0.0018763630752697406 0 -0.0264775357933325 0.00081753682893279654 0 -0.030967830393640348 0.0019597440054182559 0 -0.029832175662174266 -0.0011382439292611042 0 -0.027531346808612175 -0.0018771669399485927 0 -0.02921395969674858 -0.0038783266093981731 0 -0.027573623230166752 0.00043416350626508893 0 -0.029832175662174266 -0.0011382439292611042 0 -0.027531346808612175 -0.0018771669399485927 0 -0.024558068821830103 -0.0006673878344498602 0 -0.027531346808612175 -0.0018771669399485927 0 -0.026287534607793296 -0.0039201345603284143 0 -0.024558068821830103 -0.0006673878344498602 0 -0.027573623230166752 0.00043416350626508893 0 -0.027531346808612175 -0.0018771669399485927 0 -0.03172820876414334 -0.0014015460468220864 0 -0.034415604203437637 -0.0062391598987421261 0 -0.035793525408590911 -0.00037025703222439289 0 -0.032766979228685218 0.0019580230739669226 0 -0.033506239782417561 -0.00074626552432219783 0 -0.031759906586975549 0.0022995482940578434 0 -0.031006943882687456 0.0051483178731387544 0 -0.030302038783301843 0.0040255683888202791 0 -0.033818356012390062 0.00092317490054606179 0 -0.03146029743550452 0.0029556600944653437 0 -0.032766979228685218 0.0019580230739669226 0 -0.031810580416451101 -0.00024908063154337586 0 -0.033506239782417561 -0.00074626552432219783 0 -0.032766979228685218 0.0019580230739669226 0 -0.030682616144760016 0.0018763630752697406 0 -0.031810580416451101 -0.00024908063154337586 0 -0.029832175662174266 -0.0011382439292611042 0 -0.030682616144760016 0.0018763630752697406 0 -0.031810580416451101 -0.00024908063154337586 0 -0.029832175662174266 -0.0011382439292611042 0 -0.031810580416451101 -0.00024908063154337586 0 -0.03218418450865989 -0.0029251960147648314 0 -0.029832175662174266 -0.0011382439292611042 0 -0.03218418450865989 -0.0029251960147648314 0 -0.02921395969674858 -0.0038783266093981731 0 -0.031810580416451101 -0.00024908063154337586 0 -0.03218418450865989 -0.0029251960147648314 0 -0.033506239782417561 -0.00074626552432219783 0 -0.03218418450865989 -0.0029251960147648314 0 -0.033506239782417561 -0.00074626552432219783 0 -0.034699136438744116 -0.0027555254009348192 0 -0.035793525408590911 -0.00037025703222439289 0 -0.033506239782417561 -0.00074626552432219783 0 -0.034699136438744116 -0.0027555254009348192 0 -0.03218418450865989 -0.0029251960147648314 0 -0.034699136438744116 -0.0027555254009348192 0 -0.033823025038383331 -0.0053638479033264585 0 -0.03218418450865989 -0.0029251960147648314 0 -0.033823025038383331 -0.0053638479033264585 0 -0.031220847556546832 -0.0060482914375138697 0 -0.03218418450865989 -0.0029251960147648314 0 -0.031220847556546832 -0.0060482914375138697 0 -0.02921395969674858 -0.0038783266093981731 0 -0.031220847556546832 -0.0060482914375138697 0 -0.032564146270174996 -0.0090229375105840837 0 -0.030532934022682187 -0.0081534408878807581 0 -0.033823025038383331 -0.0053638479033264585 0 -0.032564146270174996 -0.0090229375105840837 0 -0.03524563242685607 -0.0077797421078031649 0 -0.033823025038383331 -0.0053638479033264585 0 -0.031220847556546832 -0.0060482914375138697 0 -0.032564146270174996 -0.0090229375105840837 0 -0.027531346808612175 -0.0018771669399485927 0 -0.026287534607793296 -0.0039201345603284143 0 -0.02921395969674858 -0.0038783266093981731 0 -0.026287534607793296 -0.0039201345603284143 0 -0.02921395969674858 -0.0038783266093981731 0 -0.028102890572471499 -0.0071487085817511856 0 -0.031220847556546832 -0.0060482914375138697 0 -0.028102890572471499 -0.0071487085817511856 0 -0.030532934022682187 -0.0081534408878807581 0 -0.031220847556546832 -0.0060482914375138697 0 -0.02921395969674858 -0.0038783266093981731 0 -0.028102890572471499 -0.0071487085817511856 0 -0.041168110527770564 -0.0088207902527446605 0 -0.04164288507980371 -0.010302408144178302 0 -0.042864312209261388 -0.0092335995211781825 0 -0.041168110527770564 -0.0088207902527446605 0 -0.042070331698679159 -0.0077022318884847982 0 -0.042864312209261388 -0.0092335995211781825 0 -0.034415604203437637 -0.0062391598987421261 0 -0.035478722986727732 -0.0081243898552662546 0 -0.04164288507980371 -0.010302408144178302 0 -0.042864312209261388 -0.0092335995211781825 0 -0.042618609415236923 -0.010317503093085158 0 -0.035478722986727732 -0.0081243898552662546 0 -0.036333545886739607 -0.010404043296369476 0 -0.028102890572471499 -0.0071487085817511856 0 -0.029865799056218226 -0.010262013391053478 0 -0.030532934022682187 -0.0081534408878807581 0 -0.042864312209261388 -0.0092335995211781825 0 -0.042618609415236923 -0.010317503093085158 0 -0.043580756947395924 -0.010690590537464208 0 -0.037826757787183543 -0.012211749095587201 0 -0.037653666157945492 -0.013765476644043904 0 -0.039455119258992262 -0.012957821672949272 0 -0.036333545886739607 -0.010404043296369476 0 -0.041583928470752513 -0.012138642163031494 0 -0.042618609415236923 -0.010317503093085158 0 -0.043580756947395924 -0.010690590537464208 0 -0.042263973602126761 -0.011350685337505771 0 -0.04164288507980371 -0.010302408144178302 0 -0.042618609415236923 -0.010317503093085158 0 -0.042263973602126761 -0.011350685337505771 0 -0.04164288507980371 -0.010302408144178302 0 -0.041364904911261741 -0.011179649892962471 0 -0.042263973602126761 -0.011350685337505771 0 -0.033799935779777066 -0.0089603357097390191 0 -0.03636060978323874 -0.0076735524543053079 0 -0.036355001772559403 -0.0086118833611616152 0 -0.037302926208370564 -0.00918462134127092 0 -0.037116390681888704 -0.0077848099914069706 0 -0.036333545886739607 -0.010404043296369476 0 -0.033799935779777066 -0.0089603357097390191 0 -0.029865799056218226 -0.010262013391053478 0 -0.032564146270174996 -0.0090229375105840837 0 -0.030532934022682187 -0.0081534408878807581 0 -0.036566069813967698 -0.01198892511627328 0 -0.036333545886739607 -0.010404043296369476 0 -0.034902696305214753 -0.0092329670356828906 0 -0.036370819995932585 -0.010528975292662572 0 -0.036659551056961462 -0.0097881710237348197 0 -0.036536198990122518 -0.011589219477078005 0 -0.034902696305214753 -0.0092329670356828906 0 -0.036370819995932585 -0.010528975292662572 0 -0.034902696305214753 -0.0092329670356828906 0 -0.036355001772559403 -0.0086118833611616152 0 -0.036659551056961462 -0.0097881710237348197 0 -0.036536198990122518 -0.011589219477078005 0 -0.037826757787183543 -0.012211749095587201 0 -0.037653666157945492 -0.013765476644043904 0 -0.036659551056961462 -0.0097881710237348197 0 -0.037095201673125577 -0.010138645213583687 0 -0.037302926208370564 -0.00918462134127092 0 -0.036355001772559403 -0.0086118833611616152 0 -0.036659551056961462 -0.0097881710237348197 0 -0.037302926208370564 -0.00918462134127092 0 -0.036853598357735648 -0.010699774508513662 0 -0.036659551056961462 -0.0097881710237348197 0 -0.037095201673125577 -0.010138645213583687 0 -0.036853598357735648 -0.010699774508513662 0 -0.036370819995932585 -0.010528975292662572 0 -0.036659551056961462 -0.0097881710237348197 0 -0.038289902104138671 -0.0099478970501551672 0 -0.037302926208370564 -0.00918462134127092 0 -0.03798753591543378 -0.0082481048087843026 0 -0.037464623361825093 -0.010592619199452038 0 -0.037095201673125577 -0.010138645213583687 0 -0.037302926208370564 -0.00918462134127092 0 -0.037464623361825093 -0.010592619199452038 0 -0.038289902104138671 -0.0099478970501551672 0 -0.037302926208370564 -0.00918462134127092 0 -0.038289902104138671 -0.0099478970501551672 0 -0.03798753591543378 -0.0082481048087843026 0 -0.038837004895352092 -0.008788607328645736 0 -0.03798753591543378 -0.0082481048087843026 0 -0.037847841044729054 -0.006549471094571521 0 -0.039009052927537702 -0.0070809967141323132 0 -0.03798753591543378 -0.0082481048087843026 0 -0.039009052927537702 -0.0070809967141323132 0 -0.038837004895352092 -0.008788607328645736 0 -0.03798753591543378 -0.0082481048087843026 0 -0.037116390681888704 -0.0077848099914069706 0 -0.037847841044729054 -0.006549471094571521 0 -0.037302926208370564 -0.00918462134127092 0 -0.03798753591543378 -0.0082481048087843026 0 -0.037116390681888704 -0.0077848099914069706 0 -0.03524563242685607 -0.0077797421078031649 0 -0.037847841044729054 -0.006549471094571521 0 -0.036000312376863818 -0.0047289842217748835 0 -0.03636060978323874 -0.0076735524543053079 0 -0.03773020582718644 -0.0067379396283528525 0 -0.033823025038383331 -0.0053638479033264585 0 -0.03524563242685607 -0.0077797421078031649 0 -0.036000312376863818 -0.0047289842217748835 0 -0.037847841044729054 -0.006549471094571521 0 -0.038817206167781428 -0.005977981368488686 0 -0.039009052927537702 -0.0070809967141323132 0 -0.037847841044729054 -0.006549471094571521 0 -0.038682160759016301 -0.0046606885225844059 0 -0.038817206167781428 -0.005977981368488686 0 -0.038321962218130882 -0.0025717598505404855 0 -0.037501277206209042 -0.0042650721694141866 0 -0.038682160759016301 -0.0046606885225844059 0 -0.037847841044729054 -0.006549471094571521 0 -0.037501277206209042 -0.0042650721694141866 0 -0.036000312376863818 -0.0047289842217748835 0 -0.037847841044729054 -0.006549471094571521 0 -0.037501277206209042 -0.0042650721694141866 0 -0.038682160759016301 -0.0046606885225844059 0 -0.036532653572925733 -0.0028575111337493147 0 -0.037501277206209042 -0.0042650721694141866 0 -0.036000312376863818 -0.0047289842217748835 0 -0.034699136438744116 -0.0027555254009348192 0 -0.033823025038383331 -0.0053638479033264585 0 -0.036000312376863818 -0.0047289842217748835 0 -0.036532653572925733 -0.0028575111337493147 0 -0.034699136438744116 -0.0027555254009348192 0 -0.036000312376863818 -0.0047289842217748835 0 -0.040111425992175813 -0.0034893283743433912 0 -0.039941659680044463 -0.0055709659538039479 0 -0.039820350913147576 -0.0063846542480067671 0 -0.035615838931907139 0.0010520550619393758 0 -0.035098023551325248 -0.00064188003082362279 0 -0.031374764595754279 0.0055698694758799057 0 -0.030508486574663686 0.0049470892540275924 0 -0.030895331826286801 0.0053119034321379537 0 -0.03977992126939197 -0.0051710488740116323 0 -0.039941659680044463 -0.0055709659538039479 0 -0.039922382057451293 -0.0042830033780080256 0 -0.03977992126939197 -0.0051710488740116323 0 -0.039941659680044463 -0.0055709659538039479 0 -0.039673263065192033 -0.0057615021468131796 0 -0.040111425992175813 -0.0034893283743433912 0 -0.039941659680044463 -0.0055709659538039479 0 -0.039922382057451293 -0.0042830033780080256 0 -0.039922382057451293 -0.0042830033780080256 0 -0.038682160759016301 -0.0046606885225844059 0 -0.039401816163801145 -0.0051806269507583451 0 -0.038321962218130882 -0.0025717598505404855 0 -0.039922382057451293 -0.0042830033780080256 0 -0.038682160759016301 -0.0046606885225844059 0 -0.038682160759016301 -0.0046606885225844059 0 -0.039401816163801145 -0.0051806269507583451 0 -0.038817206167781428 -0.005977981368488686 0 -0.03977992126939197 -0.0051710488740116323 0 -0.039922382057451293 -0.0042830033780080256 0 -0.039401816163801145 -0.0051806269507583451 0 -0.03977992126939197 -0.0051710488740116323 0 -0.039401816163801145 -0.0051806269507583451 0 -0.039673263065192033 -0.0057615021468131796 0 -0.039401816163801145 -0.0051806269507583451 0 -0.039673263065192033 -0.0057615021468131796 0 -0.038817206167781428 -0.005977981368488686 0 -0.039673263065192033 -0.0057615021468131796 0 -0.040374502115621123 -0.0061754959799571012 0 -0.039009052927537702 -0.0070809967141323132 0 -0.039673263065192033 -0.0057615021468131796 0 -0.038817206167781428 -0.005977981368488686 0 -0.039009052927537702 -0.0070809967141323132 0 -0.039941659680044463 -0.0055709659538039479 0 -0.039673263065192033 -0.0057615021468131796 0 -0.040374502115621123 -0.0061754959799571012 0 -0.039941659680044463 -0.0055709659538039479 0 -0.040374502115621123 -0.0061754959799571012 0 -0.039820350913147576 -0.0063846542480067671 0 -0.040374502115621123 -0.0061754959799571012 0 -0.040675753252684139 -0.0083490122684051326 0 -0.039689111241565163 -0.0083260221927792619 0 -0.040374502115621123 -0.0061754959799571012 0 -0.039009052927537702 -0.0070809967141323132 0 -0.039689111241565163 -0.0083260221927792619 0 -0.039009052927537702 -0.0070809967141323132 0 -0.038837004895352092 -0.008788607328645736 0 -0.039689111241565163 -0.0083260221927792619 0 -0.039252865762950735 -0.0098157328133808702 0 -0.038837004895352092 -0.008788607328645736 0 -0.039689111241565163 -0.0083260221927792619 0 -0.038289902104138671 -0.0099478970501551672 0 -0.039252865762950735 -0.0098157328133808702 0 -0.038837004895352092 -0.008788607328645736 0 -0.039252865762950735 -0.0098157328133808702 0 -0.039689111241565163 -0.0083260221927792619 0 -0.040313561186834296 -0.0093749914774090681 0 -0.040675753252684139 -0.0083490122684051326 0 -0.039689111241565163 -0.0083260221927792619 0 -0.040313561186834296 -0.0093749914774090681 0 -0.040675753252684139 -0.0083490122684051326 0 -0.040313561186834296 -0.0093749914774090681 0 -0.041151221434667526 -0.0090895198994361669 0 -0.041151221434667526 -0.0090895198994361669 0 -0.041739270293193825 -0.0095045586859609545 0 -0.041745040650264756 -0.008361051623462748 0 -0.040675753252684139 -0.0083490122684051326 0 -0.041151221434667526 -0.0090895198994361669 0 -0.041745040650264756 -0.008361051623462748 0 -0.034522385587623501 -0.0014119337628695258 0 -0.037936929302230915 -0.002138690520933126 0 -0.033021182617509991 0.00066252327485330292 0 -0.041739270293193825 -0.0095045586859609545 0 -0.041745040650264756 -0.008361051623462748 0 -0.042425118033844376 -0.0096162706615169069 0 -0.039689472171785367 -0.0052574954735328666 0 -0.037778848059558431 -0.0046585764212862361 0 -0.034522385587623501 -0.0014119337628695258 0 -0.035525178437185112 -0.0045328898151037146 0 -0.037936929302230915 -0.002138690520933126 0 -0.035525178437185112 -0.0045328898151037146 0 -0.038569064380065209 -0.004951312840442347 0 -0.037936929302230915 -0.002138690520933126 0 -0.040374502115621123 -0.0061754959799571012 0 -0.038569064380065209 -0.004951312840442347 0 -0.037936929302230915 -0.002138690520933126 0 -0.040374502115621123 -0.0061754959799571012 0 -0.040675753252684139 -0.0083490122684051326 0 -0.041745040650264756 -0.008361051623462748 0 -0.040277483805140069 -0.0059798003492052103 0 -0.039689472171785367 -0.0052574954735328666 0 -0.032895874624031624 -0.00056810166696110082 0 -0.033575338762362059 7.3424572540466962e-05 0 -0.032166818799949662 0.00021445974400271533 0 -0.033575338762362059 7.3424572540466962e-05 0 -0.032166818799949662 0.00021445974400271533 0 -0.033167870297592501 0.0016979877020561452 0 -0.032895874624031624 -0.00056810166696110082 0 -0.032166818799949662 0.00021445974400271533 0 -0.033021182617509991 0.00066252327485330292 0 -0.034522385587623501 -0.0014119337628695258 0 -0.032166818799949662 0.00021445974400271533 0 -0.033021182617509991 0.00066252327485330292 0 -0.030340819055089379 0.0032187345568336625 0 -0.032166818799949662 0.00021445974400271533 0 -0.031734594141586893 0.0024804716910229374 0 -0.034522385587623501 -0.0014119337628695258 0 -0.035525178437185112 -0.0045328898151037146 0 -0.032166818799949662 0.00021445974400271533 0 -0.030340819055089379 0.0032187345568336625 0 -0.031734594141586893 0.0024804716910229374 0 -0.031282835883825542 0.003929155623044034 0 -0.033078199501132263 -0.00059669750824221728 0 -0.032259745550920281 5.345616818339804e-05 0 -0.033167870297592501 0.0016979877020561452 0 -0.032042134320437975 0.0032377562978470075 0 -0.033910261162995482 0.0034374402197905598 0 -0.032166818799949662 0.00021445974400271533 0 -0.031734594141586893 0.0024804716910229374 0 -0.033167870297592501 0.0016979877020561452 0 -0.031734594141586893 0.0024804716910229374 0 -0.033167870297592501 0.0016979877020561452 0 -0.032042134320437975 0.0032377562978470075 0 -0.032042134320437975 0.0032377562978470075 0 -0.031874330253758978 0.0044410056120310921 0 -0.033910261162995482 0.0034374402197905598 0 -0.032042134320437975 0.0032377562978470075 0 -0.031282835883825542 0.003929155623044034 0 -0.031874330253758978 0.0044410056120310921 0 -0.031282835883825542 0.003929155623044034 0 -0.031056768330856552 0.0049524546120592759 0 -0.030680604151317254 0.0044996092736017462 0 -0.031734594141586893 0.0024804716910229374 0 -0.032042134320437975 0.0032377562978470075 0 -0.031282835883825542 0.003929155623044034 0 -0.031282835883825542 0.003929155623044034 0 -0.031056768330856552 0.0049524546120592759 0 -0.031874330253758978 0.0044410056120310921 0 -0.031874330253758978 0.0044410056120310921 0 -0.031212456649606667 0.0053138307034924304 0 -0.03191004429153458 0.004962275911450419 0 -0.031056768330856552 0.0049524546120592759 0 -0.031874330253758978 0.0044410056120310921 0 -0.031212456649606667 0.0053138307034924304 0 -0.035525178437185112 -0.0045328898151037146 0 -0.038569064380065209 -0.004951312840442347 0 -0.039820350913147576 -0.0063846542480067671 0 -0.040374502115621123 -0.0061754959799571012 0 -0.038569064380065209 -0.004951312840442347 0 -0.039820350913147576 -0.0063846542480067671 0 -0.030340819055089379 0.0032187345568336625 0 -0.031282835883825542 0.003929155623044034 0 -0.030680604151317254 0.0044996092736017462 0 -0.030340819055089379 0.0032187345568336625 0 -0.030508486574663686 0.0049470892540275924 0 -0.030680604151317254 0.0044996092736017462 0 -0.033078199501132263 -0.00059669750824221728 0 -0.035098023551325248 -0.00064188003082362279 0 -0.031056768330856552 0.0049524546120592759 0 -0.030719312843524783 0.0052249234183371629 0 -0.030820381259859697 0.0054351598595896375 0 -0.031056768330856552 0.0049524546120592759 0 -0.030680604151317254 0.0044996092736017462 0 -0.030719312843524783 0.0052249234183371629 0 -0.030508486574663686 0.0049470892540275924 0 -0.030680604151317254 0.0044996092736017462 0 -0.030719312843524783 0.0052249234183371629 0 -0.030719312843524783 0.0052249234183371629 0 -0.030895331826286801 0.0053119034321379537 0 -0.03091773500882429 0.0054152003621379795 0 -0.030508486574663686 0.0049470892540275924 0 -0.030719312843524783 0.0052249234183371629 0 -0.030895331826286801 0.0053119034321379537 0 -0.03091773500882429 0.0054152003621379795 0 -0.031159094452517244 0.005510515940914602 0 -0.030882168600227439 0.00562717824638145 0 -0.031118015278924275 0.0054555509404296734 0 -0.03091773500882429 0.0054152003621379795 0 -0.031159094452517244 0.005510515940914602 0 -0.031118015278924275 0.0054555509404296734 0 -0.030895331826286801 0.0053119034321379537 0 -0.03091773500882429 0.0054152003621379795 0 -0.031159094452517244 0.005510515940914602 0 -0.031228060889261361 0.0055636421008784459 0 -0.030882168600227439 0.00562717824638145 0 -0.031228060889261361 0.0055636421008784459 0 -0.030882168600227439 0.00562717824638145 0 -0.031094398838229557 0.0054929889637562899 0 -0.031482395977463197 0.0055119635257586596 0 -0.031935331108230013 0.0054245590654682782 0 -0.031228060889261361 0.0055636421008784459 0 -0.031482395977463197 0.0055119635257586596 0 -0.031159094452517244 0.005510515940914602 0 -0.031228060889261361 0.0055636421008784459 0 -0.030882168600227439 0.00562717824638145 0 -0.030676245804730065 0.005803063011080245 0 -0.031094398838229557 0.0054929889637562899 0 -0.030882168600227439 0.00562717824638145 0 -0.030713657778695246 0.0056950253678630484 0 -0.030676245804730065 0.005803063011080245 0 -0.030719312843524783 0.0052249234183371629 0 -0.030820381259859697 0.0054351598595896375 0 -0.030882168600227439 0.00562717824638145 0 -0.030719312843524783 0.0052249234183371629 0 -0.03091773500882429 0.0054152003621379795 0 -0.030882168600227439 0.00562717824638145 0 -0.030820381259859697 0.0054351598595896375 0 -0.030882168600227439 0.00562717824638145 0 -0.030713657778695246 0.0056950253678630484 0 -0.031056768330856552 0.0049524546120592759 0 -0.030820381259859697 0.0054351598595896375 0 -0.030713657778695246 0.0056950253678630484 0 -0.031056768330856552 0.0049524546120592759 0 -0.030713657778695246 0.0056950253678630484 0 -0.031212456649606667 0.0053138307034924304 0 -0.031212456649606667 0.0053138307034924304 0 -0.031167238036162837 0.0057554431863203921 0 -0.03191004429153458 0.004962275911450419 0 -0.030713657778695246 0.0056950253678630484 0 -0.031212456649606667 0.0053138307034924304 0 -0.030586765947987878 0.0059034327440844981 0 -0.031212456649606667 0.0053138307034924304 0 -0.030586765947987878 0.0059034327440844981 0 -0.031167238036162837 0.0057554431863203921 0 -0.030586765947987878 0.0059034327440844981 0 -0.030293062504184301 0.006271460974823272 0 -0.031167238036162837 0.0057554431863203921 0 -0.030586765947987878 0.0059034327440844981 0 -0.030293062504184301 0.006271460974823272 0 -0.030002204415038564 0.0062222532709564141 0 -0.030586765947987878 0.0059034327440844981 0 -0.030442632553063249 0.0059452984538938486 0 -0.030002204415038564 0.0062222532709564141 0 -0.030713657778695246 0.0056950253678630484 0 -0.030442632553063249 0.0059452984538938486 0 -0.030676245804730065 0.005803063011080245 0 -0.030713657778695246 0.0056950253678630484 0 -0.030586765947987878 0.0059034327440844981 0 -0.030442632553063249 0.0059452984538938486 0 -0.030442632553063249 0.0059452984538938486 0 -0.030430756395649253 0.0058461833579644545 0 -0.030002204415038564 0.0062222532709564141 0 -0.030442632553063249 0.0059452984538938486 0 -0.030676245804730065 0.005803063011080245 0 -0.030430756395649253 0.0058461833579644545 0 -0.029282905820796668 0.0066702730143578135 0 -0.029788285944462051 0.0066170145622946094 0 -0.029594354195472017 0.0067346287458010219 0 -0.030430756395649253 0.0058461833579644545 0 -0.030659861425317621 0.0051748662190608712 0 -0.030002204415038564 0.0062222532709564141 0 -0.029722274542074181 0.005983979481182811 0 -0.030069176863446921 0.0061152180355116079 0 -0.030676245804730065 0.005803063011080245 0 -0.030430756395649253 0.0058461833579644545 0 -0.030659861425317621 0.0051748662190608712 0 -0.029282905820796668 0.0066702730143578135 0 -0.030002204415038564 0.0062222532709564141 0 -0.029788285944462051 0.0066170145622946094 0 -0.030293062504184301 0.006271460974823272 0 -0.02947410308100375 0.0067521631292597264 0 -0.030326370785026525 0.0068984893418185525 0 -0.030293062504184301 0.006271460974823272 0 -0.02947410308100375 0.0067521631292597264 0 -0.030002204415038564 0.0062222532709564141 0 -0.02947410308100375 0.0067521631292597264 0 -0.029798394347427724 0.0079109056605113099 0 -0.030326370785026525 0.0068984893418185525 0 -0.02947410308100375 0.0067521631292597264 0 -0.030002204415038564 0.0062222532709564141 0 -0.029788285944462051 0.0066170145622946094 0 -0.02947410308100375 0.0067521631292597264 0 -0.029788285944462051 0.0066170145622946094 0 -0.029800814949996542 0.0067378865359147026 0 -0.02947410308100375 0.0067521631292597264 0 -0.02851134721015636 0.008842284316832762 0 -0.025580605704246726 0.0096245551714441661 0 -0.028997895793945183 0.00704247938468105 0 -0.027891244969860909 0.0080776233590601453 0 -0.02947410308100375 0.0067521631292597264 0 -0.02851134721015636 0.008842284316832762 0 -0.029798394347427724 0.0079109056605113099 0 -0.02851134721015636 0.008842284316832762 0 -0.027440086349332201 0.010324162668481345 0 -0.029838340076600137 0.0098551571636244176 0 -0.02851134721015636 0.008842284316832762 0 -0.025580605704246726 0.0096245551714441661 0 -0.027440086349332201 0.010324162668481345 0 -0.025709666434180916 0.011374557305653597 0 -0.027440086349332201 0.010324162668481345 0 -0.027615446123253892 0.01194933997621745 0 -0.025580605704246726 0.0096245551714441661 0 -0.025709666434180916 0.011374557305653597 0 -0.027440086349332201 0.010324162668481345 0 -0.027440086349332201 0.010324162668481345 0 -0.029838340076600137 0.0098551571636244176 0 -0.027615446123253892 0.01194933997621745 0 -0.029282905820796668 0.0066702730143578135 0 -0.029459148843157652 0.0069598070529701553 0 -0.029200758517402111 0.0071538015389999831 0 -0.029282905820796668 0.0066702730143578135 0 -0.029594354195472017 0.0067346287458010219 0 -0.029459148843157652 0.0069598070529701553 0 -0.029788285944462051 0.0066170145622946094 0 -0.029800814949996542 0.0067378865359147026 0 -0.029594354195472017 0.0067346287458010219 0 -0.029800814949996542 0.0067378865359147026 0 -0.029594354195472017 0.0067346287458010219 0 -0.029459148843157652 0.0069598070529701553 0 -0.025580605704246726 0.0096245551714441661 0 -0.025709666434180916 0.011374557305653597 0 -0.023472904092133443 0.012636034390670835 0 -0.029800814949996542 0.0067378865359147026 0 -0.029459148843157652 0.0069598070529701553 0 -0.02950112868438097 0.0073808812073324721 0 -0.027891244969860909 0.0080776233590601453 0 -0.025989339782081136 0.011270314488174176 0 -0.029459148843157652 0.0069598070529701553 0 -0.029200758517402111 0.0071538015389999831 0 -0.02950112868438097 0.0073808812073324721 0 -0.029722274542074181 0.005983979481182811 0 -0.031950381944634114 0.0065680151421597371 0 -0.030659861425317621 0.0051748662190608712 0 -0.031218121864620824 0.0046279495982682259 0 -0.031094398838229557 0.0054929889637562899 0 -0.029282905820796668 0.0066702730143578135 0 -0.029200758517402111 0.0071538015389999831 0 -0.028722606816894307 0.0071598635795518725 0 -0.032113484942134729 0.0051444113229104898 0 -0.031950381944634114 0.0065680151421597371 0 -0.031935331108230013 0.0054245590654682782 0 -0.032590256857079378 0.0064775896403685513 0 -0.033745547319291948 0.0066102429094008139 0 -0.031935331108230013 0.0054245590654682782 0 -0.031218121864620824 0.0046279495982682259 0 -0.031094398838229557 0.0054929889637562899 0 -0.031935331108230013 0.0054245590654682782 0 -0.031228060889261361 0.0055636421008784459 0 -0.031094398838229557 0.0054929889637562899 0 -0.030676245804730065 0.005803063011080245 0 -0.030659861425317621 0.0051748662190608712 0 -0.031094398838229557 0.0054929889637562899 0 -0.033498143553357999 0.0076809612235043245 0 -0.03412708283990748 0.0090507966358530506 0 -0.032449530803646862 0.008658309241667347 0 -0.033498143553357999 0.0076809612235043245 0 -0.034327154769628776 0.0078015945047460872 0 -0.03412708283990748 0.0090507966358530506 0 -0.033498143553357999 0.0076809612235043245 0 -0.034327154769628776 0.0078015945047460872 0 -0.034051968162856654 0.0070400750393032514 0 -0.034327154769628776 0.0078015945047460872 0 -0.03412708283990748 0.0090507966358530506 0 -0.034990642895787641 0.0080131964639704335 0 -0.034731514201167574 0.0072282193539102702 0 -0.034327154769628776 0.0078015945047460872 0 -0.034051968162856654 0.0070400750393032514 0 -0.034731514201167574 0.0072282193539102702 0 -0.034327154769628776 0.0078015945047460872 0 -0.034990642895787641 0.0080131964639704335 0 -0.035666178574817846 0.011224475039375023 0 -0.037600538820124922 0.011068402094996512 0 -0.03760122119217911 0.012467810832124122 0 -0.035666178574817846 0.011224475039375023 0 -0.034772335426278694 0.012940558503346158 0 -0.03760122119217911 0.012467810832124122 0 -0.034376937370264475 0.010346758656802164 0 -0.037850234291632048 0.0089254601772681165 0 -0.034376937370264475 0.010346758656802164 0 -0.032604118434903968 0.011124980944967463 0 -0.035666178574817846 0.011224475039375023 0 -0.032423859219586133 0.011245520324327362 0 -0.034772335426278694 0.012940558503346158 0 -0.032423859219586133 0.011245520324327362 0 -0.029838340076600137 0.0098551571636244176 0 -0.032449530803646862 0.008658309241667347 0 -0.03412708283990748 0.0090507966358530506 0 -0.032423859219586133 0.011245520324327362 0 -0.032449530803646862 0.008658309241667347 0 -0.029838340076600137 0.0098551571636244176 0 -0.027615446123253892 0.01194933997621745 0 -0.028927190216956136 0.013664705556596655 0 -0.032423859219586133 0.011245520324327362 0 -0.029838340076600137 0.0098551571636244176 0 -0.028927190216956136 0.013664705556596655 0 -0.02851134721015636 0.008842284316832762 0 -0.029838340076600137 0.0098551571636244176 0 -0.029798394347427724 0.0079109056605113099 0 -0.029838340076600137 0.0098551571636244176 0 -0.031009253445578221 0.0075948603945509884 0 -0.032449530803646862 0.008658309241667347 0 -0.029838340076600137 0.0098551571636244176 0 -0.029798394347427724 0.0079109056605113099 0 -0.031009253445578221 0.0075948603945509884 0 -0.031009253445578221 0.0075948603945509884 0 -0.030326370785026525 0.0068984893418185525 0 -0.031244296340502919 0.0064430034404868901 0 -0.031009253445578221 0.0075948603945509884 0 -0.032236712445512142 0.0069811126132487437 0 -0.031244296340502919 0.0064430034404868901 0 -0.029798394347427724 0.0079109056605113099 0 -0.031009253445578221 0.0075948603945509884 0 -0.030326370785026525 0.0068984893418185525 0 -0.031009253445578221 0.0075948603945509884 0 -0.032449530803646862 0.008658309241667347 0 -0.032236712445512142 0.0069811126132487437 0 -0.033498143553357999 0.0076809612235043245 0 -0.032449530803646862 0.008658309241667347 0 -0.032236712445512142 0.0069811126132487437 0 -0.032236712445512142 0.0069811126132487437 0 -0.032311495660281069 0.0056249592685374272 0 -0.033233137491459883 0.0065133257818142448 0 -0.032236712445512142 0.0069811126132487437 0 -0.031244296340502919 0.0064430034404868901 0 -0.032311495660281069 0.0056249592685374272 0 -0.031244296340502919 0.0064430034404868901 0 -0.031167238036162837 0.0057554431863203921 0 -0.032311495660281069 0.0056249592685374272 0 -0.030293062504184301 0.006271460974823272 0 -0.030326370785026525 0.0068984893418185525 0 -0.031244296340502919 0.0064430034404868901 0 -0.030293062504184301 0.006271460974823272 0 -0.031244296340502919 0.0064430034404868901 0 -0.031167238036162837 0.0057554431863203921 0 -0.031167238036162837 0.0057554431863203921 0 -0.032311495660281069 0.0056249592685374272 0 -0.03191004429153458 0.004962275911450419 0 -0.032311495660281069 0.0056249592685374272 0 -0.033041443283924811 0.005045481384064964 0 -0.032550219435703492 0.0046740189724441298 0 -0.032311495660281069 0.0056249592685374272 0 -0.03191004429153458 0.004962275911450419 0 -0.032550219435703492 0.0046740189724441298 0 -0.032311495660281069 0.0056249592685374272 0 -0.033041443283924811 0.005045481384064964 0 -0.033460317995022588 0.0056466825231369739 0 -0.033041443283924811 0.005045481384064964 0 -0.033460317995022588 0.0056466825231369739 0 -0.033672398175112146 0.0049528409924583369 0 -0.032311495660281069 0.0056249592685374272 0 -0.033460317995022588 0.0056466825231369739 0 -0.033233137491459883 0.0065133257818142448 0 -0.033460317995022588 0.0056466825231369739 0 -0.033233137491459883 0.0065133257818142448 0 -0.033862964220291426 0.0062523238523701837 0 -0.033233137491459883 0.0065133257818142448 0 -0.034051968162856654 0.0070400750393032514 0 -0.033862964220291426 0.0062523238523701837 0 -0.033498143553357999 0.0076809612235043245 0 -0.033233137491459883 0.0065133257818142448 0 -0.034051968162856654 0.0070400750393032514 0 -0.033498143553357999 0.0076809612235043245 0 -0.032236712445512142 0.0069811126132487437 0 -0.033233137491459883 0.0065133257818142448 0 -0.034731514201167574 0.0072282193539102702 0 -0.03443078395997249 0.0064828704098529588 0 -0.035019738299840196 0.0065612609270741425 0 -0.034731514201167574 0.0072282193539102702 0 -0.034051968162856654 0.0070400750393032514 0 -0.03443078395997249 0.0064828704098529588 0 -0.034051968162856654 0.0070400750393032514 0 -0.033862964220291426 0.0062523238523701837 0 -0.03443078395997249 0.0064828704098529588 0 -0.033862964220291426 0.0062523238523701837 0 -0.03443078395997249 0.0064828704098529588 0 -0.034103935415495022 0.0056270757440710743 0 -0.03443078395997249 0.0064828704098529588 0 -0.034103935415495022 0.0056270757440710743 0 -0.034632247561853069 0.0059340460782556278 0 -0.034103935415495022 0.0056270757440710743 0 -0.034632247561853069 0.0059340460782556278 0 -0.034493039720300919 0.0053470134806269214 0 -0.033460317995022588 0.0056466825231369739 0 -0.033862964220291426 0.0062523238523701837 0 -0.034103935415495022 0.0056270757440710743 0 -0.033460317995022588 0.0056466825231369739 0 -0.034103935415495022 0.0056270757440710743 0 -0.033672398175112146 0.0049528409924583369 0 -0.034103935415495022 0.0056270757440710743 0 -0.033672398175112146 0.0049528409924583369 0 -0.034146255129180673 0.0049190788873233453 0 -0.034103935415495022 0.0056270757440710743 0 -0.034146255129180673 0.0049190788873233453 0 -0.034493039720300919 0.0053470134806269214 0 -0.034146255129180673 0.0049190788873233453 0 -0.034515788460854409 0.0049001651482950184 0 -0.034493039720300919 0.0053470134806269214 0 -0.034146255129180673 0.0049190788873233453 0 -0.033894628632374309 0.0043179753940009637 0 -0.034339200512660678 0.0044914205805083084 0 -0.034146255129180673 0.0049190788873233453 0 -0.034515788460854409 0.0049001651482950184 0 -0.034339200512660678 0.0044914205805083084 0 -0.033894628632374309 0.0043179753940009637 0 -0.034339200512660678 0.0044914205805083084 0 -0.034321662284332852 0.0039688368743561126 0 -0.033894628632374309 0.0043179753940009637 0 -0.033968282345355781 0.003730543292049175 0 -0.034321662284332852 0.0039688368743561126 0 -0.033894628632374309 0.0043179753940009637 0 -0.033234267575423589 0.0043919604189964507 0 -0.033457547247918065 0.0037626671498871378 0 -0.033672398175112146 0.0049528409924583369 0 -0.034146255129180673 0.0049190788873233453 0 -0.033894628632374309 0.0043179753940009637 0 -0.033672398175112146 0.0049528409924583369 0 -0.033894628632374309 0.0043179753940009637 0 -0.033234267575423589 0.0043919604189964507 0 -0.033041443283924811 0.005045481384064964 0 -0.033672398175112146 0.0049528409924583369 0 -0.033234267575423589 0.0043919604189964507 0 -0.033234267575423589 0.0043919604189964507 0 -0.032811633410974622 0.0036987106812017942 0 -0.032550219435703492 0.0046740189724441298 0 -0.033041443283924811 0.005045481384064964 0 -0.033234267575423589 0.0043919604189964507 0 -0.032550219435703492 0.0046740189724441298 0 -0.033234267575423589 0.0043919604189964507 0 -0.033457547247918065 0.0037626671498871378 0 -0.032811633410974622 0.0036987106812017942 0 -0.033457547247918065 0.0037626671498871378 0 -0.032811633410974622 0.0036987106812017942 0 -0.033277860958092029 0.003144002498043716 0 -0.033457547247918065 0.0037626671498871378 0 -0.03381184862007449 0.0031705403363226931 0 -0.033277860958092029 0.003144002498043716 0 -0.03381184862007449 0.0031705403363226931 0 -0.033968282345355781 0.003730543292049175 0 -0.034227188945445325 0.0034601527524207171 0 -0.033894628632374309 0.0043179753940009637 0 -0.033457547247918065 0.0037626671498871378 0 -0.033968282345355781 0.003730543292049175 0 -0.033457547247918065 0.0037626671498871378 0 -0.03381184862007449 0.0031705403363226931 0 -0.033968282345355781 0.003730543292049175 0 -0.031874330253758978 0.0044410056120310921 0 -0.03191004429153458 0.004962275911450419 0 -0.033910261162995482 0.0034374402197905598 0 -0.032096970958240087 0.004768239400359477 0 -0.032838992477722893 0.0034770013442691951 0 -0.03191004429153458 0.004962275911450419 0 -0.032550219435703492 0.0046740189724441298 0 -0.031841158988973842 0.0036097484847653883 0 -0.032811633410974622 0.0036987106812017942 0 -0.032550219435703492 0.0046740189724441298 0 -0.031841158988973842 0.0036097484847653883 0 -0.032811633410974622 0.0036987106812017942 0 -0.031841158988973842 0.0036097484847653883 0 -0.032793947667059981 0.0027675767549129051 0 -0.032838992477722893 0.0034770013442691951 0 -0.033675886114648917 0.0014774143941983895 0 -0.033167870297592501 0.0016979877020561452 0 -0.033910261162995482 0.0034374402197905598 0 -0.035239640071110495 0.00084071070005663879 0 -0.031841158988973842 0.0036097484847653883 0 -0.032038827921990025 0.0024116243917773287 0 -0.032793947667059981 0.0027675767549129051 0 -0.032292715833951588 0.0014947321479836689 0 -0.032628007007068423 0.0020496523014844406 0 -0.032038827921990025 0.0024116243917773287 0 -0.033688805416410735 0.00079961863085455239 0 -0.033675886114648917 0.0014774143941983895 0 -0.032628007007068423 0.0020496523014844406 0 -0.032038827921990025 0.0024116243917773287 0 -0.032793947667059981 0.0027675767549129051 0 -0.033575338762362059 7.3424572540466962e-05 0 -0.033167870297592501 0.0016979877020561452 0 -0.035239640071110495 0.00084071070005663879 0 -0.034660653160541427 -0.00081719157142469336 0 -0.033575338762362059 7.3424572540466962e-05 0 -0.035239640071110495 0.00084071070005663879 0 -0.03381184862007449 0.0031705403363226931 0 -0.033511113164217642 0.0025713481609366167 0 -0.034023017092650161 0.0026117939449498313 0 -0.03381184862007449 0.0031705403363226931 0 -0.033511113164217642 0.0025713481609366167 0 -0.033277860958092029 0.003144002498043716 0 -0.033511113164217642 0.0025713481609366167 0 -0.032793947667059981 0.0027675767549129051 0 -0.033277860958092029 0.003144002498043716 0 -0.032811633410974622 0.0036987106812017942 0 -0.032793947667059981 0.0027675767549129051 0 -0.033277860958092029 0.003144002498043716 0 -0.032628007007068423 0.0020496523014844406 0 -0.032793947667059981 0.0027675767549129051 0 -0.033156206809743342 0.0020758555164920997 0 -0.033511113164217642 0.0025713481609366167 0 -0.032793947667059981 0.0027675767549129051 0 -0.033156206809743342 0.0020758555164920997 0 -0.033511113164217642 0.0025713481609366167 0 -0.033156206809743342 0.0020758555164920997 0 -0.033743809978095174 0.0019148752311093004 0 -0.033511113164217642 0.0025713481609366167 0 -0.033743809978095174 0.0019148752311093004 0 -0.034023017092650161 0.0026117939449498313 0 -0.033743809978095174 0.0019148752311093004 0 -0.034023017092650161 0.0026117939449498313 0 -0.034174549215317103 0.0019935637669441834 0 -0.034023017092650161 0.0026117939449498313 0 -0.03444152268786857 0.002605620986408656 0 -0.034174549215317103 0.0019935637669441834 0 -0.03444152268786857 0.002605620986408656 0 -0.034143300200472758 0.0030696659319547422 0 -0.034464965501426463 0.0031854921156401683 0 -0.034023017092650161 0.0026117939449498313 0 -0.03444152268786857 0.002605620986408656 0 -0.034143300200472758 0.0030696659319547422 0 -0.03381184862007449 0.0031705403363226931 0 -0.034023017092650161 0.0026117939449498313 0 -0.034143300200472758 0.0030696659319547422 0 -0.03444152268786857 0.002605620986408656 0 -0.034464965501426463 0.0031854921156401683 0 -0.034820547661146062 0.0030294055744842833 0 -0.03444152268786857 0.002605620986408656 0 -0.034600266083335524 0.0019068719878344309 0 -0.034820547661146062 0.0030294055744842833 0 -0.03444152268786857 0.002605620986408656 0 -0.034366497209786642 0.0018824804178006907 0 -0.034600266083335524 0.0019068719878344309 0 -0.03444152268786857 0.002605620986408656 0 -0.034174549215317103 0.0019935637669441834 0 -0.034366497209786642 0.0018824804178006907 0 -0.034229061623288634 0.0016141134927159112 0 -0.034174549215317103 0.0019935637669441834 0 -0.034366497209786642 0.0018824804178006907 0 -0.034261925045351478 0.0015253783426185973 0 -0.034366497209786642 0.0018824804178006907 0 -0.034600266083335524 0.0019068719878344309 0 -0.033710480288845643 0.0013453957243704322 0 -0.031916179370482814 0.0030737572394952616 0 -0.032965407648426419 0.002366658792081366 0 -0.033656176084497946 0.0015044084227092262 0 -0.033259061023258096 0.0025141654278626416 0 -0.031916179370482814 0.0030737572394952616 0 -0.032965407648426419 0.002366658792081366 0 -0.032601985237429902 0.0033202643511254276 0 -0.032965407648426419 0.002366658792081366 0 -0.032601985237429902 0.0033202643511254276 0 -0.033066669300913343 0.0031193623953666063 0 -0.032601985237429902 0.0033202643511254276 0 -0.033066669300913343 0.0031193623953666063 0 -0.032811308458616552 0.0036978375988731067 0 -0.031916179370482814 0.0030737572394952616 0 -0.032601985237429902 0.0033202643511254276 0 -0.032135622615441173 0.0038474032003096414 0 -0.032135622615441173 0.0038474032003096414 0 -0.032595488062316103 0.0043224811969065696 0 -0.032811308458616552 0.0036978375988731067 0 -0.032601985237429902 0.0033202643511254276 0 -0.032135622615441173 0.0038474032003096414 0 -0.032811308458616552 0.0036978375988731067 0 -0.031916179370482814 0.0030737572394952616 0 -0.032135622615441173 0.0038474032003096414 0 -0.031032832666168349 0.0041569339970304276 0 -0.033259061023258096 0.0025141654278626416 0 -0.032763834610430156 0.0036546044007805842 0 -0.032135622615441173 0.0038474032003096414 0 -0.031959892924265952 0.0045032252660132674 0 -0.031032832666168349 0.0041569339970304276 0 -0.031959892924265952 0.0045032252660132674 0 -0.031441771151626656 0.0051955772792781447 0 -0.031032832666168349 0.0041569339970304276 0 -0.032595488062316103 0.0043224811969065696 0 -0.032222120888242098 0.0049668013830274126 0 -0.032965760545257607 0.0048603340526340872 0 -0.032135622615441173 0.0038474032003096414 0 -0.031959892924265952 0.0045032252660132674 0 -0.032595488062316103 0.0043224811969065696 0 -0.031959892924265952 0.0045032252660132674 0 -0.032595488062316103 0.0043224811969065696 0 -0.032222120888242098 0.0049668013830274126 0 -0.022368620251389432 0.01030959219194282 0 -0.021150168220626514 0.011325644659555545 0 -0.032222120888242098 0.0049668013830274126 0 -0.031441771151626656 0.0051955772792781447 0 -0.032108651948998215 0.0060053853737615992 0 -0.032222120888242098 0.0049668013830274126 0 -0.032965760545257607 0.0048603340526340872 0 -0.032108651948998215 0.0060053853737615992 0 -0.031959892924265952 0.0045032252660132674 0 -0.032222120888242098 0.0049668013830274126 0 -0.031441771151626656 0.0051955772792781447 0 -0.031441771151626656 0.0051955772792781447 0 -0.030195117695094642 0.0053364487118430087 0 -0.031032832666168349 0.0041569339970304276 0 -0.031441771151626656 0.0051955772792781447 0 -0.030195117695094642 0.0053364487118430087 0 -0.030683330600247038 0.0061870209824692463 0 -0.03490461544700596 0.0041812754757739531 0 -0.034803814179083403 0.0040316500920449692 0 -0.034820547661146062 0.0030294055744842833 0 -0.035135901828636414 0.0048682276719363921 0 -0.035340024861705177 0.0044452660563932102 0 -0.035063960041910099 0.0045207967249329779 0 -0.035135901828636414 0.0048682276719363921 0 -0.035340024861705177 0.0044452660563932102 0 -0.035620880584581092 0.0054107767874971248 0 -0.035135901828636414 0.0048682276719363921 0 -0.034934619772825241 0.0046357814817592847 0 -0.034814207987202965 0.0048586553442660435 0 -0.034934619772825241 0.0046357814817592847 0 -0.034814207987202965 0.0048586553442660435 0 -0.034736303046976828 0.0045050023558104264 0 -0.035135901828636414 0.0048682276719363921 0 -0.034934619772825241 0.0046357814817592847 0 -0.035063960041910099 0.0045207967249329779 0 -0.034934619772825241 0.0046357814817592847 0 -0.034844912719858886 0.0043709661494184884 0 -0.035063960041910099 0.0045207967249329779 0 -0.034934619772825241 0.0046357814817592847 0 -0.034844912719858886 0.0043709661494184884 0 -0.034736303046976828 0.0045050023558104264 0 -0.034844912719858886 0.0043709661494184884 0 -0.034736303046976828 0.0045050023558104264 0 -0.034599847174879871 0.0042637966816383589 0 -0.034844912719858886 0.0043709661494184884 0 -0.034993991443428504 0.0043019220433174535 0 -0.035063960041910099 0.0045207967249329779 0 -0.034993991443428504 0.0043019220433174535 0 -0.035340024861705177 0.0044452660563932102 0 -0.034803814179083403 0.0040316500920449692 0 -0.034993991443428504 0.0043019220433174535 0 -0.035340024861705177 0.0044452660563932102 0 -0.035063960041910099 0.0045207967249329779 0 -0.034515788460854409 0.0049001651482950184 0 -0.034608104098296018 0.0046136106911182518 0 -0.034339200512660678 0.0044914205805083084 0 -0.034814207987202965 0.0048586553442660435 0 -0.034608104098296018 0.0046136106911182518 0 -0.034736303046976828 0.0045050023558104264 0 -0.034515788460854409 0.0049001651482950184 0 -0.034814207987202965 0.0048586553442660435 0 -0.034608104098296018 0.0046136106911182518 0 -0.034608104098296018 0.0046136106911182518 0 -0.034736303046976828 0.0045050023558104264 0 -0.034599847174879871 0.0042637966816383589 0 -0.034608104098296018 0.0046136106911182518 0 -0.034339200512660678 0.0044914205805083084 0 -0.034599847174879871 0.0042637966816383589 0 -0.034339200512660678 0.0044914205805083084 0 -0.034599847174879871 0.0042637966816383589 0 -0.034321662284332852 0.0039688368743561126 0 -0.034321662284332852 0.0039688368743561126 0 -0.034585507900319945 0.0039520222903592942 0 -0.034581461707382723 0.0035983293113089612 0 -0.034599847174879871 0.0042637966816383589 0 -0.034321662284332852 0.0039688368743561126 0 -0.034585507900319945 0.0039520222903592942 0 -0.034803814179083403 0.0040316500920449692 0 -0.034585507900319945 0.0039520222903592942 0 -0.034581461707382723 0.0035983293113089612 0 -0.033497211113865173 0.0048990663704419615 0 -0.033852762789625283 0.0047960589255735845 0 -0.034844912719858886 0.0043709661494184884 0 -0.034599847174879871 0.0042637966816383589 0 -0.034803814179083403 0.0040316500920449692 0 -0.034844912719858886 0.0043709661494184884 0 -0.034993991443428504 0.0043019220433174535 0 -0.034803814179083403 0.0040316500920449692 0 -0.034599847174879871 0.0042637966816383589 0 -0.034803814179083403 0.0040316500920449692 0 -0.034585507900319945 0.0039520222903592942 0 -0.034581461707382723 0.0035983293113089612 0 -0.034227188945445325 0.0034601527524207171 0 -0.034464965501426463 0.0031854921156401683 0 -0.033968282345355781 0.003730543292049175 0 -0.034321662284332852 0.0039688368743561126 0 -0.034227188945445325 0.0034601527524207171 0 -0.034321662284332852 0.0039688368743561126 0 -0.034581461707382723 0.0035983293113089612 0 -0.034227188945445325 0.0034601527524207171 0 -0.03381184862007449 0.0031705403363226931 0 -0.034227188945445325 0.0034601527524207171 0 -0.034143300200472758 0.0030696659319547422 0 -0.034227188945445325 0.0034601527524207171 0 -0.034143300200472758 0.0030696659319547422 0 -0.034464965501426463 0.0031854921156401683 0 -0.033497211113865173 0.0048990663704419615 0 -0.032763834610430156 0.0036546044007805842 0 -0.034803814179083403 0.0040316500920449692 0 -0.034581461707382723 0.0035983293113089612 0 -0.034820547661146062 0.0030294055744842833 0 -0.034581461707382723 0.0035983293113089612 0 -0.034464965501426463 0.0031854921156401683 0 -0.034820547661146062 0.0030294055744842833 0 -0.010630356547967299 0.016355895998033942 0 -0.011002463111974638 0.016085031211340198 0 -0.010691084122308509 0.015879710887619795 0 -0.010157602234354164 0.016143061400898572 0 -0.010630356547967299 0.016355895998033942 0 -0.010691084122308509 0.015879710887619795 0 -0.010702062728153102 0.016901937304377772 0 -0.010630356547967299 0.016355895998033942 0 -0.011067234568486023 0.016403154347259363 0 -0.024342332152274718 0.0063274601054025964 0 -0.021436285235503179 0.010734752143769557 0 -0.033165008019014959 0.003533704085121553 0 -0.03259974891175732 0.0036891042657097224 0 -0.033103161584364514 0.0033901090773594948 0 -0.033165008019014959 0.003533704085121553 0 -0.033103161584364514 0.0033901090773594948 0 -0.033243619370292597 0.0033878772773635784 0 -0.011067234568486023 0.016403154347259363 0 -0.011002463111974638 0.016085031211340198 0 -0.011373608364358948 0.016042184714688188 0 -0.021436285235503179 0.010734752143769557 0 -0.022464990797610492 0.0097858233562876928 0 -0.010630356547967299 0.016355895998033942 0 -0.011067234568486023 0.016403154347259363 0 -0.011002463111974638 0.016085031211340198 0 -0.033103161584364514 0.0033901090773594948 0 -0.033243619370292597 0.0033878772773635784 0 -0.033356597923752063 0.0037748988095724703 0 -0.033243619370292597 0.0033878772773635784 0 -0.033140975763474023 0.0035585355378814467 0 -0.033356597923752063 0.0037748988095724703 0 -0.033165008019014959 0.003533704085121553 0 -0.033243619370292597 0.0033878772773635784 0 -0.033198850472174114 0.0031833911174834247 0 -0.033243619370292597 0.0033878772773635784 0 -0.033198850472174114 0.0031833911174834247 0 -0.033066669300913343 0.0031193623953666063 0 -0.032965407648426419 0.002366658792081366 0 -0.033198850472174114 0.0031833911174834247 0 -0.033066669300913343 0.0031193623953666063 0 -0.033097865515931614 0.0023564573005551395 0 -0.03314696770465516 0.0023988185081618191 0 -0.033243619370292597 0.0033878772773635784 0 -0.033066669300913343 0.0031193623953666063 0 -0.033140975763474023 0.0035585355378814467 0 -0.033066669300913343 0.0031193623953666063 0 -0.033140975763474023 0.0035585355378814467 0 -0.032811308458616552 0.0036978375988731067 0 -0.033140975763474023 0.0035585355378814467 0 -0.033008113301666114 0.0040184566184152479 0 -0.033356597923752063 0.0037748988095724703 0 -0.033140975763474023 0.0035585355378814467 0 -0.032811308458616552 0.0036978375988731067 0 -0.033008113301666114 0.0040184566184152479 0 -0.032595488062316103 0.0043224811969065696 0 -0.033008113301666114 0.0040184566184152479 0 -0.032965760545257607 0.0048603340526340872 0 -0.022368620251389432 0.01030959219194282 0 -0.022464990797610492 0.0097858233562876928 0 -0.033008113301666114 0.0040184566184152479 0 -0.032965760545257607 0.0048603340526340872 0 -0.033356597923752063 0.0037748988095724703 0 -0.032595488062316103 0.0043224811969065696 0 -0.032811308458616552 0.0036978375988731067 0 -0.033008113301666114 0.0040184566184152479 0 -0.011624834915665546 0.015827930055911658 0 -0.01159404564710413 0.016022290548213563 0 -0.01157212530733941 0.016160625043940276 0 -0.011624834915665546 0.015827930055911658 0 -0.011558035226297326 0.015815055204445903 0 -0.011412099673160449 0.015880968030201465 0 -0.011624834915665546 0.015827930055911658 0 -0.011558035226297326 0.015815055204445903 0 -0.01159404564710413 0.016022290548213563 0 -0.011558035226297326 0.015815055204445903 0 -0.011062731152858683 0.015796413006139813 0 -0.01088555419029451 0.015445249520323818 0 -0.011543390182359928 0.015832569539741555 0 -0.011375992114069648 0.015869807064590052 0 -0.011558035226297326 0.015815055204445903 0 -0.011412099673160449 0.015880968030201465 0 -0.011062731152858683 0.015796413006139813 0 -0.011558035226297326 0.015815055204445903 0 -0.011869011975634529 0.016245829410563385 0 -0.01159404564710413 0.016022290548213563 0 -0.011624834915665546 0.015827930055911658 0 -0.011412099673160449 0.015880968030201465 0 -0.011373608364358948 0.016042184714688188 0 -0.011412099673160449 0.015880968030201465 0 -0.011373608364358948 0.016042184714688188 0 -0.011062731152858683 0.015796413006139813 0 -0.011002463111974638 0.016085031211340198 0 -0.011373608364358948 0.016042184714688188 0 -0.011062731152858683 0.015796413006139813 0 -0.011002463111974638 0.016085031211340198 0 -0.011062731152858683 0.015796413006139813 0 -0.010691084122308509 0.015879710887619795 0 -0.011062731152858683 0.015796413006139813 0 -0.01062156722990517 0.015513085565032459 0 -0.01088555419029451 0.015445249520323818 0 -0.011062731152858683 0.015796413006139813 0 -0.010691084122308509 0.015879710887619795 0 -0.01062156722990517 0.015513085565032459 0 -0.010418187895671512 0.015454646464279867 0 -0.010691084122308509 0.015879710887619795 0 -0.01062156722990517 0.015513085565032459 0 -0.010448646805546313 0.015584084447878559 0 -0.010413103976802585 0.015719158633347621 0 -0.010401340989227915 0.015635310908410811 0 -0.010448646805546313 0.015584084447878559 0 -0.010401340989227915 0.015635310908410811 0 -0.01062156722990517 0.015513085565032459 0 -0.010418187895671512 0.015454646464279867 0 -0.010448646805546313 0.015584084447878559 0 -0.01062156722990517 0.015513085565032459 0 -0.010401340989227915 0.015635310908410811 0 -0.01062156722990517 0.015513085565032459 0 -0.01088555419029451 0.015445249520323818 0 -0.011154706016338502 0.016226300062957257 0 -0.011375992114069648 0.015869807064590052 0 -0.011918034296675843 0.016797691292300049 0 -0.011869011975634529 0.016245829410563385 0 -0.011742196765432497 0.016485225568470756 0 -0.011869011975634529 0.016245829410563385 0 -0.011587256344997311 0.016181319379923356 0 -0.01159404564710413 0.016022290548213563 0 -0.011869011975634529 0.016245829410563385 0 -0.011742196765432497 0.016485225568470756 0 -0.011587256344997311 0.016181319379923356 0 -0.011587256344997311 0.016181319379923356 0 -0.011488634596061554 0.016275237567077008 0 -0.01157212530733941 0.016160625043940276 0 -0.011587256344997311 0.016181319379923356 0 -0.01159404564710413 0.016022290548213563 0 -0.01157212530733941 0.016160625043940276 0 -0.011742196765432497 0.016485225568470756 0 -0.011587256344997311 0.016181319379923356 0 -0.011488634596061554 0.016275237567077008 0 -0.011742196765432497 0.016485225568470756 0 -0.011488634596061554 0.016275237567077008 0 -0.011547468922721425 0.016673384879608687 0 -0.011488634596061554 0.016275237567077008 0 -0.011547468922721425 0.016673384879608687 0 -0.011262741609703903 0.016605844430400363 0 -0.011607442642930661 0.016944353752263087 0 -0.011178072099226884 0.016959494339550227 0 -0.011260369888444734 0.017616834013871825 0 -0.011547468922721425 0.016673384879608687 0 -0.011607442642930661 0.016944353752263087 0 -0.011178072099226884 0.016959494339550227 0 -0.011607442642930661 0.016944353752263087 0 -0.011840654912494801 0.016803620513374765 0 -0.01212848653670842 0.017038674340154904 0 -0.011547468922721425 0.016673384879608687 0 -0.011607442642930661 0.016944353752263087 0 -0.011840654912494801 0.016803620513374765 0 -0.011742196765432497 0.016485225568470756 0 -0.011547468922721425 0.016673384879608687 0 -0.011840654912494801 0.016803620513374765 0 -0.011918034296675843 0.016797691292300049 0 -0.011840654912494801 0.016803620513374765 0 -0.011810644657392342 0.016966777019880273 0 -0.011918034296675843 0.016797691292300049 0 -0.011742196765432497 0.016485225568470756 0 -0.011840654912494801 0.016803620513374765 0 -0.011840654912494801 0.016803620513374765 0 -0.011810644657392342 0.016966777019880273 0 -0.01212848653670842 0.017038674340154904 0 -0.011396005412952461 0.017098330049221656 0 -0.011810644657392342 0.016966777019880273 0 -0.011468847130835019 0.016800534793276353 0 -0.010264995046446143 0.016228046471384403 0 -0.010376474287226456 0.015921810118578579 0 -0.010401340989227915 0.015635310908410811 0 -0.011396005412952461 0.017098330049221656 0 -0.011918034296675843 0.016797691292300049 0 -0.011810644657392342 0.016966777019880273 0 -0.010413103976802585 0.015719158633347621 0 -0.010376474287226456 0.015921810118578579 0 -0.010401340989227915 0.015635310908410811 0 -0.010817524491720123 0.016636052542972186 0 -0.011154706016338502 0.016226300062957257 0 -0.035782052013490273 0.0067319798322227403 0 -0.036173140887825708 0.0056770410556513193 0 -0.036736702286192108 0.0067248531206214619 0 -0.035782052013490273 0.0067319798322227403 0 -0.036736702286192108 0.0067248531206214619 0 -0.036001201761859523 0.0075201913931266474 0 -0.035782052013490273 0.0067319798322227403 0 -0.035436975058563802 0.0060757691470307738 0 -0.036173140887825708 0.0056770410556513193 0 -0.03353615163609798 0.0058930089352048701 0 -0.025917384167498943 0.011418474900606625 0 -0.025917384167498943 0.011418474900606625 0 -0.029656107943669387 0.012851115701144399 0 -0.035782052013490273 0.0067319798322227403 0 -0.035019738299840196 0.0065612609270741425 0 -0.035306199250235142 0.0072247513000520316 0 -0.034731514201167574 0.0072282193539102702 0 -0.035019738299840196 0.0065612609270741425 0 -0.035306199250235142 0.0072247513000520316 0 -0.03443078395997249 0.0064828704098529588 0 -0.035019738299840196 0.0065612609270741425 0 -0.034632247561853069 0.0059340460782556278 0 -0.035019738299840196 0.0065612609270741425 0 -0.034632247561853069 0.0059340460782556278 0 -0.035007788184686667 0.0059740172987006361 0 -0.035782052013490273 0.0067319798322227403 0 -0.035019738299840196 0.0065612609270741425 0 -0.035436975058563802 0.0060757691470307738 0 -0.035019738299840196 0.0065612609270741425 0 -0.035436975058563802 0.0060757691470307738 0 -0.035007788184686667 0.0059740172987006361 0 -0.035436975058563802 0.0060757691470307738 0 -0.035166005693758565 0.0056967667551805932 0 -0.035620880584581092 0.0054107767874971248 0 -0.035436975058563802 0.0060757691470307738 0 -0.035166005693758565 0.0056967667551805932 0 -0.035007788184686667 0.0059740172987006361 0 -0.035166005693758565 0.0056967667551805932 0 -0.034838429428802262 0.0055688255889147645 0 -0.035022621162410554 0.0052641035247398471 0 -0.034632247561853069 0.0059340460782556278 0 -0.034838429428802262 0.0055688255889147645 0 -0.034493039720300919 0.0053470134806269214 0 -0.034632247561853069 0.0059340460782556278 0 -0.035007788184686667 0.0059740172987006361 0 -0.034838429428802262 0.0055688255889147645 0 -0.035166005693758565 0.0056967667551805932 0 -0.035007788184686667 0.0059740172987006361 0 -0.034838429428802262 0.0055688255889147645 0 -0.034838429428802262 0.0055688255889147645 0 -0.034493039720300919 0.0053470134806269214 0 -0.034726013235544806 0.0051927429465057351 0 -0.034838429428802262 0.0055688255889147645 0 -0.034726013235544806 0.0051927429465057351 0 -0.035022621162410554 0.0052641035247398471 0 -0.034515788460854409 0.0049001651482950184 0 -0.034814207987202965 0.0048586553442660435 0 -0.034726013235544806 0.0051927429465057351 0 -0.034814207987202965 0.0048586553442660435 0 -0.034726013235544806 0.0051927429465057351 0 -0.035022621162410554 0.0052641035247398471 0 -0.034515788460854409 0.0049001651482950184 0 -0.034493039720300919 0.0053470134806269214 0 -0.034726013235544806 0.0051927429465057351 0 -0.035166005693758565 0.0056967667551805932 0 -0.035022621162410554 0.0052641035247398471 0 -0.035620880584581092 0.0054107767874971248 0 -0.035135901828636414 0.0048682276719363921 0 -0.035022621162410554 0.0052641035247398471 0 -0.035620880584581092 0.0054107767874971248 0 -0.035135901828636414 0.0048682276719363921 0 -0.034814207987202965 0.0048586553442660435 0 -0.035022621162410554 0.0052641035247398471 0 -0.035340024861705177 0.0044452660563932102 0 -0.035620880584581092 0.0054107767874971248 0 -0.036173140887825708 0.0056770410556513193 0 -0.033497211113865173 0.0048990663704419615 0 -0.03353615163609798 0.0058930089352048701 0 -0.035436975058563802 0.0060757691470307738 0 -0.035620880584581092 0.0054107767874971248 0 -0.036173140887825708 0.0056770410556513193 0 -0.030683330600247038 0.0061870209824692463 0 -0.032108651948998215 0.0060053853737615992 0 -0.031166616295214247 0.0070633283093820545 0 -0.031441771151626656 0.0051955772792781447 0 -0.030683330600247038 0.0061870209824692463 0 -0.032108651948998215 0.0060053853737615992 0 -0.021150168220626514 0.011325644659555545 0 -0.025917384167498943 0.011418474900606625 0 -0.010166847536206117 0.016361642728479515 0 -0.014748624218516053 0.016649449593701921 0 -0.011488634596061554 0.016275237567077008 0 -0.011657659548427009 0.016149233719442803 0 -0.011801540682504601 0.015974081865641233 0 -0.011488634596061554 0.016275237567077008 0 -0.010938812683883596 0.016496496426489655 0 -0.011262741609703903 0.016605844430400363 0 -0.011488634596061554 0.016275237567077008 0 -0.01157212530733941 0.016160625043940276 0 -0.011657659548427009 0.016149233719442803 0 -0.01157212530733941 0.016160625043940276 0 -0.011657659548427009 0.016149233719442803 0 -0.011889841309276618 0.016095546839189276 0 -0.023135973567769572 0.016584715097208429 0 -0.021506883294522262 0.014106963390495456 0 -0.027414565368684755 0.012021570299198746 0 -0.011657659548427009 0.016149233719442803 0 -0.011889841309276618 0.016095546839189276 0 -0.011801540682504601 0.015974081865641233 0 -0.025917384167498943 0.011418474900606625 0 -0.014748624218516053 0.016649449593701921 0 -0.014994761459550837 0.022002652928126115 0 -0.01492968254829591 0.02214368104934912 0 -0.015070049814402891 0.022328743884090195 0 -0.014748624218516053 0.016649449593701921 0 -0.012961539700527673 0.020073554335087555 0 -0.014994761459550837 0.022002652928126115 0 -0.01492968254829591 0.02214368104934912 0 -0.014878073538935273 0.02207836480102407 0 -0.010938812683883596 0.016496496426489655 0 -0.011262741609703903 0.016605844430400363 0 -0.011178072099226884 0.016959494339550227 0 -0.011547468922721425 0.016673384879608687 0 -0.011262741609703903 0.016605844430400363 0 -0.011178072099226884 0.016959494339550227 0 -0.01492968254829591 0.02214368104934912 0 -0.015070049814402891 0.022328743884090195 0 -0.01487201179110598 0.022284957275507639 0 -0.015070049814402891 0.022328743884090195 0 -0.01487201179110598 0.022284957275507639 0 -0.014827539031491402 0.022532901096078826 0 -0.024090491080329672 0.019813164960437928 0 -0.015317572630610309 0.025394668264175017 0 -0.01487201179110598 0.022284957275507639 0 -0.014808833120987604 0.022169454989320707 0 -0.014827539031491402 0.022532901096078826 0 -0.018830281109222951 0.027754517176564707 0 -0.018787707578058775 0.026740890468251892 0 -0.017908417058826058 0.026887531843729148 0 -0.01487201179110598 0.022284957275507639 0 -0.014870310403362286 0.022168943600945446 0 -0.014808833120987604 0.022169454989320707 0 -0.01492968254829591 0.02214368104934912 0 -0.014870310403362286 0.022168943600945446 0 -0.014878073538935273 0.02207836480102407 0 -0.01492968254829591 0.02214368104934912 0 -0.01487201179110598 0.022284957275507639 0 -0.014870310403362286 0.022168943600945446 0 -0.014748624218516053 0.016649449593701921 0 -0.029656107943669387 0.012851115701144399 0 -0.029656107943669387 0.012851115701144399 0 -0.024090491080329672 0.019813164960437928 0 -0.014870310403362286 0.022168943600945446 0 -0.014878073538935273 0.02207836480102407 0 -0.014808833120987604 0.022169454989320707 0 -0.035782052013490273 0.0067319798322227403 0 -0.036001201761859523 0.0075201913931266474 0 -0.035306199250235142 0.0072247513000520316 0 -0.038381958241440792 0.010923804653439104 0 -0.038125573736389862 0.011199858248595691 0 -0.037600538820124922 0.011068402094996512 0 -0.036001201761859523 0.0075201913931266474 0 -0.035306199250235142 0.0072247513000520316 0 -0.034990642895787641 0.0080131964639704335 0 -0.029656107943669387 0.012851115701144399 0 -0.037850234291632048 0.0089254601772681165 0 -0.034731514201167574 0.0072282193539102702 0 -0.035306199250235142 0.0072247513000520316 0 -0.034990642895787641 0.0080131964639704335 0 -0.038125573736389862 0.011199858248595691 0 -0.037600538820124922 0.011068402094996512 0 -0.03760122119217911 0.012467810832124122 0 -0.024090491080329672 0.019813164960437928 0 -0.029155627366996607 0.019499261073873578 0 -0.018830281109222951 0.027754517176564707 0 -0.018787707578058775 0.026740890468251892 0 -0.019500330462956419 0.027086805638251096 0 -0.018787707578058775 0.026740890468251892 0 -0.019392268089764252 0.026422638942917617 0 -0.019500330462956419 0.027086805638251096 0 -0.018787707578058775 0.026740890468251892 0 -0.019392268089764252 0.026422638942917617 0 -0.018887076114758764 0.026031176002527953 0 -0.019392268089764252 0.026422638942917617 0 -0.018887076114758764 0.026031176002527953 0 -0.019567370811689234 0.02581874609944056 0 -0.018787707578058775 0.026740890468251892 0 -0.018887076114758764 0.026031176002527953 0 -0.018082978077782554 0.026143000460579296 0 -0.018887076114758764 0.026031176002527953 0 -0.018082978077782554 0.026143000460579296 0 -0.018309874425978367 0.025457760233213056 0 -0.018787707578058775 0.026740890468251892 0 -0.018082978077782554 0.026143000460579296 0 -0.017908417058826058 0.026887531843729148 0 -0.014827539031491402 0.022532901096078826 0 -0.014989922412883943 0.022643664579269081 0 -0.014908941485777233 0.02298585469327584 0 -0.015070049814402891 0.022328743884090195 0 -0.014827539031491402 0.022532901096078826 0 -0.014989922412883943 0.022643664579269081 0 -0.015070049814402891 0.022328743884090195 0 -0.014989922412883943 0.022643664579269081 0 -0.015164300786421985 0.022741764286015039 0 -0.012961539700527673 0.020073554335087555 0 -0.013222715922417803 0.020121828328145765 0 -0.014989922412883943 0.022643664579269081 0 -0.014908941485777233 0.02298585469327584 0 -0.015164300786421985 0.022741764286015039 0 -0.018082978077782554 0.026143000460579296 0 -0.017908417058826058 0.026887531843729148 0 -0.016928531901545873 0.025961460585904414 0 -0.018082978077782554 0.026143000460579296 0 -0.016928531901545873 0.025961460585904414 0 -0.017609259842869068 0.025546128344493092 0 -0.015317572630610309 0.025394668264175017 0 -0.016076431484470143 0.024388139703386869 0 -0.016928531901545873 0.025961460585904414 0 -0.017609259842869068 0.025546128344493092 0 -0.016904889401558348 0.025056720783795776 0 -0.017609259842869068 0.025546128344493092 0 -0.016904889401558348 0.025056720783795776 0 -0.017599551774188298 0.024978071563920876 0 -0.017609259842869068 0.025546128344493092 0 -0.017599551774188298 0.024978071563920876 0 -0.018309874425978367 0.025457760233213056 0 -0.016076431484470143 0.024388139703386869 0 -0.015481798388666273 0.024190114940727387 0 -0.016928531901545873 0.025961460585904414 0 -0.016904889401558348 0.025056720783795776 0 -0.015942478851702378 0.024954284993373464 0 -0.016904889401558348 0.025056720783795776 0 -0.015942478851702378 0.024954284993373464 0 -0.016342343986317148 0.024435186207610298 0 -0.016904889401558348 0.025056720783795776 0 -0.016342343986317148 0.024435186207610298 0 -0.01692675223426655 0.024405098156405142 0 -0.017599551774188298 0.024978071563920876 0 -0.01777861076095643 0.024444186550461197 0 -0.01692675223426655 0.024405098156405142 0 -0.016904889401558348 0.025056720783795776 0 -0.017599551774188298 0.024978071563920876 0 -0.01692675223426655 0.024405098156405142 0 -0.017599551774188298 0.024978071563920876 0 -0.018404767444947477 0.024871316643664459 0 -0.018309874425978367 0.025457760233213056 0 -0.017599551774188298 0.024978071563920876 0 -0.018404767444947477 0.024871316643664459 0 -0.01777861076095643 0.024444186550461197 0 -0.018404767444947477 0.024871316643664459 0 -0.01872588762601152 0.024608557287284259 0 -0.018395290838563037 0.024299508792715602 0 -0.018404767444947477 0.024871316643664459 0 -0.018395290838563037 0.024299508792715602 0 -0.01777861076095643 0.024444186550461197 0 -0.018404767444947477 0.024871316643664459 0 -0.01872588762601152 0.024608557287284259 0 -0.019088850216956423 0.024893968450438786 0 -0.01872588762601152 0.024608557287284259 0 -0.019088850216956423 0.024893968450438786 0 -0.019016059599501797 0.024366016778690221 0 -0.019088850216956423 0.024893968450438786 0 -0.019016059599501797 0.024366016778690221 0 -0.019549648479082308 0.02464247495981213 0 -0.018404767444947477 0.024871316643664459 0 -0.019088850216956423 0.024893968450438786 0 -0.018965941139401837 0.025375064259173859 0 -0.018965941139401837 0.025375064259173859 0 -0.019567370811689234 0.02581874609944056 0 -0.019581130645365291 0.025184693312019873 0 -0.019088850216956423 0.024893968450438786 0 -0.018965941139401837 0.025375064259173859 0 -0.019581130645365291 0.025184693312019873 0 -0.018887076114758764 0.026031176002527953 0 -0.018965941139401837 0.025375064259173859 0 -0.019567370811689234 0.02581874609944056 0 -0.018887076114758764 0.026031176002527953 0 -0.018965941139401837 0.025375064259173859 0 -0.018309874425978367 0.025457760233213056 0 -0.018082978077782554 0.026143000460579296 0 -0.017609259842869068 0.025546128344493092 0 -0.018309874425978367 0.025457760233213056 0 -0.018404767444947477 0.024871316643664459 0 -0.018965941139401837 0.025375064259173859 0 -0.018309874425978367 0.025457760233213056 0 -0.010856533959671616 0.015538135672565087 0 -0.011067450660766569 0.016067288461095557 0 -0.011694668344412469 0.016238028260155905 0 -0.012793591634796771 0.017360776526992611 0 -0.01352347867387366 0.018073893778352595 0 -0.01378760725034636 0.018447491736504819 0 -0.01352347867387366 0.018073893778352595 0 -0.01378760725034636 0.018447491736504819 0 -0.013209592049832517 0.018724777028585451 0 -0.011694668344412469 0.016238028260155905 0 -0.011292335803801264 0.016415270455826924 0 -0.011701941348915054 0.016732552843398189 0 -0.011067450660766569 0.016067288461095557 0 -0.011694668344412469 0.016238028260155905 0 -0.011292335803801264 0.016415270455826924 0 -0.011292335803801264 0.016415270455826924 0 -0.011468847130835019 0.016800534793276353 0 -0.011701941348915054 0.016732552843398189 0 -0.011810644657392342 0.016966777019880273 0 -0.011468847130835019 0.016800534793276353 0 -0.011701941348915054 0.016732552843398189 0 -0.012691050818210032 0.017321479709663204 0 -0.012186663998756937 0.017039422604859824 0 -0.011810644657392342 0.016966777019880273 0 -0.011701941348915054 0.016732552843398189 0 -0.01212848653670842 0.017038674340154904 0 -0.011694668344412469 0.016238028260155905 0 -0.011701941348915054 0.016732552843398189 0 -0.01212848653670842 0.017038674340154904 0 -0.012357413267452861 0.018141012725476312 0 -0.011756491976477454 0.019027916521783934 0 -0.013209592049832517 0.018724777028585451 0 -0.01378760725034636 0.018447491736504819 0 -0.012357413267452861 0.018141012725476312 0 -0.01212848653670842 0.017038674340154904 0 -0.01378760725034636 0.018447491736504819 0 -0.012357413267452861 0.018141012725476312 0 -0.013209592049832517 0.018724777028585451 0 -0.012357413267452861 0.018141012725476312 0 -0.011260369888444734 0.017616834013871825 0 -0.011756491976477454 0.019027916521783934 0 -0.011607442642930661 0.016944353752263087 0 -0.01212848653670842 0.017038674340154904 0 -0.011260369888444734 0.017616834013871825 0 -0.012357413267452861 0.018141012725476312 0 -0.01212848653670842 0.017038674340154904 0 -0.011260369888444734 0.017616834013871825 0 -0.015164300786421985 0.022741764286015039 0 -0.015084425708900985 0.023090550421403143 0 -0.015201642476560688 0.02322367482698541 0 -0.014908941485777233 0.02298585469327584 0 -0.015164300786421985 0.022741764286015039 0 -0.015084425708900985 0.023090550421403143 0 -0.013222715922417803 0.020121828328145765 0 -0.013480464331148287 0.021148694126283556 0 -0.014908941485777233 0.02298585469327584 0 -0.015084425708900985 0.023090550421403143 0 -0.015050768110234859 0.02343254522934813 0 -0.015084425708900985 0.023090550421403143 0 -0.015050768110234859 0.02343254522934813 0 -0.015201642476560688 0.02322367482698541 0 -0.015942478851702378 0.024954284993373464 0 -0.015860459451486449 0.024058740044485636 0 -0.016342343986317148 0.024435186207610298 0 -0.015050768110234859 0.02343254522934813 0 -0.015094863268973182 0.023645924213618674 0 -0.015122170067747787 0.023667967210985109 0 -0.013480464331148287 0.021148694126283556 0 -0.013884524430144395 0.022249098249733722 0 -0.015050768110234859 0.02343254522934813 0 -0.015201642476560688 0.02322367482698541 0 -0.015094863268973182 0.023645924213618674 0 -0.011756491976477454 0.019027916521783934 0 -0.013209592049832517 0.018724777028585451 0 -0.013256264431621395 0.019616990089003809 0 -0.013209592049832517 0.018724777028585451 0 -0.013256264431621395 0.019616990089003809 0 -0.013512029514537803 0.018987973633561948 0 -0.011756491976477454 0.019027916521783934 0 -0.013256264431621395 0.019616990089003809 0 -0.012617060028537351 0.020908796836767454 0 -0.013256264431621395 0.019616990089003809 0 -0.012617060028537351 0.020908796836767454 0 -0.01397755066618242 0.020429578009112558 0 -0.012617060028537351 0.020908796836767454 0 -0.01397755066618242 0.020429578009112558 0 -0.014671602431025802 0.021712458328616891 0 -0.01524864074529925 0.020258588036174651 0 -0.01397755066618242 0.020429578009112558 0 -0.014671602431025802 0.021712458328616891 0 -0.013256264431621395 0.019616990089003809 0 -0.01397755066618242 0.020429578009112558 0 -0.013988100593369799 0.01953843710240739 0 -0.01524864074529925 0.020258588036174651 0 -0.01397755066618242 0.020429578009112558 0 -0.013988100593369799 0.01953843710240739 0 -0.011793456385057284 0.016433106186541774 0 -0.012691050818210032 0.017321479709663204 0 -0.014231922847795439 0.017657129812982907 0 -0.013681069507165374 0.018290168533681837 0 -0.01524864074529925 0.020258588036174651 0 -0.01352347867387366 0.018073893778352595 0 -0.013988100593369799 0.01953843710240739 0 -0.013256264431621395 0.019616990089003809 0 -0.013988100593369799 0.01953843710240739 0 -0.013512029514537803 0.018987973633561948 0 -0.01352347867387366 0.018073893778352595 0 -0.013209592049832517 0.018724777028585451 0 -0.013512029514537803 0.018987973633561948 0 -0.01352347867387366 0.018073893778352595 0 -0.013988100593369799 0.01953843710240739 0 -0.013512029514537803 0.018987973633561948 0 -0.015185769351334359 0.02323972112873722 0 -0.015220595921472265 0.02289747450523779 0 -0.014516190668326821 0.023118496121304299 0 -0.015220595921472265 0.02289747450523779 0 -0.015086600842639549 0.022430987817324267 0 -0.014516190668326821 0.023118496121304299 0 -0.015086600842639549 0.022430987817324267 0 -0.014516190668326821 0.023118496121304299 0 -0.014671602431025802 0.021712458328616891 0 -0.012617060028537351 0.020908796836767454 0 -0.014516190668326821 0.023118496121304299 0 -0.014671602431025802 0.021712458328616891 0 -0.013884524430144395 0.022249098249733722 0 -0.014446687013278154 0.023059079851054994 0 -0.015094863268973182 0.023645924213618674 0 -0.014516190668326821 0.023118496121304299 0 -0.015122170067747787 0.023667967210985109 0 -0.014516190668326821 0.023118496121304299 0 -0.014907076525671439 0.023260997742122622 0 -0.015122170067747787 0.023667967210985109 0 -0.014516190668326821 0.023118496121304299 0 -0.014907076525671439 0.023260997742122622 0 -0.014835453854519036 0.023297585593936441 0 -0.014907076525671439 0.023260997742122622 0 -0.015554460711998844 0.023565334462277741 0 -0.015439574258523901 0.023264485590884509 0 -0.014907076525671439 0.023260997742122622 0 -0.015122170067747787 0.023667967210985109 0 -0.015554460711998844 0.023565334462277741 0 -0.015481798388666273 0.024190114940727387 0 -0.015150196871616908 0.023707847611566697 0 -0.015122170067747787 0.023667967210985109 0 -0.015860459451486449 0.024058740044485636 0 -0.015554460711998844 0.023565334462277741 0 -0.015942478851702378 0.024954284993373464 0 -0.015122170067747787 0.023667967210985109 0 -0.015860459451486449 0.024058740044485636 0 -0.015860459451486449 0.024058740044485636 0 -0.015554460711998844 0.023565334462277741 0 -0.016370074123193516 0.023829097367539118 0 -0.015860459451486449 0.024058740044485636 0 -0.016342343986317148 0.024435186207610298 0 -0.016370074123193516 0.023829097367539118 0 -0.015554460711998844 0.023565334462277741 0 -0.016004001456596823 0.023423173949666067 0 -0.016370074123193516 0.023829097367539118 0 -0.015554460711998844 0.023565334462277741 0 -0.016004001456596823 0.023423173949666067 0 -0.015439574258523901 0.023264485590884509 0 -0.016004001456596823 0.023423173949666067 0 -0.015439574258523901 0.023264485590884509 0 -0.016010033140375517 0.02313417359500386 0 -0.015439574258523901 0.023264485590884509 0 -0.016010033140375517 0.02313417359500386 0 -0.015383360475994892 0.02307109915172155 0 -0.016010033140375517 0.02313417359500386 0 -0.015866007005626542 0.022884949625999886 0 -0.016388888536981051 0.022851177129255495 0 -0.016010033140375517 0.02313417359500386 0 -0.015866007005626542 0.022884949625999886 0 -0.015383360475994892 0.02307109915172155 0 -0.015866007005626542 0.022884949625999886 0 -0.015706957667983173 0.022556100976247561 0 -0.016225622139735506 0.022542521305640675 0 -0.016276587297463931 0.022086030994086389 0 -0.015706957667983173 0.022556100976247561 0 -0.016225622139735506 0.022542521305640675 0 -0.015866007005626542 0.022884949625999886 0 -0.015706957667983173 0.022556100976247561 0 -0.015086481859816174 0.02293439096000327 0 -0.015866007005626542 0.022884949625999886 0 -0.015383360475994892 0.02307109915172155 0 -0.015086481859816174 0.02293439096000327 0 -0.015383360475994892 0.02307109915172155 0 -0.015086481859816174 0.02293439096000327 0 -0.015013605525169607 0.023182834873759561 0 -0.015086481859816174 0.02293439096000327 0 -0.015013605525169607 0.023182834873759561 0 -0.014895312719089398 0.02334697555353387 0 -0.014907076525671439 0.023260997742122622 0 -0.015439574258523901 0.023264485590884509 0 -0.015013605525169607 0.023182834873759561 0 -0.015439574258523901 0.023264485590884509 0 -0.015383360475994892 0.02307109915172155 0 -0.015013605525169607 0.023182834873759561 0 -0.014907076525671439 0.023260997742122622 0 -0.015013605525169607 0.023182834873759561 0 -0.014856866176851892 0.023329738918335233 0 -0.014907076525671439 0.023260997742122622 0 -0.014856866176851892 0.023329738918335233 0 -0.014835453854519036 0.023297585593936441 0 -0.015013605525169607 0.023182834873759561 0 -0.014895312719089398 0.02334697555353387 0 -0.014856866176851892 0.023329738918335233 0 -0.014895312719089398 0.02334697555353387 0 -0.01483807132065338 0.023642453139732365 0 -0.014856866176851892 0.023329738918335233 0 -0.01483807132065338 0.023642453139732365 0 -0.014856866176851892 0.023329738918335233 0 -0.014950107692024499 0.023492062029330806 0 -0.01483807132065338 0.023642453139732365 0 -0.014944850490488068 0.023703119903657723 0 -0.014950107692024499 0.023492062029330806 0 -0.015110629502006359 0.02359283319866453 0 -0.014944850490488068 0.023703119903657723 0 -0.014950107692024499 0.023492062029330806 0 -0.015110629502006359 0.02359283319866453 0 -0.015183768482794437 0.02381121138028908 0 -0.014944850490488068 0.023703119903657723 0 -0.015141988328868535 0.023446897577147845 0 -0.015110629502006359 0.02359283319866453 0 -0.014950107692024499 0.023492062029330806 0 -0.015141988328868535 0.023446897577147845 0 -0.014950107692024499 0.023492062029330806 0 -0.014835453854519036 0.023297585593936441 0 -0.015141988328868535 0.023446897577147845 0 -0.015185769351334359 0.02323972112873722 0 -0.014835453854519036 0.023297585593936441 0 -0.015185769351334359 0.02323972112873722 0 -0.014516190668326821 0.023118496121304299 0 -0.014835453854519036 0.023297585593936441 0 -0.014856866176851892 0.023329738918335233 0 -0.014950107692024499 0.023492062029330806 0 -0.014835453854519036 0.023297585593936441 0 -0.018036949340217785 0.02342436303887678 0 -0.018449028765222759 0.023467733020467972 0 -0.018077704679324465 0.023861670656693056 0 -0.018449028765222759 0.023467733020467972 0 -0.018714248074641941 0.023891570624475156 0 -0.018077704679324465 0.023861670656693056 0 -0.017723895078142843 0.023637336063231536 0 -0.018077704679324465 0.023861670656693056 0 -0.017525044158114463 0.023939128938600517 0 -0.017723895078142843 0.023637336063231536 0 -0.018036949340217785 0.02342436303887678 0 -0.018077704679324465 0.023861670656693056 0 -0.017723895078142843 0.023637336063231536 0 -0.018036949340217785 0.02342436303887678 0 -0.017659654819951243 0.023306459572060238 0 -0.018036949340217785 0.02342436303887678 0 -0.017659654819951243 0.023306459572060238 0 -0.018003710527739143 0.02313925265562285 0 -0.018449028765222759 0.023467733020467972 0 -0.018608196113808075 0.023147253522097476 0 -0.018318428571898429 0.02314823044627741 0 -0.018036949340217785 0.02342436303887678 0 -0.018449028765222759 0.023467733020467972 0 -0.018318428571898429 0.02314823044627741 0 -0.018036949340217785 0.02342436303887678 0 -0.018318428571898429 0.02314823044627741 0 -0.018003710527739143 0.02313925265562285 0 -0.018608196113808075 0.023147253522097476 0 -0.018874211775243916 0.023243032698749659 0 -0.018921549170493313 0.022957221857831955 0 -0.018608196113808075 0.023147253522097476 0 -0.018874211775243916 0.023243032698749659 0 -0.018684678875247888 0.023341652732891276 0 -0.018874211775243916 0.023243032698749659 0 -0.018684678875247888 0.023341652732891276 0 -0.01881090609489864 0.023511812419489068 0 -0.018449028765222759 0.023467733020467972 0 -0.018684678875247888 0.023341652732891276 0 -0.01881090609489864 0.023511812419489068 0 -0.018449028765222759 0.023467733020467972 0 -0.018608196113808075 0.023147253522097476 0 -0.018684678875247888 0.023341652732891276 0 -0.01928507047642675 0.023202922736992922 0 -0.019079212706259799 0.023134536544620908 0 -0.019220893125124757 0.023007987765007974 0 -0.018874211775243916 0.023243032698749659 0 -0.019079212706259799 0.023134536544620908 0 -0.018921549170493313 0.022957221857831955 0 -0.018874211775243916 0.023243032698749659 0 -0.019079212706259799 0.023134536544620908 0 -0.019122122914379609 0.023398350355757314 0 -0.018874211775243916 0.023243032698749659 0 -0.019122122914379609 0.023398350355757314 0 -0.01881090609489864 0.023511812419489068 0 -0.01928507047642675 0.023202922736992922 0 -0.019122122914379609 0.023398350355757314 0 -0.019420634377035791 0.023374817931480635 0 -0.01928507047642675 0.023202922736992922 0 -0.019079212706259799 0.023134536544620908 0 -0.019122122914379609 0.023398350355757314 0 -0.019122122914379609 0.023398350355757314 0 -0.019093836146951954 0.023719141488216751 0 -0.019377349209552319 0.023594890168217416 0 -0.019122122914379609 0.023398350355757314 0 -0.019420634377035791 0.023374817931480635 0 -0.019377349209552319 0.023594890168217416 0 -0.019122122914379609 0.023398350355757314 0 -0.019093836146951954 0.023719141488216751 0 -0.01881090609489864 0.023511812419489068 0 -0.019093836146951954 0.023719141488216751 0 -0.019377349209552319 0.023594890168217416 0 -0.01946806569103432 0.023840418781227005 0 -0.018449028765222759 0.023467733020467972 0 -0.01881090609489864 0.023511812419489068 0 -0.018714248074641941 0.023891570624475156 0 -0.019093836146951954 0.023719141488216751 0 -0.01881090609489864 0.023511812419489068 0 -0.018714248074641941 0.023891570624475156 0 -0.018714248074641941 0.023891570624475156 0 -0.01918088131640058 0.024011610249643316 0 -0.019016059599501797 0.024366016778690221 0 -0.019093836146951954 0.023719141488216751 0 -0.018714248074641941 0.023891570624475156 0 -0.01918088131640058 0.024011610249643316 0 -0.019093836146951954 0.023719141488216751 0 -0.01918088131640058 0.024011610249643316 0 -0.01946806569103432 0.023840418781227005 0 -0.01918088131640058 0.024011610249643316 0 -0.019016059599501797 0.024366016778690221 0 -0.019576709292380527 0.02415892647872157 0 -0.018714248074641941 0.023891570624475156 0 -0.019016059599501797 0.024366016778690221 0 -0.018395290838563037 0.024299508792715602 0 -0.01872588762601152 0.024608557287284259 0 -0.019016059599501797 0.024366016778690221 0 -0.018395290838563037 0.024299508792715602 0 -0.018714248074641941 0.023891570624475156 0 -0.018395290838563037 0.024299508792715602 0 -0.018077704679324465 0.023861670656693056 0 -0.018077704679324465 0.023861670656693056 0 -0.01777861076095643 0.024444186550461197 0 -0.017525044158114463 0.023939128938600517 0 -0.018395290838563037 0.024299508792715602 0 -0.018077704679324465 0.023861670656693056 0 -0.01777861076095643 0.024444186550461197 0 -0.01777861076095643 0.024444186550461197 0 -0.017525044158114463 0.023939128938600517 0 -0.01692675223426655 0.024405098156405142 0 -0.016983817301914002 0.023925519583988857 0 -0.017525044158114463 0.023939128938600517 0 -0.01692675223426655 0.024405098156405142 0 -0.016342343986317148 0.024435186207610298 0 -0.01692675223426655 0.024405098156405142 0 -0.016370074123193516 0.023829097367539118 0 -0.016983817301914002 0.023925519583988857 0 -0.01692675223426655 0.024405098156405142 0 -0.016370074123193516 0.023829097367539118 0 -0.016983817301914002 0.023925519583988857 0 -0.016370074123193516 0.023829097367539118 0 -0.016915144827212531 0.023552596077999057 0 -0.016370074123193516 0.023829097367539118 0 -0.016915144827212531 0.023552596077999057 0 -0.016500096220913286 0.023359905597274706 0 -0.016915144827212531 0.023552596077999057 0 -0.016500096220913286 0.023359905597274706 0 -0.017145707391544085 0.023172856555754399 0 -0.016004001456596823 0.023423173949666067 0 -0.016370074123193516 0.023829097367539118 0 -0.016500096220913286 0.023359905597274706 0 -0.017723895078142843 0.023637336063231536 0 -0.017525044158114463 0.023939128938600517 0 -0.017334307212042044 0.023551752393756235 0 -0.016983817301914002 0.023925519583988857 0 -0.016915144827212531 0.023552596077999057 0 -0.017334307212042044 0.023551752393756235 0 -0.016983817301914002 0.023925519583988857 0 -0.017525044158114463 0.023939128938600517 0 -0.017334307212042044 0.023551752393756235 0 -0.016915144827212531 0.023552596077999057 0 -0.017334307212042044 0.023551752393756235 0 -0.017145707391544085 0.023172856555754399 0 -0.017334307212042044 0.023551752393756235 0 -0.017659654819951243 0.023306459572060238 0 -0.017145707391544085 0.023172856555754399 0 -0.017723895078142843 0.023637336063231536 0 -0.017334307212042044 0.023551752393756235 0 -0.017659654819951243 0.023306459572060238 0 -0.017145707391544085 0.023172856555754399 0 -0.017401703104555129 0.022780682141513547 0 -0.017721998118982382 0.022978792869783642 0 -0.017659654819951243 0.023306459572060238 0 -0.017145707391544085 0.023172856555754399 0 -0.017721998118982382 0.022978792869783642 0 -0.017145707391544085 0.023172856555754399 0 -0.016918926777545636 0.022838572107909738 0 -0.017401703104555129 0.022780682141513547 0 -0.016918926777545636 0.022838572107909738 0 -0.017401703104555129 0.022780682141513547 0 -0.017185491770728152 0.022593267939290809 0 -0.017401703104555129 0.022780682141513547 0 -0.017865705131854551 0.02264161942467809 0 -0.017721998118982382 0.022978792869783642 0 -0.016004001456596823 0.023423173949666067 0 -0.016010033140375517 0.02313417359500386 0 -0.016500096220913286 0.023359905597274706 0 -0.016010033140375517 0.02313417359500386 0 -0.016500096220913286 0.023359905597274706 0 -0.016600632961737718 0.023077256499819506 0 -0.016500096220913286 0.023359905597274706 0 -0.017145707391544085 0.023172856555754399 0 -0.016600632961737718 0.023077256499819506 0 -0.017145707391544085 0.023172856555754399 0 -0.016918926777545636 0.022838572107909738 0 -0.016600632961737718 0.023077256499819506 0 -0.016918926777545636 0.022838572107909738 0 -0.016600632961737718 0.023077256499819506 0 -0.016388888536981051 0.022851177129255495 0 -0.016010033140375517 0.02313417359500386 0 -0.016600632961737718 0.023077256499819506 0 -0.016388888536981051 0.022851177129255495 0 -0.015866007005626542 0.022884949625999886 0 -0.016388888536981051 0.022851177129255495 0 -0.016225622139735506 0.022542521305640675 0 -0.016388888536981051 0.022851177129255495 0 -0.01674309222498549 0.02256938584007229 0 -0.016225622139735506 0.022542521305640675 0 -0.016918926777545636 0.022838572107909738 0 -0.016388888536981051 0.022851177129255495 0 -0.01674309222498549 0.02256938584007229 0 -0.01674309222498549 0.02256938584007229 0 -0.016750563576291001 0.022322815970728695 0 -0.016225622139735506 0.022542521305640675 0 -0.01674309222498549 0.02256938584007229 0 -0.016750563576291001 0.022322815970728695 0 -0.01709231776453015 0.022378733417744937 0 -0.016276587297463931 0.022086030994086389 0 -0.016750563576291001 0.022322815970728695 0 -0.016225622139735506 0.022542521305640675 0 -0.017401703104555129 0.022780682141513547 0 -0.017517599173878781 0.022432910570161561 0 -0.017865705131854551 0.02264161942467809 0 -0.017401703104555129 0.022780682141513547 0 -0.017517599173878781 0.022432910570161561 0 -0.017185491770728152 0.022593267939290809 0 -0.01674309222498549 0.02256938584007229 0 -0.017185491770728152 0.022593267939290809 0 -0.01709231776453015 0.022378733417744937 0 -0.016918926777545636 0.022838572107909738 0 -0.01674309222498549 0.02256938584007229 0 -0.017185491770728152 0.022593267939290809 0 -0.017517599173878781 0.022432910570161561 0 -0.017185491770728152 0.022593267939290809 0 -0.01709231776453015 0.022378733417744937 0 -0.017384014215687318 0.022050891064528108 0 -0.016750563576291001 0.022322815970728695 0 -0.01709231776453015 0.022378733417744937 0 -0.017384014215687318 0.022050891064528108 0 -0.017517599173878781 0.022432910570161561 0 -0.018009794542589053 0.022293495554237864 0 -0.017384014215687318 0.022050891064528108 0 -0.017517599173878781 0.022432910570161561 0 -0.01709231776453015 0.022378733417744937 0 -0.022105583783307629 0.029473350755298302 0 -0.022073560264613303 0.026934882340028415 0 -0.024592745680673628 0.030694222529358727 0 -0.024265743000851509 0.030589782411072231 0 -0.023334949035550289 0.030649273698417939 0 -0.022105583783307629 0.029473350755298302 0 -0.024221977422886523 0.031300994141823059 0 -0.024592745680673628 0.030694222529358727 0 -0.024265743000851509 0.030589782411072231 0 -0.023961606607425311 0.030377659624313047 0 -0.024265743000851509 0.030589782411072231 0 -0.023989452243939575 0.030380084800497125 0 -0.023334949035550289 0.030649273698417939 0 -0.024550225659833586 0.029840949609189909 0 -0.022073560264613303 0.026934882340028415 0 -0.018009794542589053 0.022293495554237864 0 -0.018167397513602305 0.022600019231343652 0 -0.018539408447249075 0.022634787911816945 0 -0.018009794542589053 0.022293495554237864 0 -0.017865705131854551 0.02264161942467809 0 -0.018167397513602305 0.022600019231343652 0 -0.017517599173878781 0.022432910570161561 0 -0.018009794542589053 0.022293495554237864 0 -0.017865705131854551 0.02264161942467809 0 -0.017865705131854551 0.02264161942467809 0 -0.018254480094536014 0.022835454310006439 0 -0.017721998118982382 0.022978792869783642 0 -0.017865705131854551 0.02264161942467809 0 -0.018167397513602305 0.022600019231343652 0 -0.018254480094536014 0.022835454310006439 0 -0.018167397513602305 0.022600019231343652 0 -0.018254480094536014 0.022835454310006439 0 -0.018539408447249075 0.022634787911816945 0 -0.018254480094536014 0.022835454310006439 0 -0.018318428571898429 0.02314823044627741 0 -0.018594907656699147 0.022938961967550867 0 -0.018254480094536014 0.022835454310006439 0 -0.018318428571898429 0.02314823044627741 0 -0.018003710527739143 0.02313925265562285 0 -0.018254480094536014 0.022835454310006439 0 -0.018003710527739143 0.02313925265562285 0 -0.017721998118982382 0.022978792869783642 0 -0.017659654819951243 0.023306459572060238 0 -0.018003710527739143 0.02313925265562285 0 -0.017721998118982382 0.022978792869783642 0 -0.023548399453180026 0.02645261760788559 0 -0.023508463322013323 0.026358543288816563 0 -0.023541027756590151 0.026318125455774732 0 -0.018009794542589053 0.022293495554237864 0 -0.018539408447249075 0.022634787911816945 0 -0.019034021450246692 0.022743014783208223 0 -0.019220893125124757 0.023007987765007974 0 -0.019034021450246692 0.022743014783208223 0 -0.019408013482389779 0.023121734531563409 0 -0.018799701611057904 0.022846826862537428 0 -0.018646504145498857 0.022786929472081996 0 -0.019034021450246692 0.022743014783208223 0 -0.018921549170493313 0.022957221857831955 0 -0.018799701611057904 0.022846826862537428 0 -0.019034021450246692 0.022743014783208223 0 -0.019220893125124757 0.023007987765007974 0 -0.018921549170493313 0.022957221857831955 0 -0.019034021450246692 0.022743014783208223 0 -0.019079212706259799 0.023134536544620908 0 -0.019220893125124757 0.023007987765007974 0 -0.018921549170493313 0.022957221857831955 0 -0.018254480094536014 0.022835454310006439 0 -0.018594907656699147 0.022938961967550867 0 -0.018646504145498857 0.022786929472081996 0 -0.018608196113808075 0.023147253522097476 0 -0.018921549170493313 0.022957221857831955 0 -0.018594907656699147 0.022938961967550867 0 -0.018608196113808075 0.023147253522097476 0 -0.018318428571898429 0.02314823044627741 0 -0.018594907656699147 0.022938961967550867 0 -0.018921549170493313 0.022957221857831955 0 -0.018594907656699147 0.022938961967550867 0 -0.018799701611057904 0.022846826862537428 0 -0.018594907656699147 0.022938961967550867 0 -0.018799701611057904 0.022846826862537428 0 -0.018646504145498857 0.022786929472081996 0 -0.018646504145498857 0.022786929472081996 0 -0.018539408447249075 0.022634787911816945 0 -0.019034021450246692 0.022743014783208223 0 -0.018254480094536014 0.022835454310006439 0 -0.018646504145498857 0.022786929472081996 0 -0.018539408447249075 0.022634787911816945 0 -0.023478852538445567 0.029001660890998746 0 -0.023496315226107824 0.029663535194223666 0 -0.023267442802650713 0.029209499104754566 0 -0.023496315226107824 0.029663535194223666 0 -0.023321106690889212 0.029979192615828695 0 -0.023267442802650713 0.029209499104754566 0 -0.023989452243939575 0.030380084800497125 0 -0.023496315226107824 0.029663535194223666 0 -0.023321106690889212 0.029979192615828695 0 -0.022073560264613303 0.026934882340028415 0 -0.020924037491799555 0.024058456595711278 0 -0.023989452243939575 0.030380084800497125 0 -0.023478852538445567 0.029001660890998746 0 -0.023496315226107824 0.029663535194223666 0 -0.023989452243939575 0.030380084800497125 0 -0.023321106690889212 0.029979192615828695 0 -0.023334949035550289 0.030649273698417939 0 -0.022073560264613303 0.026934882340028415 0 -0.023857024144741439 0.027880433885732969 0 -0.023321106690889212 0.029979192615828695 0 -0.023166463711494459 0.03041521169726695 0 -0.023090949008993195 0.029612123550790011 0 -0.023321106690889212 0.029979192615828695 0 -0.023334949035550289 0.030649273698417939 0 -0.023166463711494459 0.03041521169726695 0 -0.023015497691063973 0.030376399459236144 0 -0.023166463711494459 0.03041521169726695 0 -0.023090949008993195 0.029612123550790011 0 -0.023015497691063973 0.030376399459236144 0 -0.023090949008993195 0.029612123550790011 0 -0.022530090273405273 0.02908299999592091 0 -0.023090949008993195 0.029612123550790011 0 -0.022530090273405273 0.02908299999592091 0 -0.023038953744563623 0.028869058424750356 0 -0.023267442802650713 0.029209499104754566 0 -0.023090949008993195 0.029612123550790011 0 -0.023038953744563623 0.028869058424750356 0 -0.023321106690889212 0.029979192615828695 0 -0.023267442802650713 0.029209499104754566 0 -0.023090949008993195 0.029612123550790011 0 -0.021577865943564398 0.030079688809993718 0 -0.023015497691063973 0.030376399459236144 0 -0.022530090273405273 0.02908299999592091 0 -0.021577865943564398 0.030079688809993718 0 -0.022530090273405273 0.02908299999592091 0 -0.021315643143727588 0.028904524484364463 0 -0.022530090273405273 0.02908299999592091 0 -0.022082780396791766 0.027502696645909389 0 -0.021315643143727588 0.028904524484364463 0 -0.022530090273405273 0.02908299999592091 0 -0.022804932572793601 0.028098137610106256 0 -0.022082780396791766 0.027502696645909389 0 -0.022530090273405273 0.02908299999592091 0 -0.022804932572793601 0.028098137610106256 0 -0.023038953744563623 0.028869058424750356 0 -0.022804932572793601 0.028098137610106256 0 -0.023114529722385018 0.028322463284844321 0 -0.022941830490732572 0.026144762464827505 0 -0.022804932572793601 0.028098137610106256 0 -0.022082780396791766 0.027502696645909389 0 -0.022941830490732572 0.026144762464827505 0 -0.023857024144741439 0.027880433885732969 0 -0.022624892370132339 0.026154859109785336 0 -0.023478852538445567 0.029001660890998746 0 -0.023114529722385018 0.028322463284844321 0 -0.022941830490732572 0.026144762464827505 0 -0.023508463322013323 0.026358543288816563 0 -0.023541027756590151 0.026318125455774732 0 -0.023086034317954512 0.025765547357563812 0 -0.023478852538445567 0.029001660890998746 0 -0.023267442802650713 0.029209499104754566 0 -0.023114529722385018 0.028322463284844321 0 -0.023267442802650713 0.029209499104754566 0 -0.023038953744563623 0.028869058424750356 0 -0.023114529722385018 0.028322463284844321 0 -0.022804932572793601 0.028098137610106256 0 -0.023038953744563623 0.028869058424750356 0 -0.023114529722385018 0.028322463284844321 0 -0.019034021450246692 0.022743014783208223 0 -0.019408013482389779 0.023121734531563409 0 -0.019792714427936394 0.023119700754821143 0 -0.01928507047642675 0.023202922736992922 0 -0.019220893125124757 0.023007987765007974 0 -0.019408013482389779 0.023121734531563409 0 -0.019034021450246692 0.022743014783208223 0 -0.019792714427936394 0.023119700754821143 0 -0.02041963214451914 0.023249932868095374 0 -0.020924037491799555 0.024058456595711278 0 -0.021962748765781366 0.024534019133783627 0 -0.023508463322013323 0.026358543288816563 0 -0.022941830490732572 0.026144762464827505 0 -0.023086034317954512 0.025765547357563812 0 -0.019408013482389779 0.023121734531563409 0 -0.019654011748425591 0.023201009275265447 0 -0.019515443331103083 0.023213513371460728 0 -0.01928507047642675 0.023202922736992922 0 -0.019408013482389779 0.023121734531563409 0 -0.019515443331103083 0.023213513371460728 0 -0.019408013482389779 0.023121734531563409 0 -0.019654011748425591 0.023201009275265447 0 -0.019792714427936394 0.023119700754821143 0 -0.019654011748425591 0.023201009275265447 0 -0.019768940248374899 0.023264585511583735 0 -0.019792714427936394 0.023119700754821143 0 -0.019654011748425591 0.023201009275265447 0 -0.019651878789256418 0.023324108025541804 0 -0.019515443331103083 0.023213513371460728 0 -0.019654011748425591 0.023201009275265447 0 -0.019651878789256418 0.023324108025541804 0 -0.019768940248374899 0.023264585511583735 0 -0.019651878789256418 0.023324108025541804 0 -0.019768940248374899 0.023264585511583735 0 -0.019804341421147158 0.023392311190816143 0 -0.01928507047642675 0.023202922736992922 0 -0.019515443331103083 0.023213513371460728 0 -0.019420634377035791 0.023374817931480635 0 -0.019651878789256418 0.023324108025541804 0 -0.019515443331103083 0.023213513371460728 0 -0.019420634377035791 0.023374817931480635 0 -0.019420634377035791 0.023374817931480635 0 -0.019631705618736631 0.023505229437588419 0 -0.019377349209552319 0.023594890168217416 0 -0.019651878789256418 0.023324108025541804 0 -0.019420634377035791 0.023374817931480635 0 -0.019631705618736631 0.023505229437588419 0 -0.019651878789256418 0.023324108025541804 0 -0.019631705618736631 0.023505229437588419 0 -0.019804341421147158 0.023392311190816143 0 -0.019631705618736631 0.023505229437588419 0 -0.019829937378049115 0.023571942084529344 0 -0.019804341421147158 0.023392311190816143 0 -0.019632244615084452 0.023675401241439568 0 -0.019829937378049115 0.023571942084529344 0 -0.019831070248995199 0.023794252308879556 0 -0.019631705618736631 0.023505229437588419 0 -0.019632244615084452 0.023675401241439568 0 -0.019829937378049115 0.023571942084529344 0 -0.019631705618736631 0.023505229437588419 0 -0.019632244615084452 0.023675401241439568 0 -0.019377349209552319 0.023594890168217416 0 -0.019632244615084452 0.023675401241439568 0 -0.019377349209552319 0.023594890168217416 0 -0.01946806569103432 0.023840418781227005 0 -0.020067996994016492 0.023585544815646339 0 -0.020249423811526581 0.023546888104682449 0 -0.02037983106184035 0.023745964105232161 0 -0.020067996994016492 0.023585544815646339 0 -0.020249423811526581 0.023546888104682449 0 -0.020183737203403503 0.023431822266036642 0 -0.020067996994016492 0.023585544815646339 0 -0.019829937378049115 0.023571942084529344 0 -0.019831070248995199 0.023794252308879556 0 -0.020067996994016492 0.023585544815646339 0 -0.019829937378049115 0.023571942084529344 0 -0.019990484205836632 0.023434190981953942 0 -0.019829937378049115 0.023571942084529344 0 -0.019990484205836632 0.023434190981953942 0 -0.019804341421147158 0.023392311190816143 0 -0.019990484205836632 0.023434190981953942 0 -0.019804341421147158 0.023392311190816143 0 -0.019923976921363881 0.023285614608472404 0 -0.019990484205836632 0.023434190981953942 0 -0.020140901704943273 0.023296748541524196 0 -0.019923976921363881 0.023285614608472404 0 -0.020140901704943273 0.023296748541524196 0 -0.02041963214451914 0.023249932868095374 0 -0.020361492053598662 0.023415427017208695 0 -0.019990484205836632 0.023434190981953942 0 -0.020140901704943273 0.023296748541524196 0 -0.020183737203403503 0.023431822266036642 0 -0.020067996994016492 0.023585544815646339 0 -0.019990484205836632 0.023434190981953942 0 -0.020183737203403503 0.023431822266036642 0 -0.020249423811526581 0.023546888104682449 0 -0.020183737203403503 0.023431822266036642 0 -0.020361492053598662 0.023415427017208695 0 -0.020140901704943273 0.023296748541524196 0 -0.020183737203403503 0.023431822266036642 0 -0.020361492053598662 0.023415427017208695 0 -0.020140901704943273 0.023296748541524196 0 -0.019792714427936394 0.023119700754821143 0 -0.02041963214451914 0.023249932868095374 0 -0.020140901704943273 0.023296748541524196 0 -0.019923976921363881 0.023285614608472404 0 -0.019792714427936394 0.023119700754821143 0 -0.019768940248374899 0.023264585511583735 0 -0.019923976921363881 0.023285614608472404 0 -0.019792714427936394 0.023119700754821143 0 -0.019768940248374899 0.023264585511583735 0 -0.019804341421147158 0.023392311190816143 0 -0.019923976921363881 0.023285614608472404 0 -0.022082780396791766 0.027502696645909389 0 -0.022941830490732572 0.026144762464827505 0 -0.02294653539073371 0.02487040757568908 0 -0.022941830490732572 0.026144762464827505 0 -0.02294653539073371 0.02487040757568908 0 -0.023092478797422867 0.025114518386410885 0 -0.022941830490732572 0.026144762464827505 0 -0.023092478797422867 0.025114518386410885 0 -0.023086034317954512 0.025765547357563812 0 -0.020249423811526581 0.023546888104682449 0 -0.020361492053598662 0.023415427017208695 0 -0.02037983106184035 0.023745964105232161 0 -0.02037983106184035 0.023745964105232161 0 -0.020391122279757628 0.024014439982075541 0 -0.020141326386672022 0.0238429693599643 0 -0.02037983106184035 0.023745964105232161 0 -0.020391122279757628 0.024014439982075541 0 -0.020955155487269301 0.024243535409442445 0 -0.023092478797422867 0.025114518386410885 0 -0.023086034317954512 0.025765547357563812 0 -0.02353762998285594 0.024144414689334117 0 -0.02041963214451914 0.023249932868095374 0 -0.022898596995705709 0.024371624407926593 0 -0.02353762998285594 0.024144414689334117 0 -0.020361492053598662 0.023415427017208695 0 -0.02037983106184035 0.023745964105232161 0 -0.020955155487269301 0.024243535409442445 0 -0.02041963214451914 0.023249932868095374 0 -0.020361492053598662 0.023415427017208695 0 -0.022898596995705709 0.024371624407926593 0 -0.021962748765781366 0.024534019133783627 0 -0.023247212052610124 0.024260817608371229 0 -0.020601660217251863 0.023444984136676773 0 -0.021483735626176139 0.024133370825570533 0 -0.020391122279757628 0.024014439982075541 0 -0.020587129295574377 0.024327611210864242 0 -0.020955155487269301 0.024243535409442445 0 -0.020587129295574377 0.024327611210864242 0 -0.020955155487269301 0.024243535409442445 0 -0.020826101679951727 0.024610728807574537 0 -0.020391122279757628 0.024014439982075541 0 -0.020263040356840005 0.024200077847824571 0 -0.020023951609451737 0.024063386871275544 0 -0.020391122279757628 0.024014439982075541 0 -0.020587129295574377 0.024327611210864242 0 -0.020263040356840005 0.024200077847824571 0 -0.020587129295574377 0.024327611210864242 0 -0.020263040356840005 0.024200077847824571 0 -0.020361554063458624 0.024395103965313844 0 -0.020263040356840005 0.024200077847824571 0 -0.020361554063458624 0.024395103965313844 0 -0.020042727361464757 0.024460034459676795 0 -0.019576709292380527 0.02415892647872157 0 -0.020023951609451737 0.024063386871275544 0 -0.020042727361464757 0.024460034459676795 0 -0.020263040356840005 0.024200077847824571 0 -0.020023951609451737 0.024063386871275544 0 -0.020042727361464757 0.024460034459676795 0 -0.019016059599501797 0.024366016778690221 0 -0.019576709292380527 0.02415892647872157 0 -0.019549648479082308 0.02464247495981213 0 -0.019576709292380527 0.02415892647872157 0 -0.020042727361464757 0.024460034459676795 0 -0.019549648479082308 0.02464247495981213 0 -0.019576709292380527 0.02415892647872157 0 -0.01946806569103432 0.023840418781227005 0 -0.019831070248995199 0.023794252308879556 0 -0.01918088131640058 0.024011610249643316 0 -0.019576709292380527 0.02415892647872157 0 -0.01946806569103432 0.023840418781227005 0 -0.019632244615084452 0.023675401241439568 0 -0.01946806569103432 0.023840418781227005 0 -0.019831070248995199 0.023794252308879556 0 -0.020067996994016492 0.023585544815646339 0 -0.019831070248995199 0.023794252308879556 0 -0.020141326386672022 0.0238429693599643 0 -0.019576709292380527 0.02415892647872157 0 -0.019831070248995199 0.023794252308879556 0 -0.020023951609451737 0.024063386871275544 0 -0.020067996994016492 0.023585544815646339 0 -0.02037983106184035 0.023745964105232161 0 -0.020141326386672022 0.0238429693599643 0 -0.020391122279757628 0.024014439982075541 0 -0.020141326386672022 0.0238429693599643 0 -0.020023951609451737 0.024063386871275544 0 -0.019831070248995199 0.023794252308879556 0 -0.020141326386672022 0.0238429693599643 0 -0.020023951609451737 0.024063386871275544 0 -0.024220374104571653 0.024094908541076092 0 -0.024357586937916311 0.023985927985878001 0 -0.023965663471373029 0.024142167450533027 0 -0.024220374104571653 0.024094908541076092 0 -0.024357586937916311 0.023985927985878001 0 -0.024516831854648435 0.023990473049860087 0 -0.024220374104571653 0.024094908541076092 0 -0.024516831854648435 0.023990473049860087 0 -0.024478120309394034 0.024046501983444546 0 -0.024357586937916311 0.023985927985878001 0 -0.024516831854648435 0.023990473049860087 0 -0.024569145911370181 0.023881337782542703 0 -0.024516831854648435 0.023990473049860087 0 -0.024569145911370181 0.023881337782542703 0 -0.024679771953289457 0.023895011820921169 0 -0.024516831854648435 0.023990473049860087 0 -0.024718209450221122 0.02396411681771846 0 -0.024478120309394034 0.024046501983444546 0 -0.024516831854648435 0.023990473049860087 0 -0.024718209450221122 0.02396411681771846 0 -0.024679771953289457 0.023895011820921169 0 -0.024718209450221122 0.02396411681771846 0 -0.024478120309394034 0.024046501983444546 0 -0.024746992997298298 0.024005315289835259 0 -0.024478120309394034 0.024046501983444546 0 -0.02447730829733448 0.024066078457181256 0 -0.024746992997298298 0.024005315289835259 0 -0.024220374104571653 0.024094908541076092 0 -0.024478120309394034 0.024046501983444546 0 -0.02405492820290752 0.024130678303897393 0 -0.024478120309394034 0.024046501983444546 0 -0.02447730829733448 0.024066078457181256 0 -0.02405492820290752 0.024130678303897393 0 -0.023849071202803329 0.024146652655619393 0 -0.022898596995705709 0.024371624407926593 0 -0.024324706162723062 0.024116061748550178 0 -0.02447730829733448 0.024066078457181256 0 -0.02405492820290752 0.024130678303897393 0 -0.024324706162723062 0.024116061748550178 0 -0.023849071202803329 0.024146652655619393 0 -0.02405492820290752 0.024130678303897393 0 -0.024324706162723062 0.024116061748550178 0 -0.023849071202803329 0.024146652655619393 0 -0.02405492820290752 0.024130678303897393 0 -0.02353762998285594 0.024144414689334117 0 -0.023849071202803329 0.024146652655619393 0 -0.022898596995705709 0.024371624407926593 0 -0.02353762998285594 0.024144414689334117 0 -0.02294653539073371 0.02487040757568908 0 -0.023092478797422867 0.025114518386410885 0 -0.02353762998285594 0.024144414689334117 0 -0.02294653539073371 0.02487040757568908 0 -0.02353762998285594 0.024144414689334117 0 -0.023722521026137127 0.024276744877463268 0 -0.024220374104571653 0.024094908541076092 0 -0.023722521026137127 0.024276744877463268 0 -0.023965663471373029 0.024142167450533027 0 -0.024220374104571653 0.024094908541076092 0 -0.02405492820290752 0.024130678303897393 0 -0.023722521026137127 0.024276744877463268 0 -0.02405492820290752 0.024130678303897393 0 -0.02353762998285594 0.024144414689334117 0 -0.023722521026137127 0.024276744877463268 0 -0.02294653539073371 0.02487040757568908 0 -0.023965663471373029 0.024142167450533027 0 -0.023876358045345224 0.023350265588998959 0 -0.02294653539073371 0.02487040757568908 0 -0.023722521026137127 0.024276744877463268 0 -0.023965663471373029 0.024142167450533027 0 -0.022640196701569262 0.025176816152269355 0 -0.022640833034634104 0.024981140999250393 0 -0.023965663471373029 0.024142167450533027 0 -0.024362771410478087 0.02381488798691489 0 -0.023876358045345224 0.023350265588998959 0 -0.024357586937916311 0.023985927985878001 0 -0.023965663471373029 0.024142167450533027 0 -0.024362771410478087 0.02381488798691489 0 -0.024357586937916311 0.023985927985878001 0 -0.024362771410478087 0.02381488798691489 0 -0.024569145911370181 0.023881337782542703 0 -0.024361913573573864 0.023287261813917784 0 -0.023876358045345224 0.023350265588998959 0 -0.024464142350584469 0.023534517686430542 0 -0.024362771410478087 0.02381488798691489 0 -0.023876358045345224 0.023350265588998959 0 -0.024464142350584469 0.023534517686430542 0 -0.022082780396791766 0.027502696645909389 0 -0.02294653539073371 0.02487040757568908 0 -0.020369364243358203 0.027716483358632374 0 -0.022082780396791766 0.027502696645909389 0 -0.020369364243358203 0.027716483358632374 0 -0.021315643143727588 0.028904524484364463 0 -0.020369364243358203 0.027716483358632374 0 -0.021315643143727588 0.028904524484364463 0 -0.019228168278464335 0.029833576812394971 0 -0.021577865943564398 0.030079688809993718 0 -0.021315643143727588 0.028904524484364463 0 -0.019228168278464335 0.029833576812394971 0 -0.017697560902219571 0.031794666471592653 0 -0.019115531843835732 0.028755980395135702 0 -0.024361913573573864 0.023287261813917784 0 -0.023876358045345224 0.023350265588998959 0 -0.024223813317236918 0.023034739213438144 0 -0.022640833034634104 0.024981140999250393 0 -0.019115531843835732 0.028755980395135702 0 -0.024361913573573864 0.023287261813917784 0 -0.024223813317236918 0.023034739213438144 0 -0.024530185468074395 0.023091621182128676 0 -0.019115531843835732 0.028755980395135702 0 -0.024000667874307168 0.026472468439557275 0 -0.025776078422647015 0.024845245509425313 0 -0.025370206781567831 0.024550519911066413 0 -0.025005750527865574 0.024718602353348038 0 -0.024000667874307168 0.026472468439557275 0 -0.024731909433060643 0.028283044488785273 0 -0.024440759316060563 0.02912564221027595 0 -0.024145981579761649 0.029323143377614658 0 -0.024579127453281724 0.029367345549870534 0 -0.024592223004793551 0.02938151470386537 0 -0.024731909433060643 0.028283044488785273 0 -0.025370206781567831 0.024550519911066413 0 -0.02509614839251784 0.024321047819584395 0 -0.025005750527865574 0.024718602353348038 0 -0.025776078422647015 0.024845245509425313 0 -0.025370206781567831 0.024550519911066413 0 -0.025285126876462099 0.024048817444657689 0 -0.025370206781567831 0.024550519911066413 0 -0.02509614839251784 0.024321047819584395 0 -0.025285126876462099 0.024048817444657689 0 -0.02509614839251784 0.024321047819584395 0 -0.025285126876462099 0.024048817444657689 0 -0.024995707428139797 0.024006969254608851 0 -0.024000667874307168 0.026472468439557275 0 -0.025125161143708753 0.023320345781304666 0 -0.024361913573573864 0.023287261813917784 0 -0.024530185468074395 0.023091621182128676 0 -0.024594316517293203 0.023522643055075135 0 -0.024530185468074395 0.023091621182128676 0 -0.024785121342654634 0.023573431712949369 0 -0.024594316517293203 0.023522643055075135 0 -0.024361913573573864 0.023287261813917784 0 -0.024594316517293203 0.023522643055075135 0 -0.024464142350584469 0.023534517686430542 0 -0.024602632711203078 0.026958907876492598 0 -0.024825211977426365 0.025153895518900415 0 -0.025065185061886482 0.024149339052021684 0 -0.025056399963805719 0.024168322019722178 0 -0.025028423670824879 0.024149885300543565 0 -0.025100369488748511 0.024172142373480521 0 -0.025065185061886482 0.024149339052021684 0 -0.025056399963805719 0.024168322019722178 0 -0.024786063056983366 0.029099504149485339 0 -0.024793159165738116 0.029221049258574473 0 -0.024730718097099477 0.029175530197554037 0 -0.024793159165738116 0.029221049258574473 0 -0.024731445962722767 0.029227829632045232 0 -0.024730718097099477 0.029175530197554037 0 -0.024793159165738116 0.029221049258574473 0 -0.024731445962722767 0.029227829632045232 0 -0.024709220303746001 0.029241935267854288 0 -0.024731445962722767 0.029227829632045232 0 -0.024701168026860648 0.029212520745590422 0 -0.024709220303746001 0.029241935267854288 0 -0.024731445962722767 0.029227829632045232 0 -0.024730718097099477 0.029175530197554037 0 -0.024590895662462323 0.029252825780778789 0 -0.02465582894101712 0.029118079323239659 0 -0.024730718097099477 0.029175530197554037 0 -0.024590895662462323 0.029252825780778789 0 -0.024752360053598033 0.028973632065690879 0 -0.024731909433060643 0.028283044488785273 0 -0.024731909433060643 0.028283044488785273 0 -0.024825211977426365 0.025153895518900415 0 -0.02509614839251784 0.024321047819584395 0 -0.025005750527865574 0.024718602353348038 0 -0.024783787570088849 0.024263237666646301 0 -0.02509614839251784 0.024321047819584395 0 -0.024995707428139797 0.024006969254608851 0 -0.024783787570088849 0.024263237666646301 0 -0.025169053867337997 0.024121951669389675 0 -0.024825211977426365 0.025153895518900415 0 -0.025056399963805719 0.024168322019722178 0 -0.025065349850575184 0.024160501524753113 0 -0.025028423670824879 0.024149885300543565 0 -0.025065349850575184 0.024160501524753113 0 -0.025028423670824879 0.024149885300543565 0 -0.02507282181170619 0.024102863929444971 0 -0.024902212490078474 0.024123121460913104 0 -0.025028423670824879 0.024149885300543565 0 -0.02507282181170619 0.024102863929444971 0 -0.024995707428139797 0.024006969254608851 0 -0.024746543874345155 0.023762955657893388 0 -0.02495439768938704 0.023839726836484731 0 -0.025125161143708753 0.023320345781304666 0 -0.024886755426746614 0.02374538317327932 0 -0.025285126876462099 0.024048817444657689 0 -0.02495439768938704 0.023839726836484731 0 -0.02486962599781968 0.023539693541599332 0 -0.024995707428139797 0.024006969254608851 0 -0.024887866650153037 0.024154976082973262 0 -0.024746543874345155 0.023762955657893388 0 -0.024825211977426365 0.025153895518900415 0 -0.024875604278156615 0.023782339341347793 0 -0.024746543874345155 0.023762955657893388 0 -0.02495439768938704 0.023839726836484731 0 -0.02486962599781968 0.023539693541599332 0 -0.025285126876462099 0.024048817444657689 0 -0.024995707428139797 0.024006969254608851 0 -0.02495439768938704 0.023839726836484731 0 -0.024746543874345155 0.023762955657893388 0 -0.02486962599781968 0.023539693541599332 0 -0.024857415257904202 0.023459855375838331 0 -0.02486962599781968 0.023539693541599332 0 -0.024772954623532951 0.023496254414496182 0 -0.024849747080443386 0.023341646725962405 0 -0.02486962599781968 0.023539693541599332 0 -0.024777353320923623 0.023620554050452835 0 -0.024772954623532951 0.023496254414496182 0 -0.02486962599781968 0.023539693541599332 0 -0.024857415257904202 0.023459855375838331 0 -0.024849747080443386 0.023341646725962405 0 -0.024746543874345155 0.023762955657893388 0 -0.024857415257904202 0.023459855375838331 0 -0.02466467385389863 0.023510651856923515 0 -0.024875604278156615 0.023782339341347793 0 -0.024787580752131753 0.023578140247594668 0 -0.024902212490078474 0.024123121460913104 0 -0.02507282181170619 0.024102863929444971 0 -0.024989102686921671 0.023720159534454773 0 -0.024594316517293203 0.023522643055075135 0 -0.024602361417891638 0.023711375813667411 0 -0.024731104416149778 0.023685810875159134 0 -0.024647974748511915 0.023775065624953733 0 -0.024602361417891638 0.023711375813667411 0 -0.024731104416149778 0.023685810875159134 0 -0.024362771410478087 0.02381488798691489 0 -0.024602361417891638 0.023711375813667411 0 -0.024569145911370181 0.023881337782542703 0 -0.024647974748511915 0.023775065624953733 0 -0.024602361417891638 0.023711375813667411 0 -0.024569145911370181 0.023881337782542703 0 -0.024594316517293203 0.023522643055075135 0 -0.024464142350584469 0.023534517686430542 0 -0.024602361417891638 0.023711375813667411 0 -0.024362771410478087 0.02381488798691489 0 -0.024464142350584469 0.023534517686430542 0 -0.024602361417891638 0.023711375813667411 0 -0.024785121342654634 0.023573431712949369 0 -0.024731104416149778 0.023685810875159134 0 -0.024777353320923623 0.023620554050452835 0 -0.024785121342654634 0.023573431712949369 0 -0.024594316517293203 0.023522643055075135 0 -0.024731104416149778 0.023685810875159134 0 -0.024785121342654634 0.023573431712949369 0 -0.02486962599781968 0.023539693541599332 0 -0.024777353320923623 0.023620554050452835 0 -0.024731104416149778 0.023685810875159134 0 -0.024777353320923623 0.023620554050452835 0 -0.024718772948280184 0.02365587314251202 0 -0.024777353320923623 0.023620554050452835 0 -0.024718772948280184 0.02365587314251202 0 -0.024772954623532951 0.023496254414496182 0 -0.024718772948280184 0.02365587314251202 0 -0.024673252052528051 0.023792183022851972 0 -0.024682259128869524 0.023701562537842957 0 -0.024731104416149778 0.023685810875159134 0 -0.024718772948280184 0.02365587314251202 0 -0.024673252052528051 0.023792183022851972 0 -0.024647974748511915 0.023775065624953733 0 -0.024731104416149778 0.023685810875159134 0 -0.024673252052528051 0.023792183022851972 0 -0.024647974748511915 0.023775065624953733 0 -0.024673252052528051 0.023792183022851972 0 -0.024569145911370181 0.023881337782542703 0 -0.024673252052528051 0.023792183022851972 0 -0.024569145911370181 0.023881337782542703 0 -0.024679771953289457 0.023895011820921169 0 -0.024673252052528051 0.023792183022851972 0 -0.024679771953289457 0.023895011820921169 0 -0.024682259128869524 0.023701562537842957 0 -0.024844411385235517 0.023794246953202858 0 -0.02462618160095854 0.023318528517984192 0 -0.024682259128869524 0.023701562537842957 0 -0.024679771953289457 0.023895011820921169 0 -0.024844411385235517 0.023794246953202858 0 -0.024682259128869524 0.023701562537842957 0 -0.024844411385235517 0.023794246953202858 0 -0.02462618160095854 0.023318528517984192 0 -0.025232275817915911 0.023460884714064753 0 -0.02462618160095854 0.023318528517984192 0 -0.024682259128869524 0.023701562537842957 0 -0.02467578007694609 0.023450322369735085 0 -0.024772954623532951 0.023496254414496182 0 -0.02467578007694609 0.023450322369735085 0 -0.02475210772370439 0.023424339526899457 0 -0.024718772948280184 0.02365587314251202 0 -0.024772954623532951 0.023496254414496182 0 -0.02467578007694609 0.023450322369735085 0 -0.024718772948280184 0.02365587314251202 0 -0.024682259128869524 0.023701562537842957 0 -0.02467578007694609 0.023450322369735085 0 -0.02467578007694609 0.023450322369735085 0 -0.024718302554504613 0.023426801250264716 0 -0.02475210772370439 0.023424339526899457 0 -0.02462618160095854 0.023318528517984192 0 -0.02467578007694609 0.023450322369735085 0 -0.024718302554504613 0.023426801250264716 0 -0.024718302554504613 0.023426801250264716 0 -0.02475210772370439 0.023424339526899457 0 -0.02476243947090432 0.02343207228615822 0 -0.02462618160095854 0.023318528517984192 0 -0.022619846279180927 0.020441718809560808 0 -0.024678093695757703 0.020952860567166567 0 -0.02462618160095854 0.023318528517984192 0 -0.025232275817915911 0.023460884714064753 0 -0.025994405526218036 0.021711930357461929 0 -0.02462618160095854 0.023318528517984192 0 -0.024678093695757703 0.020952860567166567 0 -0.025994405526218036 0.021711930357461929 0 -0.024559530199838062 0.023179441375151388 0 -0.02360869304609815 0.02199269000562399 0 -0.025002969029195517 0.023120674833961401 0 -0.024849747080443386 0.023341646725962405 0 -0.024821763208379883 0.02344367039519675 0 -0.02457446013611124 0.022577692488531451 0 -0.025002969029195517 0.023120674833961401 0 -0.02503754815073082 0.021752648145767928 0 -0.024857415257904202 0.023459855375838331 0 -0.02466467385389863 0.023510651856923515 0 -0.025002969029195517 0.023120674833961401 0 -0.02466467385389863 0.023510651856923515 0 -0.02457446013611124 0.022577692488531451 0 -0.025002969029195517 0.023120674833961401 0 -0.024857415257904202 0.023459855375838331 0 -0.025002969029195517 0.023120674833961401 0 -0.024849747080443386 0.023341646725962405 0 -0.024772954623532951 0.023496254414496182 0 -0.024849747080443386 0.023341646725962405 0 -0.02475210772370439 0.023424339526899457 0 -0.024849747080443386 0.023341646725962405 0 -0.02475210772370439 0.023424339526899457 0 -0.024821763208379883 0.02344367039519675 0 -0.02475210772370439 0.023424339526899457 0 -0.02476243947090432 0.02343207228615822 0 -0.024821763208379883 0.02344367039519675 0 -0.025002969029195517 0.023120674833961401 0 -0.026848125806018346 0.020847146527813984 0 -0.02503754815073082 0.021752648145767928 0 -0.025172836653058382 0.022899390665569574 0 -0.025730586502443996 0.022555342035329353 0 -0.026848125806018346 0.020847146527813984 0 -0.02503754815073082 0.021752648145767928 0 -0.024782237592486923 0.020100573583933173 0 -0.024351160756069547 0.021727031804718428 0 -0.02503754815073082 0.021752648145767928 0 -0.024782237592486923 0.020100573583933173 0 -0.024351160756069547 0.021727031804718428 0 -0.02457446013611124 0.022577692488531451 0 -0.02503754815073082 0.021752648145767928 0 -0.031077067275732218 0.012898116224180693 0 -0.029247588040605718 0.011402095371599318 0 -0.033446348340136239 0.0094331532435823606 0 -0.03387340206373584 0.0086604079048252756 0 -0.033346129675986831 0.0082143545532272193 0 -0.026848125806018346 0.020847146527813984 0 -0.024782237592486923 0.020100573583933173 0 -0.027608405757009905 0.017342014562173942 0 -0.033446348340136239 0.0094331532435823606 0 -0.034854436374312639 0.0084508587368786921 0 -0.03387340206373584 0.0086604079048252756 0 -0.026584299032496348 0.017804450203776804 0 -0.027576939552024421 0.017290658213675144 0 -0.028183546847517192 0.016000476990964827 0 -0.028096010788758351 0.015578516875203815 0 -0.027608405757009905 0.017342014562173942 0 -0.028183546847517192 0.016000476990964827 0 -0.027608405757009905 0.017342014562173942 0 -0.027591703670594096 0.017505022723613997 0 -0.026848125806018346 0.020847146527813984 0 -0.027608405757009905 0.017342014562173942 0 -0.028404903556543144 0.017578516195688381 0 -0.02476243947090432 0.02343207228615822 0 -0.024821763208379883 0.02344367039519675 0 -0.024760376881964401 0.02342233463421927 0 -0.025730586502443996 0.022555342035329353 0 -0.025433177573376604 0.017569365482430838 0 -0.025433177573376604 0.017569365482430838 0 -0.029247588040605718 0.011402095371599318 0 -0.027608405757009905 0.017342014562173942 0 -0.028404903556543144 0.017578516195688381 0 -0.027591703670594096 0.017505022723613997 0 -0.029200758517402111 0.0071538015389999831 0 -0.029057543974025268 0.0076422647627100455 0 -0.02950112868438097 0.0073808812073324721 0 -0.029200758517402111 0.0071538015389999831 0 -0.028722606816894307 0.0071598635795518725 0 -0.029057543974025268 0.0076422647627100455 0 -0.034173192154096352 0.0075606005053127463 0 -0.034854436374312639 0.0084508587368786921 0 -0.034036827905174538 0.0082613110444306817 0 -0.031950381944634114 0.0065680151421597371 0 -0.029247588040605718 0.011402095371599318 0 -0.034854436374312639 0.0084508587368786921 0 -0.034036827905174538 0.0082613110444306817 0 -0.03387340206373584 0.0086604079048252756 0 -0.032590256857079378 0.0064775896403685513 0 -0.033745547319291948 0.0066102429094008139 0 -0.033074900258196066 0.0074986441913794883 0 -0.034036827905174538 0.0082613110444306817 0 -0.03387340206373584 0.0086604079048252756 0 -0.033346129675986831 0.0082143545532272193 0 -0.031950381944634114 0.0065680151421597371 0 -0.033272437513146604 0.0077738504910216484 0 -0.034173192154096352 0.0075606005053127463 0 -0.034036827905174538 0.0082613110444306817 0 -0.033346129675986831 0.0082143545532272193 0 -0.025233058863776497 0.017190653881444508 0 -0.028927190216956136 0.013664705556596655 0 -0.028732768247862299 0.016833723288010131 0 -0.024678093695757703 0.020952860567166567 0 -0.025233058863776497 0.017190653881444508 0 -0.025994405526218036 0.021711930357461929 0 -0.025137089355859968 0.017410838575819512 0 -0.027144321962642048 0.02028641365438846 0 -0.025233058863776497 0.017190653881444508 0 -0.028732768247862299 0.016833723288010131 0 -0.028447786946620465 0.019238525011776184 0 -0.022619846279180927 0.020441718809560808 0 -0.024678093695757703 0.020952860567166567 0 -0.025233058863776497 0.017190653881444508 0 -0.022619846279180927 0.020441718809560808 0 -0.019910270499954915 0.01649795706888189 0 -0.022937617464961185 0.016002796446203043 0 -0.022619846279180927 0.020441718809560808 0 -0.025233058863776497 0.017190653881444508 0 -0.022937617464961185 0.016002796446203043 0 -0.02360869304609815 0.02199269000562399 0 -0.025433177573376604 0.017569365482430838 0 -0.024718302554504613 0.023426801250264716 0 -0.02476243947090432 0.02343207228615822 0 -0.024760376881964401 0.02342233463421927 0 -0.022937617464961185 0.016002796446203043 0 -0.022298470720553576 0.012890955699481449 0 -0.025515889436081664 0.013816874661084399 0 -0.029247588040605718 0.011402095371599318 0 -0.025989339782081136 0.011270314488174176 0 -0.019910270499954915 0.01649795706888189 0 -0.022937617464961185 0.016002796446203043 0 -0.022298470720553576 0.012890955699481449 0 -0.025433177573376604 0.017569365482430838 0 -0.025989339782081136 0.011270314488174176 0 -0.026442144225615392 0.013464576590555954 0 -0.026096313592588821 0.013007024932785239 0 -0.027059946646471204 0.012433959234832414 0 -0.025709666434180916 0.011374557305653597 0 -0.022298470720553576 0.012890955699481449 0 -0.025515889436081664 0.013816874661084399 0 -0.024490766636736255 0.012026886812157167 0 -0.025989339782081136 0.011270314488174176 0 -0.025709666434180916 0.011374557305653597 0 -0.025515889436081664 0.013816874661084399 0 -0.027615446123253892 0.01194933997621745 0 -0.025233058863776497 0.017190653881444508 0 -0.022937617464961185 0.016002796446203043 0 -0.025515889436081664 0.013816874661084399 0 -0.025233058863776497 0.017190653881444508 0 -0.025515889436081664 0.013816874661084399 0 -0.028927190216956136 0.013664705556596655 0 -0.025515889436081664 0.013816874661084399 0 -0.027615446123253892 0.01194933997621745 0 -0.028927190216956136 0.013664705556596655 0 -0.032423859219586133 0.011245520324327362 0 -0.028927190216956136 0.013664705556596655 0 -0.032222034914480752 0.015279808027866564 0 -0.028732768247862299 0.016833723288010131 0 -0.032222034914480752 0.015279808027866564 0 -0.030971032065401149 0.018805972613117991 0 -0.028927190216956136 0.013664705556596655 0 -0.028732768247862299 0.016833723288010131 0 -0.032222034914480752 0.015279808027866564 0 -0.028732768247862299 0.016833723288010131 0 -0.028447786946620465 0.019238525011776184 0 -0.030971032065401149 0.018805972613117991 0 -0.032222034914480752 0.015279808027866564 0 -0.030971032065401149 0.018805972613117991 0 -0.033777036168546069 0.018492659360671581 0 -0.032423859219586133 0.011245520324327362 0 -0.032222034914480752 0.015279808027866564 0 -0.034772335426278694 0.012940558503346158 0 -0.032222034914480752 0.015279808027866564 0 -0.034772335426278694 0.012940558503346158 0 -0.036172151569392845 0.015013994731919987 0 -0.019392268089764252 0.026422638942917617 0 -0.019500330462956419 0.027086805638251096 0 -0.020221452775757289 0.026412320203152161 0 -0.034772335426278694 0.012940558503346158 0 -0.03760122119217911 0.012467810832124122 0 -0.036172151569392845 0.015013994731919987 0 -0.029155627366996607 0.019499261073873578 0 -0.028044996766374175 0.020844355180823761 0 -0.019567370811689234 0.02581874609944056 0 -0.020221452775757289 0.026412320203152161 0 -0.020280899701663389 0.025477849256135495 0 -0.019392268089764252 0.026422638942917617 0 -0.019567370811689234 0.02581874609944056 0 -0.020221452775757289 0.026412320203152161 0 -0.028044996766374175 0.020844355180823761 0 -0.027375698264414054 0.022035336906129858 0 -0.020221452775757289 0.026412320203152161 0 -0.020280899701663389 0.025477849256135495 0 -0.020962434884357738 0.025702375706286265 0 -0.032222034914480752 0.015279808027866564 0 -0.036172151569392845 0.015013994731919987 0 -0.033777036168546069 0.018492659360671581 0 -0.020280899701663389 0.025477849256135495 0 -0.020821534924497315 0.0250034550194983 0 -0.020962434884357738 0.025702375706286265 0 -0.020280899701663389 0.025477849256135495 0 -0.020821534924497315 0.0250034550194983 0 -0.020401798230895475 0.025006857851094126 0 -0.019567370811689234 0.02581874609944056 0 -0.020280899701663389 0.025477849256135495 0 -0.019581130645365291 0.025184693312019873 0 -0.020280899701663389 0.025477849256135495 0 -0.019581130645365291 0.025184693312019873 0 -0.02003002639673707 0.02488083478316978 0 -0.019581130645365291 0.025184693312019873 0 -0.02003002639673707 0.02488083478316978 0 -0.019549648479082308 0.02464247495981213 0 -0.019088850216956423 0.024893968450438786 0 -0.019581130645365291 0.025184693312019873 0 -0.019549648479082308 0.02464247495981213 0 -0.02003002639673707 0.02488083478316978 0 -0.020042727361464757 0.024460034459676795 0 -0.019549648479082308 0.02464247495981213 0 -0.020821534924497315 0.0250034550194983 0 -0.020401798230895475 0.025006857851094126 0 -0.020472163398612346 0.024660517328525023 0 -0.020280899701663389 0.025477849256135495 0 -0.02003002639673707 0.02488083478316978 0 -0.020401798230895475 0.025006857851094126 0 -0.02003002639673707 0.02488083478316978 0 -0.020401798230895475 0.025006857851094126 0 -0.020472163398612346 0.024660517328525023 0 -0.020361554063458624 0.024395103965313844 0 -0.020042727361464757 0.024460034459676795 0 -0.020472163398612346 0.024660517328525023 0 -0.02003002639673707 0.02488083478316978 0 -0.020042727361464757 0.024460034459676795 0 -0.020472163398612346 0.024660517328525023 0 -0.020587129295574377 0.024327611210864242 0 -0.020361554063458624 0.024395103965313844 0 -0.020472163398612346 0.024660517328525023 0 -0.020587129295574377 0.024327611210864242 0 -0.020472163398612346 0.024660517328525023 0 -0.020826101679951727 0.024610728807574537 0 -0.020821534924497315 0.0250034550194983 0 -0.020472163398612346 0.024660517328525023 0 -0.020826101679951727 0.024610728807574537 0 -0.020955155487269301 0.024243535409442445 0 -0.020826101679951727 0.024610728807574537 0 -0.021170010439844091 0.024864571000569963 0 -0.021483735626176139 0.024133370825570533 0 -0.026288660509860944 0.023635857478761815 0 -0.020955155487269301 0.024243535409442445 0 -0.021170010439844091 0.024864571000569963 0 -0.021690272886209835 0.024958497878788337 0 -0.022898596995705709 0.024371624407926593 0 -0.024324706162723062 0.024116061748550178 0 -0.024896751272103772 0.024254483907865117 0 -0.020821534924497315 0.0250034550194983 0 -0.020826101679951727 0.024610728807574537 0 -0.021170010439844091 0.024864571000569963 0 -0.02447730829733448 0.024066078457181256 0 -0.024746992997298298 0.024005315289835259 0 -0.024747844234082942 0.024051965737694799 0 -0.024324706162723062 0.024116061748550178 0 -0.024747844234082942 0.024051965737694799 0 -0.024896751272103772 0.024254483907865117 0 -0.02447730829733448 0.024066078457181256 0 -0.024324706162723062 0.024116061748550178 0 -0.024747844234082942 0.024051965737694799 0 -0.024746992997298298 0.024005315289835259 0 -0.024917793433129654 0.023979637282977761 0 -0.024747844234082942 0.024051965737694799 0 -0.024746992997298298 0.024005315289835259 0 -0.024917793433129654 0.023979637282977761 0 -0.025033499118079415 0.02380940092429238 0 -0.024917793433129654 0.023979637282977761 0 -0.024747844234082942 0.024051965737694799 0 -0.025093377794405371 0.024043996287730025 0 -0.024718209450221122 0.02396411681771846 0 -0.024844411385235517 0.023794246953202858 0 -0.025033499118079415 0.02380940092429238 0 -0.024718209450221122 0.02396411681771846 0 -0.024679771953289457 0.023895011820921169 0 -0.024844411385235517 0.023794246953202858 0 -0.024718209450221122 0.02396411681771846 0 -0.024746992997298298 0.024005315289835259 0 -0.025033499118079415 0.02380940092429238 0 -0.024844411385235517 0.023794246953202858 0 -0.025033499118079415 0.02380940092429238 0 -0.025232275817915911 0.023460884714064753 0 -0.025033499118079415 0.02380940092429238 0 -0.025232275817915911 0.023460884714064753 0 -0.025093377794405371 0.024043996287730025 0 -0.025232275817915911 0.023460884714064753 0 -0.025093377794405371 0.024043996287730025 0 -0.0253463619780398 0.023859881873045639 0 -0.024747844234082942 0.024051965737694799 0 -0.025093377794405371 0.024043996287730025 0 -0.024896751272103772 0.024254483907865117 0 -0.025971321084453328 0.02388143928911508 0 -0.026288660509860944 0.023635857478761815 0 -0.024917793433129654 0.023979637282977761 0 -0.025033499118079415 0.02380940092429238 0 -0.025093377794405371 0.024043996287730025 0 -0.026288660509860944 0.023635857478761815 0 -0.027144321962642048 0.02028641365438846 0 -0.030927021043680138 0.021806898218594568 0 -0.028447786946620465 0.019238525011776184 0 -0.030971032065401149 0.018805972613117991 0 -0.025232275817915911 0.023460884714064753 0 -0.0253463619780398 0.023859881873045639 0 -0.025994405526218036 0.021711930357461929 0 -0.030927021043680138 0.021806898218594568 0 -0.030971032065401149 0.018805972613117991 0 -0.033777036168546069 0.018492659360671581 0 -0.021170010439844091 0.024864571000569963 0 -0.021690272886209835 0.024958497878788337 0 -0.020962434884357738 0.025702375706286265 0 -0.020821534924497315 0.0250034550194983 0 -0.021170010439844091 0.024864571000569963 0 -0.020962434884357738 0.025702375706286265 0 -0.026288660509860944 0.023635857478761815 0 -0.027375698264414054 0.022035336906129858 0 
</DataArray>
</PointData>
<CellData Scalars="region_id,cross_section_updated," Vectors="" Tensors="stress,">
<DataArray type="Float64" Name="region_id" format="ascii">
5 5 5 6 5 5 5 5 5 5 5 5 5 5 6 5 5 5 5 6 5 5 5 5 5 5 6 5 5 5 5 5 5 5 5 5 5 5 5 5 5 5 5 6 5 5 5 5 5 6 5 6 5 5 5 5 5 5 5 5 5 5 5 5 5 5 5 5 5 5 5 5 5 5 5 5 5 5 5 5 5 5 6 5 5 6 5 5 5 5 5 5 5 5 5 5 6 5 6 5 5 5 5 5 5 5 5 5 5 6 5 5 5 5 5 5 5 5 5 5 5 5 5 5 6 5 6 5 5 5 5 5 5 6 5 5 5 5 5 5 5 5 5 5 5 5 5 5 6 5 6 5 5 5 5 5 5 5 5 5 5 5 6 5 5 5 5 6 5 5 5 5 5 5 5 5 5 5 5 5 5 5 5 5 6 5 5 5 5 5 5 5 5 5 5 5 5 5 6 5 5 5 5 5 5 5 5 5 5 5 5 5 5 5 5 5 5 5 5 5 5 5 5 5 5 6 5 6 5 5 5 6 5 5 5 5 6 5 5 5 5 5 5 5 5 5 5 5 5 5 5 5 6 5 5 5 5 5 5 5 5 5 5 5 5 5 5 5 5 5 5 5 5 5 5 5 5 5 5 5 5 5 5 5 5 5 5 5 5 5 5 5 5 5 5 5 5 5 5 5 5 5 5 5 5 5 5 5 5 5 5 5 5 5 6 5 5 5 5 6 5 5 6 5 5 5 5 5 5 5 5 5 5 6 5 5 5 5 5 5 5 5 5 5 5 5 5 5 5 5 5 5 5 5 5 5 5 5 5 5 5 5 5 5 5 5 5 5 6 5 5 5 5 5 5 5 5 5 5 5 5 5 5 5 5 5 5 5 5 5 5 5 5 5 5 5 5 5 5 5 5 5 5 5 5 5 5 5 5 5 5 5 5 5 5 5 6 5 5 5 5 5 5 5 5 5 5 5 5 5 5 5 5 5 5 5 5 5 5 5 5 5 5 5 5 5 5 5 5 5 5 5 5 5 5 5 5 5 5 5 5 5 5 5 5 5 5 5 5 5 5 5 5 5 5 5 5 5 5 5 5 5 5 5 5 5 5 5 5 5 5 5 5 5 5 5 5 5 5 5 5 5 5 6 5 5 5 6 5 5 5 5 5 5 5 5 5 5 5 6 5 5 5 5 5 5 5 5 5 5 5 5 5 5 5 5 5 5 5 5 6 5 5 5 6 5 5 5 5 5 5 5 5 5 6 5 5 6 5 5 5 5 5 5 5 5 5 5 6 5 5 5 5 5 5 5 5 5 5 5 5 5 6 5 5 5 6 5 6 5 5 5 6 5 5 5 5 5 5 5 5 5 5 5 5 5 5 5 5 5 5 6 5 5 5 5 5 5 5 5 5 6 6 5 5 5 5 5 5 6 5 5 5 5 6 5 5 5 5 5 5 5 5 5 5 5 5 5 5 5 6 5 5 5 6 5 5 5 5 5 5 5 5 5 5 5 5 6 5 5 5 5 5 5 5 5 5 5 5 5 5 5 5 5 5 5 5 5 5 5 5 5 5 6 5 5 5 5 6 5 5 5 5 5 6 6 6 5 5 5 5 6 5 5 6 5 5 5 5 5 5 5 5 6 5 5 5 5 5 5 5 5 6 5 5 5 5 5 5 5 6 5 5 5 5 5 5 6 5 5 5 5 5 5 5 5 6 5 5 5 5 5 5 5 5 6 5 5 5 5 5 5 5 5 5 5 5 5 5 5 5 5 5 5 5 5 5 5 5 5 5 5 5 6 5 5 5 5 5 5 5 5 5 5 5 5 5 6 5 5 5 5 5 5 5 5 5 5 5 5 5 5 5 5 5 5 6 5 5 5 5 6 5 6 5 5 5 5 5 5 5 5 5 5 5 6 5 5 6 5 5 6 5 5 6 6 5 5 5 5 5 5 5 5 5 5 5 5 5 5 5 5 5 5 5 5 5 5 5 5 5 5 5 5 5 5 5 5 6 5 5 5 5 5 5 5 5 5 5 5 5 5 5 5 5 5 5 5 5 5 5 5 5 5 5 5 5 5 5 5 5 5 5 5 5 5 5 5 5 5 5 5 5 5 5 5 5 5 5 5 5 5 5 5 5 5 5 5 5 5 5 5 5 5 5 5 5 5 5 5 5 5 5 5 5 5 5 5 5 5 5 5 5 5 5 5 5 5 5 5 5 5 5 5 5 5 5 5 5 5 5 5 5 5 5 5 5 5 5 5 5 5 5 5 5 5 5 5 5 5 5 5 5 5 5 5 5 5 5 5 5 5 5 6 5 5 5 5 5 5 5 5 6 5 5 5 5 5 5 5 5 5 5 6 5 5 5 6 5 5 5 5 5 5 5 5 5 5 5 5 5 5 5 5 5 5 5 5 5 5 5 5 5 5 5 5 5 5 6 5 5 5 5 5 6 5 5 5 5 5 6 5 5 6 5 5 5 5 5 5 5 5 5 5 5 6 5 5 5 6 5 5 5 5 5 5 5 5 5 5 5 5 5 5 5 5 5 6 5 6 6 5 5 6 5 5 5 5 5 6 6 5 5 5 5 5 6 5 5 5 5 6 5 5 5 5 5 5 5 5 5 5 5 6 5 5 5 5 6 5 5 6 6 5 5 6 5 5 5 5 5 5 5 5 5 5 5 5 5 5 5 5 5 6 5 5 5 5 5 5 5 5 5 5 5 5 5 6 5 5 6 5 5 5 6 6 5 5 5 6 5 5 6 6 6 6 5 5 5 6 5 6 5 6 6 5 6 5 5 5 5 6 6 5 5 5 6 6 5 5 6 5 5 5 5 5 5 6 5 6 5 6 6 5 5 5 5 6 5 5 5 6 5 6 5 5 5 6 5 5 5 5 5 5 6 5 5 5 6 5 5 5 6 5 6 6 5 5 5 5 5 5 5 5 5 5 5 6 5 5 5 5 5 5 5 5 5 5 5 5 5 5 6 5 5 5 5 5 5 5 6 5 5 5 5 5 5 5 5 6 5 5 5 5 5 5 5 5 5 5 5 5 5 5 5 5 5 5 5 5 5 5 5 5 5 5 5 5 5 5 5 5 5 5 5 5 5 5 5 5 5 5 5 5 5 5 5 5 5 5 5 5 5 5 5 5 5 5 5 5 5 5 5 5 5 5 6 5 6 5 5 5 5 5 5 5 5 6 5 5 5 5 5 5 5 6 6 5 5 5 5 5 5 5 5 5 5 5 5 5 5 5 5 5 5 5 5 5 5 5 6 5 5 5 5 5 5 5 5 5 5 5 5 5 5 5 5 5 5 6 5 5 5 5 5 5 5 5 5 5 6 5 5 5 5 6 5 5 5 5 5 5 5 5 6 5 5 5 5 5 5 5 5 5 6 5 5 5 6 6 5 5 5 5 5 6 5 5 5 6 5 5 5 5 6 5 5 5 6 5 5 5 5 6 5 5 5 5 5 5 5 5 5 5 5 5 5 5 5 5 5 5 5 5 6 5 5 5 5 5 5 5 5 5 5 5 5 5 6 6 5 5 5 5 6 5 5 5 5 5 5 5 5 5 5 5 5 5 5 5 5 5 5 5 6 5 6 5 5 5 6 5 5 5 5 5 5 5 5 5 5 5 5 6 5 5 5 6 5 5 5 5 5 6 5 5 5 5 5 6 5 5 5 5 5 5 5 5 5 5 5 5 5 5 5 5 5 5 5 5 5 5 6 5 6 5 5 6 5 5 5 5 5 5 5 5 5 5 6 5 5 5 5 6 5 5 5 5 5 6 5 5 6 5 5 5 5 5 6 5 5 6 5 5 5 5 5 5 5 5 5 5 5 5 5 5 5 5 5 5 5 5 5 5 5 5 5 5 6 5 5 5 5 6 5 5 5 6 5 5 6 6 5 5 5 6 5 5 6 5 6 5 5 5 6 5 5 5 5 6 5 6 5 5 6 5 5 5 5 5 5 5 5 5 5 5 5 5 5 5 5 5 5 5 6 5 5 5 5 5 5 6 5 5 5 5 5 5 5 5 5 5 5 5 5 5 5 6 5 5 5 5 5 5 5 6 6 5 5 5 5 5 5 5 6 6 5 5 5 5 5 5 5 5 5 5 6 5 5 5 5 5 6 5 5 6 5 5 5 5 5 6 5 5 5 5 5 5 6 5 5 6 5 6 6 5 5 5 5 5 6 5 6 5 5 5 5 5 6 6 6 5 6 5 6 5 5 5 5 5 5 5 5 5 5 5 5 6 5 5 5 6 5 5 5 5 5 6 5 6 5 5 6 5 5 5 5 5 6 5 5 5 5 5 6 5 5 5 5 5 6 5 5 5 5 5 5 5 5 5 5 5 5 5 5 5 5 5 5 5 5 5 5 5 5 5 5 5 5 5 5 5 5 5 5 5 5 5 5 5 5 5 5 5 5 5 5 5 5 6 5 5 5 5 5 5 5 5 5 5 5 5 6 5 5 5 5 5 5 5 5 5 5 5 5 5 5 5 5 5 5 5 5 5 5 5 5 5 5 5 5 5 5 5 5 5 5 5 5 5 5 5 5 5 5 5 5 5 5 5 5 5 5 5 5 5 5 5 5 5 5 5 5 5 5 5 5 6 5 5 6 5 5 6 5 5 5 5 6 5 5 6 6 5 5 5 5 5 5 5 5 5 5 5 5 5 5 5 5 5 6 5 5 5 5 5 5 5 5 5 5 5 5 6 6 5 5 5 5 6 5 5 5 5 5 5 5 6 5 6 5 5 5 5 5 5 5 5 5 5 5 5 5 5 5 5 5 5 6 5 5 5 5 5 5 6 6 5 5 6 5 5 5 5 5 6 5 5 5 5 5 5 5 6 5 5 5 5 5 5 5 5 5 5 5 5 5 5 5 5 5 5 5 5 6 5 5 5 5 5 5 5 5 5 5 5 5 5 6 5 5 5 5 5 5 5 5 5 5 5 5 5 5 5 5 5 5 5 5 5 5 5 5 5 5 5 5 5 5 5 5 5 5 5 5 6 5 5 5 5 6 5 6 5 5 5 5 5 5 5 5 5 5 5 5 5 5 5 5 6 5 5 5 5 6 5 5 5 5 5 5 5 5 5 5 5 5 6 5 6 5 5 5 5 5 5 5 5 5 6 5 5 5 5 5 5 6 5 5 5 5 5 5 6 5 5 5 6 5 5 5 6 5 5 5 5 5 5 6 5 5 5 5 5 5 5 5 5 5 5 5 5 5 5 5 5 5 5 5 5 5 5 5 5 5 5 5 5 5 6 5 6 5 5 5 5 5 5 5 5 5 5 6 5 5 5 5 5 5 5 6 5 6 6 5 5 5 5 5 5 5 5 6 5 5 5 6 5 6 5 5 5 5 5 5 6 5 5 5 5 5 5 5 5 5 5 6 5 5 5 5 5 5 6 5 6 5 5 5 6 5 5 5 5 6 5 5 5 5 5 5 5 5 5 5 5 5 5 5 5 5 5 5 5 5 5 5 5 5 5 5 5 5 5 5 5 5 5 5 5 5 5 5 5 5 5 5 5 6 5 5 5 5 5 5 5 5 5 5 6 5 5 5 6 5 5 6 5 6 5 5 5 5 5 6 5 5 5 5 5 5 5 5 5 5 6 5 5 5 5 5 6 5 5 5 5 6 5 6 5 5 5 5 5 5 5 5 5 5 5 5 5 5 5 5 6 6 5 5 6 5 5 5 5 5 5 5 5 5 5 5 5 5 5 5 5 5 5 5 5 5 5 5 6 5 5 5 6 5 5 5 5 5 5 5 5 5 6 5 5 5 6 5 5 6 5 5 6 5 5 5 5 5 5 5 5 5 5 6 5 5 6 5 5 5 5 5 5 5 5 5 5 5 5 5 5 6 5 5 5 5 5 5 5 5 5 5 5 6 5 5 5 6 5 5 5 5 5 5 5 5 5 5 5 6 5 5 5 5 5 5 6 5 5 5 5 6 6 5 5 5 5 5 6 5 5 5 5 5 5 5 5 5 5 5 5 5 5 5 5 5 5 5 5 5 5 5 6 5 5 5 6 5 5 6 5 5 6 5 5 5 5 5 5 5 5 5 5 5 5 5 5 5 5 5 5 5 5 6 5 5 5 6 5 5 5 5 5 5 5 5 5 5 5 5 6 5 5 5 5 5 5 5 6 5 5 5 5 5 5 5 5 5 5 5 5 6 5 5 5 6 5 5 5 6 5 6 5 5 5 5 5 5 5 5 5 5 5 6 5 5 5 5 5 6 5 5 5 5 5 5 5 5 5 5 5 5 5 5 5 5 5 5 5 5 5 5 5 5 5 5 5 6 5 6 5 6 5 5 5 5 5 5 5 5 5 5 5 5 5 5 5 5 5 5 5 5 5 5 6 5 5 5 5 6 5 6 5 5 5 5 5 5 5 5 5 6 5 5 5 5 6 6 5 5 6 5 5 5 5 5 5 5 6 5 5 5 6 6 5 6 6 5 5 5 5 6 6 6 5 5 5 5 5 5 5 6 5 5 5 5 5 5 5 5 5 6 5 5 5 5 5 5 5 5 6 5 5 5 6 5 5 5 5 5 5 5 5 5 5 5 5 5 5 5 6 5 5 5 5 5 5 6 5 5 5 6 6 5 6 5 5 5 5 5 5 5 5 5 5 5 5 5 5 5 5 5 5 5 5 5 5 5 6 5 6 6 5 5 5 5 5 5 5 6 5 5 5 6 5 5 6 5 5 5 5 5 6 5 5 5 5 5 5 5 5 5 5 5 5 6 5 5 5 5 5 6 5 5 5 5 6 5 6 5 5 5 5 5 5 6 5 5 6 5 6 5 5 5 5 6 5 5 5 5 6 5 6 5 5 5 5 5 6 5 5 5 5 5 5 5 5 5 5 5 5 5 5 5 5 5 5 5 5 5 5 5 5 5 5 5 5 5 5 5 5 5 5 5 5 5 5 6 5 5 6 5 5 5 5 5 5 5 5 5 5 5 5 5 5 5 5 5 5 6 5 5 6 5 5 5 5 5 5 5 5 5 5 5 5 5 5 5 5 5 5 5 5 5 5 5 5 5 5 5 5 5 5 5 5 5 5 5 5 5 5 5 5 5 5 5 5 5 5 5 5 5 5 5 6 5 5 5 5 5 5 5 6 5 5 5 5 5 5 5 5 5 5 5 5 5 5 5 5 5 5 5 6 5 6 5 5 5 5 5 5 5 5 5 5 6 6 5 5 5 5 5 5 5 5 5 5 5 5 5 5 5 5 5 5 5 5 5 6 5 5 5 5 5 5 6 5 5 5 5 5 5 5 5 5 5 5 5 5 5 5 5 6 5 5 6 5 5 5 6 5 5 5 6 5 5 5 5 5 6 5 5 5 5 5 5 5 6 5 5 5 5 5 5 5 6 6 5 6 6 5 5 6 5 6 5 5 5 6 5 6 5 6 5 5 6 5 5 5 5 5 6 5 5 6 5 6 5 5 5 5 6 5 5 5 5 5 6 5 5 6 5 5 5 5 6 5 5 5 6 5 5 6 5 5 6 5 5 5 5 5 5 5 5 5 5 5 6 5 5 5 6 5 6 5 5 5 5 5 5 5 5 5 5 5 5 5 5 6 5 5 6 5 5 5 5 5 5 6 5 6 5 5 5 5 5 5 5 5 6 5 6 5 6 6 5 5 6 5 5 5 5 5 5 5 5 5 5 5 5 5 5 5 5 5 5 5 5 5 5 5 5 5 5 5 6 5 5 5 5 5 5 5 5 6 5 5 5 5 5 6 5 5 5 5 5 5 5 5 5 5 5 5 5 5 6 5 5 5 5 5 5 6 6 5 5 5 6 5 5 5 6 5 6 6 5 5 5 5 5 5 6 5 5 5 5 5 6 5 5 5 5 5 5 6 5 5 5 5 5 5 5 5 6 5 6 6 5 5 5 6 5 5 5 5 5 6 5 5 5 5 6 5 5 5 5 5 6 5 5 5 6 5 5 5 5 6 5 5 5 5 5 5 6 5 5 5 6 5 5 5 5 5 5 5 5 5 5 5 6 5 6 5 5 5 6 6 5 5 6 5 5 5 5 5 5 5 5 5 5 5 5 5 5 6 5 5 6 5 5 5 5 6 5 5 5 5 5 5 5 5 5 5 6 5 5 6 5 5 5 5 5 5 5 5 5 5 5 6 5 5 5 5 6 5 5 5 5 6 5 5 5 5 5 5 5 5 5 5 5 5 5 5 5 5 5 5 5 5 5 6 5 5 5 5 5 5 6 5 5 5 5 5 5 5 5 5 6 5 5 5 5 5 5 6 5 5 6 5 5 5 5 5 5 5 5 5 5 5 5 5 5 5 5 5 5 5 5 5 5 6 5 5 5 5 6 5 6 5 6 5 5 5 5 5 5 5 5 5 5 5 5 5 5 5 5 5 5 6 5 5 5 5 5 6 5 5 6 5 5 6 5 5 5 6 5 5 5 5 6 5 5 5 5 5 5 5 5 5 5 5 6 5 5 5 6 5 5 5 5 6 5 5 6 5 5 5 5 5 5 5 5 5 5 5 5 5 5 5 6 6 5 5 6 6 5 5 5 5 5 5 6 5 6 6 5 5 5 5 6 5 5 5 5 5 5 5 6 5 5 5 5 5 5 5 6 5 5 5 5 5 5 5 5 5 5 5 5 5 5 6 5 5 5 5 5 5 5 5 5 5 5 6 6 5 5 5 5 5 5 5 5 5 6 5 5 5 5 6 5 5 5 6 6 5 5 6 5 5 5 5 5 5 6 5 5 5 5 6 6 5 5 5 5 5 6 5 5 5 5 5 5 5 5 5 6 5 5 6 5 5 6 5 5 5 6 5 5 5 6 6 5 6 5 6 5 5 5 5 5 5 5 5 5 6 5 5 5 5 5 5 5 5 5 5 5 5 5 6 5 5 5 5 5 5 5 5 5 5 5 5 6 5 5 5 5 5 5 5 6 5 5 5 6 5 5 5 5 5 5 6 5 5 5 6 5 5 5 5 5 5 5 5 5 6 5 5 5 5 5 5 5 6 5 5 5 5 5 5 5 5 5 5 5 5 5 6 5 5 6 5 6 5 5 5 5 5 5 5 5 5 5 5 5 5 5 5 5 5 5 5 5 5 6 5 5 5 5 6 5 5 5 5 6 5 6 5 6 5 5 5 5 6 5 5 5 5 5 5 5 5 5 6 6 5 6 5 5 5 5 6 5 6 5 5 5 5 5 5 5 5 5 5 5 5 5 5 5 5 5 5 5 5 5 5 5 5 6 5 5 5 5 5 5 5 5 5 5 5 5 5 5 5 5 5 5 5 5 5 5 6 5 5 5 5 6 6 5 5 5 5 5 5 5 5 5 5 5 6 5 5 5 5 5 5 5 5 5 5 5 5 5 5 5 5 5 5 5 5 5 5 5 5 5 5 5 6 5 5 5 5 5 6 5 5 5 5 5 5 5 6 6 5 5 5 5 5 6 5 5 5 6 5 5 6 5 5 5 5 5 6 5 5 6 5 5 5 5 6 5 5 6 5 5 5 6 5 5 5 5 6 6 6 6 5 5 5 6 5 5 5 5 5 5 5 5 5 5 5 5 6 5 5 6 5 5 5 6 5 5 5 5 5 6 5 5 5 5 5 5 6 5 5 5 5 5 5 5 5 5 6 5 5 6 5 5 5 5 5 5 5 5 5 5 5 5 5 6 5 5 5 5 5 5 6 5 5 5 6 5 5 5 6 5 5 5 5 5 5 5 5 5 5 5 5 5 5 5 5 5 5 5 5 5 6 5 5 5 5 6 5 5 6 6 5 5 6 6 5 5 5 6 5 5 5 5 6 6 6 6 5 5 5 5 5 5 5 5 5 5 5 5 6 5 5 5 5 5 5 5 5 5 5 5 5 5 6 5 5 6 6 5 5 6 5 5 5 5 5 5 6 5 5 5 5 6 6 6 5 5 5 5 5 5 6 5 5 5 5 6 5 5 5 6 6 6 5 5 5 5 5 6 5 5 5 6 5 5 5 5 6 5 5 5 6 5 5 5 5 5 5 5 5 5 5 5 5 6 5 5 5 5 5 5 5 5 5 6 5 5 5 5 6 5 5 5 5 5 5 6 5 5 5 5 6 5 5 6 5 5 5 5 5 5 5 5 5 5 5 5 5 5 5 5 6 5 5 5 6 5 5 5 6 5 6 5 5 5 5 5 5 5 5 5 6 5 5 6 5 5 5 5 5 5 5 5 5 5 5 5 5 6 5 5 5 5 6 5 5 5 6 5 5 6 5 5 5 5 5 5 5 5 5 5 5 5 5 6 5 6 5 5 5 5 5 6 6 5 5 6 5 5 5 6 5 5 5 5 5 6 6 5 5 5 6 5 5 5 5 6 5 5 5 5 5 5 6 5 6 5 5 5 5 5 5 5 5 5 5 5 6 5 5 5 5 5 5 5 6 5 5 5 5 6 5 5 5 5 5 6 5 5 6 5 6 6 5 5 5 5 5 5 6 5 5 5 5 5 5 5 5 5 5 5 5 5 5 6 5 6 5 5 5 6 5 5 5 5 5 5 5 5 5 5 5 5 5 5 6 5 5 5 5 5 5 5 5 5 5 5 5 5 5 5 5 5 5 5 5 6 5 6 5 5 5 6 5 5 5 5 5 5 5 5 5 5 5 5 6 5 6 5 5 6 5 5 5 5 6 5 5 5 5 5 5 5 5 5 5 5 5 5 5 5 5 6 5 5 5 5 6 6 5 5 6 5 5 5 5 6 5 6 5 6 5 5 5 5 5 5 5 6 5 5 5 5 5 5 5 5 5 6 5 5 5 5 5 5 5 5 5 5 6 5 5 6 5 5 5 5 6 5 5 6 5 6 5 5 5 5 5 5 5 5 5 5 5 5 5 5 5 5 5 5 5 5 5 5 5 5 5 5 5 5 5 6 6 5 5 5 6 5 5 6 5 5 6 5 5 5 5 5 5 5 5 5 6 5 5 5 5 5 6 5 6 5 5 5 6 5 6 5 5 5 6 5 5 5 5 5 6 5 5 5 5 6 5 5 6 5 5 5 5 5 5 5 5 5 5 5 5 5 5 5 5 5 5 5 5 5 5 5 5 5 5 5 6 5 5 5 5 5 5 5 5 5 5 6 5 5 5 5 5 5 5 5 5 5 6 5 5 5 5 5 5 5 5 5 5 5 5 5 5 5 5 5 5 5 5 5 5 5 5 5 5 6 5 5 5 5 5 5 5 5 5 5 6 5 5 6 5 5 5 5 5 6 5 5 5 5 5 5 5 5 5 5 5 5 5 5 5 5 5 5 5 5 5 5 5 5 6 5 5 5 5 5 6 5 5 5 5 5 5 5 6 5 6 5 5 5 5 5 5 5 5 5 5 5 5 5 5 5 5 5 5 5 5 5 6 5 6 6 5 6 5 5 6 5 6 5 6 6 6 6 5 5 6 6 5 6 5 5 5 6 5 5 6 5 5 6 5 5 5 5 5 5 6 5 5 5 6 5 5 5 5 5 5 5 5 5 5 5 5 5 5 5 5 5 6 5 5 5 5 5 6 5 5 5 5 5 5 5 5 6 6 5 6 5 6 5 5 5 5 6 5 5 5 5 5 5 6 5 5 5 5 5 5 5 5 5 5 5 5 5 5 5 5 6 5 5 5 5 5 5 5 5 5 5 5 5 5 5 5 5 5 6 5 5 5 6 5 5 5 5 5 5 5 5 5 5 5 6 5 5 5 5 6 5 5 5 5 5 6 5 5 5 5 5 5 5 5 5 5 6 5 6 5 5 5 6 5 6 5 5 6 5 5 5 5 6 5 5 5 5 5 5 6 5 5 5 5 5 6 5 5 5 5 5 5 5 5 5 5 5 6 5 5 5 5 5 6 5 5 5 5 5 5 5 5 5 5 5 6 5 5 5 5 5 5 6 5 5 5 5 5 5 5 5 5 5 5 5 5 5 5 5 5 5 6 5 5 5 5 6 5 5 5 5 5 5 5 5 5 5 6 5 5 5 6 6 5 5 5 5 6 5 5 5 5 5 5 5 5 5 6 5 5 5 5 6 5 5 6 6 5 5 6 6 5 5 5 6 5 5 6 6 5 6 6 5 5 5 6 5 6 5 5 6 5 6 5 6 6 5 5 5 5 5 5 6 6 5 5 6 6 5 5 5 5 6 5 5 6 5 5 5 5 6 6 5 6 5 5 6 5 5 5 5 5 5 5 5 5 5 5 5 5 6 6 5 5 5 5 5 5 5 6 5 5 5 5 5 5 5 5 6 5 5 5 5 5 6 5 6 5 5 6 5 6 5 5 5 5 5 6 5 5 6 6 6 5 5 5 6 5 5 5 5 5 6 5 5 5 5 5 5 6 5 5 5 5 5 6 5 5 5 5 5 5 5 5 5 5 5 6 5 5 6 5 5 6 5 6 5 5 6 5 5 5 5 5 6 6 5 5 5 5 6 5 5 5 5 5 5 5 5 5 5 5 5 5 5 5 6 5 5 5 5 5 6 5 5 6 5 5 5 5 5 5 6 5 5 5 5 5 5 5 5 6 5 6 5 5 5 6 6 5 6 5 5 5 5 6 6 5 5 6 5 5 5 5 6 5 5 5 6 5 5 5 5 5 5 5 5 5 5 5 5 5 5 5 5 6 5 5 5 5 6 5 5 5 6 5 5 5 5 5 6 5 5 5 5 5 5 5 5 5 5 5 6 5 6 5 5 5 5 6 5 5 5 5 5 5 5 5 6 5 5 5 5 5 6 5 5 6 5 6 5 5 5 5 5 5 6 5 6 6 5 5 5 5 6 5 6 6 5 5 5 5 5 5 5 5 5 5 5 5 5 6 5 6 5 5 5 5 5 5 5 6 5 5 5 5 6 5 5 6 5 5 5 5 5 5 5 5 5 5 5 5 5 5 5 5 5 5 6 6 5 5 6 5 5 5 6 5 5 5 5 5 5 5 5 5 5 5 5 5 5 5 5 5 5 5 5 5 5 5 5 5 5 5 5 5 5 5 5 5 5 5 5 5 5 5 6 5 5 5 5 5 5 6 5 5 5 5 5 5 5 5 5 5 5 6 5 5 5 5 5 5 5 5 5 5 5 6 5 5 5 6 5 5 5 5 5 5 5 6 5 5 5 5 5 5 5 5 5 5 5 5 6 5 5 5 6 5 5 5 5 5 5 5 5 5 6 5 5 5 5 5 5 5 6 5 6 5 5 6 5 5 5 5 6 5 6 5 5 6 5 5 5 5 5 5 6 5 5 5 5 5 5 5 5 5 6 6 5 5 5 5 6 6 5 6 6 5 5 5 5 5 6 5 5 5 5 5 5 5 6 5 5 5 5 5 5 5 6 5 5 5 5 5 5 5 5 5 5 5 5 5 5 5 5 5 5 6 6 5 6 5 5 5 5 6 6 5 5 5 5 5 5 5 5 5 5 5 5 5 5 5 5 5 5 5 5 5 5 5 5 5 5 5 5 5 5 5 5 5 5 5 5 5 5 5 5 5 5 5 5 5 5 5 5 5 5 5 5 5 5 5 5 5 5 5 5 5 5 5 5 5 5 5 5 5 5 5 5 5 5 5 5 5 5 5 5 6 5 5 6 5 5 5 5 5 5 5 5 5 5 5 5 5 5 5 5 5 5 5 5 5 5 5 5 6 5 5 5 5 5 5 5 5 5 5 5 5 5 5 5 5 5 5 6 6 5 5 5 5 5 6 5 6 5 6 5 5 5 5 6 5 5 5 6 5 5 5 5 5 5 5 5 5 5 5 5 5 5 6 5 5 5 5 5 5 5 5 5 5 5 5 6 5 6 5 5 5 5 5 5 6 5 5 5 5 5 5 6 5 5 5 6 5 5 5 5 5 5 5 5 5 5 5 5 5 5 5 6 6 5 5 5 5 5 5 5 5 5 5 5 5 5 5 5 5 5 5 5 5 6 5 5 5 5 6 5 5 5 5 5 5 5 6 5 6 5 6 5 5 5 6 5 5 5 6 5 6 5 5 5 6 5 6 5 5 6 5 5 5 6 5 6 5 5 5 6 5 6 5 6 5 5 5 5 5 5 6 6 5 5 5 5 5 5 5 5 5 5 6 6 6 5 6 5 5 5 6 5 5 5 5 5 5 5 5 5 5 5 5 6 5 6 5 5 5 5 5 5 5 5 5 5 5 5 5 5 5 5 5 5 5 5 5 5 5 5 5 6 5 5 5 5 5 5 5 5 5 5 5 5 6 5 5 5 5 5 5 5 5 5 5 5 5 5 5 5 5 5 5 5 5 5 5 5 6 5 6 5 5 5 5 5 5 5 5 5 5 6 5 5 6 5 5 5 5 6 5 5 5 5 6 5 5 5 5 5 5 5 5 5 6 5 5 5 5 5 6 5 5 5 5 5 5 5 5 5 5 5 5 5 5 5 5 5 5 5 6 5 5 5 5 5 5 5 5 6 5 6 5 5 5 5 5 5 5 5 5 5 5 5 5 5 5 5 6 5 5 5 6 5 5 5 6 5 5 5 5 6 5 5 5 5 6 5 5 5 5 5 5 5 6 5 5 5 5 5 5 5 5 5 5 5 5 6 5 5 5 5 5 5 5 5 5 5 5 5 6 5 5 6 5 5 5 5 5 5 5 5 5 5 5 5 5 5 5 5 5 5 6 5 5 5 6 5 6 5 5 5 5 5 5 5 5 5 5 5 5 5 6 5 5 5 5 5 5 5 5 5 5 5 5 5 5 5 5 5 5 5 5 5 5 6 5 5 5 6 5 5 5 5 5 5 6 6 5 5 5 5 5 5 5 5 5 6 5 5 5 5 5 5 5 5 5 5 5 5 5 5 5 6 5 5 6 5 5 5 5 5 5 5 5 5 5 5 5 5 6 5 5 6 5 5 5 6 5 5 5 5 5 5 5 6 5 5 6 5 5 5 5 5 5 5 5 5 5 5 5 5 5 5 5 5 5 5 5 5 5 5 5 5 6 5 5 5 5 5 5 5 5 5 5 5 5 5 5 5 5 5 6 5 5 6 5 5 5 5 5 5 5 5 5 5 5 5 5 5 5 5 5 5 5 5 5 5 5 5 5 5 5 5 6 5 5 5 5 6 5 5 6 5 5 6 5 5 5 6 5 5 5 5 6 5 5 6 5 5 5 5 5 5 5 5 5 5 5 6 6 5 5 5 6 5 5 5 5 5 5 5 5 5 5 5 5 5 5 5 5 5 5 5 5 6 5 5 5 5 6 5 5 5 6 5 6 5 5 5 6 5 5 5 5 5 5 5 5 5 6 5 6 5 5 6 5 5 5 5 5 5 5 5 5 5 6 5 5 5 5 6 5 5 5 5 5 5 6 5 5 5 5 5 5 5 5 5 5 5 5 5 5 6 5 5 5 5 5 5 5 5 5 6 5 5 6 5 5 6 5 5 5 5 5 5 5 5 5 5 5 5 5 5 5 5 5 5 5 5 5 6 5 5 5 5 6 5 5 5 5 5 5 5 5 5 5 6 5 5 5 5 6 5 6 5 5 6 5 5 5 5 5 5 5 5 6 5 5 6 5 6 5 5 6 5 5 5 5 6 5 5 5 6 5 5 5 6 5 5 5 5 5 5 6 5 5 5 5 6 5 5 5 6 5 5 5 5 5 5 5 5 5 6 5 5 5 5 5 6 5 5 5 6 5 5 5 5 5 5 5 5 5 5 5 5 6 5 5 5 5 5 5 6 5 5 6 5 6 6 5 5 5 5 5 5 6 5 5 5 5 5 5 5 6 5 5 6 5 5 5 5 6 5 5 6 5 5 5 5 5 5 5 5 5 5 5 5 5 5 5 5 5 6 5 5 5 5 5 6 5 5 5 5 5 5 5 5 6 5 5 5 5 5 5 5 6 5 5 5 5 5 5 5 5 5 5 5 5 5 5 5 5 5 5 5 6 5 5 5 6 5 5 5 6 5 6 5 5 5 5 5 5 5 5 6 5 6 6 5 5 5 5 5 5 5 6 5 5 6 6 6 5 5 6 6 5 6 5 5 5 6 5 5 6 5 5 6 5 5 5 5 6 6 5 5 5 5 5 5 5 5 5 5 5 5 5 5 5 5 5 5 5 5 5 5 5 5 5 5 5 5 5 5 5 5 5 6 5 5 6 5 5 5 5 6 5 5 5 5 5 5 5 5 5 5 5 5 5 5 5 5 6 5 5 5 5 6 5 5 6 5 5 5 5 5 5 5 5 5 5 5 6 5 5 5 5 5 5 5 5 5 5 5 5 5 5 5 5 5 5 5 5 6 5 5 5 5 5 5 5 5 5 5 5 5 5 5 5 6 5 5 5 6 5 5 5 5 5 5 5 5 5 5 5 5 5 6 5 5 5 5 5 5 5 5 5 5 5 5 5 5 5 5 5 5 5 5 5 5 5 5 5 5 5 5 5 5 5 5 5 5 5 5 5 5 5 5 5 5 5 5 5 6 5 5 6 5 5 5 6 5 5 5 5 5 5 5 5 5 5 5 5 5 5 5 5 5 5 5 5 5 5 5 5 5 5 5 6 5 5 5 5 5 5 5 6 5 5 5 5 5 5 6 5 5 5 5 5 5 5 5 5 6 5 5 6 6 6 5 5 5 6 5 5 5 5 6 6 5 5 5 6 5 5 5 5 5 5 5 5 5 5 5 5 5 5 5 5 5 5 5 5 5 5 6 5 5 5 5 5 5 5 5 5 5 5 5 5 5 5 5 6 5 5 5 5 6 5 5 5 5 6 5 5 5 5 5 5 5 5 5 6 5 5 5 5 5 5 5 5 5 5 5 6 5 5 6 5 5 5 5 5 6 5 5 5 5 6 5 5 5 5 6 5 5 5 5 5 5 5 5 5 5 5 6 5 5 5 5 5 5 5 5 5 5 5 5 5 5 5 5 5 5 5 5 5 5 5 5 5 5 5 6 5 5 5 5 5 5 5 5 5 5 5 5 5 5 5 5 5 5 5 5 5 6 5 5 6 5 5 5 5 5 6 5 5 5 5 5 6 6 5 5 5 5 6 5 6 5 5 5 5 5 5 5 5 5 5 5 5 5 5 5 5 5 5 5 5 5 5 5 5 6 5 5 5 5 5 5 5 5 5 5 5 5 5 5 5 5 5 5 5 5 5 5 6 5 5 5 5 5 5 6 5 6 6 5 5 5 5 5 5 5 5 5 5 5 5 5 5 5 5 5 5 5 5 6 5 5 5 6 5 5 5 5 5 5 5 5 5 5 5 5 5 5 5 5 6 5 5 6 5 5 5 5 5 5 5 5 5 5 5 5 5 6 5 5 5 5 5 5 5 5 5 6 5 5 5 6 5 5 6 6 6 5 6 5 5 5 5 6 5 5 5 5 5 5 5 5 5 5 5 5 5 5 5 5 5 5 6 5 5 6 5 5 5 5 5 5 5 5 5 5 5 5 6 5 5 5 6 5 5 5 5 6 5 5 5 5 5 5 6 5 6 5 5 6 5 5 5 5 5 5 5 5 5 5 5 5 5 5 5 5 5 5 5 6 5 5 5 5 5 5 5 5 5 5 5 5 6 5 5 5 5 5 5 5 5 5 5 5 5 5 5 5 5 6 5 5 5 5 5 5 5 6 5 5 5 5 5 5 5 5 5 5 5 5 5 5 5 5 5 5 5 5 5 5 5 5 5 5 5 5 5 5 5 5 5 5 5 5 5 5 5 5 5 5 5 5 5 5 5 5 5 5 5 5 5 5 5 5 6 5 5 5 5 5 5 5 5 5 5 5 5 5 5 5 5 5 6 5 5 5 5 5 5 5 6 5 5 6 6 5 5 5 5 5 5 5 5 5 6 5 5 5 5 6 5 5 5 5 5 5 5 5 5 5 5 6 5 5 5 5 5 5 5 5 5 6 5 6 6 5 5 5 5 5 5 5 5 5 6 5 6 6 5 5 6 5 5 6 5 5 5 5 5 5 5 6 5 5 5 5 5 5 5 5 6 5 6 5 6 5 6 5 5 5 6 5 5 5 6 5 5 6 5 6 5 5 6 6 5 5 5 5 5 5 6 5 5 6 5 5 6 5 5 6 5 5 5 5 5 5 5 5 5 5 5 5 6 6 5 5 5 5 6 5 5 5 6 5 5 5 6 5 5 5 6 5 5 5 5 5 6 5 5 5 5 5 5 5 5 5 5 5 5 5 5 5 5 6 5 5 5 5 5 5 5 6 5 5 5 6 5 5 5 5 5 5 5 5 5 5 5 5 5 5 5 6 5 5 5 5 5 5 5 5 5 5 5 5 5 5 5 5 6 5 5 5 5 5 5 5 6 5 5 5 6 5 5 5 5 5 5 5 5 5 6 5 5 5 5 5 5 5 5 5 5 5 5 5 6 5 6 5 5 5 5 5 5 5 5 5 5 5 5 5 5 5 6 5 6 5 5 5 6 5 5 5 5 5 5 5 5 5 5 6 5 5 5 5 5 5 5 5 5 5 5 5 5 6 5 5 5 5 5 5 5 6 5 5 5 5 6 6 5 5 6 5 5 5 5 5 5 5 5 5 5 6 5 5 5 5 5 5 6 6 5 5 5 5 5 5 5 5 6 6 5 6 5 5 5 5 6 5 5 5 5 5 5 6 5 5 5 5 5 6 5 5 5 5 5 5 5 6 5 6 5 5 5 5 5 5 5 5 5 5 5 5 5 5 5 6 5 6 5 6 5 6 6 5 5 5 6 5 5 5 5 5 6 6 6 5 5 5 5 6 5 5 5 5 6 6 6 5 5 5 6 5 5 5 5 6 5 5 5 5 5 5 5 5 5 5 5 5 5 5 6 5 5 5 5 5 5 5 5 5 5 5 5 5 5 5 5 5 5 5 5 5 5 5 5 5 5 5 6 5 5 5 5 6 5 5 5 5 5 5 5 5 5 6 5 5 5 5 5 6 5 5 5 5 5 5 5 5 5 5 5 5 5 5 6 5 6 5 5 5 5 5 5 6 5 5 5 5 5 5 5 5 5 5 5 5 6 5 5 6 6 5 5 5 5 5 5 6 5 5 5 5 5 5 6 5 5 5 5 6 5 5 5 6 5 5 5 5 6 5 5 5 5 5 6 5 6 5 5 6 5 6 5 5 6 5 5 6 5 5 5 5 5 6 5 5 5 5 6 5 5 5 6 5 5 6 5 5 6 5 5 6 5 5 5 5 5 5 5 5 6 5 5 5 5 6 5 5 6 5 5 6 5 5 6 5 6 5 5 5 5 5 5 5 5 5 5 5 5 5 6 5 5 5 5 5 6 5 5 5 5 5 6 5 5 5 5 5 6 5 5 5 5 5 5 5 5 5 5 5 5 5 5 5 5 5 5 5 5 5 5 5 5 5 5 5 5 5 5 5 5 5 5 5 5 5 5 5 5 5 5 5 5 5 5 5 5 5 5 5 5 5 5 5 5 5 5 5 5 5 5 5 5 5 5 5 5 5 5 5 5 5 6 5 5 5 5 5 5 5 5 5 5 5 5 6 5 5 5 5 5 5 5 5 5 5 5 6 5 5 5 5 6 5 5 5 5 5 5 6 5 5 5 5 6 5 5 5 5 5 6 5 5 5 5 5 5 5 6 5 5 5 5 5 5 6 5 5 5 5 5 5 5 5 5 6 5 5 5 5 5 5 5 5 5 5 5 5 5 5 6 5 5 5 5 5 5 5 5 5 5 5 5 5 5 5 5 5 5 5 5 5 5 5 5 5 6 5 5 5 5 5 5 6 5 5 5 5 5 5 5 5 6 5 5 5 5 5 5 5 5 5 5 5 5 5 5 5 5 5 5 5 5 5 5 5 5 5 5 6 6 5 5 5 5 5 5 5 5 5 5 5 5 5 5 5 6 5 5 5 5 5 5 5 5 5 5 5 6 6 5 5 5 5 5 5 5 5 5 5 5 5 5 5 5 5 5 5 5 5 5 5 5 5 5 5 5 5 5 5 6 5 6 5 5 5 6 5 5 5 5 5 5 5 5 5 5 5 5 5 5 5 5 5 5 5 5 5 5 5 5 5 5 6 5 5 5 6 5 5 5 5 5 5 5 5 5 5 5 5 5 5 5 5 5 5 6 5 6 5 5 5 5 5 5 6 5 5 6 5 5 5 5 6 5 5 5 5 5 5 5 5 5 5 5 5 5 5 5 6 5 5 5 5 5 5 6 5 5 6 5 5 5 5 5 6 5 5 5 5 6 5 5 5 6 5 5 5 5 5 5 6 5 5 6 5 5 6 5 5 6 5 6 5 5 5 5 6 5 5 5 5 5 5 5 5 5 5 6 5 5 5 5 5 5 5 5 5 5 5 5 5 6 5 5 5 5 5 5 5 6 5 5 5 6 5 5 6 5 5 5 6 5 5 6 5 5 5 6 5 6 5 5 5 5 5 5 6 5 5 5 5 5 5 5 5 5 5 5 5 6 5 5 5 6 5 5 5 5 5 5 5 6 5 5 5 5 6 5 5 5 5 5 5 5 5 5 5 5 5 5 6 5 5 5 5 5 5 5 5 5 5 5 5 5 6 5 5 5 6 5 5 6 5 5 5 5 6 5 5 5 5 5 5 6 5 5 5 5 5 5 5 5 5 5 5 5 6 5 5 6 5 5 5 5 5 5 5 6 6 5 5 6 5 5 5 5 5 6 5 5 6 5 5 5 5 6 5 6 5 5 5 6 5 5 5 6 5 6 5 5 5 5 5 5 6 5 5 5 5 5 6 5 5 5 5 5 5 5 5 5 5 6 5 5 5 6 5 5 5 6 5 5 5 6 5 5 5 5 5 6 5 5 5 5 5 5 6 5 5 6 5 5 5 5 6 5 5 5 5 5 5 5 5 5 5 5 5 5 5 5 5 5 5 5 5 5 5 5 5 5 5 5 5 5 5 5 5 6 5 5 5 5 5 5 5 6 5 5 5 5 5 5 5 5 5 5 5 5 5 5 5 5 5 5 5 5 5 5 5 5 5 5 5 5 5 5 5 5 5 5 5 5 5 5 6 5 5 5 6 5 5 5 5 5 5 5 5 5 5 6 5 5 5 5 5 5 5 5 5 6 5 5 5 5 5 5 5 5 5 5 5 5 5 6 5 5 5 5 6 5 5 5 5 5 5 5 5 5 6 5 5 5 5 5 5 5 6 5 5 5 5 5 5 5 5 6 6 5 5 5 6 5 5 5 5 5 5 6 5 5 6 5 5 5 5 5 5 6 5 5 5 5 5 6 5 5 6 5 5 5 5 6 6 5 5 6 5 6 6 5 5 5 5 6 5 5 5 5 5 5 5 5 5 5 5 6 5 5 5 5 5 6 5 5 5 5 6 5 5 6 6 6 5 5 6 5 5 5 5 5 6 5 5 5 5 5 5 5 5 6 5 5 5 5 6 5 5 5 5 5 5 5 5 5 5 5 5 5 5 5 5 5 5 5 5 5 5 5 5 5 5 5 5 5 5 5 5 5 5 5 5 5 5 5 5 5 5 5 5 5 5 5 5 5 5 5 5 5 5 5 5 5 5 5 5 5 5 5 5 5 6 5 5 5 5 5 5 5 5 5 5 5 5 5 6 5 5 6 5 5 5 5 5 5 5 5 5 6 5 5 5 6 5 6 5 5 5 5 5 5 5 5 5 5 5 5 5 6 5 5 5 5 5 5 5 5 5 5 5 5 5 5 5 6 5 5 5 5 6 5 5 5 5 5 6 5 5 6 5 5 5 5 5 5 5 5 6 5 5 5 6 5 5 5 6 5 5 5 5 5 5 5 6 5 5 5 5 6 5 6 5 6 5 5 6 5 6 6 5 5 6 5 5 5 5 5 5 5 5 5 5 5 6 5 5 5 5 5 5 5 5 6 5 5 5 5 5 5 6 5 5 6 6 5 5 6 5 5 5 5 5 5 5 5 6 5 5 6 5 5 5 6 5 6 5 5 5 5 5 6 6 5 5 5 5 5 5 5 6 5 6 5 5 5 6 5 5 5 5 5 6 5 6 5 5 5 6 5 5 5 5 5 5 5 6 5 5 5 6 5 5 5 5 5 6 5 6 5 5 5 5 5 5 6 5 5 5 5 6 6 6 5 5 6 5 6 6 5 5 5 5 5 5 6 5 5 5 5 6 5 6 5 5 5 5 6 5 5 5 5 5 5 5 5 5 5 5 5 5 5 5 5 6 5 5 6 5 6 5 5 5 5 6 5 5 6 6 5 5 5 5 5 6 5 6 5 5 5 5 6 5 6 5 5 6 6 5 5 5 5 5 5 5 5 5 5 5 5 5 5 5 5 5 5 5 5 5 5 5 5 5 5 5 5 5 6 5 5 6 5 5 5 5 5 5 5 5 5 5 5 5 5 5 5 5 5 6 5 5 5 5 6 5 5 6 6 5 5 5 5 5 5 5 5 5 6 5 5 5 5 5 5 5 5 5 6 5 6 5 5 5 6 5 5 5 6 6 5 5 6 5 5 5 5 5 5 6 5 5 5 5 5 5 6 5 5 5 5 6 6 6 5 6 5 5 5 6 5 5 5 5 6 5 5 5 5 6 5 6 5 5 5 6 6 5 5 5 5 6 5 5 5 5 5 5 5 5 5 5 5 5 6 5 5 5 5 5 5 5 5 5 5 5 5 5 5 6 5 5 5 5 5 6 5 5 5 6 5 5 6 6 5 5 5 5 5 5 6 6 6 5 6 5 6 6 5 5 5 5 5 6 5 6 5 5 5 5 6 5 6 5 6 5 6 5 5 5 5 5 5 5 6 5 5 5 6 5 5 5 5 5 5 5 5 5 5 6 5 5 5 6 5 5 5 5 5 6 5 6 6 5 5 5 5 5 5 5 5 5 5 5 5 5 5 5 5 5 5 5 5 5 5 5 5 5 5 5 5 5 5 5 5 5 5 6 5 5 5 5 5 5 5 6 5 5 6 5 5 5 5 6 5 5 6 5 5 5 5 5 5 5 5 5 5 5 5 5 5 5 5 5 5 5 5 6 5 6 5 5 5 6 5 5 5 6 5 6 5 6 5 5 5 5 5 5 5 5 5 5 5 5 5 5 5 5 5 6 5 5 5 5 5 5 5 5 5 5 6 5 5 5 5 5 5 5 5 5 5 5 5 5 5 5 5 5 5 5 5 5 5 5 5 5 5 6 5 5 5 5 6 5 5 5 5 5 5 5 6 5 5 5 5 5 5 5 5 5 5 5 5 5 5 6 5 5 5 5 5 5 5 5 5 5 5 5 5 5 5 5 5 5 5 5 5 5 5 5 5 5 5 5 5 5 5 6 5 5 5 5 5 5 5 5 6 5 5 5 5 5 5 5 5 5 5 5 5 6 5 6 5 5 6 5 5 5 5 5 5 5 5 5 5 5 5 6 6 5 5 5 5 5 5 5 5 5 5 5 5 5 5 5 5 5 5 5 5 5 5 5 5 5 5 5 5 5 5 5 5 5 5 5 5 5 5 5 5 5 5 5 5 5 5 5 5 5 5 5 5 5 5 5 5 6 5 5 5 6 5 5 5 6 5 5 5 5 5 5 5 5 5 5 5 5 5 5 5 5 5 5 5 5 5 5 5 6 5 5 5 5 5 5 5 6 5 5 5 5 5 6 5 5 5 5 5 5 5 5 5 5 5 5 5 5 5 5 5 5 5 5 5 5 5 5 5 5 6 5 5 5 5 5 5 5 5 6 5 5 5 5 5 6 5 5 5 6 5 5 5 5 5 5 6 5 5 5 5 5 6 5 5 5 5 5 5 6 5 5 5 5 5 5 5 5 5 5 5 5 5 6 5 5 5 5 5 5 5 5 5 5 5 5 5 5 5 5 5 5 5 5 6 5 5 5 6 6 5 5 5 5 5 5 5 5 5 5 5 5 5 5 5 5 5 5 5 5 5 6 5 5 5 6 6 5 5 5 5 5 5 6 5 6 5 5 5 5 5 6 5 5 5 5 5 6 6 5 5 5 5 6 5 5 6 5 5 5 5 5 5 5 5 5 5 6 5 5 5 6 5 5 5 6 5 5 5 5 5 5 5 5 5 5 5 5 5 5 5 5 5 5 5 5 5 5 5 5 5 5 6 5 5 5 5 5 5 5 5 5 5 6 5 5 5 5 6 5 5 5 5 5 5 5 5 5 6 6 5 5 5 5 5 5 5 5 6 5 5 5 5 5 6 5 5 5 5 5 5 5 5 5 5 5 5 5 5 5 5 5 5 5 5 5 5 5 5 5 5 5 5 5 5 5 5 5 5 5 5 5 5 5 5 5 5 5 5 5 5 5 5 5 5 5 5 5 5 5 5 5 5 5 5 5 5 5 5 5 5 5 5 5 5 5 5 5 5 5 5 5 5 5 5 5 5 5 5 5 5 5 5 5 5 5 5 5 5 5 5 5 5 5 5 5 5 5 5 5 6 5 6 5 5 6 5 5 5 5 5 5 5 5 5 5 5 5 5 5 5 5 5 5 5 5 5 5 5 5 5 5 5 6 5 5 6 5 5 5 5 5 5 5 5 5 5 5 5 5 5 6 5 5 5 5 5 5 5 5 6 5 5 5 5 5 5 5 5 5 5 5 5 5 5 5 5 5 5 5 5 5 5 5 5 5 5 5 5 5 5 5 5 5 5 5 5 5 5 5 5 5 5 5 5 6 6 5 5 5 5 5 5 5 5 5 5 5 5 5 5 5 5 5 5 5 5 5 5 5 5 5 5 5 5 5 5 5 5 5 5 5 5 5 5 5 5 5 6 5 5 5 5 5 5 5 5 5 6 5 6 5 6 5 6 5 6 5 5 5 5 6 5 5 5 6 5 5 5 5 5 5 5 5 6 6 5 5 6 5 5 5 5 6 5 5 6 5 5 5 5 5 5 5 6 5 5 5 5 5 5 5 5 5 5 5 5 5 5 5 5 5 5 5 5 5 5 5 5 5 5 5 5 5 5 5 6 5 5 5 5 5 5 5 5 5 6 5 5 5 6 5 5 5 6 5 5 5 5 6 6 5 5 5 5 6 5 5 5 6 5 5 5 6 5 5 5 5 6 5 5 6 5 6 5 5 6 5 5 5 5 5 5 5 5 5 5 5 5 5 6 5 5 6 5 5 5 5 5 5 5 5 5 5 5 5 5 5 5 5 5 5 6 5 5 5 5 5 5 5 5 5 5 5 5 5 5 5 5 6 5 6 5 5 5 5 5 6 
</DataArray>
<DataArray type="Float64" Name="stress" NumberOfComponents="9" format="ascii">
-799.56480334253865 1324.2988114277541 0 1324.2988114277541 394.76067871926352 0 0 0 0 218.69862934430421 1672.1866225319463 0 1672.1866225319463 1.5625623011183052 0 0 0 0 3.6338447595006467 4403.8507000468171 0 4403.8507000468171 -4000.7620200125675 0 0 0 0 -5.8330961477893766 12.981801534914354 0 12.981801534914354 -0.30473935802771734 0 0 0 0 371.55423531217093 1526.1385448974106 0 1526.1385448974106 345.99453910411103 0 0 0 0 1.461932618447463 2768.8712890485112 0 2768.8712890485112 1420.8685668347462 0 0 0 0 -359.19924560270738 1590.9605383766175 0 1590.9605383766175 4724.089168947794 0 0 0 0 486.67139606166165 2104.8600128318649 0 2104.8600128318649 473.29058460938541 0 0 0 0 127.95071227881635 3153.695992580746 0 3153.695992580746 -439.49652382811473 0 0 0 0 0.2420851330680307 3065.2889431489311 0 3065.2889431489311 -521.31616940921231 0 0 0 0 -1856.0837370739027 3410.0448348277569 0 3410.0448348277569 -616.77775044205191 0 0 0 0 -433.55133292746905 2823.3440987020076 0 2823.3440987020076 -540.44063466007719 0 0 0 0 -704.70020664685217 3374.6805302396515 0 3374.6805302396515 -1234.1772254131647 0 0 0 0 -1960.0519497432979 3015.1685720707464 0 3015.1685720707464 -798.9517006209644 0 0 0 0 -7.4343148573654503 14.105302463554636 0 14.105302463554636 -2.0981606991246196 0 0 0 0 -528.68613648891187 2935.9873649077126 0 2935.9873649077126 -5038.1884751454636 0 0 0 0 -2481.0394157528935 3951.6036406795465 0 3951.6036406795465 -2480.8887924046721 0 0 0 0 -141.61506186521001 1796.6543874154013 0 1796.6543874154013 861.95814954060188 0 0 0 0 307.9549825390859 1463.9206630518747 0 1463.9206630518747 -2451.2771214622044 0 0 0 0 -13.792960616698451 23.658532011944061 0 23.658532011944061 -2.1358598711993864 0 0 0 0 -2745.2520521977567 4261.7415746322804 0 4261.7415746322804 3623.6084069651552 0 0 0 0 -2559.942614272295 3538.8258838991424 0 3538.8258838991424 -407.23010242664895 0 0 0 0 -2773.860281056659 3697.1850064110258 0 3697.1850064110258 -203.51299527316587 0 0 0 0 -2838.9759758865403 3404.47281331056 0 3404.47281331056 -423.6414189514162 0 0 0 0 -2926.7534004844929 3585.8623933646522 0 3585.8623933646522 -249.09902600851274 0 0 0 0 -4414.9825930812367 3870.1490821273255 0 3870.1490821273255 -5.014274552842835 0 0 0 0 -15.722014011825308 10.579855465028913 0 10.579855465028913 2.2017246422181387 0 0 0 0 -813.22386173764244 -252.45786459953524 0 -252.45786459953524 4279.0460704875641 0 0 0 0 255.74265283593559 897.80381896016479 0 897.80381896016479 -3433.1938838429378 0 0 0 0 -3300.7271360629384 3495.3116410459079 0 3495.3116410459079 401.15265687748615 0 0 0 0 -1671.5250935684162 1385.4658418641629 0 1385.4658418641629 2757.718123077444 0 0 0 0 -33.043939671479166 2249.9446501398197 0 2249.9446501398197 37.710158091096673 0 0 0 0 -1973.6913295793347 2407.9545053687034 0 2407.9545053687034 511.91168102037045 0 0 0 0 -1246.0188867117395 3519.630149714656 0 3519.630149714656 -1792.4406462622719 0 0 0 0 303.85610695382638 2323.1472110936375 0 2323.1472110936375 -1113.8961397433159 0 0 0 0 -640.11977223493159 1399.800000104442 0 1399.800000104442 -424.08015911817347 0 0 0 0 57.649438267919322 1600.0504386194507 0 1600.0504386194507 -390.52537323652359 0 0 0 0 -1816.9659620296588 2883.6583807590323 0 2883.6583807590323 -2067.856703710233 0 0 0 0 -2806.9124456871814 3313.418807251579 0 3313.418807251579 -297.63102557536331 0 0 0 0 -3445.0427593648783 3508.498200047994 0 3508.498200047994 -69.739042659421102 0 0 0 0 -3620.9840757507045 2576.6122157559148 0 2576.6122157559148 -765.06331312652765 0 0 0 0 -5391.2112193975772 3264.415102158373 0 3264.415102158373 411.55909942607832 0 0 0 0 -1540.7949190373765 1655.4763962722282 0 1655.4763962722282 986.28783735838078 0 0 0 0 -13.322866511020891 21.662105282042276 0 21.662105282042276 -22.69164836148019 0 0 0 0 -941.67252719523094 1192.488924920166 0 1192.488924920166 1085.557317880699 0 0 0 0 604.3260809891799 417.86491620449669 0 417.86491620449669 350.47004634454788 0 0 0 0 3080.1959597034438 2190.4506316920233 0 2190.4506316920233 -1773.4997181465155 0 0 0 0 1961.0276282434279 1339.6346790816824 0 1339.6346790816824 303.49716234194057 0 0 0 0 118.44530124370067 2725.8481485809061 0 2725.8481485809061 1894.5610878491716 0 0 0 0 -27.099382719599788 46.563438312755537 0 46.563438312755537 -52.147234425464035 0 0 0 0 -244.5322458094015 353.7620475945223 0 353.7620475945223 441.88797419530238 0 0 0 0 -11.67909984231386 24.241272030858468 0 24.241272030858468 -30.643862589716719 0 0 0 0 -3196.3552512312308 2703.4202144372321 0 2703.4202144372321 -64.176688692918106 0 0 0 0 -2608.772210824347 1285.5960573070624 0 1285.5960573070624 1270.1583974937166 0 0 0 0 -352.75659951119451 1582.8768431183198 0 1582.8768431183198 289.04396098459256 0 0 0 0 -1101.5908068057506 1957.9924252781502 0 1957.9924252781502 148.71983916885802 0 0 0 0 -1165.9829244851571 1802.1184790724146 0 1802.1184790724146 591.96754863171373 0 0 0 0 -995.41602253424935 2162.4324875054008 0 2162.4324875054008 -238.10067603598873 0 0 0 0 -2286.3341001893859 2640.0885570938262 0 2640.0885570938262 471.07242899974335 0 0 0 0 -632.05098112861742 2825.2902204446145 0 2825.2902204446145 -551.99744195080029 0 0 0 0 -1035.5426570968266 2391.2993501310302 0 2391.2993501310302 -510.31418785915594 0 0 0 0 -617.03156431103707 2625.0907722026095 0 2625.0907722026095 -531.28770698469452 0 0 0 0 -535.55865777686995 2523.1247891089151 0 2523.1247891089151 -860.72808451418678 0 0 0 0 -0.20380864803155418 2717.8926225828727 0 2717.8926225828727 -831.7215367615936 0 0 0 0 -527.67251373458203 2975.0572067901248 0 2975.0572067901248 -940.08481654581556 0 0 0 0 -0.14440902840578929 3012.5466333588047 0 3012.5466333588047 -1013.8176297204991 0 0 0 0 -78.160313758253324 2849.4851983145709 0 2849.4851983145709 -817.61932905015419 0 0 0 0 -390.36140473218984 3425.310102180687 0 3425.310102180687 -933.25223933690359 0 0 0 0 -1350.820633482108 3377.1059599423588 0 3377.1059599423588 -744.42359814298106 0 0 0 0 -903.18414128202858 3066.8844616144343 0 3066.8844616144343 -810.54380678506277 0 0 0 0 -1362.2313377622777 261.03066073443915 0 261.03066073443915 -377.2716236942797 0 0 0 0 -1199.9720800807409 -375.8131680792867 0 -375.8131680792867 -3.0113623994402587 0 0 0 0 -453.43669817212503 -476.64792146244145 0 -476.64792146244145 154.12144010954944 0 0 0 0 -213.31515592151845 867.23849464410159 0 867.23849464410159 -771.60179233295094 0 0 0 0 -2219.7751547458829 1761.7918566243825 0 1761.7918566243825 -912.3774865087762 0 0 0 0 -1205.7839402156751 441.87446972692123 0 441.87446972692123 -184.02479734213557 0 0 0 0 -2490.9996085362072 807.50887049816083 0 807.50887049816083 -287.91775898196647 0 0 0 0 -1307.3633209011168 -147.24149467107782 0 -147.24149467107782 -239.78097207906831 0 0 0 0 -1756.7918050926855 -271.02262602734845 0 -271.02262602734845 -60.528578632103745 0 0 0 0 1164.1543557513505 1042.6469077746733 0 1042.6469077746733 793.16147452348378 0 0 0 0 -2896.6756539849157 -113.69475376952323 0 -113.69475376952323 133.12016667293938 0 0 0 0 -2532.965397422653 42.646685632818844 0 42.646685632818844 -116.57519019134634 0 0 0 0 -34.369150252309666 19.361842705725671 0 19.361842705725671 -12.614783637611367 0 0 0 0 1300.8856068169989 544.28654327769618 0 544.28654327769618 98.762537808244815 0 0 0 0 -7478.5758520903473 -672.7774649967032 0 -672.7774649967032 217.09248400776414 0 0 0 0 -11.912495079807556 7.0898709240479789 0 7.0898709240479789 -5.0659459053870251 0 0 0 0 -4531.5819777124198 1943.2740858972902 0 1943.2740858972902 -2.8265232004923746 0 0 0 0 -3338.6149025000632 1045.5824785949226 0 1045.5824785949226 7.8701263031398412 0 0 0 0 -2679.7695726514066 934.8003258306635 0 934.8003258306635 203.24588771024719 0 0 0 0 -3168.553794673935 1678.6632104984019 0 1678.6632104984019 -96.256716537551256 0 0 0 0 -4213.0967133737431 1129.6174769220233 0 1129.6174769220233 178.91542365899659 0 0 0 0 -2660.0587700269716 1028.7806396381093 0 1028.7806396381093 41.687457840103889 0 0 0 0 -3595.0912046097073 1133.0146244068019 0 1133.0146244068019 33.133395389741054 0 0 0 0 -2603.0891098013417 1944.6947227187557 0 1944.6947227187557 1.3967176658625249 0 0 0 0 -924.91266670351615 1266.4830820310963 0 1266.4830820310963 -501.96132302742626 0 0 0 0 -8644.322017635408 3114.0312024199884 0 3114.0312024199884 -1264.65175726288 0 0 0 0 -8.112368882989923 10.224653552901657 0 10.224653552901657 -7.1587268561034421 0 0 0 0 -8361.9584655466679 2610.9819583744538 0 2610.9819583744538 -613.78188629900978 0 0 0 0 -5.8896609918492544 18.184185208590492 0 18.184185208590492 -15.970632069964608 0 0 0 0 -4869.1528629350141 896.29646887896979 0 896.29646887896979 -190.1842501553474 0 0 0 0 -3585.4250881085463 933.99672695648223 0 933.99672695648223 598.73573754099198 0 0 0 0 -3195.6346801099935 1461.8282589766168 0 1461.8282589766168 150.35328878770815 0 0 0 0 -3184.4216050365794 1627.6843804501841 0 1627.6843804501841 128.08807439191332 0 0 0 0 -4926.3002874176018 1144.0411736060341 0 1144.0411736060341 1299.5142037674668 0 0 0 0 -3828.7257311317371 2312.275781072698 0 2312.275781072698 197.38014528524945 0 0 0 0 -2362.5599869511134 2512.7986408872166 0 2512.7986408872166 -1514.0715450563875 0 0 0 0 -5510.84707397288 2838.8598449615529 0 2838.8598449615529 50.726154863885313 0 0 0 0 -2988.8847601422458 858.40508510455402 0 858.40508510455402 213.04600609377667 0 0 0 0 -5787.0464808423494 -65.252817455620971 0 -65.252817455620971 -4818.178012313263 0 0 0 0 -5.7802077168797901 19.119409748384243 0 19.119409748384243 -14.613731322484625 0 0 0 0 -2510.6247755237855 829.74706968548708 0 829.74706968548708 -241.06205972909811 0 0 0 0 -6711.7301283623092 1848.7298612967134 0 1848.7298612967134 1022.093021614899 0 0 0 0 -535.28158883569995 748.97869020237704 0 748.97869020237704 3.9494733720421209 0 0 0 0 -811.60774157065316 1272.3297839881998 0 1272.3297839881998 -410.08057118213765 0 0 0 0 -2624.1145686834643 1470.1469832145813 0 1470.1469832145813 -290.99667734187096 0 0 0 0 -551.27646666772489 2009.038974396979 0 2009.038974396979 -638.7656598630856 0 0 0 0 -1193.0534394864808 2256.6137637417487 0 2256.6137637417487 26.61103225122497 0 0 0 0 -543.72837907326175 1885.9598921542638 0 1885.9598921542638 -1451.5456739966176 0 0 0 0 -2073.9379021734858 2487.5206044070583 0 2487.5206044070583 -693.07033276051516 0 0 0 0 -2592.5894779201226 1170.1655863496489 0 1170.1655863496489 -665.45564889669186 0 0 0 0 -3463.8897495442361 1727.664236998884 0 1727.664236998884 -661.1047759363064 0 0 0 0 -2707.1468424357809 3121.6145965980504 0 3121.6145965980504 -2147.6290142916259 0 0 0 0 -4806.4861399578804 1471.4281035850145 0 1471.4281035850145 -651.06001082230068 0 0 0 0 -3590.880918982104 4400.019828687975 0 4400.019828687975 -6217.6566412048414 0 0 0 0 -15.65199614264651 14.372328179431889 0 14.372328179431889 -1.2135968693064143 0 0 0 0 -7742.8258509927255 4963.125006639093 0 4963.125006639093 2412.3791966754507 0 0 0 0 -32.985466882154697 23.42046391998349 0 23.42046391998349 2.378419643971128 0 0 0 0 -675.12331113728578 1105.9599207094871 0 1105.9599207094871 -779.45689757064974 0 0 0 0 -30.089475563829183 1012.9450157564497 0 1012.9450157564497 -3056.5402709720802 0 0 0 0 -140.94390857190592 58.992601049423683 0 58.992601049423683 243.28524131580707 0 0 0 0 -611.85274522175314 1965.6625477739653 0 1965.6625477739653 -433.99985988442859 0 0 0 0 190.21954171946709 789.84547753442894 0 789.84547753442894 -940.939810196287 0 0 0 0 -704.14123144946643 809.41582792199915 0 809.41582792199915 -387.27421033684368 0 0 0 0 -33.355562895304843 21.765474405868787 0 21.765474405868787 4.0183493461770858 0 0 0 0 74.56399680508548 1088.3970332413064 0 1088.3970332413064 649.23154946076102 0 0 0 0 -304.22180733297137 1020.5504756787559 0 1020.5504756787559 1471.9260046473719 0 0 0 0 -8.5376889966282761 1647.1274903199374 0 1647.1274903199374 -423.70014392428129 0 0 0 0 95.819460075159441 1952.4349496493887 0 1952.4349496493887 -786.70883754051465 0 0 0 0 -498.88698714257043 2279.4084242081735 0 2279.4084242081735 -362.46080148255714 0 0 0 0 -478.36061357908329 1850.9285787147091 0 1850.9285787147091 239.00260819205141 0 0 0 0 -2066.3080874087609 1804.3735909847237 0 1804.3735909847237 514.41522520207945 0 0 0 0 -1191.9184416088683 3235.9206248095943 0 3235.9206248095943 925.64431419965695 0 0 0 0 -5111.4574143097343 2398.1231323274842 0 2398.1231323274842 1085.6789272600436 0 0 0 0 -996.94246204094088 1569.2147275462485 0 1569.2147275462485 128.18199337393162 0 0 0 0 -2144.4883785434286 1958.408473939955 0 1958.408473939955 -492.54429433404584 0 0 0 0 -2180.8193043066603 2020.2837972622347 0 2020.2837972622347 -525.73247862218705 0 0 0 0 -2124.5219175417442 2644.5821205689135 0 2644.5821205689135 -326.28625229644604 0 0 0 0 -1921.0077403025061 1980.8176971127832 0 1980.8176971127832 -612.22635264290147 0 0 0 0 0.66840025550627047 52.046789495980164 0 52.046789495980164 37.548778854563182 0 0 0 0 -3297.2303308131304 780.18192869073391 0 780.18192869073391 411.2389913395964 0 0 0 0 8.8603234067882539 18.966322776598815 0 18.966322776598815 14.481827221935703 0 0 0 0 4266.5680307496805 1441.3801736043315 0 1441.3801736043315 -153.05053751604282 0 0 0 0 526.3944247567415 453.1040140547484 0 453.1040140547484 248.146314435362 0 0 0 0 -12.181678016801015 939.51563912302663 0 939.51563912302663 64.402526335366929 0 0 0 0 -1127.78802596081 2433.6892779670416 0 2433.6892779670416 1536.9836955387145 0 0 0 0 -438.2660767057032 1430.18084312275 0 1430.18084312275 850.47213128034491 0 0 0 0 -192.74016952579404 2970.863510103256 0 2970.863510103256 2130.2079600292927 0 0 0 0 645.95733460914926 1632.295481605739 0 1632.295481605739 237.95707482058788 0 0 0 0 -2061.6986643489799 322.15737944139983 0 322.15737944139983 86.411914606695063 0 0 0 0 -595.09501138654014 1628.7241871169317 0 1628.7241871169317 605.73375426120401 0 0 0 0 -7375.109138652042 363.08948371287261 0 363.08948371287261 1999.7316784637515 0 0 0 0 -5810.1877297945612 27.47535506269196 0 27.47535506269196 2062.213383100112 0 0 0 0 -44.817901828077424 11.086190022801389 0 11.086190022801389 -2.8144848426492928 0 0 0 0 -4749.4156764116633 -735.68312334275834 0 -735.68312334275834 1275.7092180045001 0 0 0 0 -3515.4986191506214 288.36026209538068 0 288.36026209538068 1114.2241786457598 0 0 0 0 -2774.1820945441796 210.41991905629766 0 210.41991905629766 643.30030382832047 0 0 0 0 -3503.232441594495 319.26960529457483 0 319.26960529457483 628.81758761362289 0 0 0 0 -4.2527678657936647 11.510674405743941 0 11.510674405743941 -5.8605431047888601 0 0 0 0 -6994.1712463538061 923.42439692579683 0 923.42439692579683 2218.0288478274015 0 0 0 0 -5406.6977713384549 1341.6911368558794 0 1341.6911368558794 1001.6947824722229 0 0 0 0 -2755.1183090538252 1531.7319295672114 0 1531.7319295672114 342.49290197528899 0 0 0 0 -2442.5499237031545 910.54879303501002 0 910.54879303501002 966.67148110896233 0 0 0 0 -3268.120217186035 2171.4957767692686 0 2171.4957767692686 905.39544911742269 0 0 0 0 -2432.1069303451368 1577.8271979806996 0 1577.8271979806996 206.3159834311009 0 0 0 0 -3521.8597897213913 1307.0518630717779 0 1307.0518630717779 932.34614254773987 0 0 0 0 -1393.0964895433717 656.70940265110403 0 656.70940265110403 -282.35714771084167 0 0 0 0 -1675.0009659983625 2053.1939323246224 0 2053.1939323246224 -1861.4433888708736 0 0 0 0 -2386.7444217400043 1588.3389483931896 0 1588.3389483931896 -641.16630997204629 0 0 0 0 -1588.1837689528766 1142.7987021851295 0 1142.7987021851295 -973.63288383204781 0 0 0 0 -1059.004763570294 1302.8587084912724 0 1302.8587084912724 -1039.3587044766755 0 0 0 0 -1945.8180790672268 2191.8817568525392 0 2191.8817568525392 797.09563506545965 0 0 0 0 -1316.8422957366492 139.19250999032374 0 139.19250999032374 -97.200873570065596 0 0 0 0 -456.90667543215386 1594.3674155756598 0 1594.3674155756598 718.98223007501656 0 0 0 0 -552.73202019803284 -1164.5114926032329 0 -1164.5114926032329 612.67329536950274 0 0 0 0 -91.691043088818788 28.59170116023418 0 28.59170116023418 -2.1168382553588003 0 0 0 0 -1213.2468890678283 1490.1179760767482 0 1490.1179760767482 1812.5496275388869 0 0 0 0 -1411.6899583460763 -163.22248093516828 0 -163.22248093516828 1075.4641852194763 0 0 0 0 42.352624965416908 161.86738240874547 0 161.86738240874547 436.21287317328097 0 0 0 0 67.702958189664059 103.93211353118386 0 103.93211353118386 49.522933205749723 0 0 0 0 -570.42858680593781 75.086795446710312 0 75.086795446710312 125.7605189527676 0 0 0 0 -791.73044899910747 363.10157294434975 0 363.10157294434975 155.08514649051358 0 0 0 0 -517.77069433726138 -15.328665152788744 0 -15.328665152788744 443.1647638582217 0 0 0 0 -36.05003857583506 482.49241083882953 0 482.49241083882953 293.77157337132849 0 0 0 0 -766.59729182643059 0.87213415316364262 0 0.87213415316364262 441.92908334484673 0 0 0 0 415.07658112070931 102.20464417123731 0 102.20464417123731 404.71455046314077 0 0 0 0 -95.372019712267502 547.38753856144649 0 547.38753856144649 1274.6133231675776 0 0 0 0 737.63862834394968 466.31022085271252 0 466.31022085271252 1108.4058393994055 0 0 0 0 -1002.4336267189283 1217.3430588121082 0 1217.3430588121082 3679.6448275961011 0 0 0 0 -4.5914724016078026 11.748333252429461 0 11.748333252429461 -6.827183694601203 0 0 0 0 -558.39876255317358 -279.15354602225852 0 -279.15354602225852 -4362.1492548374372 0 0 0 0 -1259.0983409322289 2119.8694291208885 0 2119.8694291208885 1154.1061212599598 0 0 0 0 -2207.9218844778661 850.47899060368945 0 850.47899060368945 -2126.3512548494364 0 0 0 0 -1203.9945188908314 2011.1848511306234 0 2011.1848511306234 -793.01424103420868 0 0 0 0 -2730.8960151004139 2577.8066205381474 0 2577.8066205381474 -1039.0380532807758 0 0 0 0 -4417.9554009982894 2712.6886916577641 0 2712.6886916577641 -411.04328419892408 0 0 0 0 -2825.4621635985095 1359.6675597421163 0 1359.6675597421163 17.064807074217242 0 0 0 0 -2211.4750452757144 1584.091123964241 0 1584.091123964241 -733.36245922077796 0 0 0 0 -1426.7831469656157 720.70470207045219 0 720.70470207045219 271.63221052920562 0 0 0 0 -2135.5193893819815 39.991693486037548 0 39.991693486037548 -177.87323097432636 0 0 0 0 -974.38499220929225 174.07088861687225 0 174.07088861687225 65.56311524868579 0 0 0 0 -1653.965869227628 387.57162219376914 0 387.57162219376914 235.59467183639936 0 0 0 0 -1711.7356631315797 841.80620732094576 0 841.80620732094576 101.94996878752136 0 0 0 0 -1937.0946873245994 816.59942346402386 0 816.59942346402386 246.55484904431069 0 0 0 0 -2113.7235152489411 1467.7131277411718 0 1467.7131277411718 -110.1435179906548 0 0 0 0 -1702.3931892930705 1196.0629633500721 0 1196.0629633500721 67.299007892281224 0 0 0 0 -1715.9315219810524 1615.4083929264816 0 1615.4083929264816 -131.01724846466823 0 0 0 0 -1367.825176041355 1695.2046780975716 0 1695.2046780975716 -211.00691688437655 0 0 0 0 -1333.5587485667056 1572.882957007525 0 1572.882957007525 -327.80148219939292 0 0 0 0 -822.9293109170103 1732.7180633811004 0 1732.7180633811004 -852.24215143306719 0 0 0 0 -1069.3302369879675 1849.0139634023799 0 1849.0139634023799 -1637.0908374957871 0 0 0 0 -888.7195771906845 1433.0322541965143 0 1433.0322541965143 -693.92078730382491 0 0 0 0 -2218.9281312919338 1364.244789273871 0 1364.244789273871 -195.79498371412774 0 0 0 0 -2098.7024599364813 2073.2864537931746 0 2073.2864537931746 -649.44638706838305 0 0 0 0 -1297.8913503262156 2897.5165122228063 0 2897.5165122228063 -5281.6918541304622 0 0 0 0 -1280.7639856068417 -64.528925622700626 0 -64.528925622700626 1425.4597629981872 0 0 0 0 -32.737551196678965 4.9434978779581513 0 4.9434978779581513 -3.6261389117770957 0 0 0 0 475.79221295348543 437.10444162374915 0 437.10444162374915 261.55225170413905 0 0 0 0 -88.813274362022923 24.425813975802612 0 24.425813975802612 9.6360474868994537 0 0 0 0 -453.92556625144789 1071.4396802776027 0 1071.4396802776027 -1367.7002694463736 0 0 0 0 -762.88880692441307 929.31026310853849 0 929.31026310853849 -1157.3464181900927 0 0 0 0 -463.19074323624955 583.75238128221099 0 583.75238128221099 -759.8275686016832 0 0 0 0 -19.981475658799937 25.442208507164906 0 25.442208507164906 8.697152564946748 0 0 0 0 42.515892909257673 486.84710090557928 0 486.84710090557928 667.53953092757729 0 0 0 0 -1736.0833023262749 1693.4042328188661 0 1693.4042328188661 -1646.263481095928 0 0 0 0 -1355.8766266965686 1760.9106628322261 0 1760.9106628322261 -2098.8161382761318 0 0 0 0 -2664.6560314860835 3849.6762599975118 0 3849.6762599975118 -2978.1100945910148 0 0 0 0 -53.652172182894844 41.535087281041029 0 41.535087281041029 2.2270370624632037 0 0 0 0 -1957.6700683052622 2315.5888965353006 0 2315.5888965353006 -2407.8496191804879 0 0 0 0 -836.03506457753247 1556.1501420156274 0 1556.1501420156274 -2461.8000757049958 0 0 0 0 488.67718507989775 642.73358824505704 0 642.73358824505704 692.05374516396114 0 0 0 0 578.17020734003745 618.06871785392286 0 618.06871785392286 684.43235307504074 0 0 0 0 688.90951355342986 520.84203851243365 0 520.84203851243365 108.59784880807274 0 0 0 0 1034.8392183365067 1116.7349209820095 0 1116.7349209820095 892.45144436094415 0 0 0 0 830.2171629780205 1457.5389190451824 0 1457.5389190451824 475.63350086813443 0 0 0 0 949.16276032302994 1989.7035203189516 0 1989.7035203189516 542.63483757071663 0 0 0 0 1540.4816028156492 1719.0104749335296 0 1719.0104749335296 571.84366731951013 0 0 0 0 1366.8500690861838 2084.7342270828449 0 2084.7342270828449 193.99471466365503 0 0 0 0 761.18138422601623 1585.0707322252929 0 1585.0707322252929 340.62048219350982 0 0 0 0 3361.375052702002 1473.5205549346865 0 1473.5205549346865 -164.82998041382234 0 0 0 0 1427.4439736569766 1016.8483262325171 0 1016.8483262325171 48.457092721257141 0 0 0 0 -1185.2805979468394 1191.4440049870609 0 1191.4440049870609 -720.08399271555754 0 0 0 0 -2190.8262528884152 1624.9491515400168 0 1624.9491515400168 -260.32850421179319 0 0 0 0 0.20004965067631986 3.8615366465472221 0 3.8615366465472221 5.6770586722219605 0 0 0 0 -886.11560738633852 2353.9816709007937 0 2353.9816709007937 106.57408429400675 0 0 0 0 759.07884013425792 1998.2028948940278 0 1998.2028948940278 -695.65824371368217 0 0 0 0 657.68988439256282 1500.9401087509286 0 1500.9401087509286 -390.03682901666616 0 0 0 0 917.21073649126629 1656.1721489889533 0 1656.1721489889533 -973.01762758418045 0 0 0 0 847.04579327527608 1802.8891927992954 0 1802.8891927992954 -585.75068660806573 0 0 0 0 582.27580843525357 1615.8038573811355 0 1615.8038573811355 -6.018880196264945 0 0 0 0 544.55091967285989 1564.1937035587653 0 1564.1937035587653 -992.48352345236344 0 0 0 0 516.78029112760851 1533.4162424543865 0 1533.4162424543865 -981.78227125863486 0 0 0 0 -473.85434612962126 1531.5389491494207 0 1531.5389491494207 -539.7780582682899 0 0 0 0 -202.60573274787748 1941.7130444127833 0 1941.7130444127833 -612.08082393115183 0 0 0 0 -483.40728158129787 1482.5773162583027 0 1482.5773162583027 -551.08723715180531 0 0 0 0 -26.474974103170098 1189.4188562145391 0 1189.4188562145391 -874.76491491610068 0 0 0 0 208.32537917973241 1417.4498308960756 0 1417.4498308960756 -1006.3823455244856 0 0 0 0 736.11482104774041 1313.9774335028123 0 1313.9774335028123 -1302.4357911605766 0 0 0 0 577.62815600681643 1181.747424512243 0 1181.747424512243 -1206.9991477112198 0 0 0 0 475.64684374179342 1090.7052560108641 0 1090.7052560108641 -1217.5705884483632 0 0 0 0 218.89976804607068 1015.0591165081223 0 1015.0591165081223 -986.73537602402212 0 0 0 0 559.66269796215056 896.24747346927325 0 896.24747346927325 -833.68298744773347 0 0 0 0 293.65630572773807 812.60687508404408 0 812.60687508404408 -665.21328526891011 0 0 0 0 -237.12817831835127 756.51141126505536 0 756.51141126505536 -861.96901734716084 0 0 0 0 -206.5490675765468 1170.6433511641153 0 1170.6433511641153 -876.72163293087215 0 0 0 0 175.7371161285846 878.67744653980844 0 878.67744653980844 -954.97471620094439 0 0 0 0 -317.65407861665153 961.83590660332811 0 961.83590660332811 -864.57764143530221 0 0 0 0 -605.55619887009379 1016.2807848516532 0 1016.2807848516532 -787.67329719208647 0 0 0 0 -602.66765760618091 933.52375280732838 0 933.52375280732838 -1057.3473163105082 0 0 0 0 -296.92062808443734 1027.0982429602518 0 1027.0982429602518 -913.18359471293661 0 0 0 0 -465.49588179172133 31.735316020538448 0 31.735316020538448 105.43368287557678 0 0 0 0 -996.91889877700305 1067.0092131368947 0 1067.0092131368947 -745.91676373918745 0 0 0 0 -837.30462330722366 986.89629175139999 0 986.89629175139999 -546.28403823169356 0 0 0 0 -1348.0085216012376 709.94603827823448 0 709.94603827823448 -695.61713067310484 0 0 0 0 -1357.7384056014635 1174.4388351816269 0 1174.4388351816269 -602.3908827231935 0 0 0 0 -1300.3202643402547 1036.0710877604779 0 1036.0710877604779 -173.31416980180074 0 0 0 0 -1336.479164485354 1024.5510243418903 0 1024.5510243418903 -163.87915928770963 0 0 0 0 -1277.8028121377356 971.25189230288015 0 971.25189230288015 -436.19216466567013 0 0 0 0 -802.36087694339221 1100.3338419642605 0 1100.3338419642605 -552.23687318392331 0 0 0 0 -840.36042600744986 1150.3642097149132 0 1150.3642097149132 -548.50097812918239 0 0 0 0 -914.98459751621704 1226.2764903075004 0 1226.2764903075004 -257.11213622633659 0 0 0 0 -974.5550832641602 1830.3304739154482 0 1830.3304739154482 -245.15203621524779 0 0 0 0 -1176.0080436813369 1395.8551347014709 0 1395.8551347014709 -133.33141333109234 0 0 0 0 -1510.4763472030172 1151.4354163779644 0 1151.4354163779644 -9.2642405024162144 0 0 0 0 -1339.8149664401972 1112.3279393589273 0 1112.3279393589273 -20.26369416466332 0 0 0 0 -1374.0444244787795 1278.8551254085178 0 1278.8551254085178 -199.54513328617759 0 0 0 0 -1175.0748033796262 805.02873621346225 0 805.02873621346225 38.061344647794613 0 0 0 0 -1628.9666274901392 925.7385946869108 0 925.7385946869108 54.998983630881412 0 0 0 0 -1284.6574115948752 656.24516737136582 0 656.24516737136582 143.65802462797001 0 0 0 0 -1332.713866238395 585.97046426239467 0 585.97046426239467 54.460532478246023 0 0 0 0 -861.43620055750944 344.49440817639697 0 344.49440817639697 88.801657331045135 0 0 0 0 -869.49288241675367 196.02374218042905 0 196.02374218042905 158.81821335083805 0 0 0 0 -553.69260183980077 187.63285125573566 0 187.63285125573566 38.302956412982894 0 0 0 0 -798.09763721935451 444.07058523774322 0 444.07058523774322 33.887336752552073 0 0 0 0 -443.12072916032048 323.0551439744595 0 323.0551439744595 -97.178089920402272 0 0 0 0 -619.81957077389234 480.15880161390669 0 480.15880161390669 -157.67824986463529 0 0 0 0 -178.04314053925918 154.36100809317577 0 154.36100809317577 -158.23139030847233 0 0 0 0 -383.28535176758305 331.93283472288022 0 331.93283472288022 -178.54348901190679 0 0 0 0 -700.50326763556222 595.5366833557855 0 595.5366833557855 -255.92412430682452 0 0 0 0 -174.3001448144787 361.01615180366207 0 361.01615180366207 -316.11152034950283 0 0 0 0 -963.31919443683 790.60535885737045 0 790.60535885737045 -287.00254414175288 0 0 0 0 -681.80644890445546 631.85890985634251 0 631.85890985634251 -204.72177294839639 0 0 0 0 -1169.7632166764088 776.09827763153589 0 776.09827763153589 -103.43474348903692 0 0 0 0 -989.94007935901755 911.45600853555516 0 911.45600853555516 -499.10020643968892 0 0 0 0 -491.38413187701371 918.68804346574325 0 918.68804346574325 -1411.9084744344727 0 0 0 0 -9.7430106014733155 2.266961360322 0 2.266961360322 -0.89296365025828273 0 0 0 0 40.488739755441202 296.43379823895521 0 296.43379823895521 -702.35012833794462 0 0 0 0 -503.03181457234314 747.91288445946702 0 747.91288445946702 -663.60881109026377 0 0 0 0 -255.39183425001102 110.82212181807699 0 110.82212181807699 -132.9629860331188 0 0 0 0 -349.12243654421763 -62.759198561245285 0 -62.759198561245285 172.5192531434077 0 0 0 0 -3.769607102240002 7.3007319664688168 0 7.3007319664688168 6.5000616406290419 0 0 0 0 -448.98098337012925 592.50869338668417 0 592.50869338668417 -342.86000803120987 0 0 0 0 121.31998644955456 -85.56522927118931 0 -85.56522927118931 -87.818392204408156 0 0 0 0 7.7574785459118516 13.729468979588177 0 13.729468979588177 4.6397604440199984 0 0 0 0 11.985615840821993 121.15304076002212 0 121.15304076002212 57.297464720264543 0 0 0 0 -79.819307354046032 635.16009193097125 0 635.16009193097125 -1171.9015147357713 0 0 0 0 -77.519029412564123 646.53919503762154 0 646.53919503762154 -1146.9175997481507 0 0 0 0 -53.36732484906679 608.63694053863583 0 608.63694053863583 -1156.5118622292466 0 0 0 0 -323.07967616255337 656.38965974954772 0 656.38965974954772 -1038.7755596691277 0 0 0 0 11.985615840676473 121.15304075994936 0 121.15304075994936 57.297464720235439 0 0 0 0 -68.397360033472069 650.57617584685795 0 650.57617584685795 -1176.7536504547534 0 0 0 0 -180.21122784598265 88.821710832809913 0 88.821710832809913 163.33640658047807 0 0 0 0 11.98561584064737 121.15304075993481 0 121.15304075993481 57.297464720264543 0 0 0 0 -236.01098390188417 -8.1843065962748369 0 -8.1843065962748369 92.873318117839517 0 0 0 0 -23.540727658432047 4.691605658000185 0 4.691605658000185 2.9870096815332969 0 0 0 0 -59.921447727960185 -76.178681723378759 0 -76.178681723378759 -176.955331971345 0 0 0 0 -320.67662774864584 297.9983444239333 0 297.9983444239333 -221.38649055265705 0 0 0 0 -73.417641944775824 81.145443456567591 0 81.145443456567591 2.4513568492839113 0 0 0 0 -188.78808765154099 183.20576791881467 0 183.20576791881467 -62.005157711872016 0 0 0 0 -163.07923451228999 80.89849351439625 0 80.89849351439625 -42.665376019052928 0 0 0 0 -72.781359477579826 51.795058761450491 0 51.795058761450491 -52.702410997881088 0 0 0 0 -93.39706816006219 161.62585975186084 0 161.62585975186084 -82.333207971823867 0 0 0 0 70.421564866883273 -85.816996841920627 0 -85.816996841920627 77.707284080795944 0 0 0 0 83.563353825244121 17.718599416286452 0 17.718599416286452 -50.405365668062586 0 0 0 0 123.07154217350762 47.911392198453541 0 47.911392198453541 -11.074016794740601 0 0 0 0 -397.18094097904395 345.30190229119034 0 345.30190229119034 -1353.2255144979572 0 0 0 0 -129.53156776272226 593.16708224228933 0 593.16708224228933 -1200.6612853342667 0 0 0 0 -86.967126442294102 584.55680277969805 0 584.55680277969805 -1209.1327679500391 0 0 0 0 -68.286987746192608 659.95431094005471 0 659.95431094005471 -1162.2298553430592 0 0 0 0 -116.47772504069144 603.11541921962635 0 603.11541921962635 -1219.8097085983609 0 0 0 0 -237.10891041590367 548.14132526679896 0 548.14132526679896 -1226.7678601754596 0 0 0 0 -281.8154104835121 482.66320798831293 0 482.66320798831293 -1277.0175024346681 0 0 0 0 -197.76738068787381 478.03485426522093 0 478.03485426522093 -1276.9748285778915 0 0 0 0 -289.89779071361409 214.87478480931895 0 214.87478480931895 -1456.5448129744036 0 0 0 0 -220.04984408919699 435.29174684407189 0 435.29174684407189 -1331.5853488624853 0 0 0 0 -167.872706134076 299.03108134391186 0 299.03108134391186 -1517.4126888040046 0 0 0 0 -40.243628241645638 482.85299792405567 0 482.85299792405567 -1390.888996933325 0 0 0 0 -209.069816671632 482.75344184832647 0 482.75344184832647 -1278.0731104792794 0 0 0 0 -57.523028462775983 575.16900158932549 0 575.16900158932549 -1243.2694172094634 0 0 0 0 35.434537276683841 585.00606137013528 0 585.00606137013528 -1174.9757597049538 0 0 0 0 -157.3838939993002 454.19068296296609 0 454.19068296296609 -1217.0847590177145 0 0 0 0 -79.445737078116508 649.38663100654958 0 649.38663100654958 -998.22202059734263 0 0 0 0 1.0183482956490479 604.93991909724718 0 604.93991909724718 -1145.7697073164309 0 0 0 0 -130.82464224353316 605.64355181902647 0 605.64355181902647 -1145.2059552097344 0 0 0 0 30.794061334978323 527.99584291069186 0 527.99584291069186 -1657.6882993364125 0 0 0 0 -84.547774697188288 440.42289285012521 0 440.42289285012521 -1252.6246958518022 0 0 0 0 -3.6204465770861134 433.01088634930784 0 433.01088634930784 -1251.9964073600895 0 0 0 0 -27.730333664716454 -7.6241089437389746 0 -7.6241089437389746 259.19110807508696 0 0 0 0 72.452799272636184 365.3483243289229 0 365.3483243289229 -1820.7142503740542 0 0 0 0 -6.790125984601957 12.177444762320107 0 12.177444762320107 1.1916931195807017 0 0 0 0 15.918228855822235 31.594354257045779 0 31.594354257045779 87.035562578979807 0 0 0 0 65.763919681077823 50.366665602661669 0 50.366665602661669 -34.694670489087002 0 0 0 0 33.390930719469907 106.1484026682956 0 106.1484026682956 149.27984707307769 0 0 0 0 117.58429608642473 86.054394585637056 0 86.054394585637056 -61.084221295270254 0 0 0 0 322.50806007889332 65.900097360441578 0 65.900097360441578 -98.85754534330772 0 0 0 0 130.96585891133873 74.67210603946296 0 74.67210603946296 -82.336843511264306 0 0 0 0 67.697348591551417 13.449091086593398 0 13.449091086593398 -76.267492514452897 0 0 0 0 70.684275785635691 43.116701229111641 0 43.116701229111641 -37.936464274316677 0 0 0 0 -83.67911771213403 50.069149195012869 0 50.069149195012869 -23.516833303292515 0 0 0 0 71.676343742597965 40.204596413328545 0 40.204596413328545 -73.000226786651183 0 0 0 0 -31.632719672721578 90.726229225787392 0 90.726229225787392 -110.47024784772657 0 0 0 0 -165.93949326031725 168.83123068168061 0 168.83123068168061 -81.707324438299111 0 0 0 0 -405.35388595279073 248.99007624652586 0 248.99007624652586 -83.399834061900037 0 0 0 0 -179.55471315288742 141.38380569987203 0 141.38380569987203 -129.40470597801323 0 0 0 0 -104.90089682803955 31.90202430242789 0 31.90202430242789 -50.995170606867759 0 0 0 0 -169.54365541905281 90.728449914924568 0 90.728449914924568 -26.366109811693605 0 0 0 0 -478.38630892327637 138.69939138040354 0 138.69939138040354 101.33986031169479 0 0 0 0 -474.49899550969712 248.22181295364862 0 248.22181295364862 -106.43044199523865 0 0 0 0 -159.54942744221989 154.33693575439793 0 154.33693575439793 -109.58329183890601 0 0 0 0 -318.09520460950444 145.67470950163897 0 145.67470950163897 -43.830200616153888 0 0 0 0 -309.33375816054649 66.908445146023496 0 66.908445146023496 163.15517559836735 0 0 0 0 339.4607639186288 -4.6320798419401399 0 -4.6320798419401399 50.328345344634727 0 0 0 0 83.247690436775883 71.474102748115911 0 71.474102748115911 46.118593360850355 0 0 0 0 89.799346101906849 27.414264711740543 0 27.414264711740543 -57.291382115523447 0 0 0 0 -494.76040392018331 2031.9756487968989 0 2031.9756487968989 -976.51610126371816 0 0 0 0 -694.8735369854403 2005.4278985126948 0 2005.4278985126948 -871.93098723670118 0 0 0 0 -764.18772535696189 2066.2131054635138 0 2066.2131054635138 -684.27910107660864 0 0 0 0 -677.73337899055332 2035.1275731054993 0 2035.1275731054993 -857.91968593172714 0 0 0 0 -897.53906187418033 1661.2012958480555 0 1661.2012958480555 -1086.3088298059738 0 0 0 0 -777.72009896347299 1908.8728003411743 0 1908.8728003411743 -778.54645928510581 0 0 0 0 -683.60450435467646 1794.1128866652416 0 1794.1128866652416 -1232.7850671120686 0 0 0 0 -366.80260884929157 1862.527998233425 0 1862.527998233425 -1315.2224872097122 0 0 0 0 -0.29913733634748496 2179.0576118910649 0 2179.0576118910649 -1119.4056210300259 0 0 0 0 -405.3311910849734 1887.6777431550072 0 1887.6777431550072 -1324.3586258199321 0 0 0 0 -500.51653578286641 2173.3596935104979 0 2173.3596935104979 -1010.6779117504084 0 0 0 0 -0.48121104767778888 2429.5452879304939 0 2429.5452879304939 -880.01420384890662 0 0 0 0 -751.04810719017405 2180.3552267679624 0 2180.3552267679624 -494.50736325402977 0 0 0 0 -494.88199129805434 2216.320329316191 0 2216.320329316191 -780.35875630499504 0 0 0 0 -753.04221267221328 2141.9234512414423 0 2141.9234512414423 -664.50593352410942 0 0 0 0 -557.71214421276818 1948.9900654134617 0 1948.9900654134617 -475.35995665943847 0 0 0 0 -557.35934223418008 1953.5373783750474 0 1953.5373783750474 -1393.0891658756445 0 0 0 0 -156.60827025853359 981.20791281184938 0 981.20791281184938 -2263.2508419294318 0 0 0 0 -331.19923385989387 1072.8343209761078 0 1072.8343209761078 -52.95419754795148 0 0 0 0 -276.77040729863802 2870.8714753857712 0 2870.8714753857712 -2511.6985437910043 0 0 0 0 -254.75272528738424 2508.1265204470747 0 2508.1265204470747 -611.9260773864371 0 0 0 0 -874.03028915799223 1233.3642754165339 0 1233.3642754165339 4934.4689157477278 0 0 0 0 3948.0435012276212 4249.54625705937 0 4249.54625705937 -7208.113019392229 0 0 0 0 -28.166733164425523 18.460010827947031 0 18.460010827947031 -3.1893046416342319 0 0 0 0 -348.05096484976821 1117.427741160478 0 1117.427741160478 -7461.8995170420094 0 0 0 0 4277.5780375448521 1282.1501112304395 0 1282.1501112304395 -12024.708310800488 0 0 0 0 -573.35984603886027 2920.5350413911146 0 2920.5350413911146 2510.7466268544958 0 0 0 0 -630.84725654721842 3341.59373873 0 3341.59373873 -224.06064138363581 0 0 0 0 -742.77450025524013 2282.7336991638876 0 2282.7336991638876 3989.6099757213378 0 0 0 0 580.95901236440113 2015.615244153083 0 2015.615244153083 457.54263612597424 0 0 0 0 342.2518349494203 1996.4640354204312 0 1996.4640354204312 1525.7454853738818 0 0 0 0 605.34372005349724 1508.3032163632597 0 1508.3032163632597 1719.6678700840275 0 0 0 0 750.04030070602312 1880.2389839017851 0 1880.2389839017851 756.47539944419987 0 0 0 0 841.28048890636273 1556.1615269164504 0 1556.1615269164504 1268.2433888753294 0 0 0 0 456.4621884082444 1704.0164316118753 0 1704.0164316118753 1484.1037741539476 0 0 0 0 538.43732798511337 454.55421174941876 0 454.55421174941876 2283.110899320076 0 0 0 0 829.67641248133441 1730.656153118769 0 1730.656153118769 -367.65207586606266 0 0 0 0 611.25862383698404 1719.403781495108 0 1719.403781495108 726.30111975432374 0 0 0 0 721.58406770043075 1871.8455523140292 0 1871.8455523140292 120.731648039422 0 0 0 0 438.3179031824402 1594.0829884752457 0 1594.0829884752457 145.12716040291343 0 0 0 0 -291.8681251318776 1624.5398178133255 0 1624.5398178133255 650.5137737343066 0 0 0 0 490.97563551267376 1629.9054997634667 0 1629.9054997634667 -309.94786847981595 0 0 0 0 -154.68409343852545 1966.9585216351697 0 1966.9585216351697 147.84026455951971 0 0 0 0 265.09651172421582 1592.473976763169 0 1592.473976763169 481.30365620003431 0 0 0 0 73.249808241205756 1840.008145645359 0 1840.008145645359 -775.74688553123269 0 0 0 0 191.84458423282194 1583.985592815181 0 1583.985592815181 -259.87806943424221 0 0 0 0 732.52984481753083 1445.9478581658768 0 1445.9478581658768 -406.62906557318092 0 0 0 0 745.83060286000546 1585.2368029068712 0 1585.2368029068712 -935.7144117134012 0 0 0 0 -695.55448012233683 2203.6268381008704 0 2203.6268381008704 -565.08975109978928 0 0 0 0 -689.9182419347344 2213.4036876680439 0 2213.4036876680439 -211.82758814052795 0 0 0 0 -685.63400182935584 2163.7034329764065 0 2163.7034329764065 -454.83298485914929 0 0 0 0 -320.73944404913345 1643.1884604086445 0 1643.1884604086445 -269.88620342276045 0 0 0 0 -695.45106896557263 2043.6740259403377 0 2043.6740259403377 -671.92770883413323 0 0 0 0 -789.41088845820923 1784.948830561385 0 1784.948830561385 -720.91391040440431 0 0 0 0 -1073.2207011609644 1539.1071994917147 0 1539.1071994917147 -1254.5098186367104 0 0 0 0 -867.26722781316494 1935.8620317746536 0 1935.8620317746536 -980.01000100106467 0 0 0 0 -465.63041433646868 1888.9309339269166 0 1888.9309339269166 -1196.5235412368638 0 0 0 0 -66.244039066397818 1878.1414904653793 0 1878.1414904653793 -1205.5469474769343 0 0 0 0 -649.01182409911416 2126.4618756249256 0 2126.4618756249256 -1501.0980894692912 0 0 0 0 -1636.1645725060371 2139.54543605863 0 2139.54543605863 -1498.136820542466 0 0 0 0 -20.628559142089216 2182.7055971801019 0 2182.7055971801019 -2052.0935858616431 0 0 0 0 -56.263876474666176 2402.3004208504644 0 2402.3004208504644 -2288.266426158938 0 0 0 0 -1114.5926866363443 1776.1967879460426 0 1776.1967879460426 -1522.4173421906744 0 0 0 0 -1070.5760965692534 1585.8743301238646 0 1585.8743301238646 -1855.0710898266261 0 0 0 0 532.15273321096902 1661.141795858799 0 1661.141795858799 -962.06614699062629 0 0 0 0 845.07182508814731 1488.4846714435334 0 1488.4846714435334 -1291.9861141745077 0 0 0 0 794.21165881399793 1397.8463882745091 0 1397.8463882745091 -1244.9801145563833 0 0 0 0 688.20897644158686 1577.2547387397208 0 1577.2547387397208 -1475.1218997663382 0 0 0 0 49.573524855455616 1658.8195283801033 0 1658.8195283801033 -800.10020941042058 0 0 0 0 672.29934126377339 1559.8603488528461 0 1559.8603488528461 -1434.7737057857339 0 0 0 0 490.0206143711257 1788.8972597578795 0 1788.8972597578795 -1349.4284266666218 0 0 0 0 511.17516580937081 2021.2264396081082 0 2021.2264396081082 -2028.5886995494948 0 0 0 0 572.00432318573075 1685.2471147497226 0 1685.2471147497226 -1562.1508502878714 0 0 0 0 893.89674221695168 1579.0635451334456 0 1579.0635451334456 -2124.0679667489458 0 0 0 0 1356.8739712912065 1093.4286177055037 0 1093.4286177055037 -1955.7981806392927 0 0 0 0 997.42765230670921 1336.7731733671171 0 1336.7731733671171 -1582.6836323664174 0 0 0 0 859.65547836727637 1224.4112130488029 0 1224.4112130488029 -1544.0748346826003 0 0 0 0 761.70648092846386 815.74068173868727 0 815.74068173868727 -1173.8784713189425 0 0 0 0 700.60679632340907 876.42206300659382 0 876.42206300659382 -1179.3265887659509 0 0 0 0 1048.0405837690923 952.56248982921534 0 952.56248982921534 -1559.8059275733799 0 0 0 0 1022.3190000234608 1019.2783379954417 0 1019.2783379954417 -1722.2949356878526 0 0 0 0 1379.8738042306795 560.46760263525357 0 560.46760263525357 -1379.9146368211295 0 0 0 0 1201.7146281173918 1244.6764656193991 0 1244.6764656193991 -2032.865623191683 0 0 0 0 1630.8635684434848 891.55133443960585 0 891.55133443960585 -2288.8227562261454 0 0 0 0 1943.1936424097221 261.47414400496928 0 261.47414400496928 -1365.6568149729283 0 0 0 0 1621.1470888225595 616.78016258723801 0 616.78016258723801 -1208.4589693301023 0 0 0 0 1693.7018558714772 224.03895357127476 0 224.03895357127476 -275.69807195692556 0 0 0 0 2034.5030436337693 833.95956952343113 0 833.95956952343113 -351.10210995533271 0 0 0 0 1416.9028995010012 658.91989942077635 0 658.91989942077635 185.47444842229015 0 0 0 0 1052.0407054827374 603.70216622574299 0 603.70216622574299 -223.49747508666769 0 0 0 0 1391.6310882211255 793.55860503482108 0 793.55860503482108 -470.80760453681978 0 0 0 0 1355.4290605658025 326.89630352036693 0 326.89630352036693 -533.71595277651795 0 0 0 0 1182.9350328339788 740.66288823794457 0 740.66288823794457 -1232.2291817170553 0 0 0 0 558.9256358587154 894.68123818817548 0 894.68123818817548 -237.99242327563115 0 0 0 0 894.81292981123261 583.08121949174893 0 583.08121949174893 -769.86096195687423 0 0 0 0 962.87106647971086 833.07104950526627 0 833.07104950526627 -770.21888966593542 0 0 0 0 -2454.9012676572311 1750.6685230041185 0 1750.6685230041185 -1866.2987998855097 0 0 0 0 -1074.2498213210056 1832.8738095864901 0 1832.8738095864901 -3325.7183274173149 0 0 0 0 -2132.5036685354717 3041.2404883987183 0 3041.2404883987183 -5329.711038097812 0 0 0 0 -4698.4675588171813 1629.5905325823114 0 1629.5905325823114 -3201.0811424946805 0 0 0 0 -2325.153780980283 2035.1387634569573 0 2035.1387634569573 -2345.2385241357406 0 0 0 0 -1305.2131021691894 2465.8702085272671 0 2465.8702085272671 -2997.7107245128718 0 0 0 0 -2041.9149121315859 2813.3216669347603 0 2813.3216669347603 -2362.7942567583232 0 0 0 0 1778.351291343628 2886.3608655395219 0 2886.3608655395219 -4175.1464409152104 0 0 0 0 1540.8771868193726 1756.4294943397181 0 1756.4294943397181 -3031.3346549176204 0 0 0 0 1566.8039856403193 1532.7282935505937 0 1532.7282935505937 -2618.572898572922 0 0 0 0 2232.1598221552267 651.22841079114005 0 651.22841079114005 -1809.2879699115874 0 0 0 0 2117.2604583027278 986.15771986394793 0 986.15771986394793 -3097.2328038599226 0 0 0 0 -766.31710285646841 4686.6156204809959 0 4686.6156204809959 -5175.8309633701865 0 0 0 0 4431.3408627551398 1733.7277145973057 0 1733.7277145973057 -5400.1724185951789 0 0 0 0 -1.7353708854582379 16.275662573774895 0 16.275662573774895 -23.098688813390652 0 0 0 0 3401.6259830311756 1456.9173292514606 0 1456.9173292514606 520.03138578182552 0 0 0 0 5124.4540572382975 286.65736944724631 0 286.65736944724631 -3616.8446807126165 0 0 0 0 3371.2482273405185 -1183.8174642157828 0 -1183.8174642157828 454.56378452834906 0 0 0 0 4.0311346216799961 13.499808826915455 0 13.499808826915455 -10.161256528360923 0 0 0 0 2552.8643343091244 -214.78627146151848 0 -214.78627146151848 -1535.137292605621 0 0 0 0 2488.4247529133572 1212.1470907745097 0 1212.1470907745097 1755.9185869444482 0 0 0 0 1885.5906119968859 777.76429981415276 0 777.76429981415276 -227.18218418757897 0 0 0 0 2466.2305076335324 529.98711949048447 0 529.98711949048447 -197.11338672376587 0 0 0 0 2920.7915277165594 995.96057860233122 0 995.96057860233122 160.9863539635553 0 0 0 0 2740.939870882954 1286.3367008173227 0 1286.3367008173227 -28.23146413716313 0 0 0 0 1963.6587111202389 867.82120226021652 0 867.82120226021652 573.51673446502537 0 0 0 0 6530.9173597697518 418.44873940860271 0 418.44873940860271 240.51312955890899 0 0 0 0 -3600.3324771177431 1734.6742118060356 0 1734.6742118060356 -431.05870811582281 0 0 0 0 -6430.3198309048676 3632.3915458557021 0 3632.3915458557021 -1703.0534592790355 0 0 0 0 -2381.0970867303986 2816.1843590308708 0 2816.1843590308708 -2482.8012503490609 0 0 0 0 -0.11943533658273964 2.8352873484308816 0 2.8352873484308816 -3.2009334062076533 0 0 0 0 -1890.7893182810367 2066.5677388415279 0 2066.5677388415279 -1538.9904843098775 0 0 0 0 -1280.9059837331588 2399.879141450001 0 2399.879141450001 -3687.8574469280502 0 0 0 0 -481.43774249745547 1253.4984443008916 0 1253.4984443008916 -2186.0552288689214 0 0 0 0 -400.05719440919347 1572.9936751747882 0 1572.9936751747882 -2048.6124560957978 0 0 0 0 -1098.9542448452703 1727.3257555503515 0 1727.3257555503515 -1704.3332874253683 0 0 0 0 -615.93891104261274 1066.0985156491588 0 1066.0985156491588 -1021.8261514085316 0 0 0 0 -516.5154138324142 1464.4844513182907 0 1464.4844513182907 -2090.6552338338988 0 0 0 0 -1107.625766045996 1381.4327284060419 0 1381.4327284060419 -1506.5434093208169 0 0 0 0 -518.01199666048751 1532.1288224091802 0 1532.1288224091802 -1877.2114804217417 0 0 0 0 -674.10169048054377 1729.6711103235284 0 1729.6711103235284 -1199.2181458749874 0 0 0 0 -677.51310678563459 1679.5411217386973 0 1679.5411217386973 -1469.9226141029212 0 0 0 0 -0.16348233300309686 1827.9976835147147 0 1827.9976835147147 -1772.7029941244255 0 0 0 0 -455.66198605927639 1681.7068723811135 0 1681.7068723811135 -1663.9870524992148 0 0 0 0 -470.54799076088239 1673.0794166772175 0 1673.0794166772175 -1660.7558973234736 0 0 0 0 -280.19586247514235 1633.2062736721891 0 1633.2062736721891 -1969.9844421169837 0 0 0 0 -447.70543746624026 1514.2950004572194 0 1514.2950004572194 -1977.7832266682035 0 0 0 0 -0.27919488353654742 1672.6893754283046 0 1672.6893754283046 -2156.1957858405221 0 0 0 0 -301.09031123909517 1618.7525846147546 0 1618.7525846147546 -1831.2562413934338 0 0 0 0 -153.82198416786559 1432.1499203050334 0 1432.1499203050334 -2472.8700837055803 0 0 0 0 -341.07977336112526 1418.0510731671966 0 1418.0510731671966 -2580.1363518049038 0 0 0 0 0.43051595739029835 5.6308952103959484 0 5.6308952103959484 -2.8873348682971454 0 0 0 0 -0.56502834460115992 1370.7346310422618 0 1370.7346310422618 -3286.4959921890477 0 0 0 0 -454.35653392568929 1209.0898469716158 0 1209.0898469716158 -2441.1651653696681 0 0 0 0 -492.43579188812873 1089.6950065880919 0 1089.6950065880919 -638.74252419756522 0 0 0 0 1.2669462309115147 2.349582056243122 0 2.349582056243122 -4.2472946081919645 0 0 0 0 -512.52834260336567 923.49413279390342 0 923.49413279390342 -1291.2487314122554 0 0 0 0 -537.49624926348042 1355.8780957283561 0 1355.8780957283561 -1266.5683731376803 0 0 0 0 -441.08156309880724 1152.2702658598937 0 1152.2702658598937 -1098.8432323949783 0 0 0 0 -0.31536788704397622 1212.7523493752524 0 1212.7523493752524 -1169.708732691608 0 0 0 0 -2068.7484135106351 1866.6983497851907 0 1866.6983497851907 -1654.1705502410405 0 0 0 0 -1918.4078732097551 1313.1237786199999 0 1313.1237786199999 -758.92593817850138 0 0 0 0 -832.42893892638676 1380.1426963262784 0 1380.1426963262784 -2136.093359146209 0 0 0 0 -831.52945334206743 1339.8993721979168 0 1339.8993721979168 -1808.6541399189391 0 0 0 0 -1456.9861599744618 1152.6477924966111 0 1152.6477924966111 -763.49430031144584 0 0 0 0 16.186578000226206 17.660244101589399 0 17.660244101589399 4.6149176031892125 0 0 0 0 -1292.3119482506008 972.77609714602659 0 972.77609714602659 -638.30397415864718 0 0 0 0 -930.38569732842734 931.63228261701806 0 931.63228261701806 -637.42902644350943 0 0 0 0 19.3378048214893 20.983152973957289 0 20.983152973957289 1.2365992586256027 0 0 0 0 -448.02831192363374 529.10805889868243 0 529.10805889868243 -503.17980296100723 0 0 0 0 -0.21010842817486264 974.16704090804342 0 974.16704090804342 -1033.9516846355982 0 0 0 0 -623.09017536123429 649.05761844405606 0 649.05761844405606 -519.64192005923542 0 0 0 0 -397.3433939483366 1039.5050734451906 0 1039.5050734451906 -869.07123043177126 0 0 0 0 -0.55579323055917396 734.98929809136609 0 734.98929809136609 -637.19388269518095 0 0 0 0 1.7002592750504846 564.95880865378967 0 564.95880865378967 -244.61057983083265 0 0 0 0 -298.54889596995781 801.83263714041823 0 801.83263714041823 -397.78966190974097 0 0 0 0 -167.16270305831131 629.57210683330595 0 629.57210683330595 -519.58596946561738 0 0 0 0 68.829975976084825 429.16658852709224 0 429.16658852709224 -672.59962823514252 0 0 0 0 -226.71500500879483 544.69512513810696 0 544.69512513810696 -712.68412320570496 0 0 0 0 18.103389488509123 19.994153126058023 0 19.994153126058023 1.136655882372537 0 0 0 0 -1050.7188708031099 1181.9342218851734 0 1181.9342218851734 -905.63134425745011 0 0 0 0 -154.28731564726331 750.1376789138958 0 750.1376789138958 -1030.7736540109017 0 0 0 0 -1318.6028078442614 725.9842198162587 0 725.9842198162587 -571.25852644338556 0 0 0 0 -188.75714774601511 761.95800946731288 0 761.95800946731288 -809.66688023450115 0 0 0 0 565.90318802736874 579.51212733895954 0 579.51212733895954 -854.57248081333819 0 0 0 0 -17.727930830277728 597.41111016387958 0 597.41111016387958 -418.37372566374688 0 0 0 0 699.78191801102366 866.50456708087586 0 866.50456708087586 -346.26596231539224 0 0 0 0 -47.519277319925095 1199.36516058498 0 1199.36516058498 -625.1574447994135 0 0 0 0 123.64116240656585 745.52856586273265 0 745.52856586273265 -384.73856988372609 0 0 0 0 738.79445627296809 2064.6835822374815 0 2064.6835822374815 -613.85677938650815 0 0 0 0 861.76691396706883 1634.9510572023119 0 1634.9510572023119 -2007.2455957813945 0 0 0 0 -0.094480261890566908 2013.8107430363234 0 2013.8107430363234 -160.70960103556354 0 0 0 0 2098.4064591838978 1116.4311935518672 0 1116.4311935518672 -218.91461951239035 0 0 0 0 8.048966752145958 10.029234124113628 0 10.029234124113628 -0.2960417732861913 0 0 0 0 -1878.9782519210967 2386.392823191316 0 2386.392823191316 -651.92613163231727 0 0 0 0 451.91031405794274 139.70136738056408 0 139.70136738056408 -356.73636900140991 0 0 0 0 78.036928439869371 62.151078544791744 0 62.151078544791744 -120.05538747581886 0 0 0 0 0.16735201807892963 42.773396418372101 0 42.773396418372101 -87.430478801962067 0 0 0 0 -90.741755729060969 313.26164783952663 0 313.26164783952663 -472.75828677979734 0 0 0 0 23.771162488155738 26.511656037505645 0 26.511656037505645 4.1187953242188939 0 0 0 0 -76.534141289099352 219.59419782782788 0 219.59419782782788 65.373525957529637 0 0 0 0 -160.80725468779565 86.122226101950218 0 86.122226101950218 -78.357100437714507 0 0 0 0 -6.5376651715923799 46.369845180919583 0 46.369845180919583 -105.86703068345378 0 0 0 0 8.927730162873587 43.704751379408634 0 43.704751379408634 -10.922057871433992 0 0 0 0 567.24252106106724 -120.10463717285893 0 -120.10463717285893 -91.429922822203025 0 0 0 0 583.01620959275169 -103.52594504006993 0 -103.52594504006993 -93.707774649527892 0 0 0 0 565.06871031684568 -141.04771508704289 0 -141.04771508704289 -112.71355522949125 0 0 0 0 1336.2388034746982 218.42948099401838 0 218.42948099401838 -508.73108960771606 0 0 0 0 1019.5855866244383 297.3544083779434 0 297.3544083779434 -528.35857885690348 0 0 0 0 598.51558121453854 -120.22534654289484 0 -120.22534654289484 -114.79639090638602 0 0 0 0 741.9834582960757 178.00420234849662 0 178.00420234849662 -578.60108620303072 0 0 0 0 989.48818245375878 323.61819230697074 0 323.61819230697074 -465.65202578710523 0 0 0 0 502.27608949234127 622.32527715722972 0 622.32527715722972 -548.81093682452229 0 0 0 0 658.76811558737245 159.92553041740939 0 159.92553041740939 -657.46153782642068 0 0 0 0 512.01203986826295 467.89105428069888 0 467.89105428069888 -798.36011918917575 0 0 0 0 422.97108715455397 416.57844108944846 0 416.57844108944846 -844.22065404983005 0 0 0 0 535.72289220968378 425.3189481939371 0 425.3189481939371 -934.11594548852372 0 0 0 0 120.77227729855804 636.14237468298234 0 636.14237468298234 -930.26736602795245 0 0 0 0 68.9728176118806 408.24922134315057 0 408.24922134315057 -925.15986999381494 0 0 0 0 502.20522073282336 439.1521995868643 0 439.1521995868643 -926.02165842580143 0 0 0 0 133.91598246966896 402.93198819400277 0 402.93198819400277 -786.635017434166 0 0 0 0 425.61723989904203 588.1128658583275 0 588.1128658583275 -859.00748394832772 0 0 0 0 -12.538366548566032 43.732533731661249 0 43.732533731661249 -87.677541356481584 0 0 0 0 -79.875519696186529 306.13989477696305 0 306.13989477696305 -477.47805719642201 0 0 0 0 -819.98917775241716 1085.4335209402216 0 1085.4335209402216 -748.17435561807361 0 0 0 0 121.95662403900451 839.20172719361244 0 839.20172719361244 -1007.9546615125655 0 0 0 0 -880.5218472158158 560.27662549761226 0 560.27662549761226 -379.58891718626546 0 0 0 0 1117.0022666245932 929.6617769496188 0 929.6617769496188 -630.6133721006554 0 0 0 0 402.04015377777978 515.99249030704232 0 515.99249030704232 -164.09699323249151 0 0 0 0 -170.18069542726153 1209.5333720549606 0 1209.5333720549606 199.11015879527622 0 0 0 0 501.3886385668975 1100.0024375004987 0 1100.0024375004987 -274.06783598785114 0 0 0 0 288.10346157336608 151.17413295639926 0 151.17413295639926 -674.26432720919183 0 0 0 0 -9.6981489099312057 41.775925055042165 0 41.775925055042165 -88.423410106703216 0 0 0 0 -7.9435549893378266 37.288522284430684 0 37.288522284430684 -85.989613653234727 0 0 0 0 239.21176223219663 115.05688532298518 0 115.05688532298518 -348.76195493133491 0 0 0 0 -10.846696697059087 280.86187713358595 0 280.86187713358595 -455.44346811989817 0 0 0 0 -33.979010337207001 200.8408014775523 0 200.8408014775523 -248.23860676748882 0 0 0 0 -184.37342133166385 214.27893088922792 0 214.27893088922792 -220.79457297939371 0 0 0 0 -69.969899107207311 13.82676368909415 0 13.82676368909415 -23.713797567652364 0 0 0 0 1868.8058248235175 1068.8255076409214 0 1068.8255076409214 19.599946609916515 0 0 0 0 -0.75216370919106623 27.591639543080191 0 27.591639543080191 -73.862950524993551 0 0 0 0 2527.2933989135199 226.38884667943057 0 226.38884667943057 97.34570938788238 0 0 0 0 3445.3884657878152 1035.7366453130744 0 1035.7366453130744 -441.52596571081085 0 0 0 0 4.3825334062130423 154.70752972002265 0 154.70752972002265 -40.170446541371348 0 0 0 0 -1953.4831979708251 1217.2937817155289 0 1217.2937817155289 -1065.5958523012196 0 0 0 0 6.9162198624019879 21.38634560026091 0 21.38634560026091 5.37618694155546 0 0 0 0 521.11773798694048 1207.0370349693221 0 1207.0370349693221 -49.667069356757565 0 0 0 0 408.02710866603593 1061.8219327473416 0 1061.8219327473416 -34.818117857212201 0 0 0 0 707.07789616982336 718.06733434792113 0 718.06733434792113 340.74368877471716 0 0 0 0 1678.2597196110437 786.28831701363379 0 786.28831701363379 -309.81176902751031 0 0 0 0 1595.3723980133072 1041.7323052754218 0 1041.7323052754218 22.949151313514449 0 0 0 0 1569.0461974508107 858.84145956831162 0 858.84145956831162 -303.3629539408139 0 0 0 0 2252.4666472106182 657.90509262858541 0 657.90509262858541 -143.1423469701549 0 0 0 0 1006.5423398250423 991.27169087022776 0 991.27169087022776 -43.81886351119465 0 0 0 0 809.71653302689083 715.54881258466048 0 715.54881258466048 -151.68105922042741 0 0 0 0 171.88331511353317 1326.3695611501244 0 1326.3695611501244 -236.7720290321231 0 0 0 0 93.406633692284231 1207.262603339932 0 1207.262603339932 -303.29992518233485 0 0 0 0 576.20097528462065 1608.1638813052705 0 1608.1638813052705 -193.56958894851414 0 0 0 0 720.72530334228941 889.0287467118178 0 889.0287467118178 78.198130777174811 0 0 0 0 -74.663964848339674 1180.4198426012554 0 1180.4198426012554 -1808.488601856574 0 0 0 0 -0.47946749252150767 1455.8602591691742 0 1455.8602591691742 -950.73653068504063 0 0 0 0 -2.4022157018695225 1.6676089541902854 0 1.6676089541902854 0.0072730721006450949 0 0 0 0 -669.945333470474 872.3512107980423 0 872.3512107980423 -954.75916363204306 0 0 0 0 -882.1765068165987 -499.94069876182766 0 -499.94069876182766 -144.24302582850214 0 0 0 0 -680.62403795585851 822.37279052042049 0 822.37279052042049 -584.0358612081618 0 0 0 0 -8.0384728940302352 4.1357652786483925 0 4.1357652786483925 3.811985674632453 0 0 0 0 -882.42032988433493 1435.5820079635087 0 1435.5820079635087 -37.351950737654988 0 0 0 0 286.65417918413004 481.25902422689251 0 481.25902422689251 -1374.2587229685159 0 0 0 0 272.89409377364791 586.07502026260772 0 586.07502026260772 460.98301616778917 0 0 0 0 68.64452342855293 1249.8482945732421 0 1249.8482945732421 750.86947958976089 0 0 0 0 -106.02110993486713 1173.7836901479805 0 1173.7836901479805 649.50050682808796 0 0 0 0 133.01056529326888 925.94949914918107 0 925.94949914918107 203.86594420303663 0 0 0 0 -289.13088290719315 1232.3928564283633 0 1232.3928564283633 641.44586181742488 0 0 0 0 -81.506509429542348 1521.105841488381 0 1521.105841488381 1035.1398500302312 0 0 0 0 75.125735589099349 1014.077119206253 0 1014.077119206253 680.73343100401689 0 0 0 0 79.077621272241231 1035.6499368718651 0 1035.6499368718651 548.58291435999854 0 0 0 0 1453.1080283647898 1380.8674911245034 0 1380.8674911245034 519.58719985066273 0 0 0 0 2592.3724777950847 228.84208322271297 0 228.84208322271297 -146.81327393666288 0 0 0 0 10.532907416605212 10.906652042185186 0 10.906652042185186 1.6888854181661372 0 0 0 0 -1656.8589059329825 1889.3924712867556 0 1889.3924712867556 135.69224296993411 0 0 0 0 -46.278876285225124 1824.5700222309911 0 1824.5700222309911 131.38157726109785 0 0 0 0 -137.50659296131926 171.30963268555934 0 171.30963268555934 552.26041878036631 0 0 0 0 -50.184300657580025 483.97541658936825 0 483.97541658936825 -121.52053197899659 0 0 0 0 24.975313563330019 363.15665186515798 0 363.15665186515798 -1223.1859573036199 0 0 0 0 -120.71647836145712 416.08741047568765 0 416.08741047568765 -157.3660133961821 0 0 0 0 29.591334680485033 635.04200899428849 0 635.04200899428849 -961.92812478070846 0 0 0 0 -18.561368903756374 438.40289239429694 0 438.40289239429694 -716.02625109747169 0 0 0 0 44.450790770206368 548.4666666187768 0 548.4666666187768 -623.82261603293591 0 0 0 0 -32.991558215755504 390.73786756802292 0 390.73786756802292 -511.9115326685569 0 0 0 0 -46.487431381538045 616.9124132568686 0 616.9124132568686 -662.59390719544172 0 0 0 0 -4.5495214653201401 510.92280874386779 0 510.92280874386779 -933.49527172403759 0 0 0 0 -91.344139241205994 587.06908736855257 0 587.06908736855257 -945.68931724550202 0 0 0 0 51.957661971478956 528.00965255423944 0 528.00965255423944 -999.76766231082729 0 0 0 0 23.339387783278653 486.35319088256438 0 486.35319088256438 -718.7616351719189 0 0 0 0 -54.028417785179045 565.74277203527527 0 565.74277203527527 -689.22195585365989 0 0 0 0 -68.614811413135612 497.1495386272727 0 497.1495386272727 -136.01472464064136 0 0 0 0 -98.540430560562527 566.85652398735328 0 566.85652398735328 -176.80534476730099 0 0 0 0 184.73150702856947 283.45612849007011 0 283.45612849007011 -195.66315786502855 0 0 0 0 -92.137007742247079 394.23770228924695 0 394.23770228924695 -214.11396879461245 0 0 0 0 95.38656338203873 405.90896141893609 0 405.90896141893609 -771.97700602571422 0 0 0 0 -22.429472206931678 736.96079431937142 0 736.96079431937142 -1018.5179888023267 0 0 0 0 -180.73563936712162 744.92907668475164 0 744.92907668475164 -999.57545499036496 0 0 0 0 -702.03989610260669 1268.1167469552115 0 1268.1167469552115 -740.45019693592621 0 0 0 0 -918.68854814124234 161.16806019134356 0 161.16806019134356 520.5625957316297 0 0 0 0 -18.095468775258894 8.0228619848952434 0 8.0228619848952434 -3.8430194599962988 0 0 0 0 41.146955835429253 701.54273365696281 0 701.54273365696281 -2220.2796559984454 0 0 0 0 -92.653588559129275 69.906599304908013 0 69.906599304908013 282.47983092666982 0 0 0 0 -366.45028357536285 382.61995798292719 0 382.61995798292719 -10.592377792781917 0 0 0 0 242.97871392483648 264.54118724869477 0 264.54118724869477 -832.38661183194199 0 0 0 0 3.8537254749645058 2.9755886463560728 0 2.9755886463560728 3.9691833706288007 0 0 0 0 609.06279484844708 945.82618443714819 0 945.82618443714819 171.45763097098097 0 0 0 0 -162.7025449808134 34.657194859464653 0 34.657194859464653 -92.755296230403474 0 0 0 0 86.367703230265761 204.59086302384458 0 204.59086302384458 -38.449930102215149 0 0 0 0 -146.10155066344305 285.30374289460451 0 285.30374289460451 448.1410674223589 0 0 0 0 57.986533998511732 -33.492831247705908 0 -33.492831247705908 -59.919820035203884 0 0 0 0 -50.474397412115309 19.986595716049123 0 19.986595716049123 -8.2960809620503824 0 0 0 0 37.828703996006539 16.276973960489556 0 16.276973960489556 6.3198489932390061 0 0 0 0 1.2327542169391563 8.7148893934100897 0 8.7148893934100897 3.9098403274630984 0 0 0 0 -67.650968470610678 71.136935082271521 0 71.136935082271521 90.35168680328934 0 0 0 0 -4.9572630703514733 320.10200039885603 0 320.10200039885603 -342.11987816228066 0 0 0 0 -31.987048625102034 145.63488227358903 0 145.63488227358903 -34.478515331298695 0 0 0 0 274.59468160218967 -62.435235052609642 0 -62.435235052609642 -5.3624105207709363 0 0 0 0 45.080445883562788 36.582571165542532 0 36.582571165542532 4.9441016693956925 0 0 0 0 -166.09686285303906 320.55179239769495 0 320.55179239769495 664.85496528298972 0 0 0 0 -46.192796751562128 285.34898862943646 0 285.34898862943646 47.547421646871953 0 0 0 0 -68.797572964132485 35.837422355927671 0 35.837422355927671 -1.8482875707989308 0 0 0 0 -281.57941729514278 773.65439107551356 0 773.65439107551356 925.19576359044004 0 0 0 0 -203.79615481658402 459.12575869089051 0 459.12575869089051 620.63521578426298 0 0 0 0 -135.8739326324212 262.0060630015887 0 262.0060630015887 -398.45497190249444 0 0 0 0 -12.778815566707635 401.1706218104373 0 401.1706218104373 331.55980515669285 0 0 0 0 -128.17841891758144 578.10312860851627 0 578.10312860851627 516.71897799730141 0 0 0 0 -135.08843940950737 664.42034156743057 0 664.42034156743057 1036.3584714454191 0 0 0 0 318.87828261911636 753.48931998201442 0 753.48931998201442 805.35786785086384 0 0 0 0 328.29831028985791 756.04092063486678 0 756.04092063486678 624.14900532888714 0 0 0 0 10.556273749527634 5.6363929118911358 0 5.6363929118911358 2.1577515029706831 0 0 0 0 -33.282404921075795 234.78516978295374 0 234.78516978295374 667.8738295534713 0 0 0 0 4.1733910909242695 498.27219175746131 0 498.27219175746131 2351.9447337062156 0 0 0 0 1492.2624460544757 -11.935312961517411 0 -11.935312961517411 1075.8934086013614 0 0 0 0 1375.5512855603592 1139.6989766655461 0 1139.6989766655461 904.48391941764794 0 0 0 0 1048.9253562729864 1262.9158322587682 0 1262.9158322587682 949.38891595453606 0 0 0 0 1010.7321416361883 543.24789929277904 0 543.24789929277904 -94.316115221052314 0 0 0 0 590.64156836557231 504.22207182920465 0 504.22207182920465 827.30089827781921 0 0 0 0 224.19111129901285 167.15788233233616 0 167.15788233233616 104.82640015812649 0 0 0 0 -8.7451771103457645 14.801456202910032 0 14.801456202910032 -29.453670224158088 0 0 0 0 369.23898688913323 320.64087741031835 0 320.64087741031835 150.34750852103753 0 0 0 0 102.5707126709458 67.300379466825689 0 67.300379466825689 25.211888235004153 0 0 0 0 -10.976382201894012 458.20798688340074 0 458.20798688340074 476.12355511287751 0 0 0 0 -62.461752914117824 417.79064537632075 0 417.79064537632075 540.60591101046884 0 0 0 0 156.92687692858453 115.21095590677578 0 115.21095590677578 -69.503841326353722 0 0 0 0 -84.56545888078108 105.43599982532032 0 105.43599982532032 451.58722870862948 0 0 0 0 -62.920832063624403 176.64413302729736 0 176.64413302729736 685.71141886487749 0 0 0 0 25.69662384028652 30.943252208919773 0 30.943252208919773 28.097061373456725 0 0 0 0 -156.83747417126142 425.74735523227173 0 425.74735523227173 1058.3395944563526 0 0 0 0 -279.1278946618695 172.6311261237679 0 172.6311261237679 697.98541600380122 0 0 0 0 712.5302639160218 306.90002377996279 0 306.90002377996279 -136.77408086398646 0 0 0 0 369.15303229192796 302.82328998977391 0 302.82328998977391 -136.81959400162248 0 0 0 0 372.72203187757987 175.63443669739354 0 175.63443669739354 -48.940759503567278 0 0 0 0 2.1111042751581408 26.933929434291713 0 26.933929434291713 -73.947750880208332 0 0 0 0 22.900247324212984 22.868150794672033 0 22.868150794672033 5.0829866474031178 0 0 0 0 377.78560630131688 167.57093754551715 0 167.57093754551715 -43.598749977129046 0 0 0 0 1208.7783464883687 59.618072118988493 0 59.618072118988493 -54.442896580483648 0 0 0 0 -23.89264841027034 516.29435884602935 0 516.29435884602935 111.44040994721945 0 0 0 0 1038.1084081038898 978.66599022497758 0 978.66599022497758 302.00613752953359 0 0 0 0 -106.1628859860939 778.43434370240357 0 778.43434370240357 462.75233264137569 0 0 0 0 103.45678848851821 1807.1149438949287 0 1807.1149438949287 1294.3871181495924 0 0 0 0 -834.702676504181 1184.4145174206933 0 1184.4145174206933 1141.9999071306593 0 0 0 0 -465.17814205627656 714.58890622002946 0 714.58890622002946 528.4789603985264 0 0 0 0 -3.3884838963763286 7.2479549375042893 0 7.2479549375042893 -6.4043898576532854 0 0 0 0 -778.05023968743626 114.45200074120476 0 114.45200074120476 202.7757038451673 0 0 0 0 141.98422462340932 275.0764680465461 0 275.0764680465461 -9.2085742352137459 0 0 0 0 153.17939474839659 208.7689973398883 0 208.7689973398883 -75.538725520545995 0 0 0 0 -0.26249345700125559 114.95990065203205 0 114.95990065203205 -42.648214536340674 0 0 0 0 242.11967537015153 146.65506702600396 0 146.65506702600396 -59.399661987011314 0 0 0 0 275.7842593404348 357.00794543468328 0 357.00794543468328 -179.51250673538016 0 0 0 0 271.56722937758605 352.62410171458396 0 352.62410171458396 -70.939255734860126 0 0 0 0 371.20940829168831 276.96556433479054 0 276.96556433479054 55.779012321378104 0 0 0 0 6.7393418739305844 -3.1108711770625632 0 -3.1108711770625632 -1.3708911270156818 0 0 0 0 172.27651860014885 214.29914604918304 0 214.29914604918304 -364.7945465819721 0 0 0 0 -10.085776073960005 62.176851263785466 0 62.176851263785466 126.58495061341091 0 0 0 0 -98.27163646632107 21.500363688079233 0 21.500363688079233 -214.69010875519962 0 0 0 0 43.16299322019222 145.78880843144452 0 145.78880843144452 -91.157102225151903 0 0 0 0 44.908043744781025 138.55142049105234 0 138.55142049105234 -119.00395524589112 0 0 0 0 -104.64889941667207 58.283880604249134 0 58.283880604249134 -10.674049500808906 0 0 0 0 -70.490145560368546 13.411280395463109 0 13.411280395463109 43.976808598257776 0 0 0 0 -80.318215476691648 70.26213415945108 0 70.26213415945108 -4.8516589382197708 0 0 0 0 -211.07357213410432 11.301413420631434 0 11.301413420631434 143.88618393541583 0 0 0 0 -82.020142475311559 142.60171623475907 0 142.60171623475907 190.28201327344141 0 0 0 0 133.68184235819217 302.53259947263052 0 302.53259947263052 91.411254309248761 0 0 0 0 129.01091859942244 219.81574719762648 0 219.81574719762648 -29.057902858789021 0 0 0 0 406.67523464393162 370.77535978948436 0 370.77535978948436 -97.958151921251556 0 0 0 0 289.0512213417278 120.15079424207215 0 120.15079424207215 -91.357513090224529 0 0 0 0 182.62758576156921 -154.8083903940751 0 -154.8083903940751 66.252224844232842 0 0 0 0 852.45388512243517 207.37085016422498 0 207.37085016422498 -79.769614406486653 0 0 0 0 401.99290303789894 473.53151019410143 0 473.53151019410143 200.33611998330161 0 0 0 0 384.71846407742123 446.09397613855253 0 446.09397613855253 276.74694864738558 0 0 0 0 614.94214375375304 404.20685191584198 0 404.20685191584198 265.54181757660081 0 0 0 0 -145.42126575479051 187.44741475643968 0 187.44741475643968 334.77224537009351 0 0 0 0 345.67307362001156 664.1797485097195 0 664.1797485097195 784.11388341909333 0 0 0 0 -129.03115610880195 -295.3628440666289 0 -295.3628440666289 738.16966813835461 0 0 0 0 -180.89989242877346 -1167.7739745277577 0 -1167.7739745277577 3833.1599699121434 0 0 0 0 1539.6336650220328 -2259.7232017011775 0 -2259.7232017011775 -1459.0209826647479 0 0 0 0 60.640488998178625 -341.35010312755549 0 -341.35010312755549 140.48483468423365 0 0 0 0 -45.830508073617239 -67.087373557442334 0 -67.087373557442334 -349.6845787003258 0 0 0 0 -761.8197191747895 1678.7025404169917 0 1678.7025404169917 3510.914122512404 0 0 0 0 19.251817771719573 13.158756468967226 0 13.158756468967226 9.347843660879235 0 0 0 0 1364.8437317420664 138.70053023718029 0 138.70053023718029 -114.98919700080296 0 0 0 0 1378.1720135169162 1499.1782503357208 0 1499.1782503357208 1776.2815289649152 0 0 0 0 900.55909931808128 -3458.0922295915516 0 -3458.0922295915516 851.00236539984326 0 0 0 0 -223.25428918130638 81.415780360888675 0 81.415780360888675 -1995.6132375642774 0 0 0 0 -851.40415625128662 513.42366831504114 0 513.42366831504114 -1691.3386426001962 0 0 0 0 -680.91554753813398 999.18485731217879 0 999.18485731217879 -1931.6375361536775 0 0 0 0 -501.58783617531299 636.35323944475385 0 636.35323944475385 -1579.3172663500736 0 0 0 0 10.628900791809428 527.74549727695558 0 527.74549727695558 -1648.4021403245606 0 0 0 0 -246.41977913104347 352.27480528990418 0 352.27480528990418 -1327.8495691601056 0 0 0 0 -113.71556392719503 444.07942491480935 0 444.07942491480935 -1615.261792749945 0 0 0 0 -209.72536313405726 367.5398812542262 0 367.5398812542262 -1672.201369383678 0 0 0 0 236.95171787770232 343.39470282927141 0 343.39470282927141 -1849.0561896316867 0 0 0 0 -177.57654344114781 227.67079022218968 0 227.67079022218968 -1345.9369323681749 0 0 0 0 44.472330045650835 22.121586021916315 0 22.121586021916315 3.2787408122324138 0 0 0 0 180.72281098045642 865.46936623093643 0 865.46936623093643 -2683.4555259161134 0 0 0 0 878.44778605704778 -115.20485513353924 0 -115.20485513353924 -1904.5179641195718 0 0 0 0 -208.01206678216113 1106.9393350831961 0 1106.9393350831961 -2280.3527995872719 0 0 0 0 149.13964305311674 801.85979706789658 0 801.85979706789658 -2364.7057520901799 0 0 0 0 -185.7914835010306 834.92388402584038 0 834.92388402584038 -1874.6159820670146 0 0 0 0 -115.49392966955202 716.38260127791 0 716.38260127791 -1892.7731279947257 0 0 0 0 -164.30529416148784 652.68197748058446 0 652.68197748058446 -1473.4885569635953 0 0 0 0 74.993664406822063 549.36837338811893 0 549.36837338811893 -1801.9439142348529 0 0 0 0 -6.5270578310010023 744.63932244606076 0 744.63932244606076 -1794.7597031311307 0 0 0 0 102.40964462037664 550.4000943662104 0 550.4000943662104 -1992.6400818956754 0 0 0 0 135.17690535602014 654.29034920110553 0 654.29034920110553 -2102.819956453226 0 0 0 0 -246.60020865796832 277.01604017257341 0 277.01604017257341 -1847.5015162847922 0 0 0 0 -206.37991232966306 624.81357356815715 0 624.81357356815715 -1411.6216186703532 0 0 0 0 25.568443810770987 232.77224042263697 0 232.77224042263697 -2582.4132237222439 0 0 0 0 -587.16207357295207 159.18594346159807 0 159.18594346159807 -1866.5399580379599 0 0 0 0 -417.06631964712869 317.17784274090809 0 317.17784274090809 -388.55165469512576 0 0 0 0 -566.74831005920714 -84.583762231568471 0 -84.583762231568471 -96.457700763465255 0 0 0 0 -65.938311544567114 -272.14662448727177 0 -272.14662448727177 -326.06566489462784 0 0 0 0 29.995854426309279 18.984880078833356 0 18.984880078833356 -5.4583401964450644 0 0 0 0 -196.85120466095395 521.4708165953416 0 521.4708165953416 -2496.9042001828238 0 0 0 0 -611.37619786422329 716.48974300850568 0 716.48974300850568 -1234.6235850178928 0 0 0 0 12.076849179211422 1131.4139086326218 0 1131.4139086326218 -998.26040620102867 0 0 0 0 205.12481547590869 -26.878237855322368 0 -26.878237855322368 -29.178664314698835 0 0 0 0 3.9386280580637276 19.045701024719094 0 19.045701024719094 -27.667993196884069 0 0 0 0 -93.618171665089903 -19.53542085018853 0 -19.53542085018853 -109.40029496184434 0 0 0 0 2.9643522552981949 0.92910407929623773 0 0.92910407929623773 -4.7860223808884044 0 0 0 0 -163.11769073075266 -128.67973982248077 0 -128.67973982248077 -33.048625252617057 0 0 0 0 -85.507144540548325 -7.1026328913540056 0 -7.1026328913540056 15.955220128096698 0 0 0 0 -368.35244785615942 -126.91886382302619 0 -126.91886382302619 238.64421126240632 0 0 0 0 -99.925787530213711 161.78644063315369 0 161.78644063315369 287.29470776247035 0 0 0 0 -142.23920153433573 -59.609258311451413 0 -59.609258311451413 -113.31757824166561 0 0 0 0 -342.24263695068839 844.49666729685941 0 844.49666729685941 -1006.9845028244454 0 0 0 0 -637.27227707620477 1075.7209846149453 0 1075.7209846149453 -467.10847408624977 0 0 0 0 -845.4627181031392 832.62103507393476 0 832.62103507393476 -939.55731590641881 0 0 0 0 -329.24718130029578 757.69124505885793 0 757.69124505885793 -603.73330515074485 0 0 0 0 -707.51826412655646 844.55176857748302 0 844.55176857748302 -623.62720531377818 0 0 0 0 -1118.1104741286545 823.3677360547772 0 823.3677360547772 -453.77637386768765 0 0 0 0 15.285190180824543 20.8897073907182 0 20.8897073907182 -12.19410768989863 0 0 0 0 -688.27144675319869 493.38121453465101 0 493.38121453465101 -273.67087385425839 0 0 0 0 106.15560241410276 156.90946506114415 0 156.90946506114415 -75.949851289347862 0 0 0 0 43.34249132486309 50.773440419433854 0 50.773440419433854 29.015030103092258 0 0 0 0 55.789677977198153 115.0951251220049 0 115.0951251220049 -14.193621782920673 0 0 0 0 52.447533681450295 18.819086628949663 0 18.819086628949663 37.86724325139221 0 0 0 0 4.7277157037798929 34.747956438487734 0 34.747956438487734 -53.532607801960154 0 0 0 0 61.6957500083372 130.2076472839326 0 130.2076472839326 -62.290234292158857 0 0 0 0 694.46214369693189 1002.0695667921173 0 1002.0695667921173 -114.72715217197037 0 0 0 0 52.905101807301207 43.621150733053639 0 43.621150733053639 4.1951065792638218 0 0 0 0 25.778216673176303 14.440574083995699 0 14.440574083995699 4.2647650827456403 0 0 0 0 600.77750864013797 563.85452233241813 0 563.85452233241813 -2284.3833221179957 0 0 0 0 -371.43910747727205 743.10144125168335 0 743.10144125168335 741.5452820929786 0 0 0 0 1439.599723876745 1977.5714062456682 0 1977.5714062456682 -1724.5616587509576 0 0 0 0 1086.8221323460748 997.78340084361116 0 997.78340084361116 -1900.5504882790556 0 0 0 0 252.22515558027953 421.87287968537112 0 421.87287968537112 -1450.7561197524774 0 0 0 0 86.969142616842873 462.63562866759457 0 462.63562866759457 -1391.9980950662721 0 0 0 0 37.496995560446521 392.02805768464532 0 392.02805768464532 -800.45620710888761 0 0 0 0 495.88845599941851 952.30236457993124 0 952.30236457993124 -1231.3111907347629 0 0 0 0 384.63104093444417 643.55208423636577 0 643.55208423636577 -1986.853623342824 0 0 0 0 -228.51273168151965 804.95207554335138 0 804.95207554335138 -894.38910125452458 0 0 0 0 -529.8429498228943 1124.6657117080977 0 1124.6657117080977 -629.14079994364874 0 0 0 0 -365.42103812342975 1558.4585709203093 0 1558.4585709203093 -1656.0746434285393 0 0 0 0 -196.86722300990368 753.88818510399869 0 753.88818510399869 -1203.3469581516365 0 0 0 0 -693.86953605227609 480.97430887164955 0 480.97430887164955 -451.3727515884093 0 0 0 0 50.816344198359729 -1409.3447534362795 0 -1409.3447534362795 -432.85415402242506 0 0 0 0 -1067.6268677551125 145.23011337397111 0 145.23011337397111 -1441.9020441919565 0 0 0 0 -2708.2357949333673 1302.5941277564125 0 1302.5941277564125 -461.49559448643413 0 0 0 0 -323.89949740664451 3073.8174987413477 0 3073.8174987413477 -988.10283589984465 0 0 0 0 -700.94761914436822 842.02685665104218 0 842.02685665104218 -1170.2442366985051 0 0 0 0 -504.32849380766856 590.59517447417966 0 590.59517447417966 -1045.333413156608 0 0 0 0 -782.37053682625992 653.98823696070031 0 653.98823696070031 -635.53637645094568 0 0 0 0 -472.22676307287475 284.37239273840441 0 284.37239273840441 -323.87875237095432 0 0 0 0 -435.11163152159133 271.57439007529319 0 271.57439007529319 -759.03068088121199 0 0 0 0 -198.48107258816708 82.800356189842205 0 82.800356189842205 -85.04630067886319 0 0 0 0 -185.9237925758498 125.85980349068996 0 125.85980349068996 -462.11297083839622 0 0 0 0 -315.58133140415885 356.10745916495944 0 356.10745916495944 -115.09766362374648 0 0 0 0 -520.96455283431715 637.73820378109485 0 637.73820378109485 -487.54097022767382 0 0 0 0 -106.69336958146596 180.66211066179812 0 180.66211066179812 -76.478545260004466 0 0 0 0 -428.1272980761496 169.74270801677449 0 169.74270801677449 -36.156310480437241 0 0 0 0 -301.21415525532211 15.23524221639309 0 15.23524221639309 -215.84379093715324 0 0 0 0 -262.92347211443121 117.12401441833208 0 117.12401441833208 -42.305643616173029 0 0 0 0 -309.31426013032615 77.073002122089747 0 77.073002122089747 43.061896637662358 0 0 0 0 0.75208435286543818 -1.3257590659924858 0 -1.3257590659924858 -1.4598131406490324 0 0 0 0 -23.068956685703597 26.939462124617421 0 26.939462124617421 -175.27355613791042 0 0 0 0 -303.22518681458314 114.6863744870916 0 114.6863744870916 344.2682262581402 0 0 0 0 -247.89613990219368 254.24413466469468 0 254.24413466469468 -275.05161046161084 0 0 0 0 -214.64579961303389 230.97006710066853 0 230.97006710066853 -493.69206005808519 0 0 0 0 9.8440831129992148 262.85203050005657 0 262.85203050005657 -850.46519879196421 0 0 0 0 99.175581711431732 147.48026029444009 0 147.48026029444009 -986.02726407956652 0 0 0 0 -27.84969378409005 298.52782221921552 0 298.52782221921552 -607.13451639805862 0 0 0 0 95.058640460425522 32.770229435718647 0 32.770229435718647 -396.26209692118209 0 0 0 0 -39.376143477231381 237.26043742904585 0 237.26043742904585 9.7910632300554425 0 0 0 0 13.046889328921679 8.2174719820613973 0 8.2174719820613973 387.41409269193537 0 0 0 0 188.45064276976336 226.40434045477741 0 226.40434045477741 414.21836275280657 0 0 0 0 -115.71280943679449 253.16349858191825 0 253.16349858191825 846.30529407600261 0 0 0 0 -56.420698532834649 423.69225790264682 0 423.69225790264682 957.95817792267189 0 0 0 0 116.03234902828626 510.43152591007674 0 510.43152591007674 1287.0669861339702 0 0 0 0 150.98139066034128 395.1336223116009 0 395.1336223116009 754.15569656570733 0 0 0 0 35.85309453184891 400.61166910136581 0 400.61166910136581 617.70042042683781 0 0 0 0 2.8374579890005407 86.34700328259396 0 86.34700328259396 325.83789157386491 0 0 0 0 -103.20753296744078 -112.07248696055649 0 -112.07248696055649 517.88835439446302 0 0 0 0 -135.16115335376526 175.45414794324188 0 175.45414794324188 566.06795302643513 0 0 0 0 -21.099691696028458 73.826953123085332 0 73.826953123085332 309.89220209401537 0 0 0 0 -183.54955329181394 234.74756901713044 0 234.74756901713044 114.69272368711427 0 0 0 0 -90.631515348795801 57.963306484994973 0 57.963306484994973 365.81295051333655 0 0 0 0 -69.347933010660199 -89.743572326047342 0 -89.743572326047342 216.69251651463128 0 0 0 0 104.43037370260572 1143.6470714623902 0 1143.6470714623902 161.92618608007251 0 0 0 0 308.88800517181517 1157.9263659332937 0 1157.9263659332937 -366.25386274560879 0 0 0 0 226.23002486382029 702.91734933621774 0 702.91734933621774 57.926460638220306 0 0 0 0 400.42888461363327 884.19416626761267 0 884.19416626761267 -326.09494735313638 0 0 0 0 248.30156486245687 888.21511018896854 0 888.21511018896854 353.24549238058171 0 0 0 0 344.61901544078137 1170.242737651799 0 1170.242737651799 138.44926110837696 0 0 0 0 188.48774785209389 904.5876715547256 0 904.5876715547256 166.05541103456926 0 0 0 0 281.57565874559805 1093.6559016491992 0 1093.6559016491992 -233.84931910646264 0 0 0 0 200.92663688717766 1253.9407665176736 0 1253.9407665176736 141.36253087972 0 0 0 0 175.04839440018986 1013.5295217791318 0 1013.5295217791318 45.403185965977173 0 0 0 0 480.86827550132875 1044.0588741964129 0 1044.0588741964129 -982.03092067173202 0 0 0 0 236.79007425636519 1138.7422055597999 0 1138.7422055597999 -254.05723129372927 0 0 0 0 454.4400129642745 925.94789507642417 0 925.94789507642417 -721.6603635814281 0 0 0 0 220.07364309631521 1283.3315978810297 0 1283.3315978810297 -722.39056491346855 0 0 0 0 112.0212899959879 920.99711183898035 0 920.99711183898035 -978.70715149228636 0 0 0 0 -245.82341626862762 1058.7915464402759 0 1058.7915464402759 -1031.4969373981075 0 0 0 0 -136.39793000649661 1012.8919547808746 0 1012.8919547808746 -362.56257609067688 0 0 0 0 -117.478129074967 835.39409752441861 0 835.39409752441861 -296.53794802864832 0 0 0 0 195.73180944961496 612.44425820300603 0 612.44425820300603 -818.67834218189819 0 0 0 0 -247.03222124651074 479.59630013770584 0 479.59630013770584 -1152.9113586811436 0 0 0 0 -75.707255122455535 570.55859810538277 0 570.55859810538277 -1393.7816205219424 0 0 0 0 24.376572013716213 808.81730249846441 0 808.81730249846441 -951.56047016117373 0 0 0 0 72.251782246632501 711.20001447432878 0 711.20001447432878 -1517.4071680568013 0 0 0 0 85.408284971723333 397.46432574404753 0 397.46432574404753 -1103.5671891497987 0 0 0 0 39.071730113821104 692.56648545013741 0 692.56648545013741 -1322.0582895528059 0 0 0 0 31.55395908158971 436.26858148456085 0 436.26858148456085 -1617.149133752082 0 0 0 0 27.180165438204313 381.83052088094371 0 381.83052088094371 -1369.0029928308941 0 0 0 0 26.962102693156339 580.82278796030005 0 580.82278796030005 -1089.3390896778583 0 0 0 0 338.16920228058007 374.15415187217877 0 374.15415187217877 -590.25177391255193 0 0 0 0 5.3385502171877306 403.13225918732496 0 403.13225918732496 -588.35198915121146 0 0 0 0 58.650922946537321 627.05497356221895 0 627.05497356221895 -748.1714174325607 0 0 0 0 181.56053465111472 338.78060109686157 0 338.78060109686157 -977.76374683935137 0 0 0 0 238.11154503497528 422.60146204710327 0 422.60146204710327 -622.17514557226968 0 0 0 0 54.603751169837778 738.11659863589011 0 738.11659863589011 -378.28843519100337 0 0 0 0 62.258424746192759 332.95147246316537 0 332.95147246316537 -994.92494492678088 0 0 0 0 56.235351679846644 132.02760268525162 0 132.02760268525162 -1350.3245118250675 0 0 0 0 -53.309383909741882 237.49268865262275 0 237.49268865262275 -1012.8033208485795 0 0 0 0 -2.5368367031624075 467.3389113018934 0 467.3389113018934 -1276.3877624242014 0 0 0 0 41.129931478761137 328.7647968519741 0 328.7647968519741 -580.05491851500119 0 0 0 0 220.14007941540331 330.55200602948753 0 330.55200602948753 -981.84278742684182 0 0 0 0 101.98360521227005 71.559641967203788 0 71.559641967203788 -717.95573547242384 0 0 0 0 84.352829238843697 284.15847037792548 0 284.15847037792548 -363.35357704092166 0 0 0 0 127.04637728381203 52.220409145738813 0 52.220409145738813 -33.423612116021104 0 0 0 0 312.86520837055286 290.86012005996599 0 290.86012005996599 -278.80132417846471 0 0 0 0 201.38049907138338 125.69891966605064 0 125.69891966605064 -421.89823703485308 0 0 0 0 160.85497461428167 384.68264623255254 0 384.68264623255254 -332.04643148579635 0 0 0 0 381.96881636526086 263.82170467947435 0 263.82170467947435 -273.76625426499231 0 0 0 0 225.7573931341758 307.63692926373915 0 307.63692926373915 74.967116541578434 0 0 0 0 449.56338914425578 391.09640054214105 0 391.09640054214105 356.73248880590836 0 0 0 0 473.63692194974283 212.74314244525613 0 212.74314244525613 105.83326313456928 0 0 0 0 244.28630642266944 290.28599212142217 0 290.28599212142217 106.02688610397308 0 0 0 0 280.95168133763946 70.295386806523311 0 70.295386806523311 492.02899389314553 0 0 0 0 584.18216628622031 591.43762837647228 0 591.43762837647228 -69.838693801315458 0 0 0 0 428.66205902918591 712.37852991450927 0 712.37852991450927 -376.57399708818411 0 0 0 0 203.75002593247336 560.12816252757693 0 560.12816252757693 -72.288897211183212 0 0 0 0 338.02280163113028 633.31627320270491 0 633.31627320270491 -419.01765876779245 0 0 0 0 197.27052496658871 321.14557392582356 0 321.14557392582356 -297.59950471886259 0 0 0 0 324.65983226907701 515.03031411297434 0 515.03031411297434 -101.87719548708992 0 0 0 0 412.41426262770983 630.43523241217918 0 630.43523241217918 321.49555070168572 0 0 0 0 395.51602021091821 453.2523226228459 0 453.2523226228459 352.35563433407515 0 0 0 0 550.79025572753744 356.72355106992472 0 356.72355106992472 -8.3043014049035264 0 0 0 0 755.84304986562347 424.86282964497514 0 424.86282964497514 354.06100065125975 0 0 0 0 812.37419246148784 579.21038284169481 0 579.21038284169481 328.0352046794651 0 0 0 0 374.79429023747798 945.18802941981994 0 945.18802941981994 277.27767995571776 0 0 0 0 701.79952437823522 786.067845309517 0 786.067845309517 333.7584145509536 0 0 0 0 520.58017048382317 962.05920077434348 0 962.05920077434348 1606.1623862866982 0 0 0 0 938.53565624100156 949.6372561472599 0 949.6372561472599 937.65752408108892 0 0 0 0 828.08614133371157 1015.6949599931468 0 1015.6949599931468 1420.786700308643 0 0 0 0 529.91057332154014 803.3965760952633 0 803.3965760952633 934.67191086009552 0 0 0 0 590.99130291625625 556.39109806124543 0 556.39109806124543 781.20331152708968 0 0 0 0 773.42971003864659 459.58591473741399 0 459.58591473741399 1048.1747797758871 0 0 0 0 1147.807091769937 696.92398052893259 0 696.92398052893259 777.12385930553819 0 0 0 0 1176.9807196613983 719.3965404137125 0 719.3965404137125 1147.0850777849701 0 0 0 0 1197.233602000284 642.30047911861038 0 642.30047911861038 1477.1949598613719 0 0 0 0 1608.5131711976137 472.27965631266125 0 472.27965631266125 1246.1249821544188 0 0 0 0 1366.3456322018828 1475.2718947288486 0 1475.2718947288486 1821.7495528930158 0 0 0 0 1077.9327671662904 1454.446996751085 0 1454.446996751085 1817.6398758574214 0 0 0 0 827.53310287382919 973.01599816769158 0 973.01599816769158 1448.18566049941 0 0 0 0 127.30170732093393 195.88923233687092 0 195.88923233687092 940.92227235885366 0 0 0 0 488.85301678071846 308.13717571737652 0 308.13717571737652 563.36143576277391 0 0 0 0 433.72260129253846 243.13958712296517 0 243.13958712296517 999.39602464153722 0 0 0 0 462.78618834409281 259.02155133292035 0 259.02155133292035 660.52898922206077 0 0 0 0 875.76752906915499 417.45874768224166 0 417.45874768224166 696.46441518042411 0 0 0 0 812.10952730820281 400.00799244226801 0 400.00799244226801 979.27164437010651 0 0 0 0 367.94809022863046 348.77026725286851 0 348.77026725286851 1391.5460125382378 0 0 0 0 1298.7102184100659 441.90753489975032 0 441.90753489975032 1302.6894149638429 0 0 0 0 807.61117765135714 300.46628913268432 0 300.46628913268432 1362.9957748154557 0 0 0 0 402.80144140633638 332.21234018614632 0 332.21234018614632 875.46498588466602 0 0 0 0 296.53721487341681 483.05100528220646 0 483.05100528220646 1212.5180900046253 0 0 0 0 339.76541894400725 637.95379586105992 0 637.95379586105992 1548.246763638941 0 0 0 0 551.55902672730736 442.59988655503184 0 442.59988655503184 1718.606635122298 0 0 0 0 686.05182024772512 404.57134437533387 0 404.57134437533387 1307.5326189779516 0 0 0 0 698.56501411182398 335.28282834556558 0 335.28282834556558 1642.8201345738198 0 0 0 0 761.80845310585573 559.31345431536465 0 559.31345431536465 1576.954372083128 0 0 0 0 560.24229126735008 706.90420392667875 0 706.90420392667875 2064.3674192740582 0 0 0 0 456.27006918922416 936.13664237609191 0 936.13664237609191 1573.9087741199619 0 0 0 0 380.39471393049462 862.0026630198663 0 862.0026630198663 1501.8026623726328 0 0 0 0 366.58541325465194 938.2711481204351 0 938.2711481204351 1138.504235331231 0 0 0 0 2363.501424105023 1881.6352339334262 0 1881.6352339334262 1624.7450246051085 0 0 0 0 2521.5432231791201 397.32458806091745 0 397.32458806091745 1165.5106557673134 0 0 0 0 653.97477547894232 654.84196687825897 0 654.84196687825897 1875.9166547107707 0 0 0 0 1124.668285251304 118.88724016419292 0 118.88724016419292 2060.1331167827302 0 0 0 0 1161.1733917285746 8.902347463517799 0 8.902347463517799 1075.2744668566447 0 0 0 0 676.25338829657994 -944.87238582916325 0 -944.87238582916325 2623.1007629261003 0 0 0 0 1277.1743867428158 1529.7471452020982 0 1529.7471452020982 2233.5916162206195 0 0 0 0 1149.4796927367279 1198.1103299652386 0 1198.1103299652386 1375.1769813059218 0 0 0 0 555.31781656236853 549.50647849259258 0 549.50647849259258 3577.2959595119537 0 0 0 0 1666.0096605720137 2437.2902478636297 0 2437.2902478636297 2074.2399134290827 0 0 0 0 196.22064311892609 352.17250536555366 0 352.17250536555366 132.29446129964708 0 0 0 0 164.91347178354044 278.72552696302773 0 278.72552696302773 311.37465245291969 0 0 0 0 357.79494132963009 1695.6445503447903 0 1695.6445503447903 3255.7737637738283 0 0 0 0 -2.1277833906767682 8.2974347130131321 0 8.2974347130131321 0.97996954644435164 0 0 0 0 302.8148045031412 384.77897193315221 0 384.77897193315221 1586.2916023823273 0 0 0 0 -7.2247782064805506 1025.0082327869641 0 1025.0082327869641 3024.9434404287531 0 0 0 0 98.559786771904328 609.69587164290351 0 609.69587164290351 2555.3866080384032 0 0 0 0 569.6396131348738 1203.8251109414778 0 1203.8251109414778 627.31155643323291 0 0 0 0 383.08714308439812 862.53031853143329 0 862.53031853143329 1079.4898131014488 0 0 0 0 712.31554261122074 1067.3894841568872 0 1067.3894841568872 1163.9734217397345 0 0 0 0 326.99864949673065 665.76694333357955 0 665.76694333357955 544.15852662418183 0 0 0 0 43.930656166223343 677.02314922677033 0 677.02314922677033 740.21561737943921 0 0 0 0 -2.3765855942938288 12.725942532857395 0 12.725942532857395 -0.74649685665541199 0 0 0 0 122.08059538385714 988.61042562317743 0 988.61042562317743 880.79749920671748 0 0 0 0 -118.11489670947776 -49.458669508469029 0 -49.458669508469029 623.11794712916162 0 0 0 0 -610.48787574964808 494.94443990891523 0 494.94443990891523 1117.9879937057885 0 0 0 0 11.674478677799925 164.41787046845275 0 164.41787046845275 -619.28400344043621 0 0 0 0 -328.59448999742744 1588.8471735137718 0 1588.8471735137718 499.3342771679454 0 0 0 0 -477.31295839737868 1356.9634007609184 0 1356.9634007609184 1816.3574815133907 0 0 0 0 -449.64070457371417 286.75928359200771 0 286.75928359200771 2660.8797414439068 0 0 0 0 -397.70068497117609 600.1927300297175 0 600.1927300297175 820.91602000486273 0 0 0 0 1641.1173006786703 273.1857807773431 0 273.1857807773431 -1404.50748925074 0 0 0 0 -225.69290228663886 885.01720571845362 0 885.01720571845362 1214.7702925355788 0 0 0 0 10.323517554359569 7.4025521758607908 0 7.4025521758607908 5.4600736508569696 0 0 0 0 1138.3697144764592 -658.3540848966195 0 -658.3540848966195 98.984096661260992 0 0 0 0 800.2901894182578 -26.468236125563635 0 -26.468236125563635 1770.0415379541628 0 0 0 0 452.82085460420058 425.80240662698998 0 425.80240662698998 -1451.4374842336438 0 0 0 0 0.39619747409153661 7.1781787205105232 0 7.1781787205105232 -1.2090031604315641 0 0 0 0 299.49368130168295 908.94272317317882 0 908.94272317317882 -1018.0465778109356 0 0 0 0 -84.705504179291893 470.48404043572373 0 470.48404043572373 571.78573132531164 0 0 0 0 -6.4238057488691993 462.28055434977432 0 462.28055434977432 384.63781153604214 0 0 0 0 -27.249211206217296 187.24602953691647 0 187.24602953691647 -667.58252966135478 0 0 0 0 167.99721624370432 911.28225510014818 0 911.28225510014818 333.97549409505882 0 0 0 0 214.85495264736528 1021.8554679490644 0 1021.8554679490644 -16.302922038612451 0 0 0 0 178.86567674843536 813.80946971533922 0 813.80946971533922 -287.89051932020811 0 0 0 0 241.37460556754377 834.02549738136258 0 834.02549738136258 -236.61932199639705 0 0 0 0 280.76494287992409 1080.6477973559488 0 1080.6477973559488 -220.88290038100968 0 0 0 0 144.66589778213529 851.50649111747407 0 851.50649111747407 -214.50652369573982 0 0 0 0 61.011200260123587 726.16248854849619 0 726.16248854849619 -231.9184727794418 0 0 0 0 198.97542204748606 632.45685413879255 0 632.45685413879255 -679.23776262426327 0 0 0 0 311.7231168890612 938.27809420871381 0 938.27809420871381 -109.63677564126556 0 0 0 0 281.56593821577735 747.75269668883084 0 747.75269668883084 34.422700510680443 0 0 0 0 296.23165901949687 813.43901211097727 0 813.43901211097727 150.79901003909981 0 0 0 0 482.81842972006416 793.03111674312458 0 793.03111674312458 -250.35447332290232 0 0 0 0 1059.2376304573554 49.034285267942323 0 49.034285267942323 -24.404978583130287 0 0 0 0 551.54075288096647 217.50820861761167 0 217.50820861761167 -78.574984289021813 0 0 0 0 416.81209071949706 520.96262012843363 0 520.96262012843363 -100.02635116740657 0 0 0 0 1014.6301181777962 645.25061894017927 0 645.25061894017927 -74.412029717508631 0 0 0 0 202.80143385943666 541.74384787863528 0 541.74384787863528 -317.79199884655259 0 0 0 0 472.8287639994378 747.31970664037726 0 747.31970664037726 -231.42065601851937 0 0 0 0 755.12495357119769 399.58344011708868 0 399.58344011708868 -310.09161809108627 0 0 0 0 431.59798089775722 362.62000106348387 0 362.62000106348387 -191.13601272183951 0 0 0 0 56.162328025588067 304.68443736463996 0 304.68443736463996 -180.217089252812 0 0 0 0 165.41353637783322 918.78056478455619 0 918.78056478455619 -660.48443717491318 0 0 0 0 -13.461721720737842 299.21834821668426 0 299.21834821668426 -317.57773292682396 0 0 0 0 -68.880162155473954 254.97846065587873 0 254.97846065587873 -183.05951722184182 0 0 0 0 214.33650077536004 165.88351487848649 0 165.88351487848649 -272.59921734702584 0 0 0 0 165.29639559000498 98.853253723144007 0 98.853253723144007 -235.15484016510254 0 0 0 0 -6.6817092895271628 26.699382236234072 0 26.699382236234072 -93.370749554426297 0 0 0 0 908.70515136094764 283.25545745068553 0 283.25545745068553 -572.81657266400725 0 0 0 0 261.33394483110169 126.89764281528187 0 126.89764281528187 -228.24330650380944 0 0 0 0 0.047183240254526027 36.478473430003305 0 36.478473430003305 18.420386227439849 0 0 0 0 560.01087428296887 -351.97562425699425 0 -351.97562425699425 -797.14603596288453 0 0 0 0 -351.90228121409018 49.363608256104271 0 49.363608256104271 42.552312037042611 0 0 0 0 -4.5763209701153187 3.3350864059369485 0 3.3350864059369485 -5.5116717700880731 0 0 0 0 -281.00515205511601 -1159.482482453109 0 -1159.482482453109 -1320.7391187373041 0 0 0 0 -1.8914882622484583 617.36566490557016 0 617.36566490557016 -837.73107546780784 0 0 0 0 -10.267962211939448 154.4998390623864 0 154.4998390623864 285.99806434379207 0 0 0 0 1311.3544490640925 544.13743084743692 0 544.13743084743692 -775.34621797406635 0 0 0 0 569.08096123188443 521.89528081085609 0 521.89528081085609 117.35053088069981 0 0 0 0 -8.1699556459848566 22.6888321809665 0 22.6888321809665 -57.521201556669688 0 0 0 0 215.51601104637666 174.00671163213519 0 174.00671163213519 -248.37620088379481 0 0 0 0 581.1328160532139 237.76740166467425 0 237.76740166467425 -238.42299851375674 0 0 0 0 -7.2578783886616236 27.022647754989038 0 27.022647754989038 -80.124219355712441 0 0 0 0 11.662465662884642 -41.012606938315912 0 -41.012606938315912 -153.66987105653607 0 0 0 0 170.04868348791206 121.04669124825705 0 121.04669124825705 94.575576641511361 0 0 0 0 389.90807834222505 -74.39323043389777 0 -74.39323043389777 -176.55355970996243 0 0 0 0 717.43984692564118 -164.06280547961796 0 -164.06280547961796 215.17534457832517 0 0 0 0 153.80447745427955 134.97490250770716 0 134.97490250770716 415.04029510922919 0 0 0 0 258.93302864526049 369.85172402117678 0 369.85172402117678 692.2727236644223 0 0 0 0 734.79833430834333 141.17678513450892 0 141.17678513450892 591.18852882966894 0 0 0 0 0.4717908348684432 288.75425784932941 0 288.75425784932941 209.04097309576719 0 0 0 0 -87.253606126447266 -238.98394191648367 0 -238.98394191648367 65.152455579100206 0 0 0 0 -76.637766174950229 182.07640657809316 0 182.07640657809316 184.50949256036256 0 0 0 0 -1.3054253476875601 326.54960602140454 0 326.54960602140454 233.92062471914278 0 0 0 0 -6.830987226242712 16.128839621959344 0 16.128839621959344 -34.248488271334537 0 0 0 0 185.83643408457283 297.1827818244019 0 297.1827818244019 198.39444991470873 0 0 0 0 0.12299055019684602 68.444850537984166 0 68.444850537984166 78.897038395640266 0 0 0 0 0.094758589882985689 68.609221621039978 0 68.609221621039978 78.832907362648257 0 0 0 0 -3.0938159525178719 6.78121135032643 0 6.78121135032643 -11.571089606731121 0 0 0 0 88.69505241546176 427.71561817586939 0 427.71561817586939 -258.17287156914244 0 0 0 0 84.890588254434988 441.02875927472996 0 441.02875927472996 223.67117467889966 0 0 0 0 61.034443800766894 1346.3276703593274 0 1346.3276703593274 -1313.9934126826556 0 0 0 0 558.7353640874644 426.86661345630819 0 426.86661345630819 -439.93462531701516 0 0 0 0 518.33652567910394 179.73893956670918 0 179.73893956670918 -1939.5167412469818 0 0 0 0 419.38257735429215 684.16804425608643 0 684.16804425608643 799.59901279077258 0 0 0 0 113.76468276389642 639.91610621776454 0 639.91610621776454 347.11790755329503 0 0 0 0 312.88329703440832 420.14790804483164 0 420.14790804483164 159.32155675063404 0 0 0 0 -163.44322747866681 1038.0149253198424 0 1038.0149253198424 -189.8904605783755 0 0 0 0 277.1843595757382 948.49680847722448 0 948.49680847722448 -118.09923463544692 0 0 0 0 1009.6361905309459 615.0471761114386 0 615.0471761114386 5.6988352427979407 0 0 0 0 454.43957399445208 511.89668416139102 0 511.89668416139102 106.5639644596813 0 0 0 0 865.21614487336774 326.71129007092713 0 326.71129007092713 -115.98482167578186 0 0 0 0 2193.8211796603864 173.30645575906055 0 173.30645575906055 -166.8574834737592 0 0 0 0 2309.3085250063887 690.21137841306518 0 690.21137841306518 515.65463505123989 0 0 0 0 993.90190599117705 589.21166698248089 0 589.21166698248089 726.39332955367718 0 0 0 0 -51.660822740393996 251.8838001876677 0 251.8838001876677 928.49404614868763 0 0 0 0 -2.6597874412565261 11.216526159690233 0 11.216526159690233 -8.6084230827862385 0 0 0 0 2398.8694798219076 405.85140602154752 0 405.85140602154752 30.968829263469161 0 0 0 0 2.466470562257399 18.395381967161256 0 18.395381967161256 8.8086454361675806 0 0 0 0 21.176476699290504 5.6608490104089952 0 5.6608490104089952 -10.801896323107769 0 0 0 0 1506.5198821727245 -566.38870987434348 0 -566.38870987434348 208.83286553948346 0 0 0 0 -57.424018199002603 151.14852731981955 0 151.14852731981955 -185.8880255138065 0 0 0 0 -21.501939628571819 90.614027899741217 0 90.614027899741217 -106.52482801279697 0 0 0 0 1292.829175733129 -770.51574390504084 0 -770.51574390504084 175.0891064156167 0 0 0 0 250.82737476390321 -270.19785201432387 0 -270.19785201432387 59.550188070177683 0 0 0 0 -77.284029260379612 44.841620504501407 0 44.841620504501407 -147.33414468482806 0 0 0 0 -96.227195101586403 77.0921620268673 0 77.0921620268673 -77.500606479197813 0 0 0 0 51.782842935121153 -77.959680020318046 0 -77.959680020318046 220.8351661064662 0 0 0 0 60.972897698972872 31.385494557854372 0 31.385494557854372 -75.237308637609345 0 0 0 0 -1.8780352265634406 11.777412077812784 0 11.777412077812784 -13.869134052462499 0 0 0 0 -81.585907783039147 212.73693927273416 0 212.73693927273416 -208.69302163926477 0 0 0 0 -210.46429532354523 137.57243300639675 0 137.57243300639675 -83.402796855632914 0 0 0 0 -90.240110708604334 115.69592991415266 0 115.69592991415266 -101.20176323891428 0 0 0 0 -83.663800724461908 57.949517182209092 0 57.949517182209092 -9.9316960360156372 0 0 0 0 -51.716881829546764 43.611666278462508 0 43.611666278462508 -23.446227411644941 0 0 0 0 -28.281378974950883 58.959076551914492 0 58.959076551914492 -61.093757196607442 0 0 0 0 -43.434467490733368 149.16107224602456 0 149.16107224602456 -157.61285278195146 0 0 0 0 5.7344201594096376 -133.62262391076729 0 -133.62262391076729 -62.701887964103662 0 0 0 0 49.314210513213766 561.84999183409673 0 561.84999183409673 707.87703248528123 0 0 0 0 259.77033771203423 592.16958971326494 0 592.16958971326494 427.98931980183625 0 0 0 0 -20.091287537061419 33.269348475158601 0 33.269348475158601 -43.530097073456211 0 0 0 0 -55.04619608532812 193.37252342362808 0 193.37252342362808 104.98142701784673 0 0 0 0 379.00790303361282 554.95541348158758 0 554.95541348158758 293.43343893011843 0 0 0 0 249.36249563017918 714.90473488137468 0 714.90473488137468 119.3561802228769 0 0 0 0 278.82081294312593 843.45122289056371 0 843.45122289056371 574.53877860034117 0 0 0 0 710.51301567310293 870.63828264506628 0 870.63828264506628 68.681500927024899 0 0 0 0 665.94936937013699 674.36774298798832 0 674.36774298798832 167.84035470546951 0 0 0 0 1978.1940235221409 945.06647946709563 0 945.06647946709563 213.91759157932029 0 0 0 0 767.17944714864188 275.62069545966176 0 275.62069545966176 275.21709953284153 0 0 0 0 1568.0759219328465 -340.77236038986121 0 -340.77236038986121 749.59436577123051 0 0 0 0 835.90108450100888 569.02170246511196 0 569.02170246511196 1440.6399172143538 0 0 0 0 478.08723453080165 1235.192763521502 0 1235.192763521502 1264.2377438149124 0 0 0 0 21.523882519121457 23.262238338896935 0 23.262238338896935 2.7464513505865891 0 0 0 0 147.70478515764989 -5.8811064695364621 0 -5.8811064695364621 -29.79011571412758 0 0 0 0 -135.69170119386035 246.08671541828394 0 246.08671541828394 -4.2482362428168017 0 0 0 0 -103.29316266688693 290.7253688106473 0 290.7253688106473 -533.06367657640476 0 0 0 0 103.37200187784038 60.098986904043159 0 60.098986904043159 -45.365325726582341 0 0 0 0 -1.5609644974267098 77.122069858280923 0 77.122069858280923 -34.688711476017282 0 0 0 0 -683.21480475377757 73.247728316512621 0 73.247728316512621 70.758115393397247 0 0 0 0 441.99665240338072 414.64873448105209 0 414.64873448105209 -1269.0522656741841 0 0 0 0 4.7239012479069515 82.483897220977951 0 82.483897220977951 -44.317656761160229 0 0 0 0 -4.2768404715565111 8.4752199146363978 0 8.4752199146363978 -29.545419591565707 0 0 0 0 -2891.7507229798939 -1101.2214041054776 0 -1101.2214041054776 -567.75521599408603 0 0 0 0 -387.30758035124745 3638.4836528447954 0 3638.4836528447954 1499.638457271978 0 0 0 0 -7.0702461819294911 11.517044437150275 0 11.517044437150275 13.37654122837278 0 0 0 0 -46.781487467844272 127.54790004649476 0 127.54790004649476 -258.79085828669486 0 0 0 0 52.105148184629797 212.27015182530988 0 212.27015182530988 141.62207492383141 0 0 0 0 -52.067534912392148 72.516469014906647 0 72.516469014906647 40.892138975006674 0 0 0 0 -336.19282420011587 192.55356231824453 0 192.55356231824453 171.31604485718981 0 0 0 0 -108.31318630663736 141.927657199853 0 141.927657199853 144.70536171874846 0 0 0 0 -108.59596075851005 69.1117219241778 0 69.1117219241778 329.09403346760627 0 0 0 0 -118.12445536261657 160.96092761295006 0 160.96092761295006 315.49776223627396 0 0 0 0 -78.63260174143943 92.021795025932079 0 92.021795025932079 346.23335538238098 0 0 0 0 -120.58696336095454 1.0969429304495861 0 1.0969429304495861 467.38612734578783 0 0 0 0 -137.86730556703696 108.32513429677101 0 108.32513429677101 253.05628867871292 0 0 0 0 -145.52520285482751 97.507569056784632 0 97.507569056784632 319.34971981883609 0 0 0 0 -132.16114216775168 34.161156091787234 0 34.161156091787234 326.83836149724118 0 0 0 0 -130.10021851136116 50.353549054088944 0 50.353549054088944 256.78409126740303 0 0 0 0 -92.798403490975033 188.62133180371728 0 188.62133180371728 -34.164027622965477 0 0 0 0 -161.30352712105378 97.319471404568731 0 97.319471404568731 249.1254137043984 0 0 0 0 -82.765101839948329 -56.196656676743828 0 -56.196656676743828 211.04149803022551 0 0 0 0 -83.815949618743616 12.859970370502879 0 12.859970370502879 889.81652041951429 0 0 0 0 10.286598397821592 5.0455468378035988 0 5.0455468378035988 4.2443227159771251 0 0 0 0 713.94685434790154 -253.13711821011697 0 -253.13711821011697 26.877542397379386 0 0 0 0 642.49374109445716 681.67075237221809 0 681.67075237221809 -172.20218376913863 0 0 0 0 -242.33626763764187 747.82391831126222 0 747.82391831126222 -98.636199796414985 0 0 0 0 201.78282285681053 21.737881049599309 0 21.737881049599309 -183.47371732151896 0 0 0 0 128.12717229896225 41.465457575897744 0 41.465457575897744 -63.444953298057044 0 0 0 0 181.13784041446343 108.67221773878782 0 108.67221773878782 -279.5227246948125 0 0 0 0 167.45758781340555 35.288926541785941 0 35.288926541785941 -110.05294616645915 0 0 0 0 110.76693347876426 77.215530141131239 0 77.215530141131239 -84.470568774389903 0 0 0 0 77.465080576015339 251.83841409438133 0 251.83841409438133 -242.52847799413576 0 0 0 0 20.806692204700084 286.61479996725757 0 286.61479996725757 -152.36322425747858 0 0 0 0 36.644757934409427 222.05447629338835 0 222.05447629338835 -76.484221675980734 0 0 0 0 78.587215799358432 160.05545975719895 0 160.05545975719895 -29.902279735304546 0 0 0 0 -503.68615958056398 378.16572014533745 0 378.16572014533745 248.9692604772863 0 0 0 0 81.760646550677109 103.10049552961374 0 103.10049552961374 90.449672838532422 0 0 0 0 -385.44903462160437 109.63335661533711 0 109.63335661533711 -57.361590492815594 0 0 0 0 -396.95238321197394 158.04869832702025 0 158.04869832702025 345.27170432031562 0 0 0 0 -5.7126428206161108 30.800482062103441 0 30.800482062103441 15.628865429329666 0 0 0 0 121.46816519869026 164.18189636127499 0 164.18189636127499 -39.481206607597414 0 0 0 0 -359.25425277798786 -230.08444864099147 0 -230.08444864099147 130.27863605853418 0 0 0 0 39.055948452579287 -163.18811915845009 0 -163.18811915845009 85.182104677311145 0 0 0 0 -1.5652487956337495 20.54152428843517 0 20.54152428843517 1.188214711057924 0 0 0 0 5.1699932801240038 52.024279271529593 0 52.024279271529593 -21.220039542470616 0 0 0 0 121.46816519892309 164.18189636128955 0 164.18189636128955 -39.48120660762288 0 0 0 0 -6.5113105944619747 79.287853841968172 0 79.287853841968172 -8.4235578114457894 0 0 0 0 121.46816519874847 164.18189636131865 0 164.18189636131865 -39.481206607648346 0 0 0 0 -33.195980089715079 65.165002044574422 0 65.165002044574422 8.8851051559505834 0 0 0 0 -14.170782079338096 64.876748821567162 0 64.876748821567162 -78.477866939792875 0 0 0 0 -12.409572499484057 69.728256376110949 0 69.728256376110949 -29.357168877482763 0 0 0 0 -15.425423466943585 60.497499919431618 0 60.497499919431618 -14.581852333287188 0 0 0 0 7.1987247736138329 63.995185237924886 0 63.995185237924886 -44.467480758323546 0 0 0 0 -4.7062909678475648 6.9712155623486751 0 6.9712155623486751 -8.0999363869825345 0 0 0 0 7.231867352437348 56.853330692218464 0 56.853330692218464 -19.822349876000604 0 0 0 0 38.802237525509554 103.83160007140032 0 103.83160007140032 61.191113520052568 0 0 0 0 19.570245082635665 85.882993805091246 0 85.882993805091246 -31.428711549260697 0 0 0 0 -17.68701237453206 72.241967790738272 0 72.241967790738272 -59.954626855615061 0 0 0 0 -26.5982554609175 44.316210516164205 0 44.316210516164205 11.798687250232518 0 0 0 0 5.931959937515785 87.538799272577307 0 87.538799272577307 -11.931790406764776 0 0 0 0 17.579007393268398 50.905243820740992 0 50.905243820740992 -38.326288904735755 0 0 0 0 32.740444216819014 51.589215796599092 0 51.589215796599092 -7.8579087834441452 0 0 0 0 -9.1189083084144613 35.04845545392881 0 35.04845545392881 -39.847395601858977 0 0 0 0 -8.2355896115136602 42.690437802980341 0 42.690437802980341 -25.380542468331321 0 0 0 0 136.84384854641394 72.774612896031613 0 72.774612896031613 -96.162908528483968 0 0 0 0 7.6490281269512934 25.380123340522175 0 25.380123340522175 -1.1779278581041126 0 0 0 0 -14.595974394885161 82.300568026945257 0 82.300568026945257 -9.0213776316159056 0 0 0 0 -15.36579825913941 77.510986265293468 0 77.510986265293468 -15.956606887237285 0 0 0 0 -10.941280189275858 86.172255077286536 0 86.172255077286536 -5.2074335634169984 0 0 0 0 -12.959761442001763 82.349270419527784 0 82.349270419527784 -9.0222911727032624 0 0 0 0 -23.735623300815519 62.055503902311109 0 62.055503902311109 -37.158298472972803 0 0 0 0 -2.0107927011987954 74.114917903451669 0 74.114917903451669 -16.556799115443756 0 0 0 0 -71.403219387953868 96.201290466458886 0 96.201290466458886 -15.798821635991771 0 0 0 0 -5.2737835045554675 79.377288676208991 0 79.377288676208991 -15.505955884828836 0 0 0 0 -8.6121546995855169 69.669721894657414 0 69.669721894657414 32.875695706381521 0 0 0 0 -21.211455168949954 56.537294389498172 0 56.537294389498172 -1.7780046971440129 0 0 0 0 -3.790935465153666 73.733884791499591 0 73.733884791499591 43.235795605516387 0 0 0 0 -77.642624445470574 76.420912484332803 0 76.420912484332803 43.310329699866998 0 0 0 0 17.330085696215974 124.4696551313973 0 124.4696551313973 -15.857706280101411 0 0 0 0 7.4851918668142048 68.018899501559673 0 68.018899501559673 41.04385249509086 0 0 0 0 20.991181494762714 173.1013142037209 0 173.1013142037209 -105.65653122482036 0 0 0 0 -1.1909933486749651 125.6079451907317 0 125.6079451907317 -271.05760491572801 0 0 0 0 -213.03273627865565 188.84795774231497 0 188.84795774231497 68.398044123707223 0 0 0 0 -75.789794632211851 281.02783264135724 0 281.02783264135724 -151.04031100825523 0 0 0 0 4.7311222038697451 168.61185154791019 0 168.61185154791019 -247.84966955833079 0 0 0 0 -34.816966901038541 83.415499114453269 0 83.415499114453269 -407.09115048812237 0 0 0 0 6.8697181180756957 9.5384196459247761 0 9.5384196459247761 9.3843940289794148 0 0 0 0 -86.760471047557076 247.31121779205023 0 247.31121779205023 -155.16354568498218 0 0 0 0 -5.2247261153761428 87.569104086811876 0 87.569104086811876 0.20141533605407602 0 0 0 0 -98.713667825359153 228.50045313958435 0 228.50045313958435 -180.06151548601338 0 0 0 0 -1.7357662121506223 12.051378658796324 0 12.051378658796324 -2.3463325781543602 0 0 0 0 -17.596206425222988 88.464159033540597 0 88.464159033540597 47.883139845085871 0 0 0 0 -31.738689267891459 207.63328336521226 0 207.63328336521226 -0.44108372906021032 0 0 0 0 -1.0737192968226736 161.31499820773388 0 161.31499820773388 -106.89708949880878 0 0 0 0 -54.339794770196022 161.586240082941 0 161.586240082941 -91.527900091849006 0 0 0 0 22.445731890802563 247.69536381137084 0 247.69536381137084 -13.209480045237353 0 0 0 0 2.0768092867465384 48.075290016396181 0 48.075290016396181 76.282368410082356 0 0 0 0 -313.62923221366145 316.69128232054686 0 316.69128232054686 -15.03546976780035 0 0 0 0 165.0091102569786 -304.7128481745649 0 -304.7128481745649 -57.017239689132111 0 0 0 0 151.64486445194052 696.10895280281147 0 696.10895280281147 246.34076263220936 0 0 0 0 0.72211079954286106 4.4004503523796146 0 4.4004503523796146 -4.3271932311084882 0 0 0 0 1.919305207033176 595.50384133103853 0 595.50384133103853 231.24601029223595 0 0 0 0 0.024375226083151347 63.951156491577166 0 63.951156491577166 71.253140566432904 0 0 0 0 -94.882286710842891 25.303922521687809 0 25.303922521687809 -14.489957623294686 0 0 0 0 -587.22651455094456 330.90562899763177 0 330.90562899763177 209.71841481090723 0 0 0 0 -59.030621313984739 106.22077268895373 0 106.22077268895373 -127.42762874378423 0 0 0 0 -83.253665859573061 52.768289307252296 0 52.768289307252296 3.2547981498812302 0 0 0 0 -398.02677412673074 160.74649631473403 0 160.74649631473403 349.67524082021737 0 0 0 0 -195.2709139255021 205.59072311395357 0 205.59072311395357 134.41983944591539 0 0 0 0 -379.8620627731143 244.68792413161282 0 244.68792413161282 -81.831988251209623 0 0 0 0 -379.57664804303204 58.622545972826629 0 58.622545972826629 38.963999638599489 0 0 0 0 -245.79439040746365 -54.265716164950391 0 -54.265716164950391 204.06585773604365 0 0 0 0 139.03533929023251 79.538717304602869 0 79.538717304602869 -219.58724934249949 0 0 0 0 -4.6936345244093332 59.153008366878318 0 59.153008366878318 -46.944315656500976 0 0 0 0 26.896684802675736 238.17073430711389 0 238.17073430711389 -277.67971944920282 0 0 0 0 -36.858983187019476 227.29725922646321 0 227.29725922646321 -129.70336149755167 0 0 0 0 -21.737542138056597 57.2156821366043 0 57.2156821366043 24.029705164135066 0 0 0 0 -32.466388183279548 64.556370100768945 0 64.556370100768945 5.8886754592796748 0 0 0 0 -75.143767663452309 170.28538750603184 0 170.28538750603184 75.189052891586471 0 0 0 0 -150.12518620388437 18.867084120838626 0 18.867084120838626 -79.760626314018737 0 0 0 0 -49.141127653176227 -125.13763333534814 0 -125.13763333534814 45.102072715730174 0 0 0 0 -37.369721737437175 35.69166640633631 0 35.69166640633631 30.814543896668454 0 0 0 0 -25.573481080020429 67.019954948101258 0 67.019954948101258 9.735463594417979 0 0 0 0 -23.065134722050175 31.574678887026394 0 31.574678887026394 -16.356167736417824 0 0 0 0 -4.7165071713286864 3.2479358900235695 0 3.2479358900235695 2.9787742717743217 0 0 0 0 78.393869496234402 158.99974090495368 0 158.99974090495368 244.25076940703593 0 0 0 0 528.08691574708791 817.35306845253672 0 817.35306845253672 257.26971549992049 0 0 0 0 342.5603564910125 212.70053148468469 0 212.70053148468469 170.08236780530206 0 0 0 0 -87.846820125734666 99.235108232589027 0 99.235108232589027 706.87429434584737 0 0 0 0 -25.613123006100068 436.23540275967798 0 436.23540275967798 1117.2487268916616 0 0 0 0 35.905960503645474 -191.9871255630685 0 -191.9871255630685 280.48756706808445 0 0 0 0 -39.264016332046594 -512.8987533573104 0 -512.8987533573104 1025.7419451202131 0 0 0 0 286.29465275627444 167.77410837079424 0 167.77410837079424 -527.79512023910547 0 0 0 0 448.51442505605519 -436.79535540835059 0 -436.79535540835059 -448.13436669693465 0 0 0 0 297.87965654529398 -196.82873769227535 0 -196.82873769227535 1797.4628057880259 0 0 0 0 330.59283494265401 -691.78011549268422 0 -691.78011549268422 206.42390060961134 0 0 0 0 3.2838720092934466 -3.0058445020778066 0 -3.0058445020778066 4.3746652461873641 0 0 0 0 -1056.6340678739944 1881.1806292307645 0 1881.1806292307645 -627.54009685943061 0 0 0 0 -393.2920081148477 -6.5716775422398541 0 -6.5716775422398541 19.758512424850977 0 0 0 0 266.19485748076113 -528.30323964128991 0 -528.30323964128991 -364.85673800346126 0 0 0 0 -726.0712023510423 686.55474113640128 0 686.55474113640128 -56.347491814478417 0 0 0 0 -500.46109814381634 1094.9008991557362 0 1094.9008991557362 -823.64360431144496 0 0 0 0 25.451846912896144 561.24726143654175 0 561.24726143654175 -334.15891934180718 0 0 0 0 62.141656106465234 466.09455151589589 0 466.09455151589589 -391.67294233998018 0 0 0 0 667.19597604544833 304.94783417840631 0 304.94783417840631 -1547.7646703637524 0 0 0 0 20.701274566439679 209.38735644528469 0 209.38735644528469 -555.44447354076328 0 0 0 0 -252.60482577552648 249.08439910011953 0 249.08439910011953 -255.44571730555253 0 0 0 0 -201.92299390449625 20.213628221936233 0 20.213628221936233 -294.13937079476636 0 0 0 0 -239.96706659521442 360.85396026350281 0 360.85396026350281 -687.32598101628537 0 0 0 0 -494.94253921189738 312.68072517361088 0 312.68072517361088 -174.95316489175639 0 0 0 0 -511.38411154650385 320.11344376703596 0 320.11344376703596 561.01371928227547 0 0 0 0 -20.428387900987786 11.334069561909693 0 11.334069561909693 -6.6961178573048574 0 0 0 0 -392.94754662209016 -239.51992744088648 0 -239.51992744088648 -1022.1342989541738 0 0 0 0 1089.7243455243879 -377.8410182673515 0 -377.8410182673515 -1817.3514798030881 0 0 0 0 -243.7491957973325 228.67513135279188 0 228.67513135279188 -609.23347979306118 0 0 0 0 188.42926126482052 260.47191284185305 0 260.47191284185305 -12.738126576934064 0 0 0 0 67.598588009805098 21.879886758041721 0 21.879886758041721 79.578002090453992 0 0 0 0 -195.05324311519507 215.74875744122483 0 215.74875744122483 -63.49763404708483 0 0 0 0 59.722306164956535 170.24145125750817 0 170.24145125750817 -202.71862809843651 0 0 0 0 5.6325343812472397 36.592996208858239 0 36.592996208858239 22.896658257821503 0 0 0 0 -112.45909474237124 79.87274683712576 0 79.87274683712576 -98.421156348478689 0 0 0 0 64.415798164292937 114.44747607005525 0 114.44747607005525 -110.19859786457118 0 0 0 0 -525.02455317345448 546.84074510862229 0 546.84074510862229 -201.8236044750206 0 0 0 0 -112.21196405685623 308.19962080344817 0 308.19962080344817 -149.03636868413832 0 0 0 0 -95.286588442450011 392.47581522421547 0 392.47581522421547 -367.50491034926017 0 0 0 0 313.59505436196923 450.48846466155828 0 450.48846466155828 -421.75904675358015 0 0 0 0 -490.08122296078363 321.70162955992623 0 321.70162955992623 166.79200609445343 0 0 0 0 -210.75934969449372 283.75405533372623 0 283.75405533372623 -210.20756739878789 0 0 0 0 10.66710912119504 5.7905288565721937 0 5.7905288565721937 0.31630719122892526 0 0 0 0 -135.83869930608125 147.82032428241752 0 147.82032428241752 -222.64160180849603 0 0 0 0 -280.49463270057458 450.18724064223011 0 450.18724064223011 -591.76738990906506 0 0 0 0 -167.24360985666863 17.937454843335672 0 17.937454843335672 -326.88230384675171 0 0 0 0 -463.54885607516917 334.95605159567504 0 334.95605159567504 -145.54667965273822 0 0 0 0 770.30267952004215 147.45275097883859 0 147.45275097883859 -384.87266697900486 0 0 0 0 2055.4178691690031 575.69498484902294 0 575.69498484902294 -1588.0098635700929 0 0 0 0 51.050490494104451 1175.7586097547844 0 1175.7586097547844 -316.732116059487 0 0 0 0 -1203.4827105715085 1192.9767057183931 0 1192.9767057183931 -240.81000616271581 0 0 0 0 949.02209834905807 1025.6966750302022 0 1025.6966750302022 -440.10591343665237 0 0 0 0 -607.10043063480407 588.66863432770242 0 588.66863432770242 -291.75572750877961 0 0 0 0 -670.45510184692102 798.86602498930665 0 798.86602498930665 -65.626615713324554 0 0 0 0 -278.70184449054068 492.73823141518255 0 492.73823141518255 -297.21403262451349 0 0 0 0 -180.86911222408526 509.7948535231701 0 509.7948535231701 70.919204517069829 0 0 0 0 57.965678200387629 744.36235677726108 0 744.36235677726108 -88.822716313272167 0 0 0 0 -9.1253391361969989 651.01516375765868 0 651.01516375765868 -162.65817913635965 0 0 0 0 77.055323894717731 847.84082107931727 0 847.84082107931727 -424.07290330548858 0 0 0 0 347.67369580292143 683.99330179835351 0 683.99330179835351 -325.24683137445982 0 0 0 0 237.92100691465021 537.36192934204314 0 537.36192934204314 -462.79732624631879 0 0 0 0 291.6167470544242 149.01793807439537 0 149.01793807439537 -471.60770869420912 0 0 0 0 72.090200141712558 315.42064268370427 0 315.42064268370427 -173.98009582487657 0 0 0 0 114.36470344257395 532.99891560525009 0 532.99891560525009 -51.311733539403576 0 0 0 0 170.34174557231017 557.09022110526303 0 557.09022110526303 -390.6039419624633 0 0 0 0 -8.1134999042915297 382.40035107612641 0 382.40035107612641 228.06889067322982 0 0 0 0 37.043326503153367 395.95155668630093 0 395.95155668630093 27.986245583334949 0 0 0 0 -59.770828132663155 229.67093631925945 0 229.67093631925945 170.07141999792066 0 0 0 0 -30.158333344574203 336.04920241601349 0 336.04920241601349 416.79705431169759 0 0 0 0 -179.63129506884434 128.58872731080055 0 128.58872731080055 494.46776593915047 0 0 0 0 -195.4920170485093 58.160486749625932 0 58.160486749625932 297.45848743058104 0 0 0 0 -80.961488511413336 125.05394729371778 0 125.05394729371778 336.05752745114546 0 0 0 0 -67.167684708285378 44.211644250003019 0 44.211644250003019 249.49086168073222 0 0 0 0 -121.31183861990576 13.917674080360484 0 13.917674080360484 283.6107412355309 0 0 0 0 43.5091662125742 -147.8919529873485 0 -147.8919529873485 243.56655949773722 0 0 0 0 30.842561554352869 -7.7167132092167776 0 -7.7167132092167776 -31.001256423856375 0 0 0 0 121.70583370834356 206.44076855598087 0 206.44076855598087 24.552612264268646 0 0 0 0 931.36036353502277 259.20863935002791 0 259.20863935002791 161.74458422433668 0 0 0 0 347.03164444753929 -326.91169006025819 0 -326.91169006025819 434.64521833801211 0 0 0 0 251.39391352905659 628.97941904151855 0 628.97941904151855 800.50858917906976 0 0 0 0 11.943832024822768 297.260753060723 0 297.260753060723 342.00009722640425 0 0 0 0 42.283724320412148 491.12839433725276 0 491.12839433725276 356.87471874996436 0 0 0 0 334.97723652610148 259.20968244383232 0 259.20968244383232 43.564199836885564 0 0 0 0 155.7324972961942 128.16479066198497 0 128.16479066198497 139.78283894815195 0 0 0 0 226.60725095310772 146.951058548633 0 146.951058548633 48.472767547107651 0 0 0 0 -221.68272067621001 86.575425963573707 0 86.575425963573707 -67.527441042810096 0 0 0 0 -14.694159812373982 163.59018829126813 0 163.59018829126813 -39.68027745270183 0 0 0 0 105.84858023823472 79.813906303879776 0 79.813906303879776 11.500429724655987 0 0 0 0 -115.95017143087171 417.23280000927753 0 417.23280000927753 -107.1434848407464 0 0 0 0 6.1306129191798391 332.2832761791002 0 332.2832761791002 -65.187877214088076 0 0 0 0 -57.376138103427365 338.41109397183891 0 338.41109397183891 27.586827237266334 0 0 0 0 -344.82947882905137 436.56538331489219 0 436.56538331489219 -288.26748879250454 0 0 0 0 -447.20075812286814 327.18060228202012 0 327.18060228202012 -121.01468173709645 0 0 0 0 -185.9739020071429 217.80402241475986 0 217.80402241475986 -166.00260816589594 0 0 0 0 -332.45157803196344 144.89455853442496 0 144.89455853442496 -192.16335595079818 0 0 0 0 -223.63730301280157 21.827483196874709 0 21.827483196874709 -26.616806108621859 0 0 0 0 -116.27104512305232 45.187481677876121 0 45.187481677876121 -164.91327839967198 0 0 0 0 -101.69795911657275 18.267642376625417 0 18.267642376625417 -52.670855947334985 0 0 0 0 -81.849064138514223 -64.138255383164278 0 -64.138255383164278 66.733879841824091 0 0 0 0 -102.55006241473893 -33.308160973418353 0 -33.308160973418353 96.445487842661123 0 0 0 0 -102.51855447664275 -33.369300977820103 0 -33.369300977820103 84.484469750113476 0 0 0 0 -129.21390956721734 -44.295425081215797 0 -44.295425081215797 80.01260085263948 0 0 0 0 -37.331991107108479 14.966586709829016 0 14.966586709829016 74.969550762428298 0 0 0 0 -66.26096573540417 -36.339728111514432 0 -36.339728111514432 -8.6384771779821676 0 0 0 0 -146.02573512510571 47.42954229975021 0 47.42954229975021 3.111768022949434 0 0 0 0 -28.117178133274138 -34.469995917389497 0 -34.469995917389497 -57.09674152181924 0 0 0 0 20.792347176437033 -53.676372372980495 0 -53.676372372980495 70.044551756125088 0 0 0 0 35.974409615679178 53.26949039783949 0 53.26949039783949 36.401062302403034 0 0 0 0 843.02381185171544 475.95616688985638 0 475.95616688985638 218.26214954384687 0 0 0 0 39.443202625455768 31.496772406883366 0 31.496772406883366 20.953086426179823 0 0 0 0 4511.5827378243266 -472.81454814641074 0 -472.81454814641074 -3302.0153563353888 0 0 0 0 52.543134064223977 27.748506960354177 0 27.748506960354177 11.027427398084285 0 0 0 0 59.561733883262605 120.27655195011069 0 120.27655195011069 92.658525078128605 0 0 0 0 215.86435613094363 649.00059452154528 0 649.00059452154528 742.52497287854203 0 0 0 0 4630.8332275661523 -981.45036390456607 0 -981.45036390456607 -2748.3217812316134 0 0 0 0 1086.5471086614998 1226.4650639952888 0 1226.4650639952888 1064.72311935178 0 0 0 0 3400.744256820064 1361.8284599586186 0 1361.8284599586186 2183.7327138825203 0 0 0 0 2269.2528107834514 -8927.5881174448441 0 -8927.5881174448441 2966.5114252550711 0 0 0 0 2738.9547561282525 1633.9765374147246 0 1633.9765374147246 1035.8268869144995 0 0 0 0 24.895487094821874 763.59546082333691 0 763.59546082333691 1163.3208799233325 0 0 0 0 21.934227112321338 28.147236517024396 0 28.147236517024396 27.479816840173939 0 0 0 0 79.20990276008888 5.1708068361298274 0 5.1708068361298274 -25.780308143683214 0 0 0 0 120.25147133697465 -27.249361320435128 0 -27.249361320435128 24.491568674710834 0 0 0 0 12.576645653687592 53.816645875750055 0 53.816645875750055 119.5864909863144 0 0 0 0 436.12165792177984 -204.90594313292468 0 -204.90594313292468 -62.781539628653263 0 0 0 0 14.529038757144008 -79.920248518083099 0 -79.920248518083099 373.13657368566783 0 0 0 0 -1146.5192756307733 575.69972949536532 0 575.69972949536532 9.1866983919899212 0 0 0 0 -1966.3627089654328 -2759.4127860381886 0 -2759.4127860381886 2665.6481049995054 0 0 0 0 32.97199054968911 54.36091246527252 0 54.36091246527252 84.903341855255832 0 0 0 0 84.777464108957986 90.603601435435166 0 90.603601435435166 88.71601373814832 0 0 0 0 -166.07308930769796 518.54764512758265 0 518.54764512758265 134.79200174788275 0 0 0 0 882.96886798524065 858.78671213821508 0 858.78671213821508 431.79708500686684 0 0 0 0 689.90385869907914 1083.6643782099854 0 1083.6643782099854 410.91746686779516 0 0 0 0 799.33350817532119 152.17635823101182 0 152.17635823101182 -139.90850062071695 0 0 0 0 1200.4520434019505 523.48581332735921 0 523.48581332735921 192.79383944381334 0 0 0 0 2724.1272408756777 505.59670923392696 0 505.59670923392696 143.39135471807094 0 0 0 0 969.25818046723725 1157.2241790596381 0 1157.2241790596381 1233.0438897195563 0 0 0 0 4792.7280961450888 1466.7446062628442 0 1466.7446062628442 163.68511811553617 0 0 0 0 6901.7126955019776 -2298.8260548687322 0 -2298.8260548687322 67.862033498298842 0 0 0 0 1396.0835557599785 -160.19727203565708 0 -160.19727203565708 -188.37628805069835 0 0 0 0 157.65230537299067 -630.12294444002328 0 -630.12294444002328 64.273079634120222 0 0 0 0 828.06438430180424 228.32681075599612 0 228.32681075599612 -287.9547416399655 0 0 0 0 430.57124003293575 -179.4542022446185 0 -179.4542022446185 -176.13309988925448 0 0 0 0 510.40081914886832 284.10242277783982 0 284.10242277783982 -471.37959716195473 0 0 0 0 423.72981537249871 114.76867981505893 0 114.76867981505893 -285.34239504298603 0 0 0 0 345.36565365962451 390.29783944740484 0 390.29783944740484 -496.10718425408231 0 0 0 0 241.30604561479413 244.68339863079927 0 244.68339863079927 -356.68685677082976 0 0 0 0 130.06811240784009 281.9602521398192 0 281.9602521398192 -538.65957060051005 0 0 0 0 144.24477763970208 22.484979165881668 0 22.484979165881668 31.43934675194032 0 0 0 0 139.54188051293022 242.98795540610445 0 242.98795540610445 -185.39986854073868 0 0 0 0 394.60083704686258 39.003450779615378 0 39.003450779615378 -419.85347290542268 0 0 0 0 248.61280390992761 380.59400956986792 0 380.59400956986792 -561.01969100743736 0 0 0 0 -500.15784164486104 498.23181831784564 0 498.23181831784564 206.54281825076268 0 0 0 0 86.284370919764683 96.439904607736821 0 96.439904607736821 102.67431875213235 0 0 0 0 -473.3209033725725 82.303459643413362 0 82.303459643413362 785.39828782586949 0 0 0 0 -208.98635766575171 24.546917554369287 0 24.546917554369287 202.95376943566362 0 0 0 0 -176.72216669960471 -83.076964146952832 0 -83.076964146952832 328.70791749261025 0 0 0 0 147.34265738094837 -176.08288920053209 0 -176.08288920053209 183.24044003270546 0 0 0 0 -91.617821340012597 -27.349246312172454 0 -27.349246312172454 95.290730166062986 0 0 0 0 -111.71232354226595 -77.52269645625401 0 -77.52269645625401 159.61431655470187 0 0 0 0 -138.65622667167918 23.432098562495639 0 23.432098562495639 75.676796305685684 0 0 0 0 -162.93064063818019 55.095007715072256 0 55.095007715072256 119.57768673600185 0 0 0 0 -260.50458085486025 126.02088396443105 0 126.02088396443105 180.90722574870233 0 0 0 0 -394.98106891007046 104.77650712692594 0 104.77650712692594 76.910775824748271 0 0 0 0 -385.98610129075132 356.28819247255603 0 356.28819247255603 -228.14434657311358 0 0 0 0 -257.46572573932644 381.09169336516061 0 381.09169336516061 -467.83413176849353 0 0 0 0 -525.96462666144362 311.86022767829127 0 311.86022767829127 30.346366142922761 0 0 0 0 -235.84790917584905 78.061257658599061 0 78.061257658599061 48.988404677469589 0 0 0 0 -261.95760419161343 314.95651320831644 0 314.95651320831644 -92.081424013158539 0 0 0 0 -278.90757889542147 134.57687103417993 0 134.57687103417993 203.44399484369933 0 0 0 0 -48.335391340224305 366.63542379123464 0 366.63542379123464 111.03998406152459 0 0 0 0 -265.52991911504068 264.24920425026903 0 264.24920425026903 -145.56304515717966 0 0 0 0 81.034740339891243 67.150960535704058 0 67.150960535704058 46.054949227909766 0 0 0 0 -173.96710546367103 415.83962870815776 0 415.83962870815776 -509.74844506295085 0 0 0 0 -912.13982715150632 4670.6196157183795 0 4670.6196157183795 -1987.1073078050363 0 0 0 0 256.37422078859527 15.888316207030527 0 15.888316207030527 -31.451521618005131 0 0 0 0 -4490.9641852811037 2492.6708436418157 0 2492.6708436418157 2551.0550772667302 0 0 0 0 797.12264445942128 -2491.4868989687589 0 -2491.4868989687589 1919.622813926936 0 0 0 0 4794.9764316973888 -1144.800175509944 0 -1144.800175509944 -3998.1924591517945 0 0 0 0 -4318.8476817993796 -158.71752194148485 0 -158.71752194148485 4945.4552006081612 0 0 0 0 -426.24391448075767 188.36512333091378 0 188.36512333091378 570.08453806987382 0 0 0 0 -274.24067289970117 -50.665107823606377 0 -50.665107823606377 -221.3071265383187 0 0 0 0 45.362885426467983 750.10892747549997 0 750.10892747549997 489.89521058920946 0 0 0 0 2.2820648353423962 5.6134895344603137 0 5.6134895344603137 -0.65325548940933231 0 0 0 0 -52.129954742720656 1092.7085276942864 0 1092.7085276942864 256.67249009304942 0 0 0 0 -218.21326426218729 461.41777537250891 0 461.41777537250891 173.70347491421853 0 0 0 0 -1189.4793106800207 491.84031498373952 0 491.84031498373952 158.14910636467357 0 0 0 0 121.60337272949982 417.08178385436258 0 417.08178385436258 -251.45592446361843 0 0 0 0 3.0430848915926845 -0.5813970390958616 0 -0.5813970390958616 -2.0535160765874849 0 0 0 0 1204.4761554097495 146.15653214718623 0 146.15653214718623 -305.87374619087859 0 0 0 0 562.04821299827017 405.44635310035301 0 405.44635310035301 -260.78395748301773 0 0 0 0 295.88026764267124 121.12099649018637 0 121.12099649018637 87.665691310408874 0 0 0 0 460.71566699357936 556.89887295721201 0 556.89887295721201 312.31750368102075 0 0 0 0 -195.13632178262924 -17.880396966509579 0 -17.880396966509579 4.2898533347324701 0 0 0 0 -69.149705569434445 112.97113019889002 0 112.97113019889002 -114.41619557899139 0 0 0 0 -11.920011319845798 -118.25564132284126 0 -118.25564132284126 -41.12654608748926 0 0 0 0 -263.34196624670585 122.1792099168033 0 122.1792099168033 183.23009646165701 0 0 0 0 1.4278813303097309 -0.57790935836280255 0 -0.57790935836280255 -1.1267949016281804 0 0 0 0 -149.74086331600847 321.20283972709512 0 321.20283972709512 -371.95150819635455 0 0 0 0 -131.75102565039197 209.47879724668178 0 209.47879724668178 126.34263469211874 0 0 0 0 76.985916117300803 20.347207384251305 0 20.347207384251305 -121.67104752039813 0 0 0 0 132.30599823331795 185.22446521847269 0 185.22446521847269 252.37157598341582 0 0 0 0 206.06084178452147 445.93579365243568 0 445.93579365243568 386.36687409605656 0 0 0 0 305.89702673720603 274.66149341677738 0 274.66149341677738 -52.211003598957177 0 0 0 0 282.63041489881289 146.35294744705516 0 146.35294744705516 5.6786333227501018 0 0 0 0 210.71799267613096 287.73301787645323 0 287.73301787645323 55.64254965998407 0 0 0 0 331.45135374896927 295.82411453696841 0 295.82411453696841 56.08115508773335 0 0 0 0 2.6448582011494182 12.337008427213533 0 12.337008427213533 -1.6233695519532603 0 0 0 0 410.05930924000131 159.85365320620349 0 159.85365320620349 6.6646245593728963 0 0 0 0 -201.25075500473758 301.91902803733683 0 301.91902803733683 -281.10431987536867 0 0 0 0 276.37861434243678 119.41568652581191 0 119.41568652581191 130.44429337428301 0 0 0 0 -11.034146906342755 11.055263084390269 0 11.055263084390269 -4.6886230063789753 0 0 0 0 0.70360182866963328 7.6616480472301873 0 7.6616480472301873 3.2431302211753064 0 0 0 0 -60.070163147262065 76.079296670337499 0 76.079296670337499 -58.977897166785624 0 0 0 0 395.73578261426883 764.35263730992665 0 764.35263730992665 -338.31256710973685 0 0 0 0 524.6781040960559 506.09897727897805 0 506.09897727897805 155.37398184870108 0 0 0 0 19.272181875945535 289.48662883102406 0 289.48662883102406 224.62101133130636 0 0 0 0 25.85195738264747 181.68586529552749 0 181.68586529552749 -393.96430616357975 0 0 0 0 -11.318542976393701 7.5765289205983635 0 7.5765289205983635 -4.463827026595709 0 0 0 0 55.266727287627873 -3.2387588354249601 0 -3.2387588354249601 -885.64077975528198 0 0 0 0 -767.24203243752709 1094.239721817401 0 1094.239721817401 -982.22231663915954 0 0 0 0 -34.628159438825605 492.11027736923688 0 492.11027736923688 -1908.4754122680024 0 0 0 0 -6.5157586288292464 2.5139751312838499 0 2.5139751312838499 -0.84059989555012748 0 0 0 0 -522.93898831830302 519.88534076468932 0 519.88534076468932 846.95611729770826 0 0 0 0 41.561919231782667 65.937824234773871 0 65.937824234773871 153.97646066431116 0 0 0 0 15.575754517747555 226.02403100959418 0 226.02403100959418 420.12271268144832 0 0 0 0 -110.89233806933044 810.75315075787148 0 810.75315075787148 14.117551190764061 0 0 0 0 90.663132557237589 99.699908770454499 0 99.699908770454499 107.67234751120137 0 0 0 0 116.33074815107102 309.35441585327135 0 309.35441585327135 -357.07707376627513 0 0 0 0 300.06357660748472 323.88961446824214 0 323.88961446824214 -358.96790996320487 0 0 0 0 259.46778541317326 485.54456585367734 0 485.54456585367734 441.71394681449237 0 0 0 0 -3.371283337802879 -0.61630064493173364 0 -0.61630064493173364 1.4673242753741107 0 0 0 0 222.79858246985532 -62.177864956804115 0 -62.177864956804115 -1119.9553806182557 0 0 0 0 135.97885751454669 181.16207936260707 0 181.16207936260707 -414.24932707822882 0 0 0 0 -61.238006281259004 128.19636637099029 0 128.19636637099029 -263.40204084632205 0 0 0 0 335.13481680957193 375.21107881997523 0 375.21107881997523 243.56718005555012 0 0 0 0 -3.2924776523037735 3.5234833317939618 0 3.5234833317939618 0.70839003582645432 0 0 0 0 309.05833347984299 166.91504818131216 0 166.91504818131216 78.916199394832802 0 0 0 0 290.46901584371517 468.51588819906101 0 468.51588819906101 178.61171978685888 0 0 0 0 246.89085553689802 385.81977908114368 0 385.81977908114368 310.4292476005794 0 0 0 0 201.61630500343745 244.43798999888895 0 244.43798999888895 157.78708841087473 0 0 0 0 245.93522510418552 364.81722092005293 0 364.81722092005293 298.51634901445505 0 0 0 0 143.74462718209543 460.99619828272625 0 460.99619828272625 305.16248966841522 0 0 0 0 -28.217722753819544 379.8233350829978 0 379.8233350829978 432.02303727313119 0 0 0 0 359.4653586052591 557.21930479313232 0 557.21930479313232 371.98412484966684 0 0 0 0 757.93043376187416 342.24477685379134 0 342.24477685379134 130.23113315660885 0 0 0 0 281.6869841486041 315.42077737563159 0 315.42077737563159 379.39951369339713 0 0 0 0 97.020612738328055 359.42559449661712 0 359.42559449661712 319.77962996748465 0 0 0 0 81.48640178883943 438.41373512064638 0 438.41373512064638 37.989520111135789 0 0 0 0 238.55849346234754 424.29013497300184 0 424.29013497300184 124.6179964113835 0 0 0 0 -246.19461044869968 461.588652890292 0 461.588652890292 76.275575386171113 0 0 0 0 -21.588830543681979 309.1171005342112 0 309.1171005342112 178.74495951284189 0 0 0 0 -32.12476961586799 511.87933516972771 0 511.87933516972771 397.49870800434292 0 0 0 0 -20.78991123643209 345.05143422165929 0 345.05143422165929 591.00692490655638 0 0 0 0 15.983094621817145 212.67134732637464 0 212.67134732637464 543.24372263652913 0 0 0 0 -418.14247604006414 -191.72515463408627 0 -191.72515463408627 591.57004257603694 0 0 0 0 347.7143474384211 -300.4980862730954 0 -300.4980862730954 410.95750603770284 0 0 0 0 7.1136817543099369 2.1917945204439491 0 2.1917945204439491 -0.17396995642539537 0 0 0 0 -48.847754847054603 77.937537757701648 0 77.937537757701648 120.19540798566595 0 0 0 0 -170.43507933639921 27.585528336567222 0 27.585528336567222 150.0314054627961 0 0 0 0 94.625892313924851 286.04893249357883 0 286.04893249357883 137.44975543144392 0 0 0 0 -403.68059302185429 222.77160098179593 0 222.77160098179593 164.19163377928271 0 0 0 0 -227.86535927240038 230.88824446139915 0 230.88824446139915 37.456917652190896 0 0 0 0 41.913860798376845 -58.892681465928035 0 -58.892681465928035 -61.592831220259541 0 0 0 0 -120.72676706555649 -179.5450993202976 0 -179.5450993202976 -100.62896417692536 0 0 0 0 -390.76525522928387 -114.56624022398637 0 -114.56624022398637 89.994545066845603 0 0 0 0 -673.05021704314277 -611.55461827074032 0 -611.55461827074032 -671.05918255714641 0 0 0 0 -44.478762336919317 18.896852225385373 0 18.896852225385373 -65.0629045379319 0 0 0 0 -1123.8404849150102 414.72443830618249 0 414.72443830618249 16.672220441672835 0 0 0 0 -1617.3641477468846 1171.921968002639 0 1171.921968002639 1731.5156187122193 0 0 0 0 359.473630716966 18.521395926509285 0 18.521395926509285 -1027.0721857119352 0 0 0 0 3.8341979811543183 7.3753808660242015 0 7.3753808660242015 -8.8685088075996585 0 0 0 0 -38.848408860418431 27.930632783911754 0 27.930632783911754 -12.845845575031149 0 0 0 0 -716.62679596003727 -121.84941495685052 0 -121.84941495685052 -78.3012009932159 0 0 0 0 4.5056285365135409 -118.98693352382543 0 -118.98693352382543 -140.04582068241143 0 0 0 0 -168.59654709897586 -933.93761305427324 0 -933.93761305427324 -538.11742186104675 0 0 0 0 -736.47433600240038 -132.44052637470304 0 -132.44052637470304 197.00554562723846 0 0 0 0 -16.05022264872332 9.2373114526184423 0 9.2373114526184423 -1.9916720625938638 0 0 0 0 80.645798614335945 89.752798418485327 0 89.752798418485327 -110.4953842414252 0 0 0 0 -1265.1454602095582 -581.93799349538858 0 -581.93799349538858 972.44682622308028 0 0 0 0 72.205524960500043 41.694486615362621 0 41.694486615362621 41.428824689966859 0 0 0 0 91.160400528460741 246.91061879713379 0 246.91061879713379 -286.18864292987564 0 0 0 0 81.870699977014738 205.65877228803856 0 205.65877228803856 -38.111046437785262 0 0 0 0 -15.018846195423976 234.35030589623784 0 234.35030589623784 -299.3442950019089 0 0 0 0 -168.0655545094146 356.72620087844462 0 356.72620087844462 -149.37248469365295 0 0 0 0 -172.06054044543998 531.54007170411933 0 531.54007170411933 -422.6966403573897 0 0 0 0 2.6420617668482009 350.5200455166123 0 350.5200455166123 -198.89003743820649 0 0 0 0 2.9498823782078034 340.78694909952219 0 340.78694909952219 105.45645897380018 0 0 0 0 135.04954244696273 264.25761675378817 0 264.25761675378817 92.918829415735672 0 0 0 0 102.48838885407895 278.44937893327005 0 278.44937893327005 152.71754700315523 0 0 0 0 116.00790999984019 203.81964287818118 0 203.81964287818118 -95.374619620575686 0 0 0 0 166.97161285582115 347.82285350098573 0 347.82285350098573 203.41529376633844 0 0 0 0 -17.428988874311472 235.42749148095118 0 235.42749148095118 356.92637489199114 0 0 0 0 39.959665513772052 79.312489656731486 0 79.312489656731486 142.5896118357341 0 0 0 0 1.9710046749387402 117.84680375240714 0 117.84680375240714 117.94955006826967 0 0 0 0 30.009956697860616 149.09093448962813 0 149.09093448962813 152.76167740007804 0 0 0 0 -47.918830526032252 61.540690992980672 0 61.540690992980672 148.09833245955997 0 0 0 0 -29.62719776202772 23.894052132923207 0 23.894052132923207 -15.909279256501065 0 0 0 0 -51.643058739167827 125.17354638401139 0 125.17354638401139 206.6174741624709 0 0 0 0 -23.542459103579233 28.999536105922004 0 28.999536105922004 -30.409165733962141 0 0 0 0 198.34333233708458 -1214.0059681869498 0 -1214.0059681869498 -419.79443672348862 0 0 0 0 2.8109499473066535 -23.513748760640738 0 -23.513748760640738 -38.015139673334488 0 0 0 0 -20.074979287790484 20.051071556995339 0 20.051071556995339 207.13172140350798 0 0 0 0 0.50541804651942357 5.5776745538199179 0 5.5776745538199179 -3.3201917868513533 0 0 0 0 56.35951987853332 124.22917994302406 0 124.22917994302406 -15.581994432330134 0 0 0 0 163.0771304233931 -296.54939560821367 0 -296.54939560821367 64.34390714456822 0 0 0 0 -225.01532543337089 -47.746411839638313 0 -47.746411839638313 320.27363500758656 0 0 0 0 798.15103062050184 207.50202013587113 0 207.50202013587113 -16.474715990014374 0 0 0 0 985.01624268070736 -27.523451394721633 0 -27.523451394721633 -461.57439003646141 0 0 0 0 671.5006320012908 -245.0413709282584 0 -245.0413709282584 -148.29394822330505 0 0 0 0 311.1230902751704 538.86281285549194 0 538.86281285549194 339.07343665306689 0 0 0 0 -753.89970319552231 539.2643745009118 0 539.2643745009118 687.74559507795493 0 0 0 0 -1186.6196023807861 237.60983923907042 0 237.60983923907042 492.35574193990033 0 0 0 0 820.73302068535122 34.447600032726768 0 34.447600032726768 -968.49698902654927 0 0 0 0 -1136.4935853865463 59.682042352593271 0 59.682042352593271 795.19865956611466 0 0 0 0 -1050.3246898223006 208.8755200671585 0 208.8755200671585 186.81000315135793 0 0 0 0 -15.621253638828875 10.998820166922073 0 10.998820166922073 -8.9244687436626009 0 0 0 0 -1685.9811316819396 -171.56162162236433 0 -171.56162162236433 367.21302198580088 0 0 0 0 -56.747252706110885 206.96150162980666 0 206.96150162980666 54.690715141230612 0 0 0 0 -97.000028991831641 83.033074544697229 0 83.033074544697229 -19.097820105438586 0 0 0 0 -41.464624123580592 47.473392909332375 0 47.473392909332375 -43.321529249155333 0 0 0 0 -156.99230825345148 -282.90208598221216 0 -282.90208598221216 202.25123358608107 0 0 0 0 511.76488853314368 -129.19794095992256 0 -129.19794095992256 -308.5133764053171 0 0 0 0 -134.06645744017442 -37.173959536870825 0 -37.173959536870825 -115.10105569285224 0 0 0 0 -1365.364634396421 1552.8303341433566 0 1552.8303341433566 231.40006605676899 0 0 0 0 -144.5542746961919 -184.8278810569966 0 -184.8278810569966 -398.66146406777261 0 0 0 0 -15.370412999270684 7.5617854611749706 0 7.5617854611749706 -2.930772954015481 0 0 0 0 -1560.0061105281638 696.65749482085812 0 696.65749482085812 26.841697649681009 0 0 0 0 -751.52065822354052 464.40168495904072 0 464.40168495904072 -600.15299614987089 0 0 0 0 -53.601178792105202 -539.55992390669689 0 -539.55992390669689 2658.4675561168333 0 0 0 0 -175.60879733708862 1401.3734223542851 0 1401.3734223542851 -539.68665097910707 0 0 0 0 -214.24439173436258 1112.7608133575595 0 1112.7608133575595 -1636.5126136589352 0 0 0 0 8.871612266106581 11.172202532540581 0 11.172202532540581 9.7520460938537639 0 0 0 0 -271.04848413236323 -15.26268682902446 0 -15.26268682902446 986.15733830021054 0 0 0 0 -99.090813085342234 1123.364043334801 0 1123.364043334801 446.19686089170136 0 0 0 0 -30.669682072679279 604.46632538768972 0 604.46632538768972 157.98795440914546 0 0 0 0 -133.08193637691147 701.74168431721046 0 701.74168431721046 1083.5631257229543 0 0 0 0 -429.53254426796047 207.35022846140055 0 207.35022846140055 754.87787201417086 0 0 0 0 -101.59304474772944 -104.65193722193544 0 -104.65193722193544 122.85970622372406 0 0 0 0 -484.17843929608352 -323.80291911014501 0 -323.80291911014501 41.800513105241407 0 0 0 0 -319.13581816939404 -44.436841048263886 0 -44.436841048263886 4.8167157670468441 0 0 0 0 -598.45330551132793 284.5540728675096 0 284.5540728675096 -210.02002829553385 0 0 0 0 559.64152488062973 332.84130936130896 0 332.84130936130896 497.51768635657209 0 0 0 0 -814.84630036781891 418.95881256000212 0 418.95881256000212 531.46790998073993 0 0 0 0 285.53615671426451 1368.3509903186323 0 1368.3509903186323 819.50447135757713 0 0 0 0 -410.24630204566347 724.39726143041116 0 724.39726143041116 819.79835555164027 0 0 0 0 -183.79483143678226 1024.0638959924763 0 1024.0638959924763 -223.33519546409661 0 0 0 0 -257.44031118589919 484.60927813669696 0 484.60927813669696 -513.58289926180078 0 0 0 0 -288.07977836445207 983.5381750307788 0 983.5381750307788 -353.63574762867938 0 0 0 0 -249.02163229648431 862.05865556999925 0 862.05865556999925 584.8877603998335 0 0 0 0 54.853483664628584 655.08429777748097 0 655.08429777748097 -213.52514430978044 0 0 0 0 263.9606111569301 727.54464532080601 0 727.54464532080601 -1203.9522790569608 0 0 0 0 -85.282313700976374 574.45573846286061 0 574.45573846286061 689.50572236395965 0 0 0 0 -541.68941682338482 966.4001224921667 0 966.4001224921667 2318.7747284570014 0 0 0 0 71.332646382419625 285.24821495005017 0 285.24821495005017 73.001312377295108 0 0 0 0 -49.661802634865751 29.253920948387332 0 29.253920948387332 2.1660789214137282 0 0 0 0 62.44837202092458 128.9937846111934 0 128.9937846111934 590.37716330779949 0 0 0 0 26.539465621754971 32.888369956269003 0 32.888369956269003 1.5426448418383529 0 0 0 0 -115.82719754392747 -25.414224541658768 0 -25.414224541658768 1352.2032935122988 0 0 0 0 -108.33621124071215 -50.346441232424695 0 -50.346441232424695 61.182113905641017 0 0 0 0 0.73806937976604559 2.7872751806106351 0 2.7872751806106351 -0.9474954243046283 0 0 0 0 -44.398510555358371 360.03633583716874 0 360.03633583716874 220.88999666519157 0 0 0 0 -208.43147841110476 110.44824671698734 0 110.44824671698734 424.7988515910547 0 0 0 0 168.58668184129056 26.472705425949243 0 26.472705425949243 -422.20772306782601 0 0 0 0 242.26123350631678 440.45443648840592 0 440.45443648840592 -244.35173929985467 0 0 0 0 -144.31416995835025 347.1651745138588 0 347.1651745138588 -2613.0054937019595 0 0 0 0 -736.9175729349372 1060.0535523223225 0 1060.0535523223225 -1076.1406573875283 0 0 0 0 18.087951501991483 -178.82071009063839 0 -178.82071009063839 -1568.3366368910501 0 0 0 0 -98.982914699066896 -184.09127571288991 0 -184.09127571288991 15.436214424145874 0 0 0 0 218.51252726229723 15.089451431100315 0 15.089451431100315 -267.7299344066123 0 0 0 0 -192.69157257312327 159.32831751182675 0 159.32831751182675 -317.47763550889067 0 0 0 0 15.189072663263062 2.6934508859584128 0 2.6934508859584128 0.7766582833041582 0 0 0 0 -423.97353734576609 681.43267300420121 0 681.43267300420121 225.90173546535789 0 0 0 0 -526.13110587053234 22.01212082940765 0 22.01212082940765 -74.790258923530928 0 0 0 0 -1836.4531810681874 1031.2569549103337 0 1031.2569549103337 1848.9111162659974 0 0 0 0 -2341.5710707881663 861.16509700023016 0 861.16509700023016 252.07711996316721 0 0 0 0 -22.030422493440255 2.7884410310370811 0 2.7884410310370811 -1.4178998758221297 0 0 0 0 -1129.7145004170598 -122.71568569289957 0 -122.71568569289957 298.5002801523151 0 0 0 0 -805.84168569803296 1343.2518570410284 0 1343.2518570410284 -2034.8504616100981 0 0 0 0 -2271.9615170194302 -81.677464860018517 0 -81.677464860018517 -273.31802041450283 0 0 0 0 -1749.8703433115443 1619.2862481981683 0 1619.2862481981683 -674.29527021126705 0 0 0 0 138.05656089488184 361.55964724851219 0 361.55964724851219 -460.69846861942642 0 0 0 0 1.4894982140406796 -2.3133136503274727 0 -2.3133136503274727 2.306312717282907 0 0 0 0 -141.14421892017708 -494.38166489307332 0 -494.38166489307332 -1861.4040849022858 0 0 0 0 560.97229110018816 -117.62322253757156 0 -117.62322253757156 -425.76898727367916 0 0 0 0 -8.1951325332145757 5.2310071694522549 0 5.2310071694522549 -10.251532907261037 0 0 0 0 116.87273609831755 469.54055087402958 0 469.54055087402958 -365.17661463813192 0 0 0 0 -390.73277181779849 200.80982203915482 0 200.80982203915482 802.87304117414897 0 0 0 0 -1735.4783894526518 1146.3435614319133 0 1146.3435614319133 -278.32866706394998 0 0 0 0 -54.728088784569991 39.570321608684026 0 39.570321608684026 -219.43417491331638 0 0 0 0 -1562.6149246790374 -264.81924882824023 0 -264.81924882824023 171.36568024093867 0 0 0 0 -27.156431856675283 31.2985295805249 0 31.2985295805249 -29.165035475275147 0 0 0 0 -42.757450352000888 -282.10603933312814 0 -282.10603933312814 -1319.067214714305 0 0 0 0 -100.56424057197 -63.184986765350914 0 -63.184986765350914 -242.68747662283204 0 0 0 0 -8.0911668814396478 8.1234324984627762 0 8.1234324984627762 -13.393736993441678 0 0 0 0 -2875.0421140393591 -1158.8097156840886 0 -1158.8097156840886 -154.56529374627462 0 0 0 0 -1646.6728198353376 951.76711141246778 0 951.76711141246778 -847.64928162444994 0 0 0 0 64.262977599602891 994.27852167977107 0 994.27852167977107 401.38582600525115 0 0 0 0 -1474.7488578851626 -178.07899017653472 0 -178.07899017653472 121.9257239694125 0 0 0 0 -957.44111476936087 -885.09040116760298 0 -885.09040116760298 1060.5970546169992 0 0 0 0 -478.05831519674393 -10.473958177906752 0 -10.473958177906752 3198.3206123775235 0 0 0 0 182.45486468397576 -7.0177842240846076 0 -7.0177842240846076 651.57653966697399 0 0 0 0 -485.36290971387643 799.70268189386843 0 799.70268189386843 821.04631653751312 0 0 0 0 5.1954062959121075 33.825886618331424 0 33.825886618331424 -338.83977452652471 0 0 0 0 -313.76616079591076 251.03083715836237 0 251.03083715836237 -1938.7509932034154 0 0 0 0 -383.26225253791199 836.57481946996995 0 836.57481946996995 -1227.0315178435703 0 0 0 0 5.0368995281751268 722.74454800764943 0 722.74454800764943 -643.36579673909 0 0 0 0 -200.02438596624415 522.37713064206764 0 522.37713064206764 -389.7434683542233 0 0 0 0 47.065610244724667 732.59248097666568 0 732.59248097666568 -852.75510728260269 0 0 0 0 -49.099266275559785 379.78181079323986 0 379.78181079323986 -834.61739277503511 0 0 0 0 -135.04145361890551 863.73805372919742 0 863.73805372919742 -92.67827975457476 0 0 0 0 19.254905396082904 276.94963250285946 0 276.94963250285946 327.01499184666318 0 0 0 0 -87.683620712174161 463.60841490399253 0 463.60841490399253 830.13747544455691 0 0 0 0 -192.70359067022218 457.41540538617846 0 457.41540538617846 563.871723650489 0 0 0 0 0.93581165882642381 158.65926681638666 0 158.65926681638666 -211.4045264058077 0 0 0 0 96.172203030429955 342.11754550116893 0 342.11754550116893 -540.22442456166027 0 0 0 0 92.05591630958952 300.88047862403619 0 300.88047862403619 -20.299690822906996 0 0 0 0 105.64244915927702 79.225548711103329 0 79.225548711103329 -322.76411199817812 0 0 0 0 57.403226930269739 -110.13279057099135 0 -110.13279057099135 -1058.4422396104928 0 0 0 0 0.025007637173985131 658.09996121087897 0 658.09996121087897 99.689565999055048 0 0 0 0 38.753062979594688 707.07447488109756 0 707.07447488109756 -675.82399139534391 0 0 0 0 -86.320016152160974 48.603911755762041 0 48.603911755762041 -15.084140717810847 0 0 0 0 -261.81849368653639 14.945169406782952 0 14.945169406782952 303.32287338557944 0 0 0 0 501.62197979551274 693.16508961026557 0 693.16508961026557 699.9494867043577 0 0 0 0 166.76346921561344 255.57917471576366 0 255.57917471576366 644.48787927036756 0 0 0 0 -468.84344775747741 489.89422571905016 0 489.89422571905016 747.75839150417596 0 0 0 0 -19.281540230319791 6.9038389795118675 0 6.9038389795118675 14.63907278612669 0 0 0 0 -178.41807908608462 327.26709712581942 0 327.26709712581942 484.448882002951 0 0 0 0 -154.62182059526094 217.70329152497288 0 217.70329152497288 2.1275203584227711 0 0 0 0 -77.740686717406788 144.61185995872074 0 144.61185995872074 -33.415215872737463 0 0 0 0 -85.612619339538242 49.893775504441734 0 49.893775504441734 -22.48185792521565 0 0 0 0 1218.8738066112855 165.8808729000084 0 165.8808729000084 -545.07558948081714 0 0 0 0 -2005.8904248109466 -542.8930479891751 0 -542.8930479891751 1002.7720175293362 0 0 0 0 -3.5957407595058442 -1.7670162452718046 0 -1.7670162452718046 8.1381439929785131 0 0 0 0 3.4347339912012842 27.457858716813917 0 27.457858716813917 -46.329770746674569 0 0 0 0 83.816712854430079 -206.10817284900986 0 -206.10817284900986 -278.94722300849389 0 0 0 0 -112.40684701668215 30.787830652279808 0 30.787830652279808 -58.672010982976644 0 0 0 0 29.131996148847975 132.07844786807254 0 132.07844786807254 -15.812182105153624 0 0 0 0 7.4753703384746473 13.711252255117302 0 13.711252255117302 -22.059358941693503 0 0 0 0 -53.831216099471931 59.369371459642934 0 59.369371459642934 -25.486459478852339 0 0 0 0 94.47653869005444 151.96305373765063 0 151.96305373765063 -112.2923530255066 0 0 0 0 -37.710472431148901 41.896923878969105 0 41.896923878969105 -31.418796277604287 0 0 0 0 1.5139372624835232 135.40680804235308 0 135.40680804235308 -67.397294262140349 0 0 0 0 -2.7712470559814477 26.947029525202822 0 26.947029525202822 -31.706417123936831 0 0 0 0 -89.174221923974983 59.101103461616731 0 59.101103461616731 -16.380525858417968 0 0 0 0 -48.998295595039963 42.602610929381626 0 42.602610929381626 -322.71773036998638 0 0 0 0 -39.391231349422014 24.50772137315289 0 24.50772137315289 -27.726452337818046 0 0 0 0 -21.502039180656141 20.925594041342833 0 20.925594041342833 13.453566292414905 0 0 0 0 67.991527457576012 -0.025960860977647826 0 -0.025960860977647826 -308.18706658395968 0 0 0 0 -51.863908232640824 -98.017814033155446 0 -98.017814033155446 -382.05834029967082 0 0 0 0 124.14975468470948 453.65247013392218 0 453.65247013392218 -657.42755751655204 0 0 0 0 -157.00839647962857 209.54903042036312 0 209.54903042036312 -301.81949842364702 0 0 0 0 -27.141703536505702 6.8676869963342995 0 6.8676869963342995 20.992889686623982 0 0 0 0 -656.0258551887091 603.13748482120354 0 603.13748482120354 -662.1158648856217 0 0 0 0 0.52761205821596491 3.3408016283089808 0 3.3408016283089808 -3.5918287798781989 0 0 0 0 51.544639809893852 -134.49229818127787 0 -134.49229818127787 130.28051659111225 0 0 0 0 102.02942553920002 5.3127023412762355 0 5.3127023412762355 -422.38620670262026 0 0 0 0 19.19205504347849 17.823299125663596 0 17.823299125663596 -16.548312884869063 0 0 0 0 81.757081005926011 -11.305388139007846 0 -11.305388139007846 -55.086124456887774 0 0 0 0 31.490695117790892 -59.416625018027844 0 -59.416625018027844 -92.307776709305472 0 0 0 0 -766.19529096450424 105.94260513655172 0 105.94260513655172 -178.44772538731922 0 0 0 0 -149.19575868931133 -53.78050392708974 0 -53.78050392708974 -55.405786684161285 0 0 0 0 165.59100254873192 373.53822075534117 0 373.53822075534117 -102.83325462161156 0 0 0 0 355.46122221578844 144.39263565835427 0 144.39263565835427 22.242504282214213 0 0 0 0 152.57245055623935 206.06752198014146 0 206.06752198014146 178.12091855553444 0 0 0 0 343.20345937953243 659.21219219150953 0 659.21219219150953 422.60200312940287 0 0 0 0 -86.070955592702376 323.37418456509477 0 323.37418456509477 215.53107336050016 0 0 0 0 179.2752952844894 500.63152993346739 0 500.63152993346739 451.28718065301655 0 0 0 0 121.56938284136413 531.46125021038461 0 531.46125021038461 438.5378162658817 0 0 0 0 276.4023556334505 402.60361000300327 0 402.60361000300327 504.35379433108028 0 0 0 0 307.0450101797469 551.07825086904631 0 551.07825086904631 53.330058066756465 0 0 0 0 235.51155862638552 298.80418911197194 0 298.80418911197194 155.30744807684823 0 0 0 0 160.51062060665572 599.28128829395428 0 599.28128829395428 -16.19554721825989 0 0 0 0 33.779530258252635 312.33108678471763 0 312.33108678471763 -1.3392626674608437 0 0 0 0 -23.350213110723416 151.32239809809835 0 151.32239809809835 90.518006903716014 0 0 0 0 -92.347212250650045 252.92687203663809 0 252.92687203663809 356.87307395989774 0 0 0 0 220.07593891435863 298.08657578902603 0 298.08657578902603 174.67943194651161 0 0 0 0 -30.861886901528919 36.056057026425385 0 36.056057026425385 -34.221637772316001 0 0 0 0 383.54986902658129 573.1290898070074 0 573.1290898070074 394.29967254738585 0 0 0 0 155.90690511137291 95.125130276286654 0 95.125130276286654 -93.34840315663314 0 0 0 0 336.26364705241576 441.69729159494455 0 441.69729159494455 445.60379182334145 0 0 0 0 701.76650405616965 457.48579076550232 0 457.48579076550232 199.69251607674232 0 0 0 0 746.59836998374067 871.97322311341622 0 871.97322311341622 473.98889994210913 0 0 0 0 -17.964463498814439 163.48015956648305 0 163.48015956648305 83.304067326156655 0 0 0 0 -18.60328698802553 24.029688686679478 0 24.029688686679478 -26.219416720715287 0 0 0 0 105.27976379910979 13.801715142704779 0 13.801715142704779 302.25681692185753 0 0 0 0 333.68106957983218 572.71437850576126 0 572.71437850576126 704.08315124797809 0 0 0 0 355.67098392432672 200.40510419366183 0 200.40510419366183 -31.758697218414454 0 0 0 0 321.25902768214291 334.22666875841969 0 334.22666875841969 297.50060251138348 0 0 0 0 305.74392781749839 135.6701522381054 0 135.6701522381054 -5.882201393309515 0 0 0 0 345.25541742433415 282.70611005674982 0 282.70611005674982 -115.47294547327328 0 0 0 0 348.38987332481338 127.58014992180233 0 127.58014992180233 -98.26121261017397 0 0 0 0 384.89773943672481 330.7036173305969 0 330.7036173305969 -273.35458741603361 0 0 0 0 338.75925045686017 347.51990745593503 0 347.51990745593503 44.653112000702095 0 0 0 0 287.7734159646061 146.54383196598792 0 146.54383196598792 -73.608141846372746 0 0 0 0 -785.56169258201317 -481.27951136699721 0 -481.27951136699721 2.5582657366612693 0 0 0 0 -919.14141268894309 465.34160216533201 0 465.34160216533201 136.01566786480544 0 0 0 0 315.97563671194166 463.59142345364126 0 463.59142345364126 -522.8137226634426 0 0 0 0 -51.082246367965126 -48.276264247808285 0 -48.276264247808285 333.36644236830762 0 0 0 0 -213.38322453811998 -126.84465742154862 0 -126.84465742154862 406.66732246385072 0 0 0 0 -6.6436963602573655 7.9485561315070825 0 7.9485561315070825 -7.7985013132211805 0 0 0 0 140.12513245143055 -46.905438146968663 0 -46.905438146968663 -775.41371033803807 0 0 0 0 -33.338932839295012 576.11347366532573 0 576.11347366532573 -631.2508698431775 0 0 0 0 247.21088851839158 376.26685783514404 0 376.26685783514404 -359.6590872110537 0 0 0 0 41.833898669850896 -15.699050128634553 0 -15.699050128634553 -147.42428117784948 0 0 0 0 194.9709768796456 169.19140646437882 0 169.19140646437882 -12.017613272371818 0 0 0 0 190.04945682856487 330.49744493927574 0 330.49744493927574 389.39535428181989 0 0 0 0 102.05771844547417 435.64062749852019 0 435.64062749852019 397.7772600727294 0 0 0 0 -25.986051129494143 22.43270943162473 0 22.43270943162473 -16.885419359221999 0 0 0 0 3.5499653188128377 7.5607335944161491 0 7.5607335944161491 -8.1597662473031178 0 0 0 0 -144.44228475219279 239.19861932235654 0 239.19861932235654 801.12461271359643 0 0 0 0 -428.14952125041327 -8.456784333376163 0 -8.456784333376163 599.77155582042178 0 0 0 0 -6.3926298926598975 46.592827490847412 0 46.592827490847412 -63.722612523430143 0 0 0 0 32.010651490534656 148.92503654479515 0 148.92503654479515 -228.83303268793679 0 0 0 0 7.8224926831608173 71.689345847073128 0 71.689345847073128 -20.677861850244881 0 0 0 0 -85.670596355965245 79.334234188630944 0 79.334234188630944 9.6089086163119646 0 0 0 0 239.5050227231477 287.36845470348999 0 287.36845470348999 -0.78708535454643425 0 0 0 0 -46.490039557851958 40.682502759650696 0 40.682502759650696 -23.714963501111129 0 0 0 0 -27.076015031155691 36.028286384140884 0 36.028286384140884 -33.028615873651518 0 0 0 0 -51.104048881796189 111.49365473621583 0 111.49365473621583 -37.253308323808596 0 0 0 0 -33.01057721170946 51.699693223112263 0 51.699693223112263 48.383108136382361 0 0 0 0 -52.755693430925021 102.39525910825614 0 102.39525910825614 -42.470593186764745 0 0 0 0 -58.125232458784012 137.72440721960447 0 137.72440721960447 68.642335689244646 0 0 0 0 50.845810306913336 289.44572193908971 0 289.44572193908971 146.76506862133101 0 0 0 0 27.476262418349506 92.074411468332983 0 92.074411468332983 91.143098449669196 0 0 0 0 -5.3098935409507249 213.22875643178122 0 213.22875643178122 406.05839675497373 0 0 0 0 154.79991342710855 165.1577238709433 0 165.1577238709433 202.74301619907783 0 0 0 0 88.203948217671496 333.69055197783382 0 333.69055197783382 297.2586848751962 0 0 0 0 -247.55174267888651 564.75959678057552 0 564.75959678057552 544.9468478384988 0 0 0 0 -43.398055505904125 33.687818568905222 0 33.687818568905222 -23.421305645297707 0 0 0 0 70.320693459449103 155.41497932936181 0 155.41497932936181 247.54793715813139 0 0 0 0 40.86949161793018 244.80254994248025 0 244.80254994248025 84.682393674811465 0 0 0 0 32.615366577461828 128.0185735083578 0 128.0185735083578 -6.339968769432744 0 0 0 0 67.825078686857523 233.36264807889711 0 233.36264807889711 149.3393774816941 0 0 0 0 0.30599342615460046 81.499230419067317 0 81.499230419067317 107.01701018196763 0 0 0 0 -3.5772936205674455 7.7270308132433456 0 7.7270308132433456 -15.874517741559121 0 0 0 0 -65.618549896913464 97.454162256784912 0 97.454162256784912 -4.3825887340058216 0 0 0 0 7.9315541476753424 67.95221633980691 0 67.95221633980691 -42.008693251933437 0 0 0 0 -8.5648713027633789 10.628144057123535 0 10.628144057123535 -14.143141969718101 0 0 0 0 48.238424370731082 139.68440640655899 0 139.68440640655899 224.49211497964279 0 0 0 0 -11.55419570117374 37.974430976391886 0 37.974430976391886 95.254530848180821 0 0 0 0 -89.39307415985968 7.9089322350846487 0 7.9089322350846487 -104.78977585196844 0 0 0 0 6.4477175718056969 141.07402374535741 0 141.07402374535741 -93.834940119981184 0 0 0 0 47.370771770176361 64.123322564333648 0 64.123322564333648 -173.48943423376477 0 0 0 0 -15.904044286984515 50.592290019548493 0 50.592290019548493 -56.206723123576268 0 0 0 0 -9.1003719585132785 126.71939525947528 0 126.71939525947528 9.1394616524032699 0 0 0 0 13.166695767140482 109.13169978473161 0 109.13169978473161 -1.8250181460171007 0 0 0 0 -26.424575957178604 115.4310108214413 0 115.4310108214413 15.095040641026571 0 0 0 0 -17.423833120934432 81.350528241848224 0 81.350528241848224 7.8698817843396682 0 0 0 0 -18.833307970511669 78.391405328935434 0 78.391405328935434 -0.25761514430632815 0 0 0 0 -19.976387085334864 85.536400319775566 0 85.536400319775566 -16.444767548076925 0 0 0 0 -24.901334821047072 58.43581500871143 0 58.43581500871143 -18.071983174538673 0 0 0 0 -13.825539809011389 72.850119189955876 0 72.850119189955876 -57.526909654494375 0 0 0 0 16.189919290220132 85.761043464779505 0 85.761043464779505 -2.4624644567047653 0 0 0 0 -21.051005644054442 74.944896635336022 0 74.944896635336022 -27.2329168520005 0 0 0 0 -18.682083885476459 50.693410935018619 0 50.693410935018619 -23.806740056956187 0 0 0 0 6.2368158771280946 57.067886402604344 0 57.067886402604344 -32.986739262221164 0 0 0 0 -20.494323961695216 52.75035427632892 0 52.75035427632892 -3.2232322386793726 0 0 0 0 -26.355546981518273 75.587853548844578 0 75.587853548844578 -6.6016714028228307 0 0 0 0 -22.762093207100406 61.185330261359923 0 61.185330261359923 -21.970966544642579 0 0 0 0 438.24306435983817 463.78959296228231 0 463.78959296228231 -306.00646596370643 0 0 0 0 -23.811107449495466 58.413781341150752 0 58.413781341150752 -12.23840385384392 0 0 0 0 -39.997083684342215 -20.873102867393754 0 -20.873102867393754 102.1381028030155 0 0 0 0 -1.6563262079230867 33.223580435120283 0 33.223580435120283 -16.823554179697577 0 0 0 0 -24.810732408601325 53.826192733511562 0 53.826192733511562 -8.711293509527934 0 0 0 0 -34.682116177711748 35.275091062570894 0 35.275091062570894 -11.791696999176253 0 0 0 0 -15.1836491592112 70.528713076120766 0 70.528713076120766 35.619703460644814 0 0 0 0 66.251155468897196 47.721315339716966 0 47.721315339716966 -72.493599937384715 0 0 0 0 52.308691941667348 87.916835931086098 0 87.916835931086098 -110.0759691934953 0 0 0 0 -37.614021296532883 117.7278561291987 0 117.7278561291987 -19.811467692750739 0 0 0 0 -38.871505559509387 25.804934568295721 0 25.804934568295721 -55.761945033573284 0 0 0 0 -5.1298726607120102 52.453491971057346 0 52.453491971057346 -45.787644623334089 0 0 0 0 -33.018961632623359 46.396878017738274 0 46.396878017738274 -30.497201437449945 0 0 0 0 -47.70191323144681 45.017111886252096 0 45.017111886252096 -14.349022766851277 0 0 0 0 3.2785527155938325 74.248942165475455 0 74.248942165475455 14.952877385250758 0 0 0 0 -45.886795891789802 44.997655098280163 0 44.997655098280163 -25.209612687916234 0 0 0 0 -184.9376199382823 52.62187767746218 0 52.62187767746218 270.98160452922457 0 0 0 0 -29.050505078230742 14.695058311554732 0 14.695058311554732 9.9401297384184772 0 0 0 0 172.09531935099221 328.32388002934022 0 328.32388002934022 423.25759885949083 0 0 0 0 55.195988928026054 241.31131736148382 0 241.31131736148382 69.406327480488471 0 0 0 0 126.43386871810435 383.33208101307537 0 383.33208101307537 414.61989966011606 0 0 0 0 130.53448097499131 394.44452480153996 0 394.44452480153996 387.66972460545367 0 0 0 0 125.38952531493851 377.8548655276536 0 377.8548655276536 425.97404937801184 0 0 0 0 179.19940459042846 370.10191451654828 0 370.10191451654828 425.89609390380792 0 0 0 0 430.88305180621683 487.13607299723662 0 487.13607299723662 365.5409690481174 0 0 0 0 194.75116776651703 366.60374109972327 0 366.60374109972327 304.05699912150158 0 0 0 0 398.91551891081326 157.88487341967993 0 157.88487341967993 214.49534654826857 0 0 0 0 99.88257256775978 242.41663485865865 0 242.41663485865865 318.61316228201031 0 0 0 0 63.699696829949971 318.30645787372487 0 318.30645787372487 585.62621769690304 0 0 0 0 15.777110769005958 281.97098882432329 0 281.97098882432329 507.45019897516613 0 0 0 0 -4.4880224519990293 16.871148030211657 0 16.871148030211657 -29.403600077171177 0 0 0 0 142.31218354939483 376.8905274560384 0 376.8905274560384 406.1399213806726 0 0 0 0 91.482231076486642 519.08558092793101 0 519.08558092793101 514.85348928108579 0 0 0 0 -137.96885926320101 -55.583079160423949 0 -55.583079160423949 -104.7851221425808 0 0 0 0 49.832284117445539 73.027246869227241 0 73.027246869227241 -61.028468215163358 0 0 0 0 -39.066325915497146 97.306383316550637 0 97.306383316550637 69.038906426476387 0 0 0 0 599.39575073700689 347.15750615870638 0 347.15750615870638 0.15389929476077668 0 0 0 0 205.52712359052384 246.53285691577184 0 246.53285691577184 -15.224101718944439 0 0 0 0 129.49248827726115 409.65108967432025 0 409.65108967432025 265.19407509820303 0 0 0 0 -29.159642621874809 94.813354548678035 0 94.813354548678035 565.60964856932696 0 0 0 0 -51.572374488398395 61.783257591829774 0 61.783257591829774 55.845646170027521 0 0 0 0 18.988444443239132 84.466140936594456 0 84.466140936594456 19.997651450801641 0 0 0 0 25.967646695325953 85.320075524430763 0 85.320075524430763 41.245553998324624 0 0 0 0 -17.108117229770869 122.17746313144016 0 122.17746313144016 -15.708231935147523 0 0 0 0 36.870475493255071 202.42351426753157 0 202.42351426753157 8.6637243206932908 0 0 0 0 -35.687682463367935 98.710109993262961 0 98.710109993262961 20.961830276090382 0 0 0 0 10.190354482925613 138.29300349523692 0 138.29300349523692 -41.253026933089131 0 0 0 0 71.440817782146041 209.02186967996386 0 209.02186967996386 27.627516872234992 0 0 0 0 67.856675792005262 125.55519894514873 0 125.55519894514873 -58.128081449627643 0 0 0 0 -34.417129375622608 208.78285238542594 0 208.78285238542594 -111.67077795689147 0 0 0 0 27.26075596602459 86.848673297979985 0 86.848673297979985 -120.69816632315633 0 0 0 0 -0.87029188161642423 0.54036414777905861 0 0.54036414777905861 1.2515775655850645 0 0 0 0 74.688574808998965 102.70506942764769 0 102.70506942764769 -398.61347892972117 0 0 0 0 76.218665438398602 167.85306938951544 0 167.85306938951544 165.77384310340858 0 0 0 0 29.110484663244279 258.96923993135715 0 258.96923993135715 113.03515997689101 0 0 0 0 97.543616507318802 202.17087236732186 0 202.17087236732186 25.91030938734184 0 0 0 0 40.057347109162947 152.49872187651636 0 152.49872187651636 280.93386273550277 0 0 0 0 -15.102895166945288 11.042568720021819 0 11.042568720021819 -2.0642755186856903 0 0 0 0 -277.18656684859889 -267.40134735353058 0 -267.40134735353058 112.71345415468386 0 0 0 0 372.80789341285708 166.07946683781483 0 166.07946683781483 -396.64883167190419 0 0 0 0 651.65358953053692 375.92595766237355 0 375.92595766237355 425.7572316363221 0 0 0 0 141.80754801494186 230.40542947011272 0 230.40542947011272 183.49441433978063 0 0 0 0 -137.8414502194355 286.23109629583632 0 286.23109629583632 390.29450789396651 0 0 0 0 -54.834610531881538 37.21540667554865 0 37.21540667554865 -25.403951749365859 0 0 0 0 75.6121235867613 283.01565866426245 0 283.01565866426245 279.26704121172907 0 0 0 0 308.95499999380627 76.513378652292886 0 76.513378652292886 -404.39080286311219 0 0 0 0 -453.91344140171714 -67.477325609695981 0 -67.477325609695981 538.24172359655859 0 0 0 0 575.78322851125267 997.47754779971729 0 997.47754779971729 973.72571598846116 0 0 0 0 -215.76648047522758 563.67475046723848 0 563.67475046723848 1551.9079478751519 0 0 0 0 -218.62089377365191 -456.50907079613535 0 -456.50907079613535 978.16780546798691 0 0 0 0 220.57677697500185 240.99096949976229 0 240.99096949976229 492.11652794305701 0 0 0 0 -66.349107609203202 39.043550448477617 0 39.043550448477617 641.01997231240239 0 0 0 0 39.444983199005947 38.581548401372856 0 38.581548401372856 417.23538169231324 0 0 0 0 82.204569375244319 175.2534810637444 0 175.2534810637444 525.97134859068319 0 0 0 0 70.251499802878243 230.11142219089379 0 230.11142219089379 736.41172179547721 0 0 0 0 175.7191711980704 158.09692518810334 0 158.09692518810334 378.77135737877325 0 0 0 0 456.4871027340705 444.80380694402265 0 444.80380694402265 578.22506558200985 0 0 0 0 190.01006958645303 327.29242140556744 0 327.29242140556744 572.27482885323116 0 0 0 0 194.22879847594595 291.75517119617143 0 291.75517119617143 431.76542914417223 0 0 0 0 194.25130249508948 372.16807273577433 0 372.16807273577433 413.13360089497291 0 0 0 0 147.60926990593498 305.12303661190799 0 305.12303661190799 473.20485613052733 0 0 0 0 460.53678355725424 259.69063390967494 0 259.69063390967494 438.80009488659562 0 0 0 0 236.38340796603006 290.86661409825319 0 290.86661409825319 443.77417883882299 0 0 0 0 188.15252245855663 212.20458297850564 0 212.20458297850564 224.76713191147428 0 0 0 0 146.59845316461383 269.0938706022539 0 269.0938706022539 338.35917209001491 0 0 0 0 156.26068739096809 299.86158948365483 0 299.86158948365483 372.17759911343455 0 0 0 0 77.97535373417486 189.87990496444399 0 189.87990496444399 421.85198093984218 0 0 0 0 29.846702703158371 184.48677552260051 0 184.48677552260051 319.09411694311711 0 0 0 0 93.061603453435964 164.71084582895674 0 164.71084582895674 258.79665101034334 0 0 0 0 39.179777462959464 84.244770253819297 0 84.244770253819297 285.46199231248465 0 0 0 0 80.434325974740204 135.65576907793002 0 135.65576907793002 317.28044263724587 0 0 0 0 88.755182063374377 130.56884776404331 0 130.56884776404331 319.97337894784869 0 0 0 0 71.04715115702129 36.533740336511983 0 36.533740336511983 284.43214800483838 0 0 0 0 65.422066292114323 67.027653095312417 0 67.027653095312417 236.91436678419905 0 0 0 0 81.190137622841576 62.130926514262683 0 62.130926514262683 164.49739562021568 0 0 0 0 92.026789210707648 87.649114012878272 0 87.649114012878272 170.19297228596406 0 0 0 0 98.185461141169071 78.964931840877398 0 78.964931840877398 105.38543075326015 0 0 0 0 110.36632876347721 35.388221782566688 0 35.388221782566688 137.82965381568647 0 0 0 0 124.21218458851217 -12.960748038240126 0 -12.960748038240126 0.061185105907497928 0 0 0 0 -25.654546658653999 239.95366027695127 0 239.95366027695127 -41.940921161702136 0 0 0 0 54.85157247580355 113.24722982828098 0 113.24722982828098 129.18678344022373 0 0 0 0 80.243587109907821 97.856229194432672 0 97.856229194432672 21.830087780079339 0 0 0 0 15.806589606436319 240.43348359598895 0 240.43348359598895 -29.647703097842168 0 0 0 0 57.019355148055183 157.58148557932145 0 157.58148557932145 99.436244962940691 0 0 0 0 -74.543132313068782 336.58851124351349 0 336.58851124351349 -84.716353116091341 0 0 0 0 -90.720936145486121 274.46428219079644 0 274.46428219079644 77.302519048855174 0 0 0 0 -29.563053436038899 243.15335899122874 0 243.15335899122874 87.789880422467832 0 0 0 0 -24.239893640449736 248.76636474333645 0 248.76636474333645 90.99535607267353 0 0 0 0 8.0648939149832586 171.46437567051908 0 171.46437567051908 208.54640004559769 0 0 0 0 73.287407299576444 166.35616883246985 0 166.35616883246985 110.81885546009289 0 0 0 0 75.705147868362474 138.90662741105189 0 138.90662741105189 221.5742837699654 0 0 0 0 44.002508209559892 159.39861030450993 0 159.39861030450993 141.19640188096673 0 0 0 0 -3.014841838320649 5.1222669113348402 0 5.1222669113348402 -4.8260002898385892 0 0 0 0 1412.2317339698493 1787.7756337512474 0 1787.7756337512474 -120.56869324027502 0 0 0 0 -431.1884135077853 774.43786914504017 0 774.43786914504017 -626.2199882878067 0 0 0 0 213.27841384713247 -63.275434994888201 0 -63.275434994888201 -538.36321632986073 0 0 0 0 -40.705242722586263 202.77666051787673 0 202.77666051787673 -124.49699058372062 0 0 0 0 -1125.2872372284255 459.47941692404856 0 459.47941692404856 87.859145277616335 0 0 0 0 -212.61977009107068 458.1275414415577 0 458.1275414415577 -172.75489617686253 0 0 0 0 -460.77013841581356 470.61769145703875 0 470.61769145703875 32.304243117221631 0 0 0 0 -323.35906568233622 355.08031483233208 0 355.08031483233208 112.87745893765532 0 0 0 0 -618.11575314489164 308.2632932872948 0 308.2632932872948 172.9425164568529 0 0 0 0 -484.59756716429547 287.36771524384676 0 287.36771524384676 44.893096973057254 0 0 0 0 -1098.0787210608487 -114.3660392054046 0 -114.3660392054046 68.189630641107215 0 0 0 0 1257.180671580878 1051.4577009226341 0 1051.4577009226341 441.1919221570497 0 0 0 0 -4.8622976732087864 8.5667681753490754 0 8.5667681753490754 -11.58028933652048 0 0 0 0 -389.06350149425271 -69.653835004748544 0 -69.653835004748544 0.071111677418230101 0 0 0 0 -28.283218923842469 94.311350276788289 0 94.311350276788289 50.63375981876743 0 0 0 0 -279.16858798349858 286.09043404953263 0 286.09043404953263 223.66224853273889 0 0 0 0 -291.87132500158623 145.46805239504465 0 145.46805239504465 167.26658247239538 0 0 0 0 -345.00668115793087 238.41233808251854 0 238.41233808251854 189.54033559268282 0 0 0 0 -231.82821839817916 383.8929426370596 0 383.8929426370596 106.52381936543316 0 0 0 0 -362.07019898958697 362.72843566090251 0 362.72843566090251 220.00730255979579 0 0 0 0 -246.28893653869454 332.0572662333434 0 332.0572662333434 227.19982366620388 0 0 0 0 -262.93642512029464 332.38605182114134 0 332.38605182114134 238.53061574275489 0 0 0 0 -221.60062422817282 290.36103346569871 0 290.36103346569871 222.1273569072946 0 0 0 0 -217.64748789356963 308.89876212681702 0 308.89876212681702 249.46818460419308 0 0 0 0 -226.03865756180312 257.76916913330206 0 257.76916913330206 289.95162379843532 0 0 0 0 -193.69214915097109 286.80902584208525 0 286.80902584208525 254.39509026614542 0 0 0 0 -266.52997262488452 257.94234249314059 0 257.94234249314059 246.43255590446643 0 0 0 0 -208.01595346413524 231.02053700599754 0 231.02053700599754 278.34112009013188 0 0 0 0 -76.907769216239103 258.64557457916089 0 258.64557457916089 279.19008776763803 0 0 0 0 -50.149154380604159 253.20211614388973 0 253.20211614388973 214.38353327615187 0 0 0 0 -70.886115150075057 291.31456442062336 0 291.31456442062336 182.75783362585935 0 0 0 0 -94.701130959416332 262.15439027512184 0 262.15439027512184 272.25008795669419 0 0 0 0 -18.405737299908651 201.09558881632984 0 201.09558881632984 303.73906748057743 0 0 0 0 36.088358827146294 224.4555662653147 0 224.4555662653147 258.3950136207277 0 0 0 0 20.837313831994379 182.19859162642661 0 182.19859162642661 286.78929926693672 0 0 0 0 18.652360770583982 228.2058432758281 0 228.2058432758281 177.68810948854662 0 0 0 0 -154.13500800187467 345.52550030165003 0 345.52550030165003 152.54678968428198 0 0 0 0 -200.22359215074539 325.34492846680223 0 325.34492846680223 196.33718827020493 0 0 0 0 -244.15204716087555 357.60056351312687 0 357.60056351312687 223.98757241910789 0 0 0 0 -187.98685665568337 361.56975951840286 0 361.56975951840286 186.58753986989905 0 0 0 0 -168.92843864118913 335.95544339143817 0 335.95544339143817 201.09046056395164 0 0 0 0 -176.38512972263561 332.48684925690759 0 332.48684925690759 283.51397239654034 0 0 0 0 -196.72804146821727 352.15876917200512 0 352.15876917200512 242.88880779762985 0 0 0 0 -198.9787843033846 341.90001855129958 0 341.90001855129958 221.62088743562344 0 0 0 0 -154.46468092137366 317.89069188872236 0 317.89069188872236 199.3634692060732 0 0 0 0 -220.32492048973472 326.09828653317891 0 326.09828653317891 209.94459126450238 0 0 0 0 -164.35574362879561 352.57753974487423 0 352.57753974487423 204.87265842227498 0 0 0 0 -158.22032520134235 382.82354986752034 0 382.82354986752034 205.40599881851904 0 0 0 0 -187.09995578850794 396.88625773352396 0 396.88625773352396 206.0004105969856 0 0 0 0 -155.71289936207177 362.02769164882193 0 362.02769164882193 215.20552316473913 0 0 0 0 -139.75595183655605 297.82274032210262 0 297.82274032210262 309.33003088293481 0 0 0 0 -25.394054946809774 177.28132688559708 0 177.28132688559708 400.83324044678011 0 0 0 0 -121.2703529750579 306.33377483637014 0 306.33377483637014 300.52952672431365 0 0 0 0 -161.85701975536358 291.09428026901151 0 291.09428026901151 364.54076045044349 0 0 0 0 -127.76516278284544 302.52097618972766 0 302.52097618972766 353.56957694140146 0 0 0 0 -180.46609526613611 407.999845361599 0 407.999845361599 214.17918388408725 0 0 0 0 -266.09636499916087 465.95555640297243 0 465.95555640297243 234.90694435709156 0 0 0 0 -201.96690177556593 406.9584501189529 0 406.9584501189529 16.612106418084295 0 0 0 0 -158.1081679755589 437.44648949288239 0 437.44648949288239 11.620293544663582 0 0 0 0 -156.14352546094597 416.9351791391673 0 416.9351791391673 78.99172865942819 0 0 0 0 -110.60193671954039 443.15489561141294 0 443.15489561141294 -139.52182283706497 0 0 0 0 -96.695027742083766 351.82928843209811 0 351.82928843209811 28.785085548326606 0 0 0 0 -42.715371520069311 254.46608242375078 0 254.46608242375078 -53.73332526802551 0 0 0 0 22.380397747620009 265.59254760938347 0 265.59254760938347 -148.22308214981513 0 0 0 0 -70.867727385935723 426.26064738179412 0 426.26064738179412 -366.3586914713087 0 0 0 0 -455.72610059464932 635.02701164492464 0 635.02701164492464 -181.74277171408175 0 0 0 0 -183.58511121621996 255.10840758842824 0 255.10840758842824 137.45008285505173 0 0 0 0 -155.64157106741186 337.78601001590505 0 337.78601001590505 108.61735235218657 0 0 0 0 -106.31004624729394 344.39812827226706 0 344.39812827226706 94.948952467821073 0 0 0 0 -93.851532102635247 250.07972604510724 0 250.07972604510724 -4.6918334683577996 0 0 0 0 -110.6428207468889 227.90294733331393 0 227.90294733331393 146.12846773298224 0 0 0 0 -123.36167907671188 115.48572953452458 0 115.48572953452458 107.5270406967029 0 0 0 0 -153.27502158431162 133.38834768412926 0 133.38834768412926 89.322780227608746 0 0 0 0 -33.94136397067814 68.697047856839163 0 68.697047856839163 107.74465296935523 0 0 0 0 -42.767581104602868 151.10212891108131 0 151.10212891108131 -74.908732879848685 0 0 0 0 -2078.6689837551967 -672.41021767738857 0 -672.41021767738857 1889.5777203822508 0 0 0 0 158.03906770894537 269.45326996062067 0 269.45326996062067 -198.55932548119745 0 0 0 0 -11.286041032875701 10.640338374186115 0 10.640338374186115 -12.865427730524232 0 0 0 0 15.717019471787353 244.87762405079047 0 244.87762405079047 -242.94585208350327 0 0 0 0 120.42964828500408 3.8451813924184535 0 3.8451813924184535 51.04040989826899 0 0 0 0 -61.270094630468108 73.004125188534204 0 73.004125188534204 -42.78032282126216 0 0 0 0 -384.98952383841242 51.963840678006818 0 51.963840678006818 221.71820920209575 0 0 0 0 -8484.7332244040736 -1807.379149915796 0 -1807.379149915796 2049.7499962990569 0 0 0 0 -46.912172327800235 44.425869348664257 0 44.425869348664257 -8.2574679599987348 0 0 0 0 -115.27660363257019 96.606846445123665 0 96.606846445123665 130.39513701499163 0 0 0 0 -59.052623655600655 509.3616918269654 0 509.3616918269654 -181.3924027824105 0 0 0 0 -522.63853706744885 -50.599628459684027 0 -50.599628459684027 254.40885629216064 0 0 0 0 191.06422606792421 375.16032253484445 0 375.16032253484445 -421.5488063528901 0 0 0 0 -14.883215088111697 11.868587912525797 0 11.868587912525797 8.02035610757315 0 0 0 0 35.298729879083112 97.136538980936166 0 97.136538980936166 -30.981636037176941 0 0 0 0 -77.143995972131961 92.507196742051747 0 92.507196742051747 137.20703702113678 0 0 0 0 -51.54024695145349 43.15590239025687 0 43.15590239025687 -11.333264628588722 0 0 0 0 -34.810863376369582 77.470408474516915 0 77.470408474516915 -51.467251134957053 0 0 0 0 -126.87427322434814 -49.103228232714173 0 -49.103228232714173 -139.28149872657377 0 0 0 0 -122.64771057363396 103.81936196744937 0 103.81936196744937 20.819725371853565 0 0 0 0 -224.00873249839788 -33.303230899080518 0 -33.303230899080518 112.06868530044449 0 0 0 0 -149.86810946345577 63.384203764006088 0 63.384203764006088 -74.300576771580381 0 0 0 0 -198.33882166204421 45.836126185793546 0 45.836126185793546 294.56504341450636 0 0 0 0 -174.60060188185889 102.47066503707902 0 102.47066503707902 159.21027703310756 0 0 0 0 -159.41130103218893 133.59462088416331 0 133.59462088416331 215.47590762457548 0 0 0 0 -205.57992109196857 44.322488257352234 0 44.322488257352234 159.4489515046298 0 0 0 0 -219.59774354221008 136.98292909779411 0 136.98292909779411 239.18775232753251 0 0 0 0 -211.14250531643484 231.70901047176449 0 231.70901047176449 282.6069591579726 0 0 0 0 -203.06323134964623 241.88606378974509 0 241.88606378974509 269.08388376340736 0 0 0 0 -185.88714055673336 243.05324311813456 0 243.05324311813456 246.56523540284252 0 0 0 0 -210.13865310395704 186.50428098120301 0 186.50428098120301 414.59487821665243 0 0 0 0 -204.47551713941357 229.7611481326594 0 229.7611481326594 335.35501956616645 0 0 0 0 -89.860753801214742 268.59988149743003 0 268.59988149743003 342.26138900524529 0 0 0 0 -14.933573036294547 191.84659274012665 0 191.84659274012665 337.55164020642405 0 0 0 0 257.32866868406563 405.80182507776772 0 405.80182507776772 436.26627990126144 0 0 0 0 9.6104581413231926 8.3705720252358731 0 8.3705720252358731 -10.840083219041048 0 0 0 0 198.62944102061374 497.04700631137712 0 497.04700631137712 555.68579827340727 0 0 0 0 243.77709678089013 467.6061234689696 0 467.6061234689696 518.10367711863364 0 0 0 0 100.81686343457841 435.83274091584462 0 435.83274091584462 721.46647568215849 0 0 0 0 321.7624577777824 627.1336060075846 0 627.1336060075846 825.55316259365645 0 0 0 0 267.00819565374695 167.31861156254308 0 167.31861156254308 1005.3634892299306 0 0 0 0 62.065781340897956 322.37724019489542 0 322.37724019489542 954.46921939076856 0 0 0 0 -35.418059588148026 83.621601365564857 0 83.621601365564857 553.63716323122935 0 0 0 0 -141.27614838889349 193.09968987570392 0 193.09968987570392 518.47070062693092 0 0 0 0 -50.117317678261315 184.54669348201423 0 184.54669348201423 424.20881992246541 0 0 0 0 -3.028168991126222 506.03824769973926 0 506.03824769973926 961.21907094164635 0 0 0 0 230.99092126131291 224.52079472631158 0 224.52079472631158 705.34679147803399 0 0 0 0 172.5717898888397 509.32169118741876 0 509.32169118741876 553.46444768254878 0 0 0 0 -22.100994691428298 32.437514573401174 0 32.437514573401174 -23.06015072498451 0 0 0 0 -17.786449857688922 18.424471677408135 0 18.424471677408135 -11.953463104985985 0 0 0 0 89.602717301051598 455.75779755525582 0 455.75779755525582 592.99959851881431 0 0 0 0 -31.799291442512185 32.515025322776637 0 32.515025322776637 26.069941760288202 0 0 0 0 3.9527041826622735 529.48429795149241 0 529.48429795149241 569.98591934645083 0 0 0 0 648.57851705973735 270.40703274183033 0 270.40703274183033 58.625365979329217 0 0 0 0 4.6000901558195153 11.109480504449181 0 11.109480504449181 -5.8648560218884924 0 0 0 0 357.38752663813648 33.864304283895763 0 33.864304283895763 1144.3401248211594 0 0 0 0 770.13687211234355 408.04988321507699 0 408.04988321507699 773.59047718983493 0 0 0 0 1031.7440082016838 803.82769744467805 0 803.82769744467805 1370.577926576254 0 0 0 0 183.35977077673306 840.50774501582782 0 840.50774501582782 3345.4371007715818 0 0 0 0 185.24244069143606 171.94640959529352 0 171.94640959529352 1668.3021062004264 0 0 0 0 -81.692614881438203 25.703819257381838 0 25.703819257381838 76.112819814938121 0 0 0 0 0.11238106840028195 41.406712399482785 0 41.406712399482785 3.3909605736116646 0 0 0 0 -31.12200700050812 24.525875087548258 0 24.525875087548258 -4.2034252112912611 0 0 0 0 -51.019122918929497 474.79469779806277 0 474.79469779806277 1860.7481115015253 0 0 0 0 -22.526784009024823 25.12846291292162 0 25.12846291292162 -15.222285055348664 0 0 0 0 310.98215453051671 -158.39516653135797 0 -158.39516653135797 51.141170532515389 0 0 0 0 -128.18920534831705 -78.13171506026265 0 -78.13171506026265 1461.9661522961978 0 0 0 0 512.9362867214295 115.09510673603654 0 115.09510673603654 -46.85208553702978 0 0 0 0 238.04547214376635 -168.6808170178042 0 -168.6808170178042 418.80544938155799 0 0 0 0 211.11091974041483 260.49266873252054 0 260.49266873252054 768.00315448489937 0 0 0 0 -203.48882320577832 139.01753115368774 0 139.01753115368774 -44.693001470988293 0 0 0 0 234.0959052618382 -119.9764333421881 0 -119.9764333421881 -813.28033505765052 0 0 0 0 97.29531567273807 560.11772872125584 0 560.11772872125584 -742.09615386038786 0 0 0 0 -302.58321214384341 466.74732075066277 0 466.74732075066277 76.810674722153635 0 0 0 0 -119.16946033571548 122.06887012461084 0 122.06887012461084 557.44104880769737 0 0 0 0 -162.40040626251721 -72.263835687466781 0 -72.263835687466781 204.57636110735621 0 0 0 0 -35.867722895272891 46.577665124001214 0 46.577665124001214 518.81265169836115 0 0 0 0 295.96224494234775 230.69751632185944 0 230.69751632185944 800.55552838096628 0 0 0 0 175.87224749918096 -103.52592035164707 0 -103.52592035164707 624.4892055712844 0 0 0 0 305.69098249286617 -10.484734929748811 0 -10.484734929748811 -52.669920462431037 0 0 0 0 -10.004555322782835 -119.59160512781818 0 -119.59160512781818 4.1137558608024847 0 0 0 0 -178.46470790003514 87.589345386040804 0 87.589345386040804 -58.982014658346998 0 0 0 0 -286.4164372248124 -268.86633166023239 0 -268.86633166023239 58.23301740925308 0 0 0 0 -42.411854294978582 74.242971981934403 0 74.242971981934403 -40.105523649098416 0 0 0 0 -33.131270303914789 -323.94448131386162 0 -323.94448131386162 -518.95734607115446 0 0 0 0 -59.124617750501784 132.4914415316598 0 132.4914415316598 235.82235400773789 0 0 0 0 6.6741486883420293 -23.915979160370625 0 -23.915979160370625 -74.061940953368321 0 0 0 0 -86.257582062848087 10.781952543984517 0 10.781952543984517 162.39926681079669 0 0 0 0 -430.2934164342405 422.49981085685795 0 422.49981085685795 242.62818996996793 0 0 0 0 -159.1009863235231 95.505064407672762 0 95.505064407672762 -70.223368555161869 0 0 0 0 -29.701458983663116 26.144820318688346 0 26.144820318688346 -19.117218860286982 0 0 0 0 -54.872740772552447 83.340474636327713 0 83.340474636327713 -44.783487226214618 0 0 0 0 -725.10049610057831 681.546679531275 0 681.546679531275 -340.9401470208104 0 0 0 0 -738.23153693992936 996.25026353514113 0 996.25026353514113 -1.1435467880219221 0 0 0 0 -45.09661629627243 82.057869370205566 0 82.057869370205566 -45.732504262187206 0 0 0 0 -489.76872392050427 275.00609245894884 0 275.00609245894884 34.381046012495062 0 0 0 0 -1338.6300531986781 746.67948727442126 0 746.67948727442126 -161.70181702318951 0 0 0 0 -443.49490702885669 945.30344104814139 0 945.30344104814139 -455.04859898182622 0 0 0 0 -453.12441670730141 675.52763228374727 0 675.52763228374727 -542.31535633168824 0 0 0 0 -2278.1115646336848 2103.4980346757111 0 2103.4980346757111 -1118.0583082032681 0 0 0 0 2.9318683120348368 2.2505209583665078 0 2.2505209583665078 2.2465235898059746 0 0 0 0 -913.25091364512627 1008.4250845445495 0 1008.4250845445495 -2483.0120653820486 0 0 0 0 980.55340951685503 238.86990012264869 0 238.86990012264869 -574.08425763731793 0 0 0 0 -458.66248506645934 184.82098155689891 0 184.82098155689891 1022.1012832157285 0 0 0 0 139.73107560825156 612.37702511249518 0 612.37702511249518 870.65876682323869 0 0 0 0 -469.88610097589481 -196.61722750207264 0 -196.61722750207264 -25.412157780650887 0 0 0 0 450.70096989272133 1790.4973099258059 0 1790.4973099258059 -677.99904443073319 0 0 0 0 -2671.4924324617614 84.015482121521018 0 84.015482121521018 -7.6245600245165406 0 0 0 0 -10.401922506755824 11.269753076093806 0 11.269753076093806 -11.445600357718035 0 0 0 0 -2835.4191662611993 2599.9006004731054 0 2599.9006004731054 -836.41284007127251 0 0 0 0 -368.41899977014691 482.5126171616721 0 482.5126171616721 -600.56625275898114 0 0 0 0 784.66896440632127 258.75760972673561 0 258.75760972673561 -563.39759074046742 0 0 0 0 -80.337713152581273 -81.356298357328342 0 -81.356298357328342 351.4165634799283 0 0 0 0 -103.56829484779519 61.251706871538772 0 61.251706871538772 604.89700468566298 0 0 0 0 -217.7862288048982 -146.27547462895018 0 -146.27547462895018 458.37854869023431 0 0 0 0 -112.5609345595476 -16.046782436569629 0 -16.046782436569629 438.35325089503021 0 0 0 0 -69.152568071272981 -55.501919861606439 0 -55.501919861606439 329.46830200011027 0 0 0 0 43.710924469983183 109.06449960744339 0 109.06449960744339 31.617172609490808 0 0 0 0 29.949059971739189 195.30194302483869 0 195.30194302483869 294.12602155659988 0 0 0 0 -154.61537794186188 13.859530291672854 0 13.859530291672854 419.49106139107607 0 0 0 0 -134.05331960738476 98.628069545673497 0 98.628069545673497 746.95337154954905 0 0 0 0 -98.700593636640406 -52.264654062375485 0 -52.264654062375485 195.28531820462376 0 0 0 0 -93.504451444096048 -215.12403653331421 0 -215.12403653331421 502.85242779599503 0 0 0 0 236.50179148612824 -30.823124228038068 0 -30.823124228038068 52.857113109901547 0 0 0 0 -51.223499529962282 67.625158223134349 0 67.625158223134349 -275.04276943361037 0 0 0 0 -192.2963377784522 212.37076679165148 0 212.37076679165148 14.235399790806696 0 0 0 0 11.09069699858992 -161.58503772562835 0 -161.58503772562835 -160.63513692114793 0 0 0 0 -324.81055957056742 -133.04848194475926 0 -133.04848194475926 166.54231787728349 0 0 0 0 133.04591595502643 7.9673588468940579 0 7.9673588468940579 46.643489243841032 0 0 0 0 -34.276410930709133 30.711866309222415 0 30.711866309222415 -27.692678402659169 0 0 0 0 125.76793862938939 100.81081654550508 0 100.81081654550508 256.90138312266208 0 0 0 0 -69.027344208414434 -68.306023695651675 0 -68.306023695651675 28.869037928274338 0 0 0 0 91.286502353088963 172.5829625158749 0 172.5829625158749 289.47649738722248 0 0 0 0 -116.9177090358321 -101.18592881812583 0 -101.18592881812583 383.72547879625927 0 0 0 0 373.03075105563039 -4.1004863535636105 0 -4.1004863535636105 -48.97590735751146 0 0 0 0 332.01470167253865 233.14071206003428 0 233.14071206003428 209.36552784137893 0 0 0 0 267.07067565715988 15.608577846331173 0 15.608577846331173 187.8433564691004 0 0 0 0 114.91774417602574 317.89928268558288 0 317.89928268558288 -31.912792567774886 0 0 0 0 155.76886078779353 186.90167502746044 0 186.90167502746044 -284.34545326192529 0 0 0 0 -162.2452264753083 376.58464799197827 0 376.58464799197827 105.49046812048982 0 0 0 0 -400.17481069335554 936.64980476165692 0 936.64980476165692 -540.89700423779141 0 0 0 0 261.15661053324584 193.16116395900463 0 193.16116395900463 -206.45182218185073 0 0 0 0 25.837616362347035 156.53551510383113 0 156.53551510383113 -5.7216302770975744 0 0 0 0 -1.6669935414143993 3.9250215987624699 0 3.9250215987624699 -1.2247755872543635 0 0 0 0 -8.4525010645411385 96.981433639586612 0 96.981433639586612 444.48130037056399 0 0 0 0 22.902722201626602 206.09595162360893 0 206.09595162360893 -1913.2647240307124 0 0 0 0 -169.28534043158288 489.10237527202844 0 489.10237527202844 -1286.0699941939311 0 0 0 0 -366.13231298314349 679.92296702210297 0 679.92296702210297 -2392.1357534218405 0 0 0 0 -423.44301566715876 898.74466267557 0 898.74466267557 -601.66851244236022 0 0 0 0 -1146.7168437393266 830.60528153301129 0 830.60528153301129 -503.6591010834527 0 0 0 0 -796.55550764514555 -17.470385644483031 0 -17.470385644483031 -1778.1575354873639 0 0 0 0 -2204.1190596490778 287.55217456150422 0 287.55217456150422 -259.91021271249338 0 0 0 0 -1915.2723312157686 1218.3000348349797 0 1218.3000348349797 45.488050007988932 0 0 0 0 -586.93624450091738 1052.3698768642644 0 1052.3698768642644 -1273.6566023739679 0 0 0 0 -63.265043013059767 305.67227408460167 0 305.67227408460167 -239.21514957745967 0 0 0 0 -1225.8555835157604 854.04910230045789 0 854.04910230045789 1349.4097997624776 0 0 0 0 -1496.1734285494385 1435.5196391435857 0 1435.5196391435857 344.48790614659083 0 0 0 0 -1269.2725418369519 1128.1009630218759 0 1128.1009630218759 -141.56328439767822 0 0 0 0 -1062.0008969276096 1789.354273581208 0 1789.354273581208 -423.3177666846168 0 0 0 0 -1024.9163869873373 1982.9958315774784 0 1982.9958315774784 556.43672637155396 0 0 0 0 -2234.6124624783115 142.29769097518874 0 142.29769097518874 -2165.4456866327382 0 0 0 0 -916.9690203107084 2179.9846293778369 0 2179.9846293778369 -3243.5396317247069 0 0 0 0 -892.55982960718802 1595.604337785197 0 1595.604337785197 -1011.973392223299 0 0 0 0 -713.53566695540212 1386.8425939933659 0 1386.8425939933659 -832.683145477371 0 0 0 0 164.56918998292531 279.8632543294807 0 279.8632543294807 -327.34621778010023 0 0 0 0 -465.92113462230918 773.97037654823725 0 773.97037654823725 -347.97957338040578 0 0 0 0 -612.13974673609937 191.39696031784297 0 191.39696031784297 563.86800531607878 0 0 0 0 -648.63588593434542 907.66221838790807 0 907.66221838790807 -8.6795359746756731 0 0 0 0 -633.80145501278457 418.05926516874752 0 418.05926516874752 -769.8259940467251 0 0 0 0 -956.69633445645377 1334.5048266563808 0 1334.5048266563808 -1137.1475545631984 0 0 0 0 -503.07680130502558 220.3556932608335 0 220.3556932608335 -1319.7270860688477 0 0 0 0 -549.48530674207723 1133.1870918059285 0 1133.1870918059285 -1341.8611668356316 0 0 0 0 -1774.6420710631792 960.99574659965583 0 960.99574659965583 240.90856601299311 0 0 0 0 387.27338011238317 1085.7774911888773 0 1085.7774911888773 -129.77209449888323 0 0 0 0 -278.73786461431882 1908.3153485730654 0 1908.3153485730654 -1071.7519994155446 0 0 0 0 202.24495406384813 2004.9705259622497 0 2004.9705259622497 -172.95362133089657 0 0 0 0 1645.0020734462742 958.22352705783305 0 958.22352705783305 -1148.4620851123473 0 0 0 0 627.66473915972165 1787.7359299679301 0 1787.7359299679301 -3068.644543618575 0 0 0 0 574.42930094400072 1545.560258294805 0 1545.560258294805 -1468.8517744034762 0 0 0 0 44.696287907179794 -108.68959156245182 0 -108.68959156245182 -2309.9874388077005 0 0 0 0 -37.73326144361971 30.047707554144665 0 30.047707554144665 -5.2725238947300852 0 0 0 0 325.96061175563955 1119.2709003696073 0 1119.2709003696073 112.6303054228847 0 0 0 0 227.52291500773572 105.20842288175481 0 105.20842288175481 -106.46957211622794 0 0 0 0 157.3814300193626 349.0036915451492 0 349.0036915451492 -456.62719495609053 0 0 0 0 741.09203300229274 1341.959007291749 0 1341.959007291749 -1727.3834563130658 0 0 0 0 -9.2937649892239733 13.904024977630016 0 13.904024977630016 -11.867247136682877 0 0 0 0 -1299.1670019631565 2237.4997488129884 0 2237.4997488129884 -2905.2797710171144 0 0 0 0 -1.9453635772391635 8.2409664405644776 0 8.2409664405644776 -0.18848573877355079 0 0 0 0 -450.84228338795947 30.987341186468257 0 30.987341186468257 211.03203408325498 0 0 0 0 608.11668138825917 454.95754531695275 0 454.95754531695275 -5272.8582012268889 0 0 0 0 -1676.4781826990074 3022.7786762256728 0 3022.7786762256728 -3333.8239007080847 0 0 0 0 -639.57953297847416 308.63066713223816 0 308.63066713223816 3731.49086451314 0 0 0 0 -1057.985509679449 1448.3066733556916 0 1448.3066733556916 2427.3004804976081 0 0 0 0 758.19989628193434 632.23520875793474 0 632.23520875793474 1119.7668566538778 0 0 0 0 100.41268415954255 605.24968615691614 0 605.24968615691614 1205.452089307335 0 0 0 0 604.08840656367829 68.845841688613291 0 68.845841688613291 524.75425023396383 0 0 0 0 -14.502262958834763 506.0148216021571 0 506.0148216021571 218.9231766290759 0 0 0 0 279.5164411450678 -27.951111150374345 0 -27.951111150374345 -500.4926819561806 0 0 0 0 -46.142260373220779 182.18237980406411 0 182.18237980406411 451.47297270398121 0 0 0 0 420.59170964523219 693.68526912119705 0 693.68526912119705 621.18813221375603 0 0 0 0 136.90348858550715 415.31667764948361 0 415.31667764948361 285.81644880582462 0 0 0 0 380.45572346135305 420.24229009313331 0 420.24229009313331 -221.48706530814525 0 0 0 0 -125.28317594903638 401.9709683115907 0 401.9709683115907 1870.0550537079398 0 0 0 0 142.95139502747043 370.2186003027673 0 370.2186003027673 1044.6950441521767 0 0 0 0 4.2325113209692518 26.664748135576389 0 26.664748135576389 -10.477604024012415 0 0 0 0 -148.69341805431759 842.49891853400186 0 842.49891853400186 2278.6460811112483 0 0 0 0 345.94274863536702 1010.3980378684792 0 1010.3980378684792 1755.6446920741873 0 0 0 0 22.303928953275317 865.10164713794802 0 865.10164713794802 1122.2576230606646 0 0 0 0 160.40484099996684 573.62237742149955 0 573.62237742149955 1146.6913885967515 0 0 0 0 -2.2007405929720107 11.949817354872209 0 11.949817354872209 4.7882238582640753 0 0 0 0 -365.35688048202428 619.11534654161369 0 619.11534654161369 1143.8007596052958 0 0 0 0 -315.29724145641376 689.85593877389329 0 689.85593877389329 1173.3718106618908 0 0 0 0 19.092655926076986 -41.483004899240768 0 -41.483004899240768 107.42617739943671 0 0 0 0 -67.99725547619164 674.54997177000769 0 674.54997177000769 896.32923425614717 0 0 0 0 -166.40506784118406 976.25569374596489 0 976.25569374596489 1280.0917705833708 0 0 0 0 -174.56039711937774 -206.16418223931396 0 -206.16418223931396 -392.32211007085425 0 0 0 0 -673.91410572541645 261.1790909266274 0 261.1790909266274 835.34689385141246 0 0 0 0 659.47713787718385 41.596583624690538 0 41.596583624690538 83.240586527006599 0 0 0 0 927.03982231569535 701.55298670744378 0 701.55298670744378 451.23234290161054 0 0 0 0 316.46498187632096 855.20363748505042 0 855.20363748505042 1380.2627669189824 0 0 0 0 386.75004886306124 1048.2326146872947 0 1048.2326146872947 1190.6222606227966 0 0 0 0 253.93549409817206 -37.98441910087422 0 -37.98441910087422 1431.1184062512693 0 0 0 0 -22.063441569547706 24.974903926387384 0 24.974903926387384 -3.7400221371844253 0 0 0 0 337.14051328980713 798.15446091983176 0 798.15446091983176 918.86404060415225 0 0 0 0 -25.847558694949214 35.384476458233564 0 35.384476458233564 -12.175300006937945 0 0 0 0 23.634075315465452 68.874920977192232 0 68.874920977192232 33.509604551174561 0 0 0 0 755.87271772065287 906.52230333129046 0 906.52230333129046 945.72938158674515 0 0 0 0 -885.65642880217638 259.16109427083575 0 259.16109427083575 1995.2952156729443 0 0 0 0 -158.91318535263781 851.11484805819236 0 851.11484805819236 599.16518290118256 0 0 0 0 -1604.7030887450674 -263.77896380745369 0 -263.77896380745369 66.430894844364957 0 0 0 0 641.63574045179121 1059.8796840624273 0 1059.8796840624273 -394.15700841019861 0 0 0 0 738.604766794856 1329.4396546008188 0 1329.4396546008188 -365.56765827932395 0 0 0 0 -1421.2288107007043 2341.8895291805311 0 2341.8895291805311 -784.19754613820987 0 0 0 0 1202.0067051138212 2484.9328140222078 0 2484.9328140222078 -1151.3052338191192 0 0 0 0 -2.3573793640323402 8.5256640059072879 0 8.5256640059072879 -19.865770612186623 0 0 0 0 3012.5597854184452 2149.0980212275244 0 2149.0980212275244 -1118.7396801350042 0 0 0 0 -115.80857959014247 490.82794935546553 0 490.82794935546553 -1858.2721441444301 0 0 0 0 -1379.1368527494924 1911.815102884073 0 1911.815102884073 -1108.3216506783574 0 0 0 0 -1733.8620634737308 307.28359556935175 0 307.28359556935175 923.58576951563737 0 0 0 0 -3609.5336117908628 -824.84324867961914 0 -824.84324867961914 318.53113654869958 0 0 0 0 -781.89307781880962 122.23297466168231 0 122.23297466168231 -586.72855893126689 0 0 0 0 -50.340209339891004 90.278785469293425 0 90.278785469293425 -48.765040356763691 0 0 0 0 -793.83551209187135 628.34428462647338 0 628.34428462647338 -381.60071238237288 0 0 0 0 -125.29326320623659 652.83845772438508 0 652.83845772438508 -727.06562043055601 0 0 0 0 -406.23163810521146 139.71115660508076 0 139.71115660508076 -307.04533063384588 0 0 0 0 -418.92027675622376 208.27442604563839 0 208.27442604563839 -489.92771570646437 0 0 0 0 -761.90285461630992 217.09791723835224 0 217.09791723835224 -477.14130792121432 0 0 0 0 -933.05675565508864 -115.19839628467889 0 -115.19839628467889 -452.43613711379749 0 0 0 0 -72.083040943647063 74.254591923192976 0 74.254591923192976 -18.795143872007543 0 0 0 0 -595.64593693321149 33.662156520709686 0 33.662156520709686 -469.10354295356956 0 0 0 0 -676.28404139735721 31.890316281849664 0 31.890316281849664 -248.88144527861732 0 0 0 0 -711.83525796049798 -8.5905409909501032 0 -8.5905409909501032 -238.88131913174584 0 0 0 0 -67.545829872025436 63.758432223445872 0 63.758432223445872 -33.521990782969453 0 0 0 0 -118.69664514058968 1037.5499153560959 0 1037.5499153560959 -235.38014698527331 0 0 0 0 535.14474267935293 267.11477700995238 0 267.11477700995238 -461.75386862977757 0 0 0 0 408.56402217377035 344.40153855793324 0 344.40153855793324 105.99137875318411 0 0 0 0 -9.2899666484484555 83.212561580651027 0 83.212561580651027 -50.701786155296276 0 0 0 0 -106.53200424389797 1498.6561690402887 0 1498.6561690402887 2389.0280889241658 0 0 0 0 150.38486843087594 -154.5130950363382 0 -154.5130950363382 351.09265569562558 0 0 0 0 -409.98765264631948 1193.9082472428563 0 1193.9082472428563 2033.5863303761726 0 0 0 0 63.863268330867868 994.32442074211576 0 994.32442074211576 2186.1989129606773 0 0 0 0 1480.4228453017495 1886.4330598245178 0 1886.4330598245178 1129.4855594513792 0 0 0 0 1069.2790848202567 843.48610327470305 0 843.48610327470305 1219.1900576959015 0 0 0 0 -36.620508859587403 51.095190945903724 0 51.095190945903724 -4.6569173375330593 0 0 0 0 -822.87401884948486 999.66660658633919 0 999.66660658633919 1118.6512999511324 0 0 0 0 -205.78615379391704 1314.3475968310377 0 1314.3475968310377 315.32121163661941 0 0 0 0 -280.62992185723851 1520.7790940607665 0 1520.7790940607665 1260.608327133119 0 0 0 0 68.73173043501447 1303.5796616961015 0 1303.5796616961015 1379.6536127411237 0 0 0 0 -124.07132612413261 513.61205247743055 0 513.61205247743055 1630.13355798884 0 0 0 0 -403.6088276670489 804.75523389692535 0 804.75523389692535 1411.8070975710871 0 0 0 0 -646.09888586853776 757.42827703506919 0 757.42827703506919 1400.1243249718682 0 0 0 0 167.35858352508512 1151.437337768235 0 1151.437337768235 1515.3557346365269 0 0 0 0 -1089.5094240975595 589.28818433699053 0 589.28818433699053 750.18675262719626 0 0 0 0 -57.470238890964538 827.74616112566582 0 827.74616112566582 792.66737688436115 0 0 0 0 41.128726096503669 245.76799216635845 0 245.76799216635845 565.16853587605874 0 0 0 0 -52.90116969315568 407.46654144943022 0 407.46654144943022 521.03009728078905 0 0 0 0 320.46126785202068 246.99286236770058 0 246.99286236770058 556.94312329177046 0 0 0 0 -111.17836700688349 463.78867127843478 0 463.78867127843478 1536.9412529651891 0 0 0 0 196.07327518354577 507.0827126138247 0 507.0827126138247 1532.3200003509701 0 0 0 0 -16.451359561164281 634.58475381329481 0 634.58475381329481 2233.1054211318988 0 0 0 0 656.57972700148821 1070.3133408639114 0 1070.3133408639114 2282.8287767723232 0 0 0 0 59.502578710962553 231.22461821637989 0 231.22461821637989 2840.4829730264028 0 0 0 0 269.65031669649761 834.97595925007772 0 834.97595925007772 1804.467376942921 0 0 0 0 -182.0970663218759 576.59312890795991 0 576.59312890795991 2608.7375463074713 0 0 0 0 575.56466271998943 1320.3239971697476 0 1320.3239971697476 2013.8697705519462 0 0 0 0 708.04318827879615 349.0131417667144 0 349.0131417667144 2198.9019201973715 0 0 0 0 287.75740657726419 -1699.6572390716465 0 -1699.6572390716465 -1434.8397178675514 0 0 0 0 -799.82733132889189 1264.0020854289814 0 1264.0020854289814 -3032.872404834372 0 0 0 0 111.79729258239968 1267.4823685472511 0 1267.4823685472511 -2382.6631171972185 0 0 0 0 -420.91525467159227 1272.9663214741595 0 1272.9663214741595 -218.345156921132 0 0 0 0 -246.16037390032579 864.08066126795893 0 864.08066126795893 580.01548907512915 0 0 0 0 -171.50454679194081 448.37214397403295 0 448.37214397403295 695.20820144924437 0 0 0 0 -0.32666995907493401 563.00916801102721 0 563.00916801102721 431.82684809007333 0 0 0 0 540.18206529066083 -41.739086013978522 0 -41.739086013978522 -2341.7793354479945 0 0 0 0 -7.4615064889508176 13.429780786274421 0 13.429780786274421 -16.919410917309847 0 0 0 0 408.38772046630038 90.855427143251291 0 90.855427143251291 -2392.4628907890874 0 0 0 0 -20.385684169740159 62.53830264315485 0 62.53830264315485 -33.188555530007051 0 0 0 0 104.93114569378668 364.05487519058806 0 364.05487519058806 -2175.5183958046255 0 0 0 0 -165.83153697544185 995.88875591930992 0 995.88875591930992 3212.6172721483526 0 0 0 0 504.51724440034013 449.05320728769584 0 449.05320728769584 2210.8548215120245 0 0 0 0 935.63887841549877 -958.79548093272388 0 -958.79548093272388 -3188.4604049376212 0 0 0 0 1084.5297323454288 1314.180063302214 0 1314.180063302214 -193.30753923245334 0 0 0 0 -693.65025772292574 -886.54195744463505 0 -886.54195744463505 -113.65731101615529 0 0 0 0 -824.28082259772054 -157.82714468687118 0 -157.82714468687118 -583.14954079504241 0 0 0 0 167.45554442581488 494.11703239424969 0 494.11703239424969 -1816.4044196393661 0 0 0 0 729.80305939960726 1298.1127317711257 0 1298.1127317711257 2022.5015854918165 0 0 0 0 122.29028383435798 1122.3238792710763 0 1122.3238792710763 3155.5568515165069 0 0 0 0 -8.3080691330699779 40.053765112676757 0 40.053765112676757 -23.201368009827675 0 0 0 0 368.05424619279802 493.90417628921568 0 493.90417628921568 1005.0122714826575 0 0 0 0 515.91719800209103 305.25596790995769 0 305.25596790995769 1146.3684987447195 0 0 0 0 597.97400951907912 479.60142712188099 0 479.60142712188099 1211.8536419222073 0 0 0 0 397.22338299514377 783.53695910573151 0 783.53695910573151 1943.199282690628 0 0 0 0 123.95577459683409 263.81494289659895 0 263.81494289659895 1219.630327405283 0 0 0 0 490.45040949336908 393.04962156414513 0 393.04962156414513 500.42255010918598 0 0 0 0 394.95083682357654 11.687600908338027 0 11.687600908338027 461.80511523252062 0 0 0 0 -11.873525472290112 -15.980049373136566 0 -15.980049373136566 23.048302736346443 0 0 0 0 -241.75931508967187 -68.693860030020005 0 -68.693860030020005 47.470433862705249 0 0 0 0 -73.633187407527288 68.444546668709705 0 68.444546668709705 -22.140404639852136 0 0 0 0 -14.258665540231789 1.4145078910373741 0 1.4145078910373741 2.5484044160997428 0 0 0 0 -405.45754177778144 -361.19974047799042 0 -361.19974047799042 -317.68081668872037 0 0 0 0 -26.798516880182433 577.87157935569121 0 577.87157935569121 189.90828371168755 0 0 0 0 -1942.42020266084 545.65376700305205 0 545.65376700305205 860.14544398713042 0 0 0 0 -830.25222202198347 765.4067859081988 0 765.4067859081988 -744.86745903195697 0 0 0 0 -1119.6481954014162 660.46876395865547 0 660.46876395865547 -507.71581011154922 0 0 0 0 111.79592901398428 -586.57509065064369 0 -586.57509065064369 -2135.888323685067 0 0 0 0 -248.97211238482851 648.86719722634007 0 648.86719722634007 -507.82196193257187 0 0 0 0 -1470.2294160869787 655.60035100723326 0 655.60035100723326 -129.67073968721525 0 0 0 0 -20.70865962057281 18.252346178928263 0 18.252346178928263 -8.1771917083845551 0 0 0 0 1203.211688787982 1540.5818747647791 0 1540.5818747647791 713.40316367817286 0 0 0 0 -235.49784473156615 270.4324630623596 0 270.4324630623596 -400.32742310411413 0 0 0 0 -3560.5414970191159 1723.3424006314344 0 1723.3424006314344 -427.47471427358687 0 0 0 0 -12.281331921462481 17.17052820304972 0 17.17052820304972 -17.165796601762793 0 0 0 0 166.63237208698411 1002.7275627175695 0 1002.7275627175695 -1824.59459595714 0 0 0 0 -0.26717317225064363 4.3366941861452801 0 4.3366941861452801 -8.2637856200369697 0 0 0 0 4773.9545259977021 382.56114629910735 0 382.56114629910735 -3052.1045177695778 0 0 0 0 1694.9710496825137 402.70918731958955 0 402.70918731958955 -2735.4512783059035 0 0 0 0 58.389539926851285 -711.84940761704638 0 -711.84940761704638 -239.12203931018303 0 0 0 0 1427.6328907805437 -303.86721847898298 0 -303.86721847898298 -1313.3279273154185 0 0 0 0 -1043.172524289831 2042.7783653492957 0 2042.7783653492957 932.48851431952789 0 0 0 0 31.21059199100273 -658.72561201722419 0 -658.72561201722419 445.7991806063219 0 0 0 0 -22.635989048631757 30.402986423418405 0 30.402986423418405 -30.592772853435065 0 0 0 0 238.11158585753583 869.02178757769434 0 869.02178757769434 1022.4422215377563 0 0 0 0 -38.310588119609747 596.47924931412126 0 596.47924931412126 -607.05014461865358 0 0 0 0 -1227.7681713580387 2399.9741885706171 0 2399.9741885706171 -2338.7787758942395 0 0 0 0 190.73797364199709 560.87966877760482 0 560.87966877760482 -969.56042434670962 0 0 0 0 -1177.991945819078 1428.237467740495 0 1428.237467740495 -1043.0880215138313 0 0 0 0 415.47513120734948 178.30314602078579 0 178.30314602078579 -640.51884063682155 0 0 0 0 -261.88802437418417 596.37803597172933 0 596.37803597172933 -595.4254248435318 0 0 0 0 453.95689866499197 72.129180723758509 0 72.129180723758509 113.04384506797942 0 0 0 0 -107.16657333180774 157.90337030806768 0 157.90337030806768 120.45881461721729 0 0 0 0 -738.49537814319774 481.92855381479603 0 481.92855381479603 -733.95098641848017 0 0 0 0 -71.109532548162946 65.559508313672325 0 65.559508313672325 -25.572905617922345 0 0 0 0 -430.26059767328115 167.81366846125457 0 167.81366846125457 -515.44101773155853 0 0 0 0 191.72060181933921 1267.8125661849626 0 1267.8125661849626 -463.67912765684014 0 0 0 0 -1250.2883186792933 68.088131523134507 0 68.088131523134507 -234.49598573811818 0 0 0 0 -1273.3983098045319 372.37967882737576 0 372.37967882737576 -236.29576637718128 0 0 0 0 -2487.6144005722308 195.81795238054474 0 195.81795238054474 53.080806920537725 0 0 0 0 -1434.4316610670867 65.335118614006205 0 65.335118614006205 -150.44082587148296 0 0 0 0 -0.64008538246178937 3.6172918927201891 0 3.6172918927201891 3.6545496503244408 0 0 0 0 1895.1261462943221 2639.4682744574529 0 2639.4682744574529 231.05914214486256 0 0 0 0 -0.39599664671618129 1.7507636099553423 0 1.7507636099553423 1.3324659731450765 0 0 0 0 -1515.4733342246363 788.72544562165785 0 788.72544562165785 -111.87256177226664 0 0 0 0 -2961.7469031403889 129.70318455557572 0 129.70318455557572 55.049502647701956 0 0 0 0 620.48204670607083 793.05127243366042 0 793.05127243366042 -1056.7860028049909 0 0 0 0 -71.911962425869049 67.93387924980901 0 67.93387924980901 -26.682854967452954 0 0 0 0 627.36767617069563 261.43078049684118 0 261.43078049684118 332.016791750415 0 0 0 0 1451.4608332194621 380.84760319726774 0 380.84760319726774 -95.882754724530969 0 0 0 0 302.91365036287607 774.2010671911994 0 774.2010671911994 -230.49091985861378 0 0 0 0 -1674.8095545355973 179.38703056160011 0 179.38703056160011 138.94511762534967 0 0 0 0 -3.2951672295188228 10.157551234421561 0 10.157551234421561 10.383120358970586 0 0 0 0 -896.87962652052374 125.91762206748535 0 125.91762206748535 170.53226998633181 0 0 0 0 -989.72082850465085 71.554424443951575 0 71.554424443951575 -70.590516285876561 0 0 0 0 -981.8580882633396 288.04942713955825 0 288.04942713955825 -69.312414859100272 0 0 0 0 -262.84840886184247 110.34265980025521 0 110.34265980025521 -12.410135868979069 0 0 0 0 -467.47875225942698 67.095386917455471 0 67.095386917455471 -128.9824333309225 0 0 0 0 -422.52329245932378 222.32076123228944 0 222.32076123228944 -70.964121315308148 0 0 0 0 -529.49658796367294 136.50582835923706 0 136.50582835923706 -151.85587018137448 0 0 0 0 -264.47379038514919 102.86474077495222 0 102.86474077495222 -222.33571427197603 0 0 0 0 -580.00297295939527 41.953432044654619 0 41.953432044654619 -292.58926149288163 0 0 0 0 -896.42574663525738 252.83073715320643 0 252.83073715320643 -275.55667010051548 0 0 0 0 -830.75402294539526 262.08342462616565 0 262.08342462616565 -165.994401947406 0 0 0 0 -525.54249556951618 132.0088415591963 0 132.0088415591963 -251.68404504653881 0 0 0 0 -595.12702100198658 61.540556512351031 0 61.540556512351031 -312.89057364402106 0 0 0 0 -524.31703860828748 -20.729081937472074 0 -20.729081937472074 -244.43851465187618 0 0 0 0 -592.56579892913578 -32.072602957327035 0 -32.072602957327035 -235.06496565567068 0 0 0 0 -458.54594190013449 110.99853841917502 0 110.99853841917502 -261.85004026575189 0 0 0 0 -624.61078143746272 -16.218267194464715 0 -16.218267194464715 -180.8961136956932 0 0 0 0 -395.47853273980581 51.369885811895074 0 51.369885811895074 -243.40713990498625 0 0 0 0 -596.03866371111917 60.761855738602208 0 60.761855738602208 -157.96181031767628 0 0 0 0 -383.75091382841947 139.64707191149591 0 139.64707191149591 -113.9569318224676 0 0 0 0 -167.0184792554719 193.2589409941429 0 193.2589409941429 -194.30644445799408 0 0 0 0 -445.26184179053962 69.667529138234386 0 69.667529138234386 -147.61152601096546 0 0 0 0 -172.46615034414572 265.4908423548186 0 265.4908423548186 -324.60001281128461 0 0 0 0 -80.897822603132227 126.68833970891865 0 126.68833970891865 -129.22889755151118 0 0 0 0 131.63940873161482 276.68930041982094 0 276.68930041982094 -201.07644923475164 0 0 0 0 -176.97680831734215 224.15981175977504 0 224.15981175977504 -96.585117028851528 0 0 0 0 98.081484840673511 226.67152887780685 0 226.67152887780685 -168.05505399990943 0 0 0 0 78.094112231294275 207.63333101874014 0 207.63333101874014 -83.978390157950344 0 0 0 0 -59.066690102699795 276.77985999789962 0 276.77985999789962 -104.41030753495579 0 0 0 0 -249.84470743384736 210.38300006574718 0 210.38300006574718 -88.958172765691415 0 0 0 0 -89.241537396861531 187.60813059796055 0 187.60813059796055 -174.70915272070852 0 0 0 0 -14.483007430077123 267.34782517737767 0 267.34782517737767 -132.7405827807379 0 0 0 0 -45.215294388228358 245.83466236222012 0 245.83466236222012 38.882692957733525 0 0 0 0 39.299417045560403 290.86155131625856 0 290.86155131625856 -68.188041656336281 0 0 0 0 -20.719215180608444 277.61380541663675 0 277.61380541663675 33.682343247344761 0 0 0 0 37.144306739341118 188.37903865639237 0 188.37903865639237 140.06350885857682 0 0 0 0 -10.805314439043286 240.98309776705719 0 240.98309776705719 124.16331606428139 0 0 0 0 45.266379223117838 255.10424324514315 0 255.10424324514315 13.67076160031138 0 0 0 0 -104.80731246678624 122.5204825973633 0 122.5204825973633 376.69486830326059 0 0 0 0 -105.41224962397246 335.50391367363045 0 335.50391367363045 293.08928015174752 0 0 0 0 -41.859099320005043 123.08452321386721 0 123.08452321386721 172.26046855656432 0 0 0 0 -280.42431219189166 -65.903796424128814 0 -65.903796424128814 180.44967877285671 0 0 0 0 41.743558618316456 30.65261724170341 0 30.65261724170341 2.8208094330620952 0 0 0 0 -44.907740939243126 32.809717955531809 0 32.809717955531809 -23.61164411423897 0 0 0 0 -76.209490178211126 123.6317018317568 0 123.6317018317568 172.31119743877207 0 0 0 0 74.755649097747664 -41.317269790695718 0 -41.317269790695718 -65.984651453327388 0 0 0 0 -84.631468395467891 242.05309031959769 0 242.05309031959769 116.0943230826233 0 0 0 0 -448.45553283775189 -49.207130315124232 0 -49.207130315124232 93.940167090098839 0 0 0 0 -157.4791562545106 190.32378577210329 0 190.32378577210329 28.95684875297593 0 0 0 0 24.225936035785708 102.87232589679479 0 102.87232589679479 15.37820371822454 0 0 0 0 -2.7176360617086175 123.2184120106831 0 123.2184120106831 0.083710940976743586 0 0 0 0 32.718681149322947 83.145939684654877 0 83.145939684654877 30.894051947630942 0 0 0 0 -3.013659306561749 62.348725422074494 0 62.348725422074494 115.35748523639631 0 0 0 0 97.218182781056385 96.417847524237004 0 96.417847524237004 15.701084151020041 0 0 0 0 -32.566477831975988 25.545339752955599 0 25.545339752955599 -18.183165301738796 0 0 0 0 -565.81473276454562 104.16218003739414 0 104.16218003739414 81.957716632867232 0 0 0 0 71.047933135519997 131.24576275700383 0 131.24576275700383 45.00786444923142 0 0 0 0 -123.72035539925855 73.823850412853062 0 73.823850412853062 62.763989803468576 0 0 0 0 -8.2265471154457757 -1.8938101020932834 0 -1.8938101020932834 12.714499138196459 0 0 0 0 67.70290871715406 70.631336668069707 0 70.631336668069707 40.380486439806191 0 0 0 0 70.052044460571778 101.51619642243531 0 101.51619642243531 0.026170679309871048 0 0 0 0 -8.358403411668256 -1.9590964733802991 0 -1.9590964733802991 -0.28515945611326288 0 0 0 0 -2207.9785829072644 -1141.6627519169415 0 -1141.6627519169415 -235.33037039604096 0 0 0 0 -12.190085019779531 6.2031422855419294 0 6.2031422855419294 -3.3875451206852176 0 0 0 0 -46.722773351022624 38.42726471273636 0 38.42726471273636 0.17986437765648589 0 0 0 0 -797.81604256755963 -206.6558361191419 0 -206.6558361191419 -0.66856472853032756 0 0 0 0 -1495.97578665326 -45.545725641102763 0 -45.545725641102763 292.2937354441674 0 0 0 0 -1198.6004702353821 320.31085489350517 0 320.31085489350517 406.23697128801723 0 0 0 0 -754.08454065131082 127.02386271575233 0 127.02386271575233 295.48975374312431 0 0 0 0 0.75963651284905609 -1.2677221656691486 0 -1.2677221656691486 3.1895546473911054 0 0 0 0 56.502765158009424 385.8808754979982 0 385.8808754979982 208.77160884580371 0 0 0 0 -741.08567839901207 -27.095507942655331 0 -27.095507942655331 237.23390249878867 0 0 0 0 -563.45363984500727 69.572467034486181 0 69.572467034486181 536.3969831293216 0 0 0 0 54.463730933508486 238.7963101437781 0 238.7963101437781 -8.4806923253263449 0 0 0 0 -640.16911470420382 268.00714722066186 0 268.00714722066186 69.160861802403815 0 0 0 0 -998.82281794765731 105.35043209001014 0 105.35043209001014 410.04886147023353 0 0 0 0 -1388.0288819248453 -41.341900256589724 0 -41.341900256589724 113.79014082036156 0 0 0 0 -994.70794356268743 188.1525530256913 0 188.1525530256913 -52.132012187903456 0 0 0 0 -295.77393596898764 145.58136005920096 0 145.58136005920096 353.17520110378973 0 0 0 0 223.48407856507401 921.01402898173183 0 921.01402898173183 288.79127267513832 0 0 0 0 -1.2831742725324098 9.9702054609617932 0 9.9702054609617932 -2.2206584103706746 0 0 0 0 -318.72523421226651 634.93602036393713 0 634.93602036393713 -190.50613439787003 0 0 0 0 -1454.3162833310735 479.05464839614342 0 479.05464839614342 590.02629139355849 0 0 0 0 -206.63772484486253 496.19218332333548 0 496.19218332333548 41.02995312330313 0 0 0 0 -934.87732383423281 389.49912857838353 0 389.49912857838353 245.79533509290195 0 0 0 0 -1094.3859239441845 428.76564465266347 0 428.76564465266347 380.0338783217012 0 0 0 0 -3.8331471059576216 1.1419572227153054 0 1.1419572227153054 17.262619100142047 0 0 0 0 -1583.6297061689384 529.42932629232655 0 529.42932629232655 359.32200257937075 0 0 0 0 -2919.4996576639915 2093.3001893308174 0 2093.3001893308174 2.1422189488366712 0 0 0 0 717.66642123099882 777.55315470564528 0 777.55315470564528 -299.54825919370342 0 0 0 0 -2524.8837143337255 170.18875416188166 0 170.18875416188166 540.87227803820861 0 0 0 0 0.67851838379495799 0.18085786894323519 0 0.18085786894323519 6.5753294630093819 0 0 0 0 -115.3189016387114 1022.1947575247905 0 1022.1947575247905 -0.046281965151637502 0 0 0 0 -2.7220434331113399 0.82508482159359176 0 0.82508482159359176 0.0636796134396036 0 0 0 0 -775.91593001873116 -190.82038693592767 0 -190.82038693592767 -168.64429414393135 0 0 0 0 -212.4392601686086 -505.97180234038751 0 -505.97180234038751 41.029953121906146 0 0 0 0 735.43211703510315 1015.9105351265025 0 1015.9105351265025 224.29493223336794 0 0 0 0 -246.7953558607478 781.87695310241543 0 781.87695310241543 137.77768604579614 0 0 0 0 512.43768085469492 312.72919015331718 0 312.72919015331718 241.21619949658634 0 0 0 0 -695.2390037729856 673.89794555392291 0 673.89794555392291 -0.75899503513937816 0 0 0 0 567.83250809580932 239.87189017180935 0 239.87189017180935 -189.08188846952544 0 0 0 0 529.19212246594179 401.12983543600421 0 401.12983543600421 220.95122767338762 0 0 0 0 1146.0555037053418 670.71246103596059 0 670.71246103596059 0.37958798881612255 0 0 0 0 1480.9680169530475 1023.2192462141102 0 1023.2192462141102 356.7162894678695 0 0 0 0 1409.053178756425 444.44933486566879 0 444.44933486566879 192.62456938481773 0 0 0 0 1268.9885167417233 617.62781584606273 0 617.62781584606273 -3.0526235875440761 0 0 0 0 800.16275552166917 780.62314798493753 0 780.62314798493753 334.13678035681369 0 0 0 0 1014.8591041748441 497.83491688512731 0 497.83491688512731 686.57166714940104 0 0 0 0 816.8164762888191 791.72342562316044 0 791.72342562316044 747.71508791232191 0 0 0 0 2494.9825521595776 981.09557324583875 0 981.09557324583875 647.61409347367953 0 0 0 0 -18.181072995579832 3.9891294661370438 0 3.9891294661370438 1.5225173794511875 0 0 0 0 -11.820432049013021 -19.374523014204755 0 -19.374523014204755 0.21354972009476114 0 0 0 0 1329.876410469129 1314.9099243056262 0 1314.9099243056262 238.41909840607696 0 0 0 0 -242.65782770013902 74.320051568072813 0 74.320051568072813 51.548742472368758 0 0 0 0 -63.480588339127408 55.007256212466686 0 55.007256212466686 -10.024367722061697 0 0 0 0 1218.4063272186031 587.10560009838082 0 587.10560009838082 -3.608977005154884 0 0 0 0 -191.33916119453352 383.81445289573458 0 383.81445289573458 289.81340687704505 0 0 0 0 -34.268189130698488 -196.54921788414197 0 -196.54921788414197 51.921523419849109 0 0 0 0 -1318.219767711038 97.123916836259014 0 97.123916836259014 386.56637415128353 0 0 0 0 -1491.4368477057214 927.4278559149825 0 927.4278559149825 -609.25827103550546 0 0 0 0 401.06440959700376 945.41163150698412 0 945.41163150698412 -963.05678204535798 0 0 0 0 -1467.5729859237053 1392.5186384071858 0 1392.5186384071858 -616.57668688190461 0 0 0 0 -2720.3031900233145 742.86313474231429 0 742.86313474231429 -624.84256393279065 0 0 0 0 -1472.6673322139281 1251.8184810389539 0 1251.8184810389539 -886.3334776685806 0 0 0 0 -1400.8876708241514 1070.2123842650908 0 1070.2123842650908 -671.36612333523226 0 0 0 0 -2717.0199272995987 1279.1236314512753 0 1279.1236314512753 -284.75471387628932 0 0 0 0 -2310.8771506019912 1387.1522580746168 0 1387.1522580746168 -613.75239645442343 0 0 0 0 -2331.1946592799823 721.62337133281108 0 721.62337133281108 -423.14522584120277 0 0 0 0 -1453.8775400135419 693.59643433825113 0 693.59643433825113 -481.15976605692413 0 0 0 0 -1123.9634035842246 1062.3802151609852 0 1062.3802151609852 -618.45727955949405 0 0 0 0 -545.48531579853989 1045.7321722300985 0 1045.7321722300985 -698.55528356797004 0 0 0 0 -1413.0498759306336 936.40842607001514 0 936.40842607001514 -544.91373425206984 0 0 0 0 -484.07491763540929 403.19289377348741 0 403.19289377348741 -471.16142186577781 0 0 0 0 -817.15387144930628 691.5241106530375 0 691.5241106530375 -579.39469343182282 0 0 0 0 -900.79084021487415 820.54419754519768 0 820.54419754519768 -439.41638218829758 0 0 0 0 -731.69355732884651 575.66231861423876 0 575.66231861423876 -753.71502578123182 0 0 0 0 -923.8254160974866 591.11371899933874 0 591.11371899933874 74.081441605187138 0 0 0 0 -722.62008011520811 732.0123030237155 0 732.0123030237155 -569.01867147666781 0 0 0 0 -2.3333472122165411 3.517622843793589 0 3.517622843793589 -5.2362786785521394 0 0 0 0 -931.81721535699126 827.31005915311835 0 827.31005915311835 -127.74656513496302 0 0 0 0 -502.04906280663818 -523.82361806015979 0 -523.82361806015979 -100.70391327416291 0 0 0 0 66.170095727666194 -257.78487555759784 0 -257.78487555759784 -535.65671135541925 0 0 0 0 -12.920243391298797 0.10945536772265996 0 0.10945536772265996 1.3705426028658394 0 0 0 0 -254.59533227798966 -259.54527558425616 0 -259.54527558425616 196.89747049459584 0 0 0 0 -857.65966191563246 1610.8518729770403 0 1610.8518729770403 -1211.6344574397517 0 0 0 0 -313.75493235663089 34.658781982623623 0 34.658781982623623 -659.54387925841002 0 0 0 0 -166.59735535707659 506.05990877050499 0 506.05990877050499 -217.18618424143642 0 0 0 0 109.34712315083141 -115.15372443707929 0 -115.15372443707929 -44.508738804157474 0 0 0 0 -12.601503621388474 0.51773575999686727 0 0.51773575999686727 47.240383623022353 0 0 0 0 16.37366720286991 -29.29118630605808 0 -29.29118630605808 -4.7150990215595812 0 0 0 0 36.587681782224536 84.214078057822917 0 84.214078057822917 128.71387878572568 0 0 0 0 -492.33243905959898 9.3874494842457352 0 9.3874494842457352 -196.79149515020481 0 0 0 0 -22.26618437525822 -0.34168409553424794 0 -0.34168409553424794 3.3532281869078133 0 0 0 0 -443.9752559889348 -46.236238689445599 0 -46.236238689445599 -363.13989471267269 0 0 0 0 -502.52212265895469 899.71286777844716 0 899.71286777844716 -810.12848428013967 0 0 0 0 -399.88141534976239 845.1405928952081 0 845.1405928952081 -1174.8271606062772 0 0 0 0 -31.096098755878387 -0.44159092948353873 0 -0.44159092948353873 4.0756974725475175 0 0 0 0 -1679.5818985650549 99.64011743690935 0 99.64011743690935 -701.64227177565226 0 0 0 0 -623.55157380016317 627.40663288086944 0 627.40663288086944 -559.10931090498343 0 0 0 0 -11.573141250548275 2.3001886629650699 0 2.3001886629650699 3.2386749241491657 0 0 0 0 -441.89070890400762 438.7613835199445 0 438.7613835199445 -824.21127751130552 0 0 0 0 -577.47511595451215 618.83990315927076 0 618.83990315927076 -647.16214616235811 0 0 0 0 -22.734881841790894 3.3076065223121134 0 3.3076065223121134 4.7605528976541507 0 0 0 0 -2047.9785573001209 2385.8739237069385 0 2385.8739237069385 -2304.8421755109448 0 0 0 0 -611.06592401972011 561.31390262271452 0 561.31390262271452 -400.58613218541723 0 0 0 0 -349.37836758956109 498.68554718786618 0 498.68554718786618 -306.53151023385453 0 0 0 0 -431.39385159124504 350.31027857553272 0 350.31027857553272 -569.08432766985788 0 0 0 0 223.4698994748469 893.86866982448555 0 893.86866982448555 -324.77430012746481 0 0 0 0 -2799.328630748445 2213.7537258670491 0 2213.7537258670491 -754.05556540156249 0 0 0 0 -2738.7778976937552 2116.6752393724746 0 2116.6752393724746 -2082.4574908430222 0 0 0 0 -3220.1829253829565 1269.4297736725421 0 1269.4297736725421 -630.16253451144439 0 0 0 0 -907.77839887452319 1782.8179896645233 0 1782.8179896645233 -2070.056423285685 0 0 0 0 -76.292446334562555 1427.5561515978334 0 1427.5561515978334 -1848.3395341244322 0 0 0 0 -4.1011001237765967 11.5166040240222 0 11.5166040240222 4.5716765317462205 0 0 0 0 -1024.0081182985668 439.17653215810424 0 439.17653215810424 -318.61582335062849 0 0 0 0 2556.666261140952 -324.45900314644678 0 -324.45900314644678 -1327.7281846703554 0 0 0 0 -0.90575030052759686 0.91692858149249901 0 0.91692858149249901 -13.309048511534456 0 0 0 0 1497.2953336590253 1947.9358655401884 0 1947.9358655401884 -2072.8343445768114 0 0 0 0 -4630.3232463707845 2705.9575852369308 0 2705.9575852369308 -1143.8948059488466 0 0 0 0 -870.02588631043182 1004.5985407948319 0 1004.5985407948319 -477.52259541774401 0 0 0 0 1068.7983827472672 2473.3951594757746 0 2473.3951594757746 -4083.0946192933479 0 0 0 0 -1281.7837979897376 2658.695269402102 0 2658.695269402102 -2251.9131285628537 0 0 0 0 -2668.6989236770314 2119.6235511729319 0 2119.6235511729319 -2331.1826011355879 0 0 0 0 1166.4461470324486 -476.80805906967544 0 -476.80805906967544 -172.58727089816239 0 0 0 0 631.44900924590911 190.23224928803393 0 190.23224928803393 -230.097754882765 0 0 0 0 94.051911302405642 343.14040945579472 0 343.14040945579472 -162.13211011196836 0 0 0 0 478.04141857984359 -120.41036542574875 0 -120.41036542574875 147.77502253207786 0 0 0 0 -2796.6763551449039 2566.14415723813 0 2566.14415723813 -895.60672257599072 0 0 0 0 -2222.4300832413865 940.30463090251942 0 940.30463090251942 191.20792714692652 0 0 0 0 372.17786429123953 1.6149529976100894 0 1.6149529976100894 -32.047544657398248 0 0 0 0 -429.35153481836642 232.16818997958035 0 232.16818997958035 -989.4164267037122 0 0 0 0 -0.28505427976429587 23.535733206900318 0 23.535733206900318 9.3370937255359081 0 0 0 0 286.72939109260915 46.958120554074412 0 46.958120554074412 -7.0122679007836268 0 0 0 0 296.9834751305898 129.63151638522686 0 129.63151638522686 -125.75197797481087 0 0 0 0 356.70667531632353 78.64717405412739 0 78.64717405412739 -63.850524093955755 0 0 0 0 326.38838099847635 74.323573149857111 0 74.323573149857111 -53.494799642387079 0 0 0 0 327.49160222568753 222.53139058980742 0 222.53139058980742 -177.13276213001518 0 0 0 0 99.824107248803557 208.80290451668316 0 208.80290451668316 -92.717909169761697 0 0 0 0 157.88482141349959 183.81277948218849 0 183.81277948218849 -92.854816251958255 0 0 0 0 161.84001777097001 255.78525439748773 0 255.78525439748773 -126.85406083692942 0 0 0 0 217.83951206490019 173.44197310234449 0 173.44197310234449 -93.753135549544822 0 0 0 0 215.21543668403683 176.81300079688663 0 176.81300079688663 -58.81258116781828 0 0 0 0 225.36160271883273 103.92349691879645 0 103.92349691879645 -54.001357549423119 0 0 0 0 -26.385353957261025 56.004675108937995 0 56.004675108937995 -58.612776036331638 0 0 0 0 243.08817453246593 141.94207581722731 0 141.94207581722731 -55.017192775878357 0 0 0 0 152.34429613038265 63.894112995392788 0 63.894112995392788 -92.521144133119378 0 0 0 0 151.66435551824543 206.10835020716331 0 206.10835020716331 -16.333647670813662 0 0 0 0 -35.157745521104779 43.553770067995686 0 43.553770067995686 -48.160844400620704 0 0 0 0 -116.70647628660663 103.82422897533979 0 103.82422897533979 41.318630332971225 0 0 0 0 44.735517314045865 -138.33659295206598 0 -138.33659295206598 -116.4325829075533 0 0 0 0 185.28100118278235 171.88379799407267 0 171.88379799407267 7.2117844493477605 0 0 0 0 149.19200769023155 196.62184919928404 0 196.62184919928404 16.155413354732445 0 0 0 0 168.06179108253127 223.17532388390464 0 223.17532388390464 -86.76628574138158 0 0 0 0 101.0765897976089 221.12941588471585 0 221.12941588471585 10.490892444540805 0 0 0 0 103.62109272399539 236.47315566889301 0 236.47315566889301 -18.454120680122287 0 0 0 0 -286.85208416279056 -626.3691644162318 0 -626.3691644162318 606.64435483561829 0 0 0 0 -1137.4621710091014 211.03396999815595 0 211.03396999815595 592.39698508597212 0 0 0 0 789.14455579900823 -838.5919794634101 0 -838.5919794634101 91.357256546092685 0 0 0 0 761.50724024533508 687.72408311713252 0 687.72408311713252 -419.40281309757847 0 0 0 0 -27.398690430545734 22.413931718414716 0 22.413931718414716 83.051030345164065 0 0 0 0 -1086.9931057403446 774.88632066530408 0 774.88632066530408 -5.8848677408677759 0 0 0 0 -42.918250709415133 122.83169725866901 0 122.83169725866901 -124.77501591033069 0 0 0 0 -17.671664806097397 263.09587847119838 0 263.09587847119838 -84.210577645862941 0 0 0 0 -136.84429337149413 -138.64915905467933 0 -138.64915905467933 -210.93203325942159 0 0 0 0 -419.36325392418803 54.603477611584822 0 54.603477611584822 -122.25709696994636 0 0 0 0 -155.49589038544218 210.05397858332435 0 210.05397858332435 -234.42773166293046 0 0 0 0 0.10327670560353397 2.1147201260583302 0 2.1147201260583302 -2.7655815050372894 0 0 0 0 16.256400036763807 -57.964556576480391 0 -57.964556576480391 -334.29298414450022 0 0 0 0 -284.67133823561744 303.97000398117234 0 303.97000398117234 324.48015021064202 0 0 0 0 -291.82049885187553 341.68530369737346 0 341.68530369737346 439.83488770347321 0 0 0 0 -344.55079339865188 480.50118156678218 0 480.50118156678218 269.96764530753717 0 0 0 0 4.7007958601984932 6.5203930280563895 0 6.5203930280563895 -38.910283657730588 0 0 0 0 -13.247806028953185 21.027728062398666 0 21.027728062398666 91.808047104078412 0 0 0 0 94.136634499274805 857.00880398006848 0 857.00880398006848 -293.52091669520451 0 0 0 0 -104.50464004379114 363.72397770595853 0 363.72397770595853 574.85460317836259 0 0 0 0 120.62076392311428 -380.86048268972081 0 -380.86048268972081 27.759796383732464 0 0 0 0 -46.252880063100747 -236.59320836610277 0 -236.59320836610277 -96.580436947100679 0 0 0 0 -326.46307325011003 525.97619975643465 0 525.97619975643465 -57.826488469727337 0 0 0 0 -3.1101287013933501 0.98106848745368325 0 0.98106848745368325 6.6615456660047698 0 0 0 0 -208.0398970456954 140.20602092740592 0 140.20602092740592 -344.37404076942948 0 0 0 0 -205.28713176087695 381.76995650368917 0 381.76995650368917 -82.622319599147886 0 0 0 0 -213.79226701219886 150.40892446986982 0 150.40892446986982 -89.09305080698141 0 0 0 0 -195.05107843680162 352.81151822325774 0 352.81151822325774 -335.68944650578214 0 0 0 0 -124.23036337748636 261.17372586735291 0 261.17372586735291 94.489398828506637 0 0 0 0 -224.36033527488325 395.42091326738591 0 395.42091326738591 88.484620691713644 0 0 0 0 -148.46784101518278 242.08925067033852 0 242.08925067033852 335.9954824356173 0 0 0 0 113.77607447459741 113.4805520704831 0 113.4805520704831 191.13686109130504 0 0 0 0 -110.82666319139389 271.77549412379449 0 271.77549412379449 80.645832899870584 0 0 0 0 130.02107004250138 146.98098995923647 0 146.98098995923647 -4.0056578705989523 0 0 0 0 -60.517291205691208 181.4299600205095 0 181.4299600205095 -134.26114565989701 0 0 0 0 -58.996738748504868 162.25066252452143 0 162.25066252452143 36.735626732028322 0 0 0 0 14.364639006002108 63.424216053899727 0 63.424216053899727 -17.996421303512761 0 0 0 0 -63.044603269001527 118.55155324209773 0 118.55155324209773 -13.696420079679228 0 0 0 0 -136.41610955652868 47.156434099306352 0 47.156434099306352 -79.609561968012713 0 0 0 0 -239.36706931552908 153.73343431587273 0 153.73343431587273 -73.700966161099132 0 0 0 0 -197.06007810879964 181.40839392990165 0 181.40839392990165 -154.45042167429347 0 0 0 0 -386.12177131613134 259.49823581328383 0 259.49823581328383 -113.75511686597019 0 0 0 0 -503.93213239371926 151.57448059690978 0 151.57448059690978 -116.3710880985891 0 0 0 0 31.458844632063119 204.60546564185279 0 204.60546564185279 99.11413903022185 0 0 0 0 90.916845204359561 193.2096431894679 0 193.2096431894679 95.150202374497894 0 0 0 0 234.45733059824124 255.75722853692787 0 255.75722853692787 121.25296122950385 0 0 0 0 112.08238841736602 189.39778702058538 0 189.39778702058538 123.90698772610813 0 0 0 0 9.4673877558305293 9.2018175881196953 0 9.2018175881196953 -16.217842293889532 0 0 0 0 100.54361125861396 154.73932406835229 0 154.73932406835229 54.099975827673916 0 0 0 0 134.71664073268039 121.04248865508998 0 121.04248865508998 77.560046261445677 0 0 0 0 232.01703162700142 166.07700100001239 0 166.07700100001239 46.408456460660091 0 0 0 0 -48.047566458720866 41.974704921778397 0 41.974704921778397 -31.66750063136783 0 0 0 0 -160.25082572082465 79.621273836615728 0 79.621273836615728 117.04276838815713 0 0 0 0 262.6483190132858 226.8244030031201 0 226.8244030031201 74.803715267917141 0 0 0 0 -10.04598900321146 2.9475395855332067 0 2.9475395855332067 1.6048692244172003 0 0 0 0 181.44746194734762 196.49226069884025 0 196.49226069884025 131.51868010152248 0 0 0 0 430.80853314981869 314.85783608885686 0 314.85783608885686 27.188641847431427 0 0 0 0 3.4755026380765202 -2.4612588660840373 0 -2.4612588660840373 -3.669231509297731 0 0 0 0 333.27904426934037 102.36289141218003 0 102.36289141218003 84.541149746743031 0 0 0 0 100.18274140590552 106.52120854053919 0 106.52120854053919 65.00100766736432 0 0 0 0 92.556961654190673 187.16814726729353 0 187.16814726729353 118.77771182138531 0 0 0 0 -34.478486895437527 44.753202372972737 0 44.753202372972737 83.081119268124894 0 0 0 0 -138.32107263600847 118.19187857856014 0 118.19187857856014 99.022614817076828 0 0 0 0 59.341435408623511 179.67993420588027 0 179.67993420588027 -0.030571080205845647 0 0 0 0 124.65713182850595 273.20866621373716 0 273.20866621373716 137.10139130285097 0 0 0 0 167.48074960056692 112.30263095353439 0 112.30263095353439 21.535802025377052 0 0 0 0 99.600468676275341 -46.18012223795813 0 -46.18012223795813 -13.190753518407291 0 0 0 0 -82.608013162758652 27.427621624206949 0 27.427621624206949 -6.1214601273240987 0 0 0 0 116.26427909623953 144.87412087675693 0 144.87412087675693 -63.499656295054592 0 0 0 0 -148.17466652129224 163.66141971807519 0 163.66141971807519 -52.174121065763757 0 0 0 0 -138.8334938095777 206.81705434013566 0 206.81705434013566 -157.64958455460146 0 0 0 0 -5.7068358325632289 111.09773876843974 0 111.09773876843974 -100.1507808311726 0 0 0 0 -208.13790399525897 144.64971578672703 0 144.64971578672703 -83.745845660218038 0 0 0 0 -79.386981771967839 64.138728420017287 0 64.138728420017287 -72.296338360843947 0 0 0 0 -90.054367034899769 52.035604005941423 0 52.035604005941423 -85.739630028274405 0 0 0 0 -60.63372022263502 -15.463957644853508 0 -15.463957644853508 -4.9859784003792811 0 0 0 0 -32.396006530079831 40.50813566683064 0 40.50813566683064 89.673241596174194 0 0 0 0 -100.33107607054444 -76.012681826083281 0 -76.012681826083281 168.49510023416951 0 0 0 0 1.9311066936060328 3.4189510261533655 0 3.4189510261533655 -3.3164652663284073 0 0 0 0 -162.5613000299345 -2.2850644996651681 0 -2.2850644996651681 96.193823660115413 0 0 0 0 129.16248056953918 93.486477075784933 0 93.486477075784933 0.10645961291447747 0 0 0 0 -71.499522522586631 34.843796657369239 0 34.843796657369239 180.58211442589527 0 0 0 0 1.7762204228645047 3.2989257877051728 0 3.2989257877051728 -3.0913606185005449 0 0 0 0 -258.63423848349703 92.648352269054158 0 92.648352269054158 171.79793303691986 0 0 0 0 -209.49504793936285 173.54854473137675 0 173.54854473137675 202.85387420651386 0 0 0 0 -469.37920180585934 178.34782719745999 0 178.34782719745999 215.89781529185711 0 0 0 0 -438.82071779352555 168.32191291838535 0 168.32191291838535 219.18634762932197 0 0 0 0 -159.87547080120203 330.23500598725514 0 330.23500598725514 0.46598447581202046 0 0 0 0 232.20794631106764 1024.0796484736202 0 1024.0796484736202 907.29050223983359 0 0 0 0 -69.784477445376979 578.06119983800454 0 578.06119983800454 250.75163583562244 0 0 0 0 -236.16857848533618 106.8243178507837 0 106.8243178507837 130.60502593571437 0 0 0 0 -441.8604740851697 199.51403165794909 0 199.51403165794909 427.58850587735651 0 0 0 0 -407.9528568439182 211.18640314224467 0 211.18640314224467 204.63196375052212 0 0 0 0 -230.89814511332224 147.3463584553574 0 147.3463584553574 412.06808924674988 0 0 0 0 535.91018375993917 265.56863454647828 0 265.56863454647828 -462.8252748271334 0 0 0 0 1.4743281642536488 3.8117357779425447 0 3.8117357779425447 6.5135857357945497 0 0 0 0 -433.35798503224578 445.30661801196402 0 445.30661801196402 -285.29777820323943 0 0 0 0 -318.5644619952327 423.99352377169998 0 423.99352377169998 -288.77859381047892 0 0 0 0 -374.07218647568152 200.68535789792077 0 200.68535789792077 -244.64666050793335 0 0 0 0 -300.6925706707807 273.28317307864199 0 273.28317307864199 -245.48825432825834 0 0 0 0 -489.15077017660951 229.09356348484289 0 229.09356348484289 200.68381360391504 0 0 0 0 -898.05948491494746 654.95628579592449 0 654.95628579592449 -224.59540804370772 0 0 0 0 -335.68382839702366 165.34682710183461 0 165.34682710183461 172.06470107840141 0 0 0 0 3.475323635399203 12.242664527384761 0 12.242664527384761 18.235480601572704 0 0 0 0 -245.75073344119301 270.03788586397422 0 270.03788586397422 -230.2436338608386 0 0 0 0 -478.5028396755315 684.00300154273282 0 684.00300154273282 -367.3901616751682 0 0 0 0 -667.32582661611559 771.81833845055371 0 771.81833845055371 -387.1269620191888 0 0 0 0 -625.72493622543698 520.88066965149483 0 520.88066965149483 -176.94624945466057 0 0 0 0 -137.31153893849842 275.1698620764364 0 275.1698620764364 14.471106713375775 0 0 0 0 -68.806495164273656 243.42710070841713 0 243.42710070841713 -89.02902020503825 0 0 0 0 -382.19896229347069 260.54508527950384 0 260.54508527950384 17.315031737118261 0 0 0 0 -420.91804376544314 233.45593165233731 0 233.45593165233731 4.4025137338612694 0 0 0 0 -419.76936182282225 277.91892772261053 0 277.91892772261053 -27.239828038815176 0 0 0 0 -370.07416953729989 229.43881370587042 0 229.43881370587042 -64.571611435443629 0 0 0 0 -450.90401427922916 212.32249960224726 0 212.32249960224726 -180.99345248672762 0 0 0 0 -379.55754886646901 272.0464302378532 0 272.0464302378532 -166.77356629120186 0 0 0 0 2.993609266659675 3.9889576415436352 0 3.9889576415436352 -2.7777841645728927 0 0 0 0 -650.19216276130464 404.26026675154571 0 404.26026675154571 -201.57093169537256 0 0 0 0 -316.21519693698792 219.18192007573089 0 219.18192007573089 -81.547170835852739 0 0 0 0 -293.45672254800957 248.93749196619319 0 248.93749196619319 -188.37057522806572 0 0 0 0 -5.2712358986636971 3.3658318320539991 0 3.3658318320539991 14.48439335014433 0 0 0 0 -452.98428887332375 358.06035881939715 0 358.06035881939715 -151.13481276016682 0 0 0 0 -137.75227025841014 90.183272341120755 0 90.183272341120755 -76.279429966001771 0 0 0 0 -298.48705047304065 299.07569136013626 0 299.07569136013626 -240.24982455428108 0 0 0 0 -8.7081815957187541 5.4483103275931057 0 5.4483103275931057 -3.0923008498087938 0 0 0 0 -17.099122402349167 -15.448665222080308 0 -15.448665222080308 33.047045197396073 0 0 0 0 3.5879308527398646 24.831429654918239 0 24.831429654918239 8.7349195453588777 0 0 0 0 -897.55572296376158 647.84986859586206 0 647.84986859586206 -348.72415377292782 0 0 0 0 -939.91067048222976 773.9458789586788 0 773.9458789586788 -369.42620699372492 0 0 0 0 -891.55740184172919 773.71895365682576 0 773.71895365682576 -433.91208583884872 0 0 0 0 -950.62544228317665 817.05048574328248 0 817.05048574328248 -464.49119997749222 0 0 0 0 -907.24880517915153 624.05576444108738 0 624.05576444108738 -379.66269050681149 0 0 0 0 -1159.757305140196 629.64699344351538 0 629.64699344351538 -362.05065085663227 0 0 0 0 -932.28310627139581 761.72906658858119 0 761.72906658858119 -475.81830602081027 0 0 0 0 -1173.8308487475188 776.7478349347366 0 776.7478349347366 -476.74999491720155 0 0 0 0 -897.59714590085605 746.81749279934593 0 746.81749279934593 -508.1056883787096 0 0 0 0 -774.7581255792802 799.73921049829005 0 799.73921049829005 -614.17649191283272 0 0 0 0 -957.76037646241639 840.67616493178502 0 840.67616493178502 -619.97041247654124 0 0 0 0 6.7908877987548824 15.352760910066735 0 15.352760910066735 -60.391352693278748 0 0 0 0 -1407.67920139938 725.94599248925806 0 725.94599248925806 -460.36886032036273 0 0 0 0 -1489.8785191797324 781.86272981439834 0 781.86272981439834 -420.10565728781512 0 0 0 0 -1422.9699881782444 756.38343509531842 0 756.38343509531842 -369.85650453140261 0 0 0 0 54.193394900978092 87.604070605859306 0 87.604070605859306 136.70995926597971 0 0 0 0 72.63912946376513 439.00645353784057 0 439.00645353784057 -447.6527362278066 0 0 0 0 -19.228436116519198 23.079299550619368 0 23.079299550619368 82.576787721853293 0 0 0 0 -1390.8842977621425 831.08527977828635 0 831.08527977828635 -396.50632568009314 0 0 0 0 -1398.414590641205 703.0700758095918 0 703.0700758095918 -354.54961955850013 0 0 0 0 -1174.3376311032432 779.29422541444728 0 779.29422541444728 -404.82684681663522 0 0 0 0 -1420.5555638328224 615.75541845987755 0 615.75541845987755 -291.767758240283 0 0 0 0 -1018.6826154010641 566.1620951785153 0 566.1620951785153 -290.63801231769321 0 0 0 0 -1006.331791246731 359.36744500752684 0 359.36744500752684 -703.47066434414592 0 0 0 0 -931.47895971541766 696.22534462712065 0 696.22534462712065 -573.66432420250931 0 0 0 0 -892.16517615080465 595.7238377307076 0 595.7238377307076 -324.3468999639008 0 0 0 0 -1259.4091169800249 709.14345673417847 0 709.14345673417847 -358.90100205744966 0 0 0 0 -966.33891314423681 929.65383492739784 0 929.65383492739784 -281.61611999521847 0 0 0 0 -1282.5705004654901 629.56428693834096 0 629.56428693834096 349.48766406055074 0 0 0 0 -1678.9678335072444 561.90644670070651 0 561.90644670070651 614.16575820166327 0 0 0 0 -1927.4275534463932 1150.9643409635319 0 1150.9643409635319 90.006210742089024 0 0 0 0 -1323.5706481046036 1587.9501926138182 0 1587.9501926138182 -475.02452826709487 0 0 0 0 -655.93078818955746 1013.5013577907011 0 1013.5013577907011 -530.26948020310374 0 0 0 0 -791.8018641143899 1003.4318631106289 0 1003.4318631106289 -333.12899942284275 0 0 0 0 -545.42128895158203 1212.6929087720491 0 1212.6929087720491 -834.78483102899918 0 0 0 0 155.57581723708427 772.45695721328957 0 772.45695721328957 -515.59964873781973 0 0 0 0 -660.42988330773096 1094.0379740276403 0 1094.0379740276403 -317.87632431273232 0 0 0 0 -1176.1680328100367 1107.278389291263 0 1107.278389291263 0.81586326578690205 0 0 0 0 498.87291911573413 1335.2617967351862 0 1335.2617967351862 -495.62432778786751 0 0 0 0 304.82415183762976 -157.54171672865232 0 -157.54171672865232 816.10246325912885 0 0 0 0 -2941.4565568089974 863.38357602203905 0 863.38357602203905 296.20535863734403 0 0 0 0 -1653.7586010343559 1617.8268157400271 0 1617.8268157400271 -1494.340368097488 0 0 0 0 -336.67081640971446 215.19456289967638 0 215.19456289967638 -1.5290172485132838 0 0 0 0 -191.44021081193023 196.98936652833072 0 196.98936652833072 -232.29387320493697 0 0 0 0 -28.546454934916255 572.86238481287728 0 572.86238481287728 178.36861180394772 0 0 0 0 -44.672752969443707 9.7476355408243478 0 9.7476355408243478 1.72849170218824 0 0 0 0 -133.56702994989973 184.16169984710723 0 184.16169984710723 956.7339596527263 0 0 0 0 -17.994986499595271 4.9836076484152443 0 4.9836076484152443 0.53350601498799222 0 0 0 0 -497.37310870073725 -410.60038218353293 0 -410.60038218353293 1410.4915040238084 0 0 0 0 -60.715672270949973 9.7804211161163153 0 9.7804211161163153 1.4946247344662638 0 0 0 0 -69.550863707185272 25.08397443274589 0 25.08397443274589 -21.772908591374289 0 0 0 0 -79.426787088597848 35.40952177613508 0 35.40952177613508 0.22114735164455168 0 0 0 0 -12.990909530066347 255.73114054228063 0 255.73114054228063 148.65967402321985 0 0 0 0 -30.327519343415588 117.26032731292798 0 117.26032731292798 164.96546849667357 0 0 0 0 -49.109220497631213 185.99965744970541 0 185.99965744970541 367.44649999236572 0 0 0 0 43.092209799029888 228.96000448520681 0 228.96000448520681 36.609574986767257 0 0 0 0 45.182313314171097 214.66397196387697 0 214.66397196387697 128.07142929070324 0 0 0 0 105.58837262736142 309.54085366345862 0 309.54085366345862 -50.952207490074215 0 0 0 0 90.567732293773588 154.66022898812662 0 154.66022898812662 -139.10261028791138 0 0 0 0 87.865585124599647 172.61407422178672 0 172.61407422178672 -173.73981018326594 0 0 0 0 101.11034713432787 181.54793983801937 0 181.54793983801937 -91.847726699372288 0 0 0 0 -432.67962578401239 7.893303009281226 0 7.893303009281226 132.57500193569285 0 0 0 0 -218.58272853559356 510.30776367495127 0 510.30776367495127 -309.14746853045654 0 0 0 0 -96.0426440900128 252.27808751666453 0 252.27808751666453 167.49128929914878 0 0 0 0 127.36879475324622 267.13671519413947 0 267.13671519413947 -274.55989066397888 0 0 0 0 83.852915232137775 121.3607687803069 0 121.3607687803069 -268.63440588043886 0 0 0 0 56.659820905750166 116.81319960186374 0 116.81319960186374 -195.7891258462696 0 0 0 0 78.502894382097111 74.782232730911346 0 74.782232730911346 -650.15011155974207 0 0 0 0 -45.439204002977363 -72.55264765100128 0 -72.55264765100128 -315.19183089057333 0 0 0 0 -64.774236953674517 117.59588219682337 0 117.59588219682337 -1207.1869189988938 0 0 0 0 -30.798460902497027 6.4643781694758218 0 6.4643781694758218 -172.39723092437634 0 0 0 0 226.89851733623982 134.70497907102981 0 134.70497907102981 54.650778221024666 0 0 0 0 -4.0264107083889797 8.7927014313260088 0 8.7927014313260088 -10.704072327583731 0 0 0 0 336.875922429208 77.112369199421664 0 77.112369199421664 -124.69356357314973 0 0 0 0 -9.2778267079120269 30.073283285921207 0 30.073283285921207 -192.63477414888621 0 0 0 0 -28.108438957724047 -45.587711577922164 0 -45.587711577922164 -90.088533341244329 0 0 0 0 9.501696974337392 34.680049221380614 0 34.680049221380614 -25.504991231951863 0 0 0 0 -1.7198374193504762 2.7172049449241626 0 2.7172049449241626 -3.0169574734106845 0 0 0 0 -3.5188177995532897 3.3244366373401135 0 3.3244366373401135 -18.374870322993957 0 0 0 0 0.095518906726425712 0.66282557677595833 0 0.66282557677595833 -3.5695231014148021 0 0 0 0 1.804693463480362 13.882231776355184 0 13.882231776355184 -200.96203229571256 0 0 0 0 -32.695245649182652 -21.894314202887472 0 -21.894314202887472 -221.8065783202037 0 0 0 0 -3.0388631054638608 -11.183990460529458 0 -11.183990460529458 -281.81649060893687 0 0 0 0 42.061884305962849 64.16993388748233 0 64.16993388748233 -170.90861127644894 0 0 0 0 29.473460632445494 80.586610224316246 0 80.586610224316246 -192.28485259591253 0 0 0 0 107.58443477784976 109.51514967776166 0 109.51514967776166 -103.47726937633706 0 0 0 0 77.291981805565456 120.31824825773219 0 120.31824825773219 -89.499796283926116 0 0 0 0 75.897297177453993 102.553629896036 0 102.553629896036 12.203302087029442 0 0 0 0 12.766171806092643 21.330087251262739 0 21.330087251262739 -90.715081913740164 0 0 0 0 1.2876564205555088 1.1385637874688541 0 1.1385637874688541 0.98224420291324321 0 0 0 0 -24.41104991354041 -16.588007067824947 0 -16.588007067824947 -75.622602558440121 0 0 0 0 0.83361469685587508 -41.458030895024422 0 -41.458030895024422 -199.00348104359182 0 0 0 0 24.052034437387192 10.722058114413812 0 10.722058114413812 -96.349837105663028 0 0 0 0 4.4640892488878308 19.846220442770573 0 19.846220442770573 -44.496969848012668 0 0 0 0 4.7880188627979408 14.851600104492093 0 14.851600104492093 -27.790516337800682 0 0 0 0 3.3686951553408999 3.155691219127533 0 3.155691219127533 -5.5738027106473709 0 0 0 0 97.429708277757754 -34.813604190872866 0 -34.813604190872866 -47.614325232760166 0 0 0 0 -7.804255113803265 12.222347211572924 0 12.222347211572924 -5.275502846649033 0 0 0 0 14.512505535527673 2.1897454231901463 0 2.1897454231901463 -20.729891770037625 0 0 0 0 37.198511652347861 -12.705805455276277 0 -12.705805455276277 -19.517879100301798 0 0 0 0 11.005013561967644 32.748252861973015 0 32.748252861973015 78.078327815494049 0 0 0 0 50.393425014756076 140.81407557679995 0 140.81407557679995 323.54299864862696 0 0 0 0 -3.1707295019386947 57.30853350720281 0 57.30853350720281 80.718842301008408 0 0 0 0 -25.530203578847249 51.792492224878515 0 51.792492224878515 83.256395097123459 0 0 0 0 -86.365535757523503 -15.978472890670673 0 -15.978472890670673 22.515860309067648 0 0 0 0 -50.727109279407159 -49.657650840468705 0 -49.657650840468705 42.547461982677305 0 0 0 0 -24.518458656744599 -1.5181810389173052 0 -1.5181810389173052 2.0620012025246695 0 0 0 0 -188.60602607360579 -214.8923052476166 0 -214.8923052476166 201.42831714719068 0 0 0 0 -44.074924496848325 -9.1353775333845988 0 -9.1353775333845988 -11.422906282830809 0 0 0 0 -55.117784639989623 31.863249763511703 0 31.863249763511703 1.2902140976511873 0 0 0 0 7.4069612400050246 1.7354871147459789 0 1.7354871147459789 0.086256211906082569 0 0 0 0 -2.6461741108657222 8.4671480135765762 0 8.4671480135765762 20.568955834780581 0 0 0 0 -8.160267992037916 42.773599819309311 0 42.773599819309311 76.135235501640636 0 0 0 0 -13.523751412424161 3.886151064687283 0 3.886151064687283 4.5598213449540168 0 0 0 0 4.4089694060842071 3.5571440245778945 0 3.5571440245778945 -7.4620150141770694 0 0 0 0 -2.6511455454528914 1.3665200085670222 0 1.3665200085670222 -32.232912294683047 0 0 0 0 -1.5442163130064728 10.174962389399298 0 10.174962389399298 -15.690778728079749 0 0 0 0 3.9245449266745709 7.7519498161273077 0 7.7519498161273077 -6.3085301297251135 0 0 0 0 -9.4274089252758131 15.337653622555081 0 15.337653622555081 -38.300511870649643 0 0 0 0 1.1800009348123304 18.586846955348818 0 18.586846955348818 -17.922628512897944 0 0 0 0 -0.13172152638298584 13.711464310990038 0 13.711464310990038 -11.204941938070192 0 0 0 0 1.0784011872653316 12.334002406274749 0 12.334002406274749 -5.3496831782721301 0 0 0 0 364.33792978333076 -200.32908344457974 0 -200.32908344457974 -716.95751086311066 0 0 0 0 3.2306182067186455 281.2225692703214 0 281.2225692703214 15.098893672722625 0 0 0 0 409.94648346563918 587.5503005580249 0 587.5503005580249 240.5080651667522 0 0 0 0 -59.962876799909282 50.986913619977713 0 50.986913619977713 204.75784137636947 0 0 0 0 -403.48141064240917 456.41850635191076 0 456.41850635191076 599.46377387679786 0 0 0 0 -63.912041344010504 234.62100379937328 0 234.62100379937328 592.75869328132285 0 0 0 0 -67.051053384232546 1829.6677143400484 0 1829.6677143400484 -676.1816178051522 0 0 0 0 -4.4265206287348775 29.076235842813645 0 29.076235842813645 39.408356508902955 0 0 0 0 -14.03409313166776 151.49407300307212 0 151.49407300307212 165.15800437807047 0 0 0 0 -0.63140720342562417 45.338064076044247 0 45.338064076044247 -55.113250850321492 0 0 0 0 -53.353481263387948 76.694467502471525 0 76.694467502471525 121.34211169268747 0 0 0 0 93.11816839184894 20.040103930747136 0 20.040103930747136 -18.476663638677564 0 0 0 0 48.210398435503521 17.522176584650879 0 17.522176584650879 -6.365953850428923 0 0 0 0 144.22745497009009 63.681981360932696 0 63.681981360932696 0.80271338922466384 0 0 0 0 111.94854635383012 1.9620509992601001 0 1.9620509992601001 -50.228405509784352 0 0 0 0 192.58244416618572 42.973491725773783 0 42.973491725773783 -34.55870383198635 0 0 0 0 -339.07531409039439 -40.126535923802294 0 -40.126535923802294 23.518511203088565 0 0 0 0 0.65424672153451102 56.916574955002702 0 56.916574955002702 2.7524071841509112 0 0 0 0 143.25843842223128 70.746065647690557 0 70.746065647690557 -13.920206549635623 0 0 0 0 175.04933830779009 106.79719949742866 0 106.79719949742866 23.573861445649527 0 0 0 0 630.12693943141494 1055.8440052459846 0 1055.8440052459846 1978.1374418639316 0 0 0 0 2168.4490738747227 935.60491743864986 0 935.60491743864986 -1160.346817125479 0 0 0 0 198.86961005402736 -4.7045775034202961 0 -4.7045775034202961 37.159574544710267 0 0 0 0 201.35265986672584 111.3029039142275 0 111.3029039142275 -64.51611158659216 0 0 0 0 116.14712960630641 129.55977275666373 0 129.55977275666373 -57.34321069616999 0 0 0 0 147.9517012896292 113.84581285736681 0 113.84581285736681 -58.805207718192833 0 0 0 0 2.1995370988073946 59.581513111276735 0 59.581513111276735 0.90087674931277206 0 0 0 0 138.89399730698904 56.143180429455242 0 56.143180429455242 -22.801440948576783 0 0 0 0 149.3889435629774 60.268423340723757 0 60.268423340723757 -24.392780456226319 0 0 0 0 -816.4088450394338 797.27517352062569 0 797.27517352062569 1353.4274957492053 0 0 0 0 11.963023670751824 13.23820513324867 0 13.23820513324867 11.333068737533608 0 0 0 0 1022.232695598982 917.22805229915866 0 917.22805229915866 -798.12549113576824 0 0 0 0 393.41778874552983 1574.8603517284864 0 1574.8603517284864 1220.7605471617862 0 0 0 0 -227.36249047809542 750.64633586096897 0 750.64633586096897 411.23959225980798 0 0 0 0 -379.42082433390169 301.41141754345881 0 301.41141754345881 1088.2869663349411 0 0 0 0 -714.57109094074985 461.16782305946981 0 461.16782305946981 1021.4200193025754 0 0 0 0 -1013.2662224714277 119.38101091747558 0 119.38101091747558 722.7616468082997 0 0 0 0 -622.8805414216431 1476.1597926119266 0 1476.1597926119266 -745.23937573694275 0 0 0 0 754.60034925326909 -263.77929849960492 0 -263.77929849960492 -913.61938442994324 0 0 0 0 1999.7399659428047 504.75538195532135 0 504.75538195532135 -572.21512448522844 0 0 0 0 1376.6680080389233 -431.55759637450683 0 -431.55759637450683 -74.082696487217618 0 0 0 0 454.41494819460786 725.64382425555232 0 725.64382425555232 1.4990613715344807 0 0 0 0 355.03254691320035 378.63605012084736 0 378.63605012084736 -738.43452922459983 0 0 0 0 95.163496868980928 167.34592241208884 0 167.34592241208884 -39.925989117735298 0 0 0 0 80.765609682756349 151.74739641856286 0 151.74739641856286 -53.520960833620848 0 0 0 0 97.501564296722336 98.514500736666378 0 98.514500736666378 -25.088542955079902 0 0 0 0 3.8217361955462978 55.965112942973917 0 55.965112942973917 -12.44545611167041 0 0 0 0 36.481698237963997 120.91582388787356 0 120.91582388787356 -17.705185078302748 0 0 0 0 61.510226999894712 141.60504095409851 0 141.60504095409851 -0.70114905784430448 0 0 0 0 33.202281298898924 180.71362011299061 0 180.71362011299061 -42.495169311350764 0 0 0 0 -50.469249897023019 67.756874582526507 0 67.756874582526507 8.2720694820473 0 0 0 0 -66.825397702085866 91.04094623751007 0 91.04094623751007 61.970634166980744 0 0 0 0 -23.351110722191606 91.473690927719872 0 91.473690927719872 27.399289699591463 0 0 0 0 -1.7237333839578035 48.778415882518388 0 48.778415882518388 -17.597289505727758 0 0 0 0 2298.3601558986725 -107.45900125395019 0 -107.45900125395019 -264.25299052815535 0 0 0 0 -89.068304145293837 72.555974334027269 0 72.555974334027269 48.153026317610056 0 0 0 0 1595.5443722773389 938.55199548925566 0 938.55199548925566 493.61572907207301 0 0 0 0 1.8690855610716994 21.091200175905044 0 21.091200175905044 -4.5200580865748137 0 0 0 0 -18.755796548644984 1.5507278595370977 0 1.5507278595370977 0.17273944271437358 0 0 0 0 -77.07262783538016 23.489652847797743 0 23.489652847797743 4.9826901271590032 0 0 0 0 -75.963138253429449 14.892562693716201 0 14.892562693716201 2.7108287344906294 0 0 0 0 -66.708820198595276 16.815746735523135 0 16.815746735523135 2.2507858258322813 0 0 0 0 -69.309678303026885 20.167818682704819 0 20.167818682704819 -0.073520481345255975 0 0 0 0 -73.327811716168071 19.108172034320887 0 19.108172034320887 8.1233047826899565 0 0 0 0 839.79505582887941 215.50545944381156 0 215.50545944381156 120.74867695007924 0 0 0 0 -29.134842088773439 629.74425620513648 0 629.74425620513648 426.95003688716679 0 0 0 0 1579.5069102206289 727.50588485208573 0 727.50588485208573 405.94202054775087 0 0 0 0 3128.4188465572079 -638.14280205944669 0 -638.14280205944669 13.572623898857273 0 0 0 0 873.28237526504381 242.56506874936167 0 242.56506874936167 630.67385307137738 0 0 0 0 2538.7025661358457 236.87640493287108 0 236.87640493287108 -0.3164487898175139 0 0 0 0 956.19539503325359 396.74549501902584 0 396.74549501902584 305.06482227952802 0 0 0 0 -28.505845503426826 916.70336814993061 0 916.70336814993061 386.34767885792826 0 0 0 0 375.29545385331949 855.13604712340748 0 855.13604712340748 0.97348231659270823 0 0 0 0 117.82954684746437 839.0124276155293 0 839.0124276155293 427.16923900615075 0 0 0 0 -1034.8344883176906 402.65133348770905 0 402.65133348770905 265.57339244655304 0 0 0 0 -789.09322464898287 1358.5721262157531 0 1358.5721262157531 948.0753261407117 0 0 0 0 998.89833541576809 2249.839117167503 0 2249.839117167503 509.56118297402281 0 0 0 0 -62.287973396428697 1219.1237988369185 0 1219.1237988369185 -163.17863402371586 0 0 0 0 311.14076476642367 972.36180337058613 0 972.36180337058613 -0.57337478723722191 0 0 0 0 250.7825932328451 729.71293345562299 0 729.71293345562299 -716.78225517403916 0 0 0 0 114.41452556627701 824.71794815314934 0 824.71794815314934 -7.5614995516079944 0 0 0 0 564.09197722437239 667.7410144614405 0 667.7410144614405 0.59543876328098122 0 0 0 0 54.326079154678155 138.18611650796083 0 138.18611650796083 -92.284484075264118 0 0 0 0 -106.49210743634467 91.647311618085951 0 91.647311618085951 5.8000337943667546 0 0 0 0 0.69710821296893144 4.1454201787758933 0 4.1454201787758933 4.2370108234050008 0 0 0 0 325.02008781120276 538.19340367144468 0 538.19340367144468 186.22074932255782 0 0 0 0 -4.2621367416724354 17.536020478060351 0 17.536020478060351 -6.9421129026717381 0 0 0 0 -0.36827024020965382 3.9073511426204277 0 3.9073511426204277 -5.2489290308895988 0 0 0 0 1474.4830739020836 -221.55290213607077 0 -221.55290213607077 540.12383875588421 0 0 0 0 119.3483446493774 -17.853568357197219 0 -17.853568357197219 -880.67398074144512 0 0 0 0 754.46335121957236 1541.7502629525115 0 1541.7502629525115 1216.3729443175835 0 0 0 0 1611.0715271510853 1676.8222885000068 0 1676.8222885000068 -962.10940430257324 0 0 0 0 1574.8732805480968 648.52013441946383 0 648.52013441946383 -1488.7109478554194 0 0 0 0 1523.581324386003 668.38588535516465 0 668.38588535516465 191.41962671418514 0 0 0 0 1190.9624043652889 189.36955438108498 0 189.36955438108498 -437.03463434973673 0 0 0 0 -2.8382109217539035 22.529179424143393 0 22.529179424143393 35.396825976531829 0 0 0 0 2040.8098726936078 725.35642264064518 0 725.35642264064518 -775.72084995587647 0 0 0 0 1081.7782736056542 96.138494791615813 0 96.138494791615813 -1170.7669207846775 0 0 0 0 -166.45192848577426 125.70625038941216 0 125.70625038941216 -52.860036749974824 0 0 0 0 26.204234139824848 28.090184260246389 0 28.090184260246389 21.509660148435103 0 0 0 0 -840.46453855445725 1140.45116894077 0 1140.45116894077 714.96680708922213 0 0 0 0 -521.17071545774525 1430.3369134731693 0 1430.3369134731693 -1176.6755336082715 0 0 0 0 13.899878824734529 14.79082737385751 0 14.79082737385751 10.844162962481846 0 0 0 0 -1189.6620633178136 -239.67998530842306 0 -239.67998530842306 741.76058185269358 0 0 0 0 -677.20175438225851 993.60859905601683 0 993.60859905601683 1464.187180222274 0 0 0 0 -8.4960297621505561 43.028293059633597 0 43.028293059633597 0.098920897609787062 0 0 0 0 1132.6948193333228 -1454.9424054639676 0 -1454.9424054639676 -1362.8561414465366 0 0 0 0 -827.93355774711745 779.48169812679407 0 779.48169812679407 1040.1179955970729 0 0 0 0 -10.078068263690255 4.3543414660882149 0 4.3543414660882149 -4.2331706495549497 0 0 0 0 -540.07968575772247 188.1504032050434 0 188.1504032050434 1482.2823615759698 0 0 0 0 -99.461373387704953 342.72462363861268 0 342.72462363861268 506.58777742128586 0 0 0 0 -116.55444625913515 614.8836420039006 0 614.8836420039006 702.73097802657867 0 0 0 0 -528.63266819377895 432.69942627138516 0 432.69942627138516 627.69734787603375 0 0 0 0 -551.492749995552 1060.3195970410961 0 1060.3195970410961 436.26291265292093 0 0 0 0 52.949072594550671 890.94208729374805 0 890.94208729374805 -2.2993897041564559 0 0 0 0 266.70453774612542 647.66813309927966 0 647.66813309927966 261.89105107962678 0 0 0 0 321.76920816084021 690.02146460865333 0 690.02146460865333 259.02005278011256 0 0 0 0 761.21983883746361 518.51991921305216 0 518.51991921305216 122.8784135786409 0 0 0 0 -63.735881722030172 515.81727821887398 0 515.81727821887398 434.9233160969452 0 0 0 0 45.080570131409331 481.97505542023282 0 481.97505542023282 434.34925076236459 0 0 0 0 342.15437871865288 316.48245016307919 0 316.48245016307919 216.80181962018833 0 0 0 0 1.8368321200176183 23.560388716799082 0 23.560388716799082 -34.869706159985412 0 0 0 0 68.336278342496371 115.08142166839389 0 115.08142166839389 190.61976198182492 0 0 0 0 49.376821994264901 88.280895436771971 0 88.280895436771971 6.7401594922266668 0 0 0 0 -40.623849805670034 84.332469689297341 0 84.332469689297341 69.805031613723258 0 0 0 0 19.457593559171073 163.3518250775378 0 163.3518250775378 5.9514627550379373 0 0 0 0 -79.348126366676297 174.41972098351835 0 174.41972098351835 106.12786277719715 0 0 0 0 -19.863780719450119 45.996103763218827 0 45.996103763218827 -38.197812936454739 0 0 0 0 -3.7822025477362331 4.9736688239281648 0 4.9736688239281648 17.054416585189756 0 0 0 0 36.600082817727525 187.58824778030976 0 187.58824778030976 468.99771171687462 0 0 0 0 2076.2171915757353 792.65395295640337 0 792.65395295640337 42.328068545568385 0 0 0 0 -105.40304124748945 -251.92892946365464 0 -251.92892946365464 814.07049575266137 0 0 0 0 3.1972077549239515 4.9483171492575124 0 4.9483171492575124 22.25836613839175 0 0 0 0 484.28882351954235 239.3938392817945 0 239.3938392817945 92.511384951591026 0 0 0 0 -6.3477551750778574 29.266273283105491 0 29.266273283105491 59.59254493002328 0 0 0 0 273.40995804527483 358.98600661751698 0 358.98600661751698 146.57016112405108 0 0 0 0 141.69161002572218 271.999565573773 0 271.999565573773 167.64825764541456 0 0 0 0 425.09393243119848 259.7650756268049 0 259.7650756268049 167.1677875383466 0 0 0 0 103.31552018898219 669.79055965122825 0 669.79055965122825 413.43956558592618 0 0 0 0 81.745038294175174 285.8431163426103 0 285.8431163426103 -1109.4599120832281 0 0 0 0 52.252504179290554 256.63389418792576 0 256.63389418792576 -615.39868132234551 0 0 0 0 -12.966412926237723 7.8589237990386778 0 7.8589237990386778 -6.5078908907013044 0 0 0 0 184.135856642215 307.09622077172571 0 307.09622077172571 158.25419365530252 0 0 0 0 85.766554187124711 277.58911016155616 0 277.58911016155616 281.03060269872367 0 0 0 0 -5.4757269284687524 24.771304592142215 0 24.771304592142215 27.867056524140821 0 0 0 0 -60.89399615428556 130.56013123631419 0 130.56013123631419 -19.854107961931732 0 0 0 0 -27.815918967219176 31.845298358786778 0 31.845298358786778 -7.9144565465826417 0 0 0 0 206.86266258469004 217.78485692142021 0 217.78485692142021 112.07060410466511 0 0 0 0 -85.115824475535192 81.322958257522259 0 81.322958257522259 -41.179244719765848 0 0 0 0 418.43337566313858 -60.888780043482257 0 -60.888780043482257 -202.76703983548214 0 0 0 0 63.954069025021454 16.839496154236258 0 16.839496154236258 74.764918449611287 0 0 0 0 3.6629594799094889 9.0354058544596185 0 9.0354058544596185 18.346259420066644 0 0 0 0 56.968738973402651 185.74694418744184 0 185.74694418744184 -56.630487478949362 0 0 0 0 165.8942449047845 67.154646071106981 0 67.154646071106981 10.45076090405928 0 0 0 0 -379.29398220310759 157.14045119348157 0 157.14045119348157 59.750360230289516 0 0 0 0 -107.35096531792806 29.695318994708941 0 29.695318994708941 9.4951113342062854 0 0 0 0 -1.4879733737698508 16.855425648731398 0 16.855425648731398 41.516791603354079 0 0 0 0 -50.718716700204823 274.18562718225439 0 274.18562718225439 -263.80475382544682 0 0 0 0 0.40470891434148371 11.575493442587089 0 11.575493442587089 20.491330408140868 0 0 0 0 -1111.8086151645221 323.61638617119661 0 323.61638617119661 859.1677069136349 0 0 0 0 38.620402988737624 -160.81112653461605 0 -160.81112653461605 -227.13854900277147 0 0 0 0 492.61223882442573 1538.5898321915447 0 1538.5898321915447 1624.0153852667136 0 0 0 0 1145.8264308415746 364.75533026046469 0 364.75533026046469 258.52775759453652 0 0 0 0 -895.91204266207933 574.55401552058902 0 574.55401552058902 206.09226175199728 0 0 0 0 1.799694413499207 5.3380921520207352 0 5.3380921520207352 5.3751799857723199 0 0 0 0 421.44573710746772 793.73410788898764 0 793.73410788898764 763.57648243749281 0 0 0 0 -557.67428822054353 839.53122075795545 0 839.53122075795545 404.54089609565563 0 0 0 0 77.584199262271795 -14.022380038650226 0 -14.022380038650226 158.96534334062017 0 0 0 0 -378.84509274880111 313.82430329552153 0 313.82430329552153 -212.52680477595823 0 0 0 0 -218.14346698229929 237.64899625492217 0 237.64899625492217 -224.74495855091664 0 0 0 0 -716.57537439102452 346.79162770522089 0 346.79162770522089 -12.894840960681904 0 0 0 0 -392.01962043855747 486.73916838936566 0 486.73916838936566 39.541057584574446 0 0 0 0 -531.34255280680372 628.23999126217677 0 628.23999126217677 -89.969692425103858 0 0 0 0 -160.30549951331341 390.49101880806847 0 390.49101880806847 -132.07245747890596 0 0 0 0 -381.70308697570363 507.794548319358 0 507.794548319358 -132.59640289380332 0 0 0 0 -186.68755484985013 491.3265869363604 0 491.3265869363604 -139.34541664860444 0 0 0 0 -208.16659825654642 390.24769844350521 0 390.24769844350521 -146.01877934605 0 0 0 0 -104.55520700760826 438.83795582565654 0 438.83795582565654 -127.19087995326845 0 0 0 0 -180.97927939089277 447.05012094569247 0 447.05012094569247 -46.153865055093775 0 0 0 0 -13.74831906799227 298.28280103944417 0 298.28280103944417 -123.72787542326114 0 0 0 0 147.16377544609713 218.29726596226101 0 218.29726596226101 -33.395057360823557 0 0 0 0 6.407543814231758 327.73781157984922 0 327.73781157984922 -38.407608073641313 0 0 0 0 -139.48255341222648 341.68126099483379 0 341.68126099483379 70.470135494659189 0 0 0 0 -316.57644217499546 470.45261844765628 0 470.45261844765628 21.025179716583807 0 0 0 0 -193.00639912846964 610.58190607401048 0 610.58190607401048 -342.11865407579171 0 0 0 0 -181.25856486669181 464.38123289583564 0 464.38123289583564 -81.937111955921864 0 0 0 0 392.76660651234852 -786.96449400116398 0 -786.96449400116398 1538.8033964182978 0 0 0 0 -17.617410249702516 675.95463168623974 0 675.95463168623974 2562.4793913154717 0 0 0 0 -17.262241015701875 -247.10116323950206 0 -247.10116323950206 847.68982520780992 0 0 0 0 -821.91518675695988 91.679373280348955 0 91.679373280348955 1458.7860844677125 0 0 0 0 -230.76360092191317 -231.80799993731489 0 -231.80799993731489 1297.6877224995551 0 0 0 0 -176.47646516605164 86.618695076751465 0 86.618695076751465 559.12610666469845 0 0 0 0 864.00571392126585 622.9827141894857 0 622.9827141894857 943.01597447894164 0 0 0 0 521.46742136983448 1118.5803195782573 0 1118.5803195782573 1114.5280306300847 0 0 0 0 1476.9320645924527 1885.7943636801938 0 1885.7943636801938 3480.3894773159845 0 0 0 0 1939.1357613353266 739.86964099932811 0 739.86964099932811 359.06915707371081 0 0 0 0 4637.3813639457658 758.87823892108281 0 758.87823892108281 -102.33209749541129 0 0 0 0 483.94375550903669 85.863417168075102 0 85.863417168075102 1569.9476084586931 0 0 0 0 2533.0949145014747 98.408422364140279 0 98.408422364140279 -777.37655399713549 0 0 0 0 1880.4170737828099 -429.59700294572394 0 -429.59700294572394 519.24479510873789 0 0 0 0 1890.1990387515943 -604.84086574032881 0 -604.84086574032881 3391.3374352274695 0 0 0 0 323.0800349736819 -547.35259182809386 0 -547.35259182809386 3876.8280518451829 0 0 0 0 3616.7712663400998 3597.2213594909554 0 3597.2213594909554 441.81445330544375 0 0 0 0 9.5235587991899706 13.07038105586031 0 13.07038105586031 14.475273361575262 0 0 0 0 1208.4705843407573 916.89107845103717 0 916.89107845103717 747.92193511893856 0 0 0 0 2131.269128087748 620.9187450757745 0 620.9187450757745 -568.10935331185465 0 0 0 0 18.951549552933074 11.729307357941593 0 11.729307357941593 4.0400654234270519 0 0 0 0 2721.097391992118 1378.9533719492956 0 1378.9533719492956 -49.445958457974484 0 0 0 0 2747.8881042596527 1952.8313383049676 0 1952.8313383049676 467.74992094084155 0 0 0 0 2132.702635305177 1285.4602830996155 0 1285.4602830996155 63.234463110944489 0 0 0 0 2940.2175521592217 1490.8239883371862 0 1490.8239883371862 26.775718897639308 0 0 0 0 3418.7954939955325 2054.0292798067476 0 2054.0292798067476 207.77443070869776 0 0 0 0 2515.0323742109322 1223.7709631721664 0 1223.7709631721664 -137.44406196813361 0 0 0 0 2621.278553627475 1804.3516388386197 0 1804.3516388386197 1010.3555379559402 0 0 0 0 1468.4194898530695 578.42970136240911 0 578.42970136240911 210.95673595232802 0 0 0 0 1860.720250567836 1541.8104013560151 0 1541.8104013560151 1967.174794101993 0 0 0 0 2563.8619547468152 1917.5001872716493 0 1917.5001872716493 933.24472394486656 0 0 0 0 1287.884404792625 582.22183248633519 0 582.22183248633519 289.01580417493824 0 0 0 0 2190.5475614792958 701.04035625491815 0 701.04035625491815 -633.26540542439034 0 0 0 0 820.68021405550826 -65.207400572588085 0 -65.207400572588085 -96.307609360024799 0 0 0 0 -557.79783414268604 -236.71624117840111 0 -236.71624117840111 323.69661925152468 0 0 0 0 775.39104939768004 -492.01094067879239 0 -492.01094067879239 -708.51907322055195 0 0 0 0 468.4452584913106 3027.8479177887421 0 3027.8479177887421 -273.39625227346551 0 0 0 0 -1682.8236405594507 -1277.8093405306572 0 -1277.8093405306572 -2317.4500780137605 0 0 0 0 -81.253856568815536 -208.83527868556848 0 -208.83527868556848 843.79171494378988 0 0 0 0 11.823208601928528 31.327515814854593 0 31.327515814854593 34.949434007248215 0 0 0 0 -489.06043941900134 126.4173820757278 0 126.4173820757278 810.45386332983617 0 0 0 0 -1.1490200701300637 -131.02097912627505 0 -131.02097912627505 670.20658932642255 0 0 0 0 47.476690242897604 39.016497708303753 0 39.016497708303753 33.94611912512886 0 0 0 0 -584.93720163117541 661.73675297238515 0 661.73675297238515 -172.74960627572727 0 0 0 0 -955.32231259228138 -755.51898219453869 0 -755.51898219453869 -1251.4788227237259 0 0 0 0 -145.48956351091329 32.598575746822462 0 32.598575746822462 35.26680908454 0 0 0 0 -337.98789075243985 130.49705320215435 0 130.49705320215435 131.77905141051451 0 0 0 0 -158.64963878277922 95.929138888641319 0 95.929138888641319 137.2471570858761 0 0 0 0 -107.69222516540685 107.36540735115796 0 107.36540735115796 65.625019905855879 0 0 0 0 -122.73261517672654 38.590802543212703 0 38.590802543212703 188.94841200980591 0 0 0 0 235.2106546433788 -148.79136133097927 0 -148.79136133097927 174.88810546819877 0 0 0 0 10.199787568249121 57.231189785935385 0 57.231189785935385 226.31867287357454 0 0 0 0 17.705707729852293 98.69905142555217 0 98.69905142555217 42.351996617435361 0 0 0 0 493.86781282270385 -160.36212230970705 0 -160.36212230970705 136.58201895278398 0 0 0 0 403.99612376536243 334.7416563320221 0 334.7416563320221 240.01830918798805 0 0 0 0 498.66379684420826 7.8837788295422797 0 7.8837788295422797 522.06938820485993 0 0 0 0 1400.2215149985932 631.91030715756642 0 631.91030715756642 349.86186473882117 0 0 0 0 1810.5654350805053 406.40536148514366 0 406.40536148514366 523.62943004808039 0 0 0 0 1161.711991927179 709.74222340581764 0 709.74222340581764 469.61440974178549 0 0 0 0 868.95963280327123 562.6317285503028 0 562.6317285503028 576.6726033584855 0 0 0 0 937.81446293695899 19.917079571938302 0 19.917079571938302 77.207319769600872 0 0 0 0 434.60522223926091 78.283990118899965 0 78.283990118899965 130.92474449829388 0 0 0 0 499.2628940372615 -82.812642253338709 0 -82.812642253338709 -50.862638094447902 0 0 0 0 618.9844208117247 155.15823593747155 0 155.15823593747155 -350.84259494011349 0 0 0 0 147.84246144370991 112.25083822434681 0 112.25083822434681 292.69632177701169 0 0 0 0 288.55563392769909 289.10934130875467 0 289.10934130875467 -321.6285434080055 0 0 0 0 -107.9963921694216 84.857015707224491 0 84.857015707224491 -249.24865674300963 0 0 0 0 390.67852692346423 121.9338465426772 0 121.9338465426772 -175.75156220362987 0 0 0 0 504.85866809992876 143.99019640868937 0 143.99019640868937 -348.88003858829325 0 0 0 0 640.35577776691935 387.76220558596106 0 387.76220558596106 -316.5892894871231 0 0 0 0 200.36929743841029 48.468257342465222 0 48.468257342465222 49.062966242738185 0 0 0 0 274.79994797838299 194.14328960749845 0 194.14328960749845 -55.767245419465326 0 0 0 0 -79.665262969290779 82.081221222619206 0 82.081221222619206 119.5202019191056 0 0 0 0 8.1354047659551725 152.40820112683286 0 152.40820112683286 66.367803688403001 0 0 0 0 -2.5375912338795388 55.440490297964971 0 55.440490297964971 75.976978800477809 0 0 0 0 -14.432679298713992 98.494048514627139 0 98.494048514627139 83.90614398708567 0 0 0 0 105.35052376128442 31.443051911177463 0 31.443051911177463 75.437803319735394 0 0 0 0 -254.1897046045633 55.337893684110895 0 55.337893684110895 195.16858564548602 0 0 0 0 -79.641579632327193 -2.0593087019369705 0 -2.0593087019369705 39.289215955504915 0 0 0 0 129.36833149791346 136.99093403319421 0 136.99093403319421 91.355559267445642 0 0 0 0 139.4989114962882 93.086425913521452 0 93.086425913521452 134.13965736271348 0 0 0 0 187.64779450307105 144.58218055947509 0 144.58218055947509 120.85494231109624 0 0 0 0 -32.818398608571442 291.51700698495551 0 291.51700698495551 27.86652967298869 0 0 0 0 182.15553561527122 110.39280203031376 0 110.39280203031376 -62.89534679974895 0 0 0 0 22.344790551069309 207.44963385612937 0 207.44963385612937 15.043703254516004 0 0 0 0 3.2040147498883016 143.38377082781517 0 143.38377082781517 -194.9577628163097 0 0 0 0 -29.257641206728294 181.74890409513318 0 181.74890409513318 -238.16558319446631 0 0 0 0 -136.91234860352415 402.09621588957089 0 402.09621588957089 -174.33113353818771 0 0 0 0 -246.89893773117365 555.4037830887537 0 555.4037830887537 -368.15643616928719 0 0 0 0 -94.144476888133795 527.95600119417941 0 527.95600119417941 -378.35330437174707 0 0 0 0 -86.379810617305338 -63.040749515697826 0 -63.040749515697826 -321.42224914772669 0 0 0 0 -14.192745569336694 206.68719462241279 0 206.68719462241279 -698.63779931500903 0 0 0 0 -234.20373071434733 -97.628266368563345 0 -97.628266368563345 98.866983244617586 0 0 0 0 3309.1297063368202 737.17963947372664 0 737.17963947372664 2975.5926033419091 0 0 0 0 1.3356692556227188 13.292269336595552 0 13.292269336595552 -27.740524317639597 0 0 0 0 -91.730260492025991 9.7729116861519287 0 9.7729116861519287 67.60184782705619 0 0 0 0 -120.66722174931783 -93.969996962958248 0 -93.969996962958248 -60.859029345672752 0 0 0 0 2317.2094360388128 3665.6648749392261 0 3665.6648749392261 2447.3428516778222 0 0 0 0 781.3227506455878 2356.2102223839611 0 2356.2102223839611 1868.5024765025819 0 0 0 0 229.6786869969801 1691.6181818958794 0 1691.6181818958794 1216.0798255892005 0 0 0 0 1016.5732077305292 2185.6666823993728 0 2185.6666823993728 1419.7622568999941 0 0 0 0 727.50398422204307 2491.1716793624946 0 2491.1716793624946 1633.4252971205424 0 0 0 0 1.8213207612515703 5.1868517132915315 0 5.1868517132915315 -7.7364537777258136 0 0 0 0 1609.8068055528565 2918.9012722315529 0 2918.9012722315529 1311.7525925377049 0 0 0 0 -26.887593341685715 -71.729430321545806 0 -71.729430321545806 -1025.8466010182747 0 0 0 0 -160.72183023413527 1495.2909842769441 0 1495.2909842769441 3.5183263155631721 0 0 0 0 -134.50203713894007 679.93316715204855 0 679.93316715204855 -863.76268039614661 0 0 0 0 374.27943516906817 878.3808899964497 0 878.3808899964497 -1649.7473563756794 0 0 0 0 340.20348146048491 1743.3416389834601 0 1743.3416389834601 -889.64793977659428 0 0 0 0 539.81160585877842 690.32697781783281 0 690.32697781783281 607.61892615823308 0 0 0 0 1486.4159179080525 1885.8851121182597 0 1885.8851121182597 226.83863245387329 0 0 0 0 1807.6954510061005 2293.3429798622965 0 2293.3429798622965 734.36274065426551 0 0 0 0 2300.9261603220366 1595.0041576196854 0 1595.0041576196854 410.84565655514598 0 0 0 0 1375.5221966953395 1796.414994742343 0 1796.414994742343 824.6742438950605 0 0 0 0 1198.7602951172739 1347.6803185782628 0 1347.6803185782628 597.18214370529677 0 0 0 0 695.90785466854868 1111.7695480053808 0 1111.7695480053808 695.14151672164007 0 0 0 0 878.51432271663361 1361.866684380213 0 1361.866684380213 908.49662982315931 0 0 0 0 725.14298520192096 1532.4920616299933 0 1532.4920616299933 721.98161780655209 0 0 0 0 459.58619622136757 1095.7908659037021 0 1095.7908659037021 747.90379987491178 0 0 0 0 -390.79586536521674 -181.75032042111707 0 -181.75032042111707 -304.81870314280968 0 0 0 0 349.75519335446006 831.7156178520745 0 831.7156178520745 977.24629039664069 0 0 0 0 -254.85802433159552 901.91501226833498 0 901.91501226833498 -850.70701098375321 0 0 0 0 20.622547904311375 24.795294852308096 0 24.795294852308096 22.387550994637706 0 0 0 0 -1055.53484463528 -184.15232565650149 0 -184.15232565650149 895.27880735438521 0 0 0 0 14.421850589962389 14.72314073287842 0 14.72314073287842 10.318948535954121 0 0 0 0 -954.2077293841503 1036.2906549136533 0 1036.2906549136533 1762.031119050394 0 0 0 0 -441.14005547953275 1950.0957985244095 0 1950.0957985244095 2329.7663646288765 0 0 0 0 3084.11608935603 2287.0991822290453 0 2287.0991822290453 -364.05370188657253 0 0 0 0 2986.9649116509654 2928.1168959289853 0 2928.1168959289853 247.44723488519958 0 0 0 0 2975.6135198138581 2827.3066504982489 0 2827.3066504982489 113.09152938300394 0 0 0 0 1747.5400067137525 273.22081921291101 0 273.22081921291101 -1266.0719294701958 0 0 0 0 3995.0170589238187 686.37551335429453 0 686.37551335429453 196.41277250955318 0 0 0 0 2054.0234343667453 1703.7477911717342 0 1703.7477911717342 2483.7897865159175 0 0 0 0 2376.8682687121172 -124.42577763863028 0 -124.42577763863028 -48.219312886780244 0 0 0 0 2026.6680463551493 2498.9548979664323 0 2498.9548979664323 2830.1837780560163 0 0 0 0 19.559027933561879 7.2994971523320942 0 7.2994971523320942 -9.5891168877334287 0 0 0 0 3.2001050367216806 39.062695158012758 0 39.062695158012758 -41.089930303475853 0 0 0 0 -344.56548220726836 -413.90059475153976 0 -413.90059475153976 50.044854551742901 0 0 0 0 61.849307658652833 258.2451626464026 0 258.2451626464026 91.936988536792342 0 0 0 0 276.13432180811651 -121.84758793309447 0 -121.84758793309447 -194.19815414427285 0 0 0 0 1076.923219203175 1032.4947458250867 0 1032.4947458250867 985.23947692194633 0 0 0 0 1918.0959015547232 1370.3613813131315 0 1370.3613813131315 805.71490350515523 0 0 0 0 1686.5500067403918 534.95404623820741 0 534.95404623820741 428.41197704750812 0 0 0 0 1317.6838573722266 146.01183373825779 0 146.01183373825779 102.20660824241349 0 0 0 0 1265.232463409302 606.74316675109731 0 606.74316675109731 652.50450459650165 0 0 0 0 942.37547080253717 437.19990797121136 0 437.19990797121136 719.69466247114178 0 0 0 0 740.87347427292889 87.23142084906965 0 87.23142084906965 664.90999210558948 0 0 0 0 747.19068564671761 421.65391950726189 0 421.65391950726189 770.2670605608364 0 0 0 0 -102.07282225685776 132.51477286547743 0 132.51477286547743 898.36698443725254 0 0 0 0 -372.79170153250743 163.96071565999409 0 163.96071565999409 935.57291270793939 0 0 0 0 -118.54144134299713 77.313521078947815 0 77.313521078947815 920.53361595798197 0 0 0 0 -1026.514197586715 1298.8906405522646 0 1298.8906405522646 -266.62783843123179 0 0 0 0 -119.05731527579337 -315.85268087886652 0 -315.85268087886652 505.8852712555381 0 0 0 0 -613.27293232815282 -252.26592722765781 0 -252.26592722765781 249.57464870669901 0 0 0 0 -787.51033428376741 382.68758262105803 0 382.68758262105803 1367.9866356985294 0 0 0 0 -300.52022106160894 123.07852367874966 0 123.07852367874966 965.2412265153107 0 0 0 0 -365.9682330777996 422.22308020510445 0 422.22308020510445 768.78445258551801 0 0 0 0 608.00035815326555 -36.169197677390912 0 -36.169197677390912 -627.03999167368602 0 0 0 0 -8.7244166814531354 5.4948227261014893 0 5.4948227261014893 0.11775871500584145 0 0 0 0 108.94429903932178 291.33767921583058 0 291.33767921583058 480.56057456017152 0 0 0 0 67.387077164104994 21.882433674614731 0 21.882433674614731 21.725783118861727 0 0 0 0 -64.603273883461952 186.55541348817496 0 186.55541348817496 920.56913074041222 0 0 0 0 174.90904669698648 59.900934216639143 0 59.900934216639143 867.94045948144776 0 0 0 0 296.44162031829001 368.96800424134562 0 368.96800424134562 1011.721135182539 0 0 0 0 559.24312973326596 612.01185653865105 0 612.01185653865105 1224.6530723368578 0 0 0 0 -2.4391046366801561 2.9756443758583657 0 2.9756443758583657 0.42043566739093308 0 0 0 0 -32.708358558134933 176.45666876068208 0 176.45666876068208 168.74421794854607 0 0 0 0 345.05591567505326 901.03512606582262 0 901.03512606582262 961.95456935817492 0 0 0 0 -179.84189789645097 247.36182424468825 0 247.36182424468825 332.23557704279665 0 0 0 0 -463.21219350441243 143.7115082359087 0 143.7115082359087 486.9154822218552 0 0 0 0 -107.20506771135842 293.60495099908439 0 293.60495099908439 357.9707353496342 0 0 0 0 -172.62757614481961 13.760160189296585 0 13.760160189296585 238.09635622776113 0 0 0 0 -133.71802060613118 18.477221317913063 0 18.477221317913063 90.596087678859476 0 0 0 0 -105.64191884803586 107.70884998438123 0 107.70884998438123 176.31434708536108 0 0 0 0 13.146290534408763 161.08493768273183 0 161.08493768273183 67.640243479037963 0 0 0 0 -122.85280435043569 119.36887930244848 0 119.36887930244848 205.00415957938822 0 0 0 0 114.80186742899241 350.08881728521192 0 350.08881728521192 226.367736863147 0 0 0 0 238.8622612580366 298.73161804187839 0 298.73161804187839 -37.021112375649864 0 0 0 0 320.3183140113324 442.76824630689953 0 442.76824630689953 -82.49931237490091 0 0 0 0 821.35363969277387 517.65798620395071 0 517.65798620395071 -483.8292684558869 0 0 0 0 379.47910877439426 45.799857312922541 0 45.799857312922541 -537.56926143850433 0 0 0 0 -11.699007283008541 901.54721069382504 0 901.54721069382504 1315.1194880856719 0 0 0 0 9.6555588773802583 10.440861828116716 0 10.440861828116716 9.1844759119239257 0 0 0 0 -240.05105210961483 477.25511467662 0 477.25511467662 1219.1854091181594 0 0 0 0 665.93923136338162 991.0112106713932 0 991.0112106713932 395.07884219371772 0 0 0 0 -3.3312044182048623 -1.9107946770798492 0 -1.9107946770798492 0.89299204201771687 0 0 0 0 -478.4494031723807 -87.265265119858668 0 -87.265265119858668 498.72827750186116 0 0 0 0 176.9208734231579 -87.993218214069202 0 -87.993218214069202 -285.66610661278537 0 0 0 0 150.01650169883214 -633.57760360024258 0 -633.57760360024258 764.82966630872761 0 0 0 0 -8.8606781723002825 3.1219964600381616 0 3.1219964600381616 0.38738771387598803 0 0 0 0 415.08288714847731 515.23450054932619 0 515.23450054932619 23.109150468815642 0 0 0 0 786.79904589668877 985.654649306598 0 985.654649306598 422.45270924163924 0 0 0 0 -88.191673266846919 90.738264078892826 0 90.738264078892826 -127.02455094534162 0 0 0 0 -12.721798335456697 1.2777003112808814 0 1.2777003112808814 -0.09094231081461146 0 0 0 0 680.58736441075598 -89.552958384498197 0 -89.552958384498197 -407.77861174084683 0 0 0 0 -1271.7849322375987 -172.41565734038886 0 -172.41565734038886 1100.4737070204574 0 0 0 0 -24.040643701014233 7.591185121153103 0 7.591185121153103 -22.74256003118353 0 0 0 0 -18.277441745522083 41.065832965330628 0 41.065832965330628 56.909518052532803 0 0 0 0 -10.039711654193525 23.493985924920707 0 23.493985924920707 35.828236677203677 0 0 0 0 -42.810369895918143 1.3563319808184247 0 1.3563319808184247 -2.4755682065851801 0 0 0 0 -43.569022060430143 21.037447704424267 0 21.037447704424267 68.506780122203054 0 0 0 0 -102.86167176257004 -42.734100166977441 0 -42.734100166977441 71.322021330743155 0 0 0 0 -69.089450535102515 -63.470417543874646 0 -63.470417543874646 19.083548362192232 0 0 0 0 -324.96664295531809 -121.3369792788526 0 -121.3369792788526 118.6868354909966 0 0 0 0 -59.60331741203845 33.559444029444421 0 33.559444029444421 92.730888354788476 0 0 0 0 -52.418377761539887 63.120212928530236 0 63.120212928530236 119.04410059525981 0 0 0 0 -63.538764682263718 52.546404464223087 0 52.546404464223087 111.24604434646608 0 0 0 0 -49.543504811839583 34.365181554303142 0 34.365181554303142 112.37677591451779 0 0 0 0 -52.962708603779902 60.913310461306537 0 60.913310461306537 117.69764915509586 0 0 0 0 -50.901759140586364 59.723475235678052 0 59.723475235678052 117.63179859021329 0 0 0 0 -63.190103855074994 40.60254856805841 0 40.60254856805841 144.47639597442321 0 0 0 0 -54.638043762989355 62.381120325275788 0 62.381120325275788 124.82157595374156 0 0 0 0 -55.6789585682709 59.012319695335464 0 59.012319695335464 124.78406488386099 0 0 0 0 -60.177515956151183 47.953013435180765 0 47.953013435180765 102.71126025851117 0 0 0 0 -17.583406996505801 52.95967131658108 0 52.95967131658108 41.346567476779455 0 0 0 0 -54.104945437773239 43.039605088430363 0 43.039605088430363 88.281644244112883 0 0 0 0 -20.081872797754787 62.93260805806068 0 62.93260805806068 112.32749863679774 0 0 0 0 39.082880673289765 90.578592884237878 0 90.578592884237878 100.00988402962685 0 0 0 0 14.822246994506571 78.259010500347102 0 78.259010500347102 67.100189831960918 0 0 0 0 -26.860778679256896 52.966192025514161 0 52.966192025514161 45.184517932132792 0 0 0 0 18.680162993499835 73.706414179847343 0 73.706414179847343 134.57860479968076 0 0 0 0 -56.750618772126046 177.48358308892966 0 177.48358308892966 173.83943650877336 0 0 0 0 -15.20995432992653 51.450401419077849 0 51.450401419077849 0.3705054887186634 0 0 0 0 23.408536201668085 156.37106607593887 0 156.37106607593887 250.19840394789935 0 0 0 0 -55.418243277352502 20.730629779119624 0 20.730629779119624 42.784520144779833 0 0 0 0 -34.371702998982073 61.871503481845139 0 61.871503481845139 140.67514617800771 0 0 0 0 -76.903865529333416 110.51287259774108 0 110.51287259774108 89.244729934031056 0 0 0 0 -121.5372315437271 54.676681527158507 0 54.676681527158507 124.96545791559765 0 0 0 0 -72.078704079621247 19.7059892130208 0 19.7059892130208 22.018035017644664 0 0 0 0 -185.08325612853514 35.210123848086369 0 35.210123848086369 129.29149862361737 0 0 0 0 9.206296078176166 35.540270414017726 0 35.540270414017726 10.281377838058198 0 0 0 0 -140.99404159779806 14.974619751579667 0 14.974619751579667 118.04605485677894 0 0 0 0 -16.766278376194073 84.731742580582861 0 84.731742580582861 98.262483411428093 0 0 0 0 -116.88617242043529 119.23984428305448 0 119.23984428305448 122.02811033462058 0 0 0 0 -12.471364950952193 140.32007281934057 0 140.32007281934057 -8.8361268405278679 0 0 0 0 -16.764518729388385 83.144060100942568 0 83.144060100942568 77.049328676993582 0 0 0 0 -406.87299145361976 222.56440185440442 0 222.56440185440442 296.14430556677689 0 0 0 0 -35.171287665401906 64.496814213991456 0 64.496814213991456 -11.582518069713615 0 0 0 0 -203.79873771854182 81.134175141145533 0 81.134175141145533 126.55509241642721 0 0 0 0 -110.02939914642957 100.90303976449923 0 100.90303976449923 77.542204571058392 0 0 0 0 -43.170825022441022 24.511823296386865 0 24.511823296386865 75.050754828640493 0 0 0 0 -32.06425409764654 19.703513555608367 0 19.703513555608367 39.121650806540742 0 0 0 0 -149.36443548108764 83.329364379795152 0 83.329364379795152 240.44833931791072 0 0 0 0 -33.358182636487072 109.384113351216 0 109.384113351216 128.70402097926126 0 0 0 0 -2.5642566974682808 46.448336062570746 0 46.448336062570746 67.581452832495586 0 0 0 0 12.118791765089554 99.567113016331859 0 99.567113016331859 -56.458904089980933 0 0 0 0 0.57123931493202917 3.8110805235510838 0 3.8110805235510838 8.1192014142043121 0 0 0 0 -3.5788488454418257 46.727076704366482 0 46.727076704366482 25.243036833184306 0 0 0 0 54.37442442581596 128.13048336375505 0 128.13048336375505 50.423461227037478 0 0 0 0 -16.818152121228195 96.333615444233146 0 96.333615444233146 116.23410389135825 0 0 0 0 -49.564922203249665 95.757339842412648 0 95.757339842412648 83.216464796831133 0 0 0 0 -69.825206774233834 56.966852975832822 0 56.966852975832822 28.16231753018522 0 0 0 0 33.193240783162764 190.92028310496244 0 190.92028310496244 131.60372515095605 0 0 0 0 -14.608553403704718 119.23571677598738 0 119.23571677598738 156.77232950953476 0 0 0 0 -15.847372634252679 87.629110416484764 0 87.629110416484764 79.89779832215936 0 0 0 0 5.737910376939908 100.55614934535697 0 100.55614934535697 138.50316867546644 0 0 0 0 52.63350968760642 192.91041485709138 0 192.91041485709138 139.60384630542467 0 0 0 0 -68.050362278627446 23.650649750755576 0 23.650649750755576 7.3050995135456276 0 0 0 0 -3.5401380920011434 177.52185953179651 0 177.52185953179651 249.93008078887942 0 0 0 0 7.5498857220809441 171.61627918041631 0 171.61627918041631 222.47788777971437 0 0 0 0 -37.904490503787159 37.970129783147001 0 37.970129783147001 -23.292342318187934 0 0 0 0 39.517853295692476 198.15750080838916 0 198.15750080838916 309.18936228627717 0 0 0 0 108.74400508857798 151.54258811190812 0 151.54258811190812 313.67039553616996 0 0 0 0 -2.8079454906255705 186.66484028518607 0 186.66484028518607 334.22493688302347 0 0 0 0 7.6844773818374961 228.96148826318677 0 228.96148826318677 358.35668841351435 0 0 0 0 2.869916225559038 30.032793933913638 0 30.032793933913638 12.816282529450746 0 0 0 0 145.65842117710417 -22.787984564565704 0 -22.787984564565704 473.31379177019699 0 0 0 0 -349.35644111254442 -596.7032931453723 0 -596.7032931453723 1363.9076221619907 0 0 0 0 -42.136013789247954 42.446837275361759 0 42.446837275361759 197.42531751871866 0 0 0 0 -63.969991480176404 72.556115200031059 0 72.556115200031059 -15.897803205185483 0 0 0 0 -291.83845168952121 77.101097747845415 0 77.101097747845415 404.09563530804007 0 0 0 0 -30.031774716258951 115.82619331519709 0 115.82619331519709 71.680468568956712 0 0 0 0 -46.648569679983353 55.399093372660332 0 55.399093372660332 1.5193150897435572 0 0 0 0 -1149.8153499203472 -319.4084286459547 0 -319.4084286459547 214.65893397812033 0 0 0 0 1348.0549796285256 713.10401477159166 0 713.10401477159166 -897.38654754363233 0 0 0 0 -15.878781465240579 19.11500031301378 0 19.11500031301378 -12.692591826525984 0 0 0 0 1422.7237822287134 -959.66477212606696 0 -959.66477212606696 -3942.0729901123559 0 0 0 0 84.940929942982621 335.72934884950519 0 335.72934884950519 69.172726550852531 0 0 0 0 -864.34786338590493 44.057032829172385 0 44.057032829172385 -14.304270369873848 0 0 0 0 -220.09491511711531 311.13431156544539 0 311.13431156544539 -43.75327632817789 0 0 0 0 -457.5814066969906 318.70765995421971 0 318.70765995421971 259.41533545279526 0 0 0 0 -1229.9879719341916 24.129968743996869 0 24.129968743996869 315.7171215897979 0 0 0 0 -824.95298034848383 737.25174552730459 0 737.25174552730459 1196.9655550817843 0 0 0 0 -129.82919386117283 285.24886505384347 0 285.24886505384347 -51.655532041469996 0 0 0 0 -295.28898885734088 284.89930311405624 0 284.89930311405624 -51.035082042173599 0 0 0 0 -212.50433005348168 138.89347989909584 0 138.89347989909584 33.046441181417322 0 0 0 0 -379.4958997824433 87.59557781778858 0 87.59557781778858 230.10881476565555 0 0 0 0 -46.45641052681809 35.221290249461092 0 35.221290249461092 13.832433067883585 0 0 0 0 -528.22307620992797 -210.92666624525191 0 -210.92666624525191 -177.40234330843668 0 0 0 0 -4286.0108367585417 87.486982926027849 0 87.486982926027849 2174.0206902382652 0 0 0 0 -64.072660634810745 -102.82318148271588 0 -102.82318148271588 1857.4991737341043 0 0 0 0 -63.99966604198584 69.43777156664305 0 69.43777156664305 -36.310876817311424 0 0 0 0 12.139759837304155 606.57931560637371 0 606.57931560637371 -1263.5005909655301 0 0 0 0 -21.633263489599052 -0.9549775263584479 0 -0.9549775263584479 0.30109075817921394 0 0 0 0 -205.62840307385704 7.1999867202539463 0 7.1999867202539463 822.48152696022589 0 0 0 0 -78.9156690192209 264.16111177773701 0 264.16111177773701 489.28689784053131 0 0 0 0 -170.2149817771965 369.18574788053957 0 369.18574788053957 -659.51697547297226 0 0 0 0 -188.72984071976134 388.25821351494233 0 388.25821351494233 -534.97591519675916 0 0 0 0 -238.81935781227185 395.07554706296105 0 395.07554706296105 -371.96769310743548 0 0 0 0 -143.63348511083313 319.71178158951807 0 319.71178158951807 -579.68892386713196 0 0 0 0 -275.7779538410432 332.67144715301401 0 332.67144715301401 -580.89735830260906 0 0 0 0 -19.255559713350522 -4.2193921215366572 0 -4.2193921215366572 -858.70354747664533 0 0 0 0 -150.22270520450911 224.61489626188995 0 224.61489626188995 -1097.1305147621606 0 0 0 0 -312.18906597891691 470.8600622991944 0 470.8600622991944 -513.6136700482748 0 0 0 0 -177.41065118877123 164.20167882644455 0 164.20167882644455 -380.98345941545995 0 0 0 0 -50.509982749732899 122.11516927041339 0 122.11516927041339 78.157087528175907 0 0 0 0 -144.15193639910285 180.87111326458398 0 180.87111326458398 140.88495053225779 0 0 0 0 -113.13958669458952 -12.850161028793082 0 -12.850161028793082 148.78872915313605 0 0 0 0 6.1402794547793249 81.832013426994138 0 81.832013426994138 105.94812067758977 0 0 0 0 -332.42958734791682 277.28715184828616 0 277.28715184828616 283.35779171012109 0 0 0 0 -55.266528495209059 -158.50057157396805 0 -158.50057157396805 761.70278427714948 0 0 0 0 -62.871604152779383 -8.8340399796708766 0 -8.8340399796708766 7.9315250416792935 0 0 0 0 -66.653584513944224 -39.955503342323937 0 -39.955503342323937 436.2876550713554 0 0 0 0 -40.592233548872173 -84.13001411256846 0 -84.13001411256846 395.15960119105875 0 0 0 0 -257.362925360394 50.340890948711603 0 50.340890948711603 423.65752243826864 0 0 0 0 43.772475717647467 72.103779008524725 0 72.103779008524725 354.37458736365079 0 0 0 0 -94.73688884342846 -152.10765357268974 0 -152.10765357268974 521.70177223713836 0 0 0 0 -272.96233091827935 324.13896748865955 0 324.13896748865955 -512.31483355950331 0 0 0 0 -20.746234564705006 4.5490668228392224 0 4.5490668228392224 16.617962581198753 0 0 0 0 -329.34575396750483 149.03834489485962 0 149.03834489485962 -143.43981272290694 0 0 0 0 -62.424814614296238 10.666114414109813 0 10.666114414109813 57.33702678999299 0 0 0 0 -181.3605399830758 301.38438242176198 0 301.38438242176198 -617.00086160932551 0 0 0 0 -211.65924711638854 315.50282824021997 0 315.50282824021997 -589.04617412120569 0 0 0 0 -225.55783184157613 342.98310044997197 0 342.98310044997197 -713.96996734116692 0 0 0 0 -244.64873008534869 377.56200143008027 0 377.56200143008027 -538.98367088608211 0 0 0 0 -428.48433080386246 285.51176645339001 0 285.51176645339001 -585.07835170964245 0 0 0 0 -46.92065937470943 91.142344767409668 0 91.142344767409668 73.448939264948422 0 0 0 0 -441.79316903684696 547.43270858449978 0 547.43270858449978 -866.93825048778672 0 0 0 0 -697.30642188392176 650.27654396358412 0 650.27654396358412 -243.35552523774095 0 0 0 0 -15.759048694613881 2.7761346506385962 0 2.7761346506385962 24.650716358365571 0 0 0 0 -38.742570018823244 -5.0096990569145419 0 -5.0096990569145419 82.903898959048092 0 0 0 0 -68.004431555131049 -20.571146858326557 0 -20.571146858326557 34.927638851567025 0 0 0 0 -161.03819821473735 1.4129747992992634 0 1.4129747992992634 241.70165936087142 0 0 0 0 -52.080456599709549 -16.917609857596403 0 -16.917609857596403 60.097152581754528 0 0 0 0 -60.350934336022924 10.791296970161284 0 10.791296970161284 76.118083338965221 0 0 0 0 -81.092237043714476 255.84186529611907 0 255.84186529611907 -814.68777602448245 0 0 0 0 -278.14623999841979 631.56413402323597 0 631.56413402323597 -751.78398466881481 0 0 0 0 -6.0317271526095642 48.067204814024137 0 48.067204814024137 83.133353031978061 0 0 0 0 -170.79462242194734 256.33074413533905 0 256.33074413533905 -553.24672588713292 0 0 0 0 -397.541592957391 434.23693929650472 0 434.23693929650472 -579.2495312813553 0 0 0 0 -324.28900754575511 465.23377946723485 0 465.23377946723485 -591.5633644311456 0 0 0 0 -264.58203914797105 372.56448762127548 0 372.56448762127548 -550.03967352182372 0 0 0 0 -248.52369663002264 280.23997507058084 0 280.23997507058084 -478.00660825916566 0 0 0 0 -206.51557716838852 347.63929424466914 0 347.63929424466914 -484.76855348912068 0 0 0 0 -169.04882877847194 220.55645478673978 0 220.55645478673978 -416.66032832255587 0 0 0 0 -163.63657500502768 260.39851496898336 0 260.39851496898336 -413.10211867926409 0 0 0 0 -214.88991553410233 252.94132633328263 0 252.94132633328263 -147.30744978855364 0 0 0 0 -213.24267837276022 140.02256650317577 0 140.02256650317577 -216.2104742838128 0 0 0 0 -209.47190802145394 310.19393119370943 0 310.19393119370943 -460.55202196317259 0 0 0 0 -150.20704565296819 232.23833936381561 0 232.23833936381561 -145.26221404533135 0 0 0 0 -152.96528302279512 84.172999981398334 0 84.172999981398334 -78.025171247165417 0 0 0 0 -156.68338800402944 105.33419749757741 0 105.33419749757741 -177.48816705011996 0 0 0 0 -69.518893554890383 27.780172606071574 0 27.780172606071574 127.60270175194091 0 0 0 0 -272.59057002393729 237.37339298886218 0 237.37339298886218 47.99304791589384 0 0 0 0 -36.147841190218969 301.2927563016201 0 301.2927563016201 -252.73407787566248 0 0 0 0 -241.81217872922934 250.45406879639631 0 250.45406879639631 59.809713998940424 0 0 0 0 -146.49436080227133 181.38999776828859 0 181.38999776828859 -225.11482019775576 0 0 0 0 -162.99763609672118 314.19382742722519 0 314.19382742722519 -360.49750014857273 0 0 0 0 -174.1611502102669 245.26070645286381 0 245.26070645286381 190.78192519488221 0 0 0 0 -104.41399754530539 59.308158994062978 0 59.308158994062978 56.134524003103024 0 0 0 0 -43.105900000962947 329.16428048476882 0 329.16428048476882 563.61043716037238 0 0 0 0 -112.65864541638439 -176.64862941301544 0 -176.64862941301544 706.0197081483384 0 0 0 0 -133.5223088767541 74.525977699340729 0 74.525977699340729 411.26695676587406 0 0 0 0 -217.17609752527733 -14.374288197010173 0 -14.374288197010173 468.74556163602392 0 0 0 0 42.279974827873957 -171.69009087599989 0 -171.69009087599989 255.80814210629615 0 0 0 0 -1.9718593719652162 -0.57923663048273966 0 -0.57923663048273966 11.380898002127651 0 0 0 0 106.74575707279746 -309.28559999402933 0 -309.28559999402933 484.51496509453864 0 0 0 0 -112.89639252359302 295.38960058310113 0 295.38960058310113 449.88145269243978 0 0 0 0 168.13193992260403 231.12511603107851 0 231.12511603107851 373.32164873861257 0 0 0 0 238.19515044081118 595.13591239643756 0 595.13591239643756 647.15004090385628 0 0 0 0 -209.33185492618168 171.66542759195727 0 171.66542759195727 400.37208877460216 0 0 0 0 -265.47259790950829 24.686499027506215 0 24.686499027506215 392.67230774731433 0 0 0 0 -100.75409106167945 88.16184714314295 0 88.16184714314295 326.28969643723394 0 0 0 0 63.581286431785884 3.2627771611587377 0 3.2627771611587377 -15.020594486733899 0 0 0 0 26.646407035501838 -7.6985617108783799 0 -7.6985617108783799 -10.00722450446267 0 0 0 0 91.982799422050448 26.201653576688841 0 26.201653576688841 -21.963126027287217 0 0 0 0 653.4325827249304 424.06723400269402 0 424.06723400269402 298.39183554099873 0 0 0 0 57.500270233035707 35.940168626491868 0 35.940168626491868 13.114595574937994 0 0 0 0 -188.57389474673073 152.95674674707698 0 152.95674674707698 891.30357122317946 0 0 0 0 1116.9434061999109 996.13486341795942 0 996.13486341795942 -28.623908849811414 0 0 0 0 10.066687425450038 -3.650977284515136 0 -3.650977284515136 -4.4501289188810347 0 0 0 0 -89.39893783288062 434.5841723876074 0 434.5841723876074 623.68320191535167 0 0 0 0 -377.25474844129349 171.46960746403784 0 171.46960746403784 945.78438910417026 0 0 0 0 187.08271756026443 -221.4415151643334 0 -221.4415151643334 2180.0022084194934 0 0 0 0 181.01365214188263 -129.62662996700965 0 -129.62662996700965 475.53375328797847 0 0 0 0 -1076.4985257491389 1092.9737743526057 0 1092.9737743526057 -142.67071035641129 0 0 0 0 -1359.4668561512844 676.60575853630144 0 676.60575853630144 432.87998314440483 0 0 0 0 -430.24573468093877 455.76199125789572 0 455.76199125789572 -28.378425482544117 0 0 0 0 -173.29756512591121 277.17436182763777 0 277.17436182763777 345.80869148584316 0 0 0 0 -522.11994807526207 -31.76168663619319 0 -31.76168663619319 525.04708920592384 0 0 0 0 -377.64425382271293 163.1328706125496 0 163.1328706125496 776.08912523253821 0 0 0 0 -728.82171016352368 244.82922363030957 0 244.82922363030957 389.64633735851385 0 0 0 0 -244.73091025846952 -178.6246056741511 0 -178.6246056741511 462.92647747776937 0 0 0 0 -244.73091025840404 -178.6246056741802 0 -178.6246056741802 462.92647747765295 0 0 0 0 -404.72184831071354 -139.24119924686966 0 -139.24119924686966 768.46095101605169 0 0 0 0 23.622012519712253 39.058325931322969 0 39.058325931322969 5.7600854832846267 0 0 0 0 -418.20049531478435 -254.86706596950535 0 -254.86706596950535 560.36434948477836 0 0 0 0 -244.73091025862959 -178.62460567441303 0 -178.62460567441303 462.92647747742012 0 0 0 0 -625.31004273181679 606.77819353046652 0 606.77819353046652 -423.29660485810018 0 0 0 0 -237.84088258737756 129.30966029921547 0 129.30966029921547 119.34989649070485 0 0 0 0 123.29444053398436 40.460314638003183 0 40.460314638003183 -19.654483163030818 0 0 0 0 -102.29271945224724 37.376050961820397 0 37.376050961820397 -18.361379385954933 0 0 0 0 6.8376710084813137 56.95574067171269 0 56.95574067171269 -10.112671437664915 0 0 0 0 -38.820971677005332 17.935310269829444 0 17.935310269829444 37.755656777477981 0 0 0 0 -544.38733090167807 727.20425308219274 0 727.20425308219274 -381.76893474647659 0 0 0 0 -551.84332315389474 707.36432360709296 0 707.36432360709296 -418.29070931134629 0 0 0 0 -285.68470147496009 294.15862899240074 0 294.15862899240074 24.785944189716247 0 0 0 0 72.770737230830719 87.811344821924507 0 87.811344821924507 63.022136222402651 0 0 0 0 -724.16737085739078 -5.4707106763016782 0 -5.4707106763016782 -403.99042850581645 0 0 0 0 -145.56632688325772 188.69301036005345 0 188.69301036005345 21.353063020022546 0 0 0 0 -86.774104414304929 1398.5532393803423 0 1398.5532393803423 968.1661418081494 0 0 0 0 -28.561722627411797 43.502695262513612 0 43.502695262513612 95.576865428145112 0 0 0 0 -601.35337556471495 663.89698791664705 0 663.89698791664705 -297.78148472023895 0 0 0 0 -2.6493754628396147 91.805062178110234 0 91.805062178110234 48.20188528877901 0 0 0 0 0.55601177811084312 4.0023908437665199 0 4.0023908437665199 10.971669137335653 0 0 0 0 -643.45709530764361 316.74333924597158 0 316.74333924597158 1551.7291610141983 0 0 0 0 -49.311981526486306 -410.64639973022349 0 -410.64639973022349 -304.6786775469227 0 0 0 0 -111.27349036906526 136.26429379387992 0 136.26429379387992 92.335860607323411 0 0 0 0 -90.906956696770067 115.21546911465521 0 115.21546911465521 46.724264827527804 0 0 0 0 109.27630444984607 318.47672428898659 0 318.47672428898659 -279.12385553945205 0 0 0 0 -137.87566792094003 547.49270631700347 0 547.49270631700347 332.13959974327372 0 0 0 0 12.036754796782482 18.542174373350804 0 18.542174373350804 26.706362590725405 0 0 0 0 75.066034525185387 134.286105505671 0 134.286105505671 184.65321179704188 0 0 0 0 94.96798931403282 -220.70575012131303 0 -220.70575012131303 63.390057012598845 0 0 0 0 -344.8978278969339 1237.1316608383804 0 1237.1316608383804 -882.87045167500037 0 0 0 0 426.76845049952317 225.92697990125453 0 225.92697990125453 -736.27093389267975 0 0 0 0 -277.25400819786591 176.52767769683851 0 176.52767769683851 -226.78731775467168 0 0 0 0 2.9431943948066959 50.14629356738476 0 50.14629356738476 82.913767209323112 0 0 0 0 145.60250294527032 193.43030950269895 0 193.43030950269895 -237.46153160138056 0 0 0 0 -1026.8539743990805 122.44093466446793 0 122.44093466446793 380.50278514258389 0 0 0 0 151.07696208999914 -895.73742394891451 0 -895.73742394891451 -520.93222237593727 0 0 0 0 74.443206806769012 34.903566394772497 0 34.903566394772497 -80.445146978991033 0 0 0 0 90.121951998095028 92.051915916461439 0 92.051915916461439 -68.539356268316624 0 0 0 0 48.107240231154719 -56.745009628328262 0 -56.745009628328262 -188.4907085500563 0 0 0 0 -2.5716726872819038 3.2782489271475015 0 3.2782489271475015 1.7728525631748653 0 0 0 0 0.0021713672613259405 192.89658608356694 0 192.89658608356694 -51.415052218973869 0 0 0 0 92.459625822695671 132.5670672967608 0 132.5670672967608 -240.40418073954606 0 0 0 0 81.706167715397896 126.25497387014184 0 126.25497387014184 -69.001467648336984 0 0 0 0 90.84396632645803 95.342360127713619 0 95.342360127713619 -60.296277022265713 0 0 0 0 61.633131160051562 75.79976508335676 0 75.79976508335676 -26.105117228726158 0 0 0 0 67.961940453242278 88.102848649585212 0 88.102848649585212 -34.372803178754111 0 0 0 0 74.057773291191552 127.12173464036459 0 127.12173464036459 4.8167721263380372 0 0 0 0 -3.0047406425583176 78.328440374920319 0 78.328440374920319 14.790332569384191 0 0 0 0 17.719043729655766 44.039876310423409 0 44.039876310423409 -4.7295906402345054 0 0 0 0 -478.49883849592879 161.88150252016203 0 161.88150252016203 -450.45660556439543 0 0 0 0 -0.22014396020381355 7.9510990818092608 0 7.9510990818092608 1.22618266890575 0 0 0 0 32.730788228243085 39.364933079704002 0 39.364933079704002 -6.590740113513732 0 0 0 0 72.446343384333886 58.404940927226562 0 58.404940927226562 -41.894224814954214 0 0 0 0 -103.23163229363854 -18.783460513615864 0 -18.783460513615864 -29.748092214751523 0 0 0 0 74.748724389821291 44.19934842596922 0 44.19934842596922 -17.020308489532908 0 0 0 0 65.513085631102967 26.707624698913413 0 26.707624698913413 -1.2915537252198419 0 0 0 0 62.713499903591583 -92.513587690060376 0 -92.513587690060376 -753.32917213351175 0 0 0 0 -77.86644800711656 694.47843603475485 0 694.47843603475485 -1054.3095367815768 0 0 0 0 -222.85853925581614 533.63770585976818 0 533.63770585976818 -1265.4627002963243 0 0 0 0 -503.96748146145546 716.0861194906247 0 716.0861194906247 -566.96578225007397 0 0 0 0 -521.53318241369561 863.62344781441061 0 863.62344781441061 -1057.3964564331109 0 0 0 0 14.613943404718242 5.1187598829790488 0 5.1187598829790488 -8.0914867208380201 0 0 0 0 -236.2117455706466 412.98812354748952 0 412.98812354748952 -1728.31065175611 0 0 0 0 894.60809968756803 1497.5399400313254 0 1497.5399400313254 -2919.8148380895727 0 0 0 0 -2062.5868328562938 -778.98784102055652 0 -778.98784102055652 -306.12188295250235 0 0 0 0 -169.19892206130316 628.30172822558961 0 628.30172822558961 -892.54318803740898 0 0 0 0 15.244184279030208 10.532345467960823 0 10.532345467960823 4.9986708400037116 0 0 0 0 -163.3657715319423 511.30010605277494 0 511.30010605277494 -918.767644106636 0 0 0 0 -373.36760588406469 1724.4238547843706 0 1724.4238547843706 1820.5489674494456 0 0 0 0 -109.26950888094143 597.30746442897362 0 597.30746442897362 -1061.7431913158216 0 0 0 0 67.648577287269291 616.74975997697038 0 616.74975997697038 -1060.1032335272757 0 0 0 0 -427.38895155669888 738.39306378745096 0 738.39306378745096 -939.26374475163175 0 0 0 0 63.416330958004551 22.548493471411973 0 22.548493471411973 -0.32003356625531865 0 0 0 0 -42.082309719909972 460.58760160359452 0 460.58760160359452 -1086.5261842939071 0 0 0 0 -157.70324739425268 402.99060952564469 0 402.99060952564469 -1098.2385075078346 0 0 0 0 -192.99364891534788 443.29925997510145 0 443.29925997510145 -1033.9986274493349 0 0 0 0 7.2525350453203714 14.177425982767375 0 14.177425982767375 -2.4586446581059249 0 0 0 0 -216.1767984816106 359.3228645529889 0 359.3228645529889 -1067.6546354774764 0 0 0 0 -15.944256802671589 530.13685601094039 0 530.13685601094039 -1018.934143715378 0 0 0 0 62.218220473216206 27.700233547508105 0 27.700233547508105 -23.503738462211913 0 0 0 0 59.800970614887774 16.9617220289947 0 16.9617220289947 -18.008151219684805 0 0 0 0 10.936963406516583 7.4963872843605941 0 7.4963872843605941 -0.19939345308557677 0 0 0 0 2.4434730486682383 426.88202385936893 0 426.88202385936893 148.45582468042267 0 0 0 0 1664.0715540557685 354.368509932503 0 354.368509932503 262.89461647998542 0 0 0 0 1879.5127732834662 1476.8837024439708 0 1476.8837024439708 735.76141370557889 0 0 0 0 0.59145944054762367 2555.4251700027235 0 2555.4251700027235 2516.5614256250265 0 0 0 0 4245.0364675078163 3821.390920298225 0 3821.390920298225 3416.0840122050649 0 0 0 0 5246.5659649542649 293.90630307036918 0 293.90630307036918 -462.14993181024329 0 0 0 0 5.3955604083802768 8.6497400676386178 0 8.6497400676386178 2.947154682287163 0 0 0 0 2532.3273799039598 5840.5396041421627 0 5840.5396041421627 5223.7807028048555 0 0 0 0 5829.4161590676958 3717.4031655453437 0 3717.4031655453437 1692.4277262838514 0 0 0 0 2424.4818642346654 2921.4003225708148 0 2921.4003225708148 3589.6323900867137 0 0 0 0 -25.287205003449003 14.720710084750806 0 14.720710084750806 0.67946018597987745 0 0 0 0 -0.1291701808659127 276.32552873669192 0 276.32552873669192 349.08431982021284 0 0 0 0 117.93591105878659 1314.6868214415244 0 1314.6868214415244 2598.7629022272013 0 0 0 0 -3510.1289395247586 621.04291636175185 0 621.04291636175185 3983.8952323947451 0 0 0 0 1719.7028629122651 4556.9652647888288 0 4556.9652647888288 -19.469767279690132 0 0 0 0 138.57248928835907 92.26405610555048 0 92.26405610555048 72.795812042590114 0 0 0 0 8.0045772154080623 400.28689807241972 0 400.28689807241972 300.1835024394386 0 0 0 0 749.17056963845971 608.38782253664976 0 608.38782253664976 4.9958317633136176 0 0 0 0 0.29525442833255511 296.30077051045373 0 296.30077051045373 -472.17100445105461 0 0 0 0 42.145817551110667 338.77299565942121 0 338.77299565942121 -413.92090910093975 0 0 0 0 -80.477863845182583 77.867446600059338 0 77.867446600059338 86.923639511795045 0 0 0 0 -16.619002495193854 4254.7740613287315 0 4254.7740613287315 4359.4150804502133 0 0 0 0 17.324929064195828 7.3489183844793331 0 7.3489183844793331 4.0375060010559025 0 0 0 0 92.041719686672877 87.933614748380933 0 87.933614748380933 39.159227033989737 0 0 0 0 53.069600406107213 17.572262680798815 0 17.572262680798815 5.6895686421430298 0 0 0 0 152.97530187221128 317.65090527609573 0 317.65090527609573 630.00158442578686 0 0 0 0 37.230186904416769 0.15282917040894972 0 0.15282917040894972 115.89187636731367 0 0 0 0 37.23018690440675 320.15061962737315 0 320.15061962737315 -1.0154848280071747 0 0 0 0 -88.010849577698195 37.087335218507974 0 37.087335218507974 5.1665326656533352 0 0 0 0 82.608190510043812 35.364798731121965 0 35.364798731121965 1.9014727428041738 0 0 0 0 -190.14935015080118 834.27198235813557 0 834.27198235813557 2739.689779155713 0 0 0 0 541.99732642344316 1062.9892973511305 0 1062.9892973511305 2809.5321144815061 0 0 0 0 -71.945646008992071 28.026787537357905 0 28.026787537357905 -0.038581080908954846 0 0 0 0 301.07873061444843 2691.6360668051493 0 2691.6360668051493 3044.5433667430916 0 0 0 0 606.24818189311191 2175.8520669922436 0 2175.8520669922436 1907.2047459429596 0 0 0 0 -1262.5483569511853 1122.1411025721754 0 1122.1411025721754 2021.4658141567779 0 0 0 0 1031.0940076592742 1709.4947678511489 0 1709.4947678511489 2084.3437714344182 0 0 0 0 -757.6550436635298 -79.470354067656444 0 -79.470354067656444 562.39085816236911 0 0 0 0 198.99825854596565 1266.827798385304 0 1266.827798385304 1043.9979156897607 0 0 0 0 679.57135351971374 1138.9623875553443 0 1138.9623875553443 1467.9284199266403 0 0 0 0 395.48506605286093 275.91433384353149 0 275.91433384353149 2550.9028774286271 0 0 0 0 2009.7078593087099 1530.7252217745263 0 1530.7252217745263 12.165534253406804 0 0 0 0 3078.611040028929 3041.9291717658352 0 3041.9291717658352 3573.2755362445314 0 0 0 0 2456.0236146127063 655.40990797946324 0 655.40990797946324 2068.8236802232568 0 0 0 0 1012.9278839041945 674.32076049275202 0 674.32076049275202 2277.2315991084106 0 0 0 0 47.770365016549476 40.666632351378212 0 40.666632351378212 -0.79973391599196475 0 0 0 0 66.063536003464833 57.655608075023338 0 57.655608075023338 6.6634759766311618 0 0 0 0 2.7494532147706536 25.356164253891052 0 25.356164253891052 -9.8546068695284816 0 0 0 0 1488.6517165259866 1190.7115953750472 0 1190.7115953750472 848.5674545749207 0 0 0 0 573.51645966855904 1313.4351572977102 0 1313.4351572977102 2579.9496520217508 0 0 0 0 -7.6982959623566671 21.367372820032642 0 21.367372820032642 2.2911474219609715 0 0 0 0 2129.3369156823028 1478.9619287859823 0 1478.9619287859823 1731.4766998058767 0 0 0 0 1432.2969083111166 1802.0817647384902 0 1802.0817647384902 1769.2812170703255 0 0 0 0 1592.5272959084541 1993.7751289153312 0 1993.7751289153312 2166.7573537955759 0 0 0 0 998.60836511122761 1210.4042327839124 0 1210.4042327839124 1700.4662800372116 0 0 0 0 0.052205768100634486 7.1403697953613801 0 7.1403697953613801 -5.1638485419784104 0 0 0 0 1872.1748327190726 2217.7815659469052 0 2217.7815659469052 5.1178692834073445 0 0 0 0 667.18738483531342 2073.8425661609581 0 2073.8425661609581 2082.0047439497139 0 0 0 0 1034.4165451710287 2858.398115347256 0 2858.398115347256 890.96169256851135 0 0 0 0 1407.0240234196244 1700.0797663506528 0 1700.0797663506528 1845.4457211334229 0 0 0 0 1066.1744713450753 1986.8491817892209 0 1986.8491817892209 2012.3155215991719 0 0 0 0 1373.6725863115207 2081.5253749499461 0 2081.5253749499461 1284.4422274525859 0 0 0 0 1627.5829911727924 2134.6684197809664 0 2134.6684197809664 1290.5942021839874 0 0 0 0 1234.0187660772499 1644.229246034869 0 1644.229246034869 1828.5857228021487 0 0 0 0 293.56425668555312 -51.537311401581974 0 -51.537311401581974 -1385.4350241311477 0 0 0 0 1279.6579999217793 1893.318859267747 0 1893.318859267747 2045.4264584388802 0 0 0 0 66.649426333393933 -9.3990294489290136 0 -9.3990294489290136 -1.665085166517315 0 0 0 0 1315.967379314694 1535.8973584463529 0 1535.8973584463529 2627.2601059231311 0 0 0 0 1527.6539585147693 1598.4824621961452 0 1598.4824621961452 1933.8029376847935 0 0 0 0 23.683088916655606 -2.7108025558767963 0 -2.7108025558767963 1.2807975241531153 0 0 0 0 -55.495923092123121 -1046.8968101834616 0 -1046.8968101834616 -1314.6496809234959 0 0 0 0 972.00877600721287 370.77852261182488 0 370.77852261182488 -1138.024675107954 0 0 0 0 675.49512097732804 348.76776775362669 0 348.76776775362669 -1058.9707323419425 0 0 0 0 1174.518832749658 619.07084358487919 0 619.07084358487919 -959.63292681486928 0 0 0 0 1639.1134724523145 940.4980493798721 0 940.4980493798721 82.909609526934219 0 0 0 0 1053.4821561093268 311.36887796718656 0 311.36887796718656 -590.18083627156011 0 0 0 0 2539.0004021255008 366.31535805381282 0 366.31535805381282 -935.7325148567179 0 0 0 0 1170.5929486984417 -320.86488823071295 0 -320.86488823071295 -1263.0321363329713 0 0 0 0 1988.4712487247598 -679.60058995903819 0 -679.60058995903819 -1299.5615256404053 0 0 0 0 2412.9133199194039 -338.77305963634717 0 -338.77305963634717 -1200.9556127130345 0 0 0 0 1004.6897062234202 -704.11363465253089 0 -704.11363465253089 -1294.9274621107943 0 0 0 0 37.157009662876646 17.94518923112156 0 17.94518923112156 3.3281257257475545 0 0 0 0 -344.76946474042779 476.28756480285665 0 476.28756480285665 -407.26968907202536 0 0 0 0 342.09201054334699 2019.9526039066623 0 2019.9526039066623 -1100.4408762463681 0 0 0 0 -168.03567600925453 348.98126092455641 0 348.98126092455641 -1255.6911055445007 0 0 0 0 -574.18398664305278 127.8893370970618 0 127.8893370970618 -684.75367377843941 0 0 0 0 23.171191639234621 6.1440362807918518 0 6.1440362807918518 -1.5951416129069287 0 0 0 0 194.50808072370273 1086.0822142521683 0 1086.0822142521683 -249.88454434150481 0 0 0 0 2270.3163991261681 -649.96538085025531 0 -649.96538085025531 -1646.9014868898157 0 0 0 0 981.30080059908141 1629.2965107651162 0 1629.2965107651162 -257.68736060110677 0 0 0 0 563.17490688778344 599.86695777220302 0 599.86695777220302 -675.84046939187101 0 0 0 0 4.6836274716417279 -0.14018326951604365 0 -0.14018326951604365 -1.9531290241614556 0 0 0 0 -349.45509876616416 476.05635673168581 0 476.05635673168581 -462.23007682128082 0 0 0 0 301.03899998802808 -27.562845931097399 0 -27.562845931097399 -340.47438988235081 0 0 0 0 130.10936632507583 336.14459995585003 0 336.14459995585003 685.7268850661203 0 0 0 0 -76.063011311925948 271.7019500877359 0 271.7019500877359 194.02393987200048 0 0 0 0 63.148470707121305 -102.55152762812941 0 -102.55152762812941 -14.586326353310142 0 0 0 0 1091.4752935379511 861.6155063733604 0 861.6155063733604 303.95034273686178 0 0 0 0 1222.0360050794116 853.68960921485268 0 853.68960921485268 35.118098748615012 0 0 0 0 1538.7525122042862 1130.3215729003787 0 1130.3215729003787 -21.890134080897042 0 0 0 0 1812.5738172637357 775.99967874956928 0 775.99967874956928 250.91936057645216 0 0 0 0 1101.888331982751 527.49223791562508 0 527.49223791562508 590.00948027192499 0 0 0 0 1163.6807313830068 465.62284132838249 0 465.62284132838249 172.28946101409383 0 0 0 0 1067.382318993943 117.75049319818027 0 117.75049319818027 668.32770745534799 0 0 0 0 930.42995553318178 516.73103118378822 0 516.73103118378822 377.90508133328694 0 0 0 0 2290.745462451363 190.61470984151674 0 190.61470984151674 227.11573061878153 0 0 0 0 2243.7964768809325 988.684365600202 0 988.684365600202 -70.625917413284697 0 0 0 0 24.358513373823371 138.26140490514081 0 138.26140490514081 595.52847997732169 0 0 0 0 474.79504455509596 724.00452217774 0 724.00452217774 359.4278954641195 0 0 0 0 306.67595177970361 521.91767077367695 0 521.91767077367695 141.00950369572092 0 0 0 0 563.46260648564203 233.69716559879453 0 233.69716559879453 583.74916233031763 0 0 0 0 511.28706249502284 639.34979333810361 0 639.34979333810361 954.66210046070046 0 0 0 0 741.17418961650401 683.96157416055939 0 683.96157416055939 764.48800047858822 0 0 0 0 -44.221861231375613 39.958772638039306 0 39.958772638039306 -18.150652056102729 0 0 0 0 1062.8544677442114 1551.8359348313606 0 1551.8359348313606 1294.1441981139742 0 0 0 0 -814.63008706541314 298.82898549261449 0 298.82898549261449 329.65273241899558 0 0 0 0 -830.7798004548531 32.978009017351724 0 32.978009017351724 237.06897600613956 0 0 0 0 -1451.8637359288041 -437.14812497914045 0 -437.14812497914045 -113.06524009279383 0 0 0 0 1796.7989498009929 2611.3783135227059 0 2611.3783135227059 -464.53264806576772 0 0 0 0 -3095.0257791635231 -881.87476835762209 0 -881.87476835762209 224.66787255015879 0 0 0 0 -18.898290190673379 16.410548683033994 0 16.410548683033994 -6.5032113881491114 0 0 0 0 214.94389336116728 724.25851477123069 0 724.25851477123069 1566.0962129517429 0 0 0 0 1934.8889073783357 814.20548429495102 0 814.20548429495102 -220.91068174307293 0 0 0 0 -196.34527795697795 1848.212163101256 0 1848.212163101256 -703.84287437050079 0 0 0 0 965.01926449089297 1186.6447450070973 0 1186.6447450070973 -1663.6372439240513 0 0 0 0 409.15555469540413 1318.7660626092984 0 1318.7660626092984 -1616.9607578170253 0 0 0 0 341.46130191872362 1827.6916238283593 0 1827.6916238283593 -3777.5899083607655 0 0 0 0 -179.84408413685742 1999.6634797220613 0 1999.6634797220613 -301.10312713079111 0 0 0 0 1014.1877130517496 1487.373999644331 0 1487.373999644331 -842.41858526039869 0 0 0 0 -1612.2893014777073 1189.8536645948552 0 1189.8536645948552 194.85880565273692 0 0 0 0 155.67757639025453 25.249768985185653 0 25.249768985185653 -71.027826734674477 0 0 0 0 126.72996955944109 660.48248153463646 0 660.48248153463646 156.68725482588343 0 0 0 0 -382.34141138062114 621.31645344948629 0 621.31645344948629 331.79707167521701 0 0 0 0 151.64107781805797 1160.9040255922591 0 1160.9040255922591 -827.88163383523533 0 0 0 0 731.53469911956927 257.58040688998881 0 257.58040688998881 194.26830584360141 0 0 0 0 197.60599098038438 110.39909167619044 0 110.39909167619044 -13.972207811078988 0 0 0 0 131.48842894117115 133.59476564781653 0 133.59476564781653 -3813.4339933145093 0 0 0 0 22.142957428233615 33.616380581425062 0 33.616380581425062 8.073061711519756 0 0 0 0 -2636.5106057362864 1002.9008512439905 0 1002.9008512439905 474.82809921529224 0 0 0 0 1339.3321034926339 -812.26972525537712 0 -812.26972525537712 -427.14920782268746 0 0 0 0 43.385324927001022 25.065144720869966 0 25.065144720869966 -28.504215748831427 0 0 0 0 358.87882713438012 200.28191559645347 0 200.28191559645347 338.56639117436134 0 0 0 0 675.43003450520337 566.04185247243731 0 566.04185247243731 -223.14113389229169 0 0 0 0 993.17961635545362 540.85475855410914 0 540.85475855410914 -2087.0548143103078 0 0 0 0 -344.88858553438331 185.59025765597471 0 185.59025765597471 -245.68954265095817 0 0 0 0 348.21613627261831 931.43463071977749 0 931.43463071977749 -1913.2715619261435 0 0 0 0 -743.98991527715407 1059.9965543780345 0 1059.9965543780345 -509.37061004393036 0 0 0 0 -1694.1390680199838 78.475221532629803 0 78.475221532629803 421.63859474798664 0 0 0 0 -881.97265201117261 1317.4876073320484 0 1317.4876073320484 -917.49221654818393 0 0 0 0 -2281.0990429852973 2630.0205862061703 0 2630.0205862061703 -1785.4487398512429 0 0 0 0 -353.89961963056703 294.8269269556622 0 294.8269269556622 -3514.0455706344146 0 0 0 0 -2331.7286149085558 1595.0404816259688 0 1595.0404816259688 -1200.1198610478023 0 0 0 0 -334.73122093308484 561.52556535825715 0 561.52556535825715 -728.1824304346228 0 0 0 0 69.212797251202574 -9.4147037813127099 0 -9.4147037813127099 -901.37461478624027 0 0 0 0 -595.07704661675962 697.13280846027192 0 697.13280846027192 380.77922941694487 0 0 0 0 403.93481112762674 691.37812553533877 0 691.37812553533877 -934.82474144193111 0 0 0 0 482.79960474091058 49.99636822022876 0 49.99636822022876 -100.84896873281104 0 0 0 0 889.42760616245505 800.17322572583726 0 800.17322572583726 -752.38805328791204 0 0 0 0 589.77284492706531 830.22325450255448 0 830.22325450255448 -1015.4954740899848 0 0 0 0 419.45730555691989 586.42781903017749 0 586.42781903017749 -776.30541594501119 0 0 0 0 -8.3508779051189777 719.46245342486509 0 719.46245342486509 -796.54541044717189 0 0 0 0 -50.425080369386706 500.43308794494806 0 500.43308794494806 -67.16520579290227 0 0 0 0 -419.85520225556684 893.19508235115791 0 893.19508235115791 -476.19785720175605 0 0 0 0 70.169665634622746 80.570963764583126 0 80.570963764583126 49.369989261678313 0 0 0 0 98.618844075419474 219.05768650806567 0 219.05768650806567 -319.7877478619921 0 0 0 0 -25.775016913205036 92.545638331022928 0 92.545638331022928 107.74567876954097 0 0 0 0 99.241803823839291 228.10907798645349 0 228.10907798645349 -373.17468276443833 0 0 0 0 349.1750882859069 309.57406430173069 0 309.57406430173069 -361.6940140145598 0 0 0 0 108.90484157554977 -6.5376981568936117 0 -6.5376981568936117 0.68019254883017766 0 0 0 0 808.28971740274756 426.54732695441453 0 426.54732695441453 419.38660529785557 0 0 0 0 19.172187774902042 4.3043417956450014 0 4.3043417956450014 11.62341294559468 0 0 0 0 1775.8477251992599 1180.6070034856698 0 1180.6070034856698 705.31291368979146 0 0 0 0 12.871264933258999 19.508244073822652 0 19.508244073822652 4.7860481480786916 0 0 0 0 109.86597422810155 -33.963323952379142 0 -33.963323952379142 -309.2440808583051 0 0 0 0 -36.292671681938373 136.1921231467386 0 136.1921231467386 232.8716057518177 0 0 0 0 151.67549173892985 284.01774593124355 0 284.01774593124355 24.695619917591102 0 0 0 0 -18.723027298656234 426.89464736552327 0 426.89464736552327 602.70970069240138 0 0 0 0 3617.1408316568122 1376.1015461417264 0 1376.1015461417264 0.30125552715617232 0 0 0 0 3089.3402259906288 1592.3111859655182 0 1592.3111859655182 495.02790330442076 0 0 0 0 2147.4913310799166 1654.894663213272 0 1654.894663213272 841.69051739029237 0 0 0 0 102.22538611088385 134.29656056166641 0 134.29656056166641 -54.723078071983764 0 0 0 0 113.97729581985914 87.874124762209249 0 87.874124762209249 -95.376140181353549 0 0 0 0 8.3056591889762785 115.68710546872899 0 115.68710546872899 0.57268366700113849 0 0 0 0 46.585535538310069 75.288071390219557 0 75.288071390219557 59.744862552077393 0 0 0 0 177.85201518615941 145.7546524755162 0 145.7546524755162 -120.09829775002436 0 0 0 0 146.3886260506697 205.31609722875874 0 205.31609722875874 11.479446096838728 0 0 0 0 183.32605413761667 203.87257899491851 0 203.87257899491851 -50.054420186032075 0 0 0 0 338.6167435952957 86.950352643281803 0 86.950352643281803 33.132843324987334 0 0 0 0 257.27462796217151 328.84869751050428 0 328.84869751050428 171.05561640937231 0 0 0 0 191.717851926609 227.76584475035634 0 227.76584475035634 15.459148060850566 0 0 0 0 56.442154555552406 179.57525201328099 0 179.57525201328099 10.008823979427689 0 0 0 0 71.046614190985991 106.62774712233758 0 106.62774712233758 85.544693640379592 0 0 0 0 115.78448558120726 222.43313697140547 0 222.43313697140547 129.03828976122895 0 0 0 0 98.138428618854959 86.487721137556946 0 86.487721137556946 21.25674376563984 0 0 0 0 100.00458074765629 115.05974107921065 0 115.05974107921065 280.6168217396189 0 0 0 0 539.27178937225835 265.12497831885412 0 265.12497831885412 27.01045253771008 0 0 0 0 92.569755948148668 155.35493826975289 0 155.35493826975289 363.61816791108868 0 0 0 0 44.075035294308492 1.8320261020732431 0 1.8320261020732431 -49.143122489654218 0 0 0 0 110.39840846237348 156.30019125349645 0 156.30019125349645 135.86142578796716 0 0 0 0 17.353811827924801 271.32669539673952 0 271.32669539673952 -110.40299543837318 0 0 0 0 10.943110368064197 71.045510580505152 0 71.045510580505152 -54.201039815896479 0 0 0 0 146.74359406103395 -42.87670396532485 0 -42.87670396532485 -79.60602533663041 0 0 0 0 53.185770498836064 71.467811453956529 0 71.467811453956529 14.688237730792025 0 0 0 0 3.2814676085985219 71.427223875425284 0 71.427223875425284 24.213911646457404 0 0 0 0 -16.145736079808557 116.61919913832389 0 116.61919913832389 136.36771307461458 0 0 0 0 -30.92970863301889 60.54120555910049 0 60.54120555910049 24.527188666528673 0 0 0 0 -73.339571953401901 220.88204043253791 0 220.88204043253791 -131.47297068443368 0 0 0 0 6.1250459176561378 49.292145225068509 0 49.292145225068509 -55.42372218075721 0 0 0 0 86.604653480608249 200.70194175027427 0 200.70194175027427 59.324582884262782 0 0 0 0 84.311637637598324 225.25590703220223 0 225.25590703220223 11.188318624808744 0 0 0 0 -103.35716465418955 260.11902536307025 0 260.11902536307025 47.219405073963571 0 0 0 0 102.76366644271184 136.15779131971067 0 136.15779131971067 33.392956784286071 0 0 0 0 -1.5307608787135294 22.32210457157997 0 22.32210457157997 -7.0761445154913645 0 0 0 0 117.81672345929837 241.02682485453261 0 241.02682485453261 163.89649490169904 0 0 0 0 98.319957732819603 193.02683302910009 0 193.02683302910009 45.724071709730197 0 0 0 0 86.159409247135045 209.23430649246438 0 209.23430649246438 50.352374206217064 0 0 0 0 151.08699460543721 213.24372069277888 0 213.24372069277888 -2.248883560707327 0 0 0 0 1.5753171203105012 175.17555269130389 0 175.17555269130389 17.687823735614074 0 0 0 0 65.481567277587601 184.3230483540101 0 184.3230483540101 18.587857311911648 0 0 0 0 103.12412169075333 175.62449079642715 0 175.62449079642715 13.963191610382637 0 0 0 0 102.92651995252527 182.9946959522058 0 182.9946959522058 -17.62417669784918 0 0 0 0 120.02549777035892 165.64127858611755 0 165.64127858611755 -0.21968524261319544 0 0 0 0 -8.4768483321283838 42.781477176043154 0 42.781477176043154 -0.068765112300752662 0 0 0 0 -130.60996940700716 36.244109282932186 0 36.244109282932186 43.703076891877572 0 0 0 0 -13.214259367931833 -1.3347519459861985 0 -1.3347519459861985 0.40798832353482339 0 0 0 0 98.705541546500172 167.24224627978401 0 167.24224627978401 0.086171128816544651 0 0 0 0 130.88415112443909 148.05716085382301 0 148.05716085382301 -0.054407686839113012 0 0 0 0 69.711496090301807 119.54021528360454 0 119.54021528360454 4.5869561067374889 0 0 0 0 -45.44367816232716 20.513429308571915 0 20.513429308571915 -8.1373150251003779 0 0 0 0 -624.19578029309923 -647.76881816814421 0 -647.76881816814421 -382.19661730555526 0 0 0 0 -385.37513469706028 142.28334120619184 0 142.28334120619184 221.40168510988588 0 0 0 0 -287.7540149598135 162.92972038015432 0 162.92972038015432 21.227725419419585 0 0 0 0 -364.24758058855514 200.43343479905161 0 200.43343479905161 230.41160626709461 0 0 0 0 -68.259483304009791 52.879211432514182 0 52.879211432514182 -12.024455056221399 0 0 0 0 7.0065531433065189 114.99072744837758 0 114.99072744837758 4.2745680958905723 0 0 0 0 -370.63326466845683 135.02018369192228 0 135.02018369192228 35.342427042021882 0 0 0 0 -15.526268052501329 14.238962634119503 0 14.238962634119503 4.9027905600391364 0 0 0 0 -311.91303271755169 70.619905175321037 0 70.619905175321037 31.265900511731161 0 0 0 0 -110.96724772024027 85.64709203109669 0 85.64709203109669 -71.609312031563604 0 0 0 0 -216.54110813407897 218.74882452901511 0 218.74882452901511 -136.02880333946086 0 0 0 0 -187.11506862234819 66.977203368085611 0 66.977203368085611 103.31656952641788 0 0 0 0 37.365966501638468 378.90716849130695 0 378.90716849130695 228.42709399990179 0 0 0 0 676.80089838686035 550.92491083489585 0 550.92491083489585 -43.761903348378837 0 0 0 0 157.3668372199536 232.72015740086499 0 232.72015740086499 127.41177402721951 0 0 0 0 -707.17578954550845 474.24306257584249 0 474.24306257584249 189.07015397095529 0 0 0 0 99.286722551696585 235.18429514377203 0 235.18429514377203 257.89379366568755 0 0 0 0 -240.61168379849914 1138.7078281289469 0 1138.7078281289469 -75.602345409453847 0 0 0 0 1054.3690121016989 97.735340505547356 0 97.735340505547356 -1409.6122931681748 0 0 0 0 -243.2332807962739 1198.833657653282 0 1198.833657653282 -128.78420289736823 0 0 0 0 -706.89171320677997 343.18055299983826 0 343.18055299983826 459.73035482078558 0 0 0 0 -144.92709826340433 119.77050677251827 0 119.77050677251827 -43.251637153298361 0 0 0 0 641.40217978072178 454.26118605013471 0 454.26118605013471 -611.25286323130422 0 0 0 0 15.107068930025864 60.572013898732322 0 60.572013898732322 -23.19282971708958 0 0 0 0 -52.634555277131341 15.908756201659195 0 15.908756201659195 59.855684657860451 0 0 0 0 -343.13983337671016 15.76404581375391 0 15.76404581375391 34.826962919614743 0 0 0 0 -854.14230412055531 64.603699963595318 0 64.603699963595318 329.7967056807247 0 0 0 0 18.607561540605303 55.923062564226747 0 55.923062564226747 1.2645774961793563 0 0 0 0 1.4701680712993923 7.6107328475279701 0 7.6107328475279701 3.1413703257724706 0 0 0 0 -552.00051182289462 -190.28339933700045 0 -190.28339933700045 -53.091554904232908 0 0 0 0 -90.981159913790179 147.94639401153836 0 147.94639401153836 -35.313949257062632 0 0 0 0 -41.465702835608681 98.432744020385144 0 98.432744020385144 -34.468028055154718 0 0 0 0 -137.97664003958926 111.09993401394604 0 111.09993401394604 -5.2024804649408907 0 0 0 0 -265.17458765392075 199.59900986982393 0 199.59900986982393 1.5988842175138416 0 0 0 0 147.07489689821523 -763.05954437817127 0 -763.05954437817127 585.05093154017231 0 0 0 0 20.482347689647952 13.891137896049571 0 13.891137896049571 -3.6355892778824455 0 0 0 0 179.26724305540847 120.22327206252521 0 120.22327206252521 -39.014541470500262 0 0 0 0 128.0267356745112 96.100578840137828 0 96.100578840137828 -11.366271955031891 0 0 0 0 34.551550113432739 126.11528394095774 0 126.11528394095774 -63.176531539264602 0 0 0 0 997.47393353274674 388.54015007184353 0 388.54015007184353 -1775.0809141475329 0 0 0 0 -1034.1360042974375 -468.61089488068137 0 -468.61089488068137 783.24079555255594 0 0 0 0 -152.70038789367391 171.53202132118531 0 171.53202132118531 -84.03681016300834 0 0 0 0 -134.55447998546879 91.814684821642004 0 91.814684821642004 -4.7855122893670341 0 0 0 0 -60.985185949415637 30.390536924483179 0 30.390536924483179 61.493491083432332 0 0 0 0 -132.84329576899472 125.68282929343695 0 125.68282929343695 -10.043200174233789 0 0 0 0 -209.57562818049428 159.19653794064243 0 159.19653794064243 -28.712958820280619 0 0 0 0 -207.98456068219093 172.25741759680704 0 172.25741759680704 -8.0441447698976845 0 0 0 0 -182.0350127237034 130.10677323907294 0 130.10677323907294 -11.925026078429255 0 0 0 0 -176.79605817372703 195.17060958054208 0 195.17060958054208 -32.919944193505216 0 0 0 0 -2970.2147346534421 446.61171488484206 0 446.61171488484206 694.8922571711737 0 0 0 0 -1556.8094498735336 935.9173301174169 0 935.9173301174169 433.83100810417091 0 0 0 0 16.391264861759016 128.43030019190377 0 128.43030019190377 -20.216013123696371 0 0 0 0 -319.82733155108872 344.50281721277861 0 344.50281721277861 115.35188778975862 0 0 0 0 -218.252684909854 212.614593257862 0 212.614593257862 68.535211004433222 0 0 0 0 -30.217568002699409 180.24025605674251 0 180.24025605674251 -82.19667892747384 0 0 0 0 730.1736129959645 252.23152087812196 0 252.23152087812196 88.361796266399324 0 0 0 0 -386.5617674201203 200.64346273324918 0 200.64346273324918 36.683124848786974 0 0 0 0 944.51340493848693 -201.70893353743304 0 -201.70893353743304 39.013437932051602 0 0 0 0 -230.66098207286996 162.29238531132432 0 162.29238531132432 -110.77580413436226 0 0 0 0 -4.5129654521209055 23.082373151790051 0 23.082373151790051 37.479545663550368 0 0 0 0 -330.37207266737823 231.50295487896074 0 231.50295487896074 -2.0953327169554541 0 0 0 0 439.62876162164321 -26.374168286682107 0 -26.374168286682107 63.31482534110819 0 0 0 0 106.27892957375661 143.32578259990987 0 143.32578259990987 73.525894185237121 0 0 0 0 443.72242846441804 -15.077423606417142 0 -15.077423606417142 94.436552556013339 0 0 0 0 -59.198100586538203 157.98649393691448 0 157.98649393691448 240.73875965090701 0 0 0 0 -0.048735359591773886 -307.18747292445187 0 -307.18747292445187 715.80045049806358 0 0 0 0 1042.35079897572 269.68823346497084 0 269.68823346497084 137.65284269591211 0 0 0 0 -147.85243521923258 289.80985152367793 0 289.80985152367793 61.784634625772014 0 0 0 0 -92.979798861992094 307.66838163479861 0 307.66838163479861 63.97167716966942 0 0 0 0 -956.26628366326622 1035.5034396199044 0 1035.5034396199044 -432.11646119904617 0 0 0 0 -470.22521168112144 -527.83504480472038 0 -527.83504480472038 -175.79646922391839 0 0 0 0 868.29699015657025 97.515212094389426 0 97.515212094389426 -194.96486185092363 0 0 0 0 1598.3823873627553 -1070.2037741549138 0 -1070.2037741549138 161.61594934113236 0 0 0 0 -300.01281162169471 128.39891839072516 0 128.39891839072516 -19.188425614600419 0 0 0 0 -20.326356356445885 10.148442964119553 0 10.148442964119553 9.812966895959164 0 0 0 0 -374.793348149542 -21.882446332718246 0 -21.882446332718246 -119.09424709105679 0 0 0 0 -759.48179489834729 13.569821770728595 0 13.569821770728595 123.06453741656151 0 0 0 0 -341.84588333338615 277.4447794539883 0 277.4447794539883 -108.85961901179689 0 0 0 0 626.89148065632617 136.89858879795065 0 136.89858879795065 -4.1066347895102808 0 0 0 0 631.43368789719534 -87.309171393906581 0 -87.309171393906581 207.99994363936821 0 0 0 0 563.24504721591074 164.9187111704814 0 164.9187111704814 192.17049829651296 0 0 0 0 1096.3488787122078 4.1111997059597343 0 4.1111997059597343 -76.568830900709145 0 0 0 0 536.12949179513089 92.618375251826365 0 92.618375251826365 7.7290837686305167 0 0 0 0 556.53148463513935 132.29345550424478 0 132.29345550424478 -25.469890112348367 0 0 0 0 575.54765051743016 -118.31418061214208 0 -118.31418061214208 55.251959249269021 0 0 0 0 -759.38075000021308 228.70114115551223 0 228.70114115551223 127.03405827640381 0 0 0 0 3.8419853019797721 9.8370199537625993 0 9.8370199537625993 24.157560718109039 0 0 0 0 3.1064211486119362 129.23585495347322 0 129.23585495347322 36.736085040234457 0 0 0 0 212.22731466542609 208.8168521229818 0 208.8168521229818 14.978341711161193 0 0 0 0 175.57462664483319 143.87628728827985 0 143.87628728827985 -66.275978294972447 0 0 0 0 -336.47242894100782 182.54835349839414 0 182.54835349839414 147.40426664632105 0 0 0 0 -383.46638660186727 33.102847825917706 0 33.102847825917706 -24.554479212027218 0 0 0 0 -1008.0028836182901 283.87543720731628 0 283.87543720731628 137.00371881007959 0 0 0 0 -1036.9922313634306 98.747654844875797 0 98.747654844875797 305.22826536983121 0 0 0 0 -961.89792346896138 38.754758043831316 0 38.754758043831316 185.36413716172683 0 0 0 0 -979.91652299090856 -12.368120736171477 0 -12.368120736171477 288.70652679188061 0 0 0 0 -1084.2034841819259 185.0210275407444 0 185.0210275407444 179.07850413382403 0 0 0 0 58.628644394451868 10.795164897199555 0 10.795164897199555 2.4098484419001807 0 0 0 0 29.872870667415555 214.47152907775308 0 214.47152907775308 5.0009679601644166 0 0 0 0 -314.38323418625805 137.73021376701945 0 137.73021376701945 164.74643103803828 0 0 0 0 107.49490696358407 156.29383610507648 0 156.29383610507648 -29.584336205662112 0 0 0 0 -156.57779308043246 -2.27424001244799 0 -2.27424001244799 30.342296458897181 0 0 0 0 -7.0112322269040135 67.890513937889793 0 67.890513937889793 67.5413779529419 0 0 0 0 50.134070157320821 76.16467304343314 0 76.16467304343314 33.70497392010293 0 0 0 0 -755.28910067596007 158.44292367775779 0 158.44292367775779 164.2134837602207 0 0 0 0 -3.7755987152777379 -114.74807304364731 0 -114.74807304364731 -348.96479195346183 0 0 0 0 -5.2042089547970249 81.659711643157749 0 81.659711643157749 42.479044120358452 0 0 0 0 40.976197836891458 90.016197263436467 0 90.016197263436467 47.562835653491646 0 0 0 0 -225.56252986012987 257.36594420686015 0 257.36594420686015 126.17740569982561 0 0 0 0 42.00324360941886 114.57171828169521 0 114.57171828169521 81.005993785498731 0 0 0 0 34.969822069174484 68.84711803580123 0 68.84711803580123 12.701431135500677 0 0 0 0 38.927281439682702 67.592683125141775 0 67.592683125141775 -26.287808197212144 0 0 0 0 -397.74225972365821 192.24908530509856 0 192.24908530509856 151.72871219189255 0 0 0 0 -984.73496712987617 338.11466802120776 0 338.11466802120776 248.9811998216901 0 0 0 0 -355.26455525940946 415.56447004103393 0 415.56447004103393 196.18840100226225 0 0 0 0 -296.51332208322128 247.05225060832163 0 247.05225060832163 100.98254283958522 0 0 0 0 1851.265600436047 86.229232806726941 0 86.229232806726941 -200.8500540889072 0 0 0 0 0.92020814810748419 2.3056855645615357 0 2.3056855645615357 8.4216453872572856 0 0 0 0 570.48621051384544 681.17569003353128 0 681.17569003353128 207.88880579118268 0 0 0 0 -293.68302761875384 356.33698861343146 0 356.33698861343146 398.40405290403578 0 0 0 0 88.928700962191215 96.87436821773008 0 96.87436821773008 25.921060336140272 0 0 0 0 1002.8323147342307 43.072642964383704 0 43.072642964383704 -600.80301978392527 0 0 0 0 50.740332415162015 55.282533011829713 0 55.282533011829713 -16.906227015836897 0 0 0 0 -14.922219577587015 22.335819932353928 0 22.335819932353928 10.98849739253825 0 0 0 0 1137.4773371652773 1272.6437475797793 0 1272.6437475797793 1165.5681705899915 0 0 0 0 1438.1915021781169 1388.4749609606806 0 1388.4749609606806 1151.107267245261 0 0 0 0 1383.1491659797248 1264.0580495955292 0 1264.0580495955292 909.59367238075356 0 0 0 0 84.367610652770963 136.34321296961571 0 136.34321296961571 68.573114695932418 0 0 0 0 30.396907892492891 52.563480303295364 0 52.563480303295364 57.835829505260335 0 0 0 0 -18.866966194254559 13.5575328882598 0 13.5575328882598 -4.6062382738506358 0 0 0 0 1511.1525479209522 1225.00851294733 0 1225.00851294733 693.38016149924806 0 0 0 0 1358.8582880599643 901.59794957666054 0 901.59794957666054 584.07117917905271 0 0 0 0 1446.5106096679519 1123.13046498115 0 1123.13046498115 712.81063160278427 0 0 0 0 1400.6240768480493 1345.051673221511 0 1345.051673221511 878.40509205479611 0 0 0 0 1145.3168918328884 1569.6264781505415 0 1569.6264781505415 1158.2564392370987 0 0 0 0 1831.3638480479131 1380.0474724426604 0 1380.0474724426604 658.42695212435137 0 0 0 0 1667.9738404710479 1054.7547473782124 0 1054.7547473782124 546.75889494073635 0 0 0 0 1218.9749323646174 1933.083950233482 0 1933.083950233482 2931.6020940621092 0 0 0 0 819.01452076364512 759.85460251276527 0 759.85460251276527 896.39995859761439 0 0 0 0 -39.681516889503285 29.265785500627914 0 29.265785500627914 -14.321703861220186 0 0 0 0 -378.85694062433322 1298.3701259322333 0 1298.3701259322333 3612.0507262566462 0 0 0 0 -118.79333335248521 792.65947533924918 0 792.65947533924918 2482.9250679022516 0 0 0 0 -12.173035532151772 8.1377761163649467 0 8.1377761163649467 45.588773596303412 0 0 0 0 3663.6052236578471 1986.4187166372103 0 1986.4187166372103 957.63108175043453 0 0 0 0 134.07695395059272 -308.29783822042737 0 -308.29783822042737 771.33948282213532 0 0 0 0 -45.320994579053888 66.419409856413921 0 66.419409856413921 -26.145770544786558 0 0 0 0 16.816035332818501 152.90368069510987 0 152.90368069510987 375.71774972308776 0 0 0 0 46.93817838022369 -27.50361498825805 0 -27.50361498825805 -60.913688837754307 0 0 0 0 424.13246262111352 271.99004589175456 0 271.99004589175456 -67.539952131221071 0 0 0 0 -8.4692543243824616 13.122945866124695 0 13.122945866124695 7.0853765272494229 0 0 0 0 165.43139229476947 -38.232681155563114 0 -38.232681155563114 75.948987715230032 0 0 0 0 -146.27313693487667 199.5497096604995 0 199.5497096604995 157.74548595743545 0 0 0 0 17.901163134556555 105.70160609937739 0 105.70160609937739 80.213796013435058 0 0 0 0 -11.53406111541234 65.650530896753352 0 65.650530896753352 39.814967657647173 0 0 0 0 -1.3762887621450659 25.430542878507737 0 25.430542878507737 1.3514469160942326 0 0 0 0 61.454882831152645 50.968231387168998 0 50.968231387168998 18.219776844402077 0 0 0 0 23.7410602347076 72.717531687648446 0 72.717531687648446 34.630849377754458 0 0 0 0 -36.495067142910557 70.34446511538772 0 70.34446511538772 44.802263269375544 0 0 0 0 -16.666095738342406 22.988391958377633 0 22.988391958377633 7.8317930107757547 0 0 0 0 -807.21522095944965 629.65188184631006 0 629.65188184631006 -509.40576514780696 0 0 0 0 141.74986371207706 205.85749148024297 0 205.85749148024297 4.402731319758459 0 0 0 0 -1384.8737231064297 -25.172237728424079 0 -25.172237728424079 285.41218301368644 0 0 0 0 -1974.7935689176375 1269.9331808099814 0 1269.9331808099814 -320.38992016208795 0 0 0 0 -1285.6122162642132 -447.13201895759266 0 -447.13201895759266 908.65861016586496 0 0 0 0 -1327.3507338865747 384.66267301406697 0 384.66267301406697 702.46220200517564 0 0 0 0 -2542.6853234829032 753.67660205164429 0 753.67660205164429 1794.0439811124415 0 0 0 0 -49.243054472506628 236.02410357523331 0 236.02410357523331 -530.27145684317293 0 0 0 0 -1336.4793344176433 210.72335715832014 0 210.72335715832014 -251.71922246433678 0 0 0 0 -2.9622616849249042 5.6291277752813471 0 5.6291277752813471 -7.3226222788766222 0 0 0 0 -220.66740720289818 130.48361497452424 0 130.48361497452424 136.22941976961738 0 0 0 0 -2645.3100663004006 707.24891472100353 0 707.24891472100353 1109.615122222378 0 0 0 0 -1816.5266026296013 -408.80131665578665 0 -408.80131665578665 420.35441267108945 0 0 0 0 -2523.3974392627497 -114.55753161897519 0 -114.55753161897519 579.70514045248274 0 0 0 0 -1520.9461110834309 729.26067109383075 0 729.26067109383075 424.46026083099423 0 0 0 0 -2404.2884352745314 155.36412895899412 0 155.36412895899412 494.91611659716 0 0 0 0 -2077.1320525408955 -499.5991300126916 0 -499.5991300126916 -817.71848376458365 0 0 0 0 -1869.2830264916702 -63.134056932387466 0 -63.134056932387466 378.57344862045693 0 0 0 0 -1792.9447938339617 353.86384319273202 0 353.86384319273202 307.85527880449081 0 0 0 0 -1678.1924801729874 -218.99852552329412 0 -218.99852552329412 497.39700696954969 0 0 0 0 -1715.4909871401833 -22.517554245205247 0 -22.517554245205247 -266.765436555419 0 0 0 0 -3051.6031767198292 286.7504099250873 0 286.7504099250873 700.43225879270176 0 0 0 0 -2827.4709532437846 -444.01346678213304 0 -444.01346678213304 64.812757858730038 0 0 0 0 -4.4563985501199994 3.7139601257897255 0 3.7139601257897255 3.4266003694991696 0 0 0 0 -693.85233454685658 541.09122307965299 0 541.09122307965299 465.38110714362119 0 0 0 0 -3836.9906924925308 -618.91576785346115 0 -618.91576785346115 488.70972159018856 0 0 0 0 -3535.9169298542329 111.51380697101195 0 111.51380697101195 -99.751360405847663 0 0 0 0 824.56851535748865 324.10644996921474 0 324.10644996921474 -195.70938917237072 0 0 0 0 -3606.0883014996944 -794.81102660507167 0 -794.81102660507167 410.41589544113958 0 0 0 0 158.99749094320578 37.564226873510052 0 37.564226873510052 -14.220281536049697 0 0 0 0 334.28573076528846 593.676076958669 0 593.676076958669 361.15033596822468 0 0 0 0 -49.728021728260501 418.77134784984446 0 418.77134784984446 -660.46708983507415 0 0 0 0 1009.7925312020379 1167.0573106967386 0 1167.0573106967386 294.84929858591022 0 0 0 0 -122.08626002901292 -741.82675389344513 0 -741.82675389344513 607.88225480914844 0 0 0 0 69.918839669087902 630.44668387886304 0 630.44668387886304 2044.7158908941565 0 0 0 0 411.64455781805736 -130.25269191952975 0 -130.25269191952975 -113.48056539213576 0 0 0 0 22.463213957680694 3.2563262494436032 0 3.2563262494436032 2.2276879319910261 0 0 0 0 -64.411860297434032 -29.670141662027163 0 -29.670141662027163 2.3818498795517371 0 0 0 0 722.32445988210384 1366.2208816054772 0 1366.2208816054772 166.46655155273038 0 0 0 0 1130.7794031531812 105.22319191274437 0 105.22319191274437 -404.29899438289431 0 0 0 0 -1408.1810398832458 1734.8711477281213 0 1734.8711477281213 1332.6431406773845 0 0 0 0 -34.838561191558256 255.9916045713835 0 255.9916045713835 -698.43569268602005 0 0 0 0 125.81562395651054 181.10711369247656 0 181.10711369247656 90.169839103706181 0 0 0 0 278.70865479412896 466.46935827897687 0 466.46935827897687 -557.45342985124807 0 0 0 0 -7.9830745246730999 1.6057786824024447 0 1.6057786824024447 0.6346457956014433 0 0 0 0 621.80514829602907 575.52406776449425 0 575.52406776449425 -975.55136588834284 0 0 0 0 -45.200116328305739 138.81907929968838 0 138.81907929968838 378.79707286207122 0 0 0 0 484.75464316470618 773.12100381291771 0 773.12100381291771 255.89044746548461 0 0 0 0 -57.523151040266868 55.346998812882362 0 55.346998812882362 -35.096017248807868 0 0 0 0 478.21495823026635 247.28748070010624 0 247.28748070010624 62.167090259965335 0 0 0 0 -141.48311013376224 328.38875935586111 0 328.38875935586111 243.6931304642203 0 0 0 0 97.912987664763932 -19.02594735270759 0 -19.02594735270759 -329.65546878086752 0 0 0 0 -27.541772053577006 251.90486538831465 0 251.90486538831465 -697.53224471971589 0 0 0 0 -1462.8290481141594 361.61781165383945 0 361.61781165383945 -3373.7846756265499 0 0 0 0 -391.38567993194738 -49.665019250138357 0 -49.665019250138357 -36.409331013841438 0 0 0 0 -4.2380161161505612 11.89817392635311 0 11.89817392635311 -14.174279989992527 0 0 0 0 -776.27352647628868 328.02604341505867 0 328.02604341505867 -298.15706067254723 0 0 0 0 -1690.85568767105 -1224.3345686436223 0 -1224.3345686436223 -170.11356704504578 0 0 0 0 -807.10802382753172 -790.40245503915503 0 -790.40245503915503 -877.20044799575408 0 0 0 0 -26.932768254898804 5.5170583408611549 0 5.5170583408611549 6.6277540021436909 0 0 0 0 -1005.0793077450944 1078.4937265600238 0 1078.4937265600238 -1091.4439674158712 0 0 0 0 -2269.2641771330673 -1116.2923037499932 0 -1116.2923037499932 899.92708839496481 0 0 0 0 -955.08797161690018 -425.08651132485102 0 -425.08651132485102 163.19916725403164 0 0 0 0 -1821.1596034282229 -144.88051441536209 0 -144.88051441536209 1130.8534024411056 0 0 0 0 -1289.3386228853487 4.3349913527781609 0 4.3349913527781609 495.31199298999127 0 0 0 0 -1821.120072815218 -180.58008948857605 0 -180.58008948857605 432.0258259683178 0 0 0 0 -125.98232328059157 -40.062747364121265 0 -40.062747364121265 -113.04657879998558 0 0 0 0 -99.935663545416901 286.24696939336718 0 286.24696939336718 85.890233483809425 0 0 0 0 -393.58677211697795 104.51070664831059 0 104.51070664831059 202.79026785916358 0 0 0 0 -3.4213799436576977 9.7914982707393392 0 9.7914982707393392 -6.2502469709936577 0 0 0 0 -2027.8090215616685 171.7410710776312 0 171.7410710776312 700.93804487615853 0 0 0 0 -1243.9616671262193 348.30679440691165 0 348.30679440691165 -1.3694144017936196 0 0 0 0 -1791.7215329525206 364.98647441736102 0 364.98647441736102 341.59016952724778 0 0 0 0 -1169.0072387014225 -64.326929209360969 0 -64.326929209360969 314.95545001490973 0 0 0 0 -1161.6202451789213 16.777793014265626 0 16.777793014265626 44.044375446581398 0 0 0 0 160.42794220840733 309.19864119271369 0 309.19864119271369 -135.52885686785157 0 0 0 0 -1125.7184902340632 200.02026321863696 0 200.02026321863696 405.9272314706468 0 0 0 0 -54.399134672653418 50.296900366601534 0 50.296900366601534 -27.255373419928503 0 0 0 0 695.95107623860531 708.65788368279755 0 708.65788368279755 777.69919267360456 0 0 0 0 735.79270578789146 756.31348785634327 0 756.31348785634327 565.74801166333782 0 0 0 0 487.75141413052916 529.21076085309687 0 529.21076085309687 443.13208554748417 0 0 0 0 212.96847113411422 577.83761319021596 0 577.83761319021596 280.66512031741149 0 0 0 0 -10.812768237090495 126.11181174193553 0 126.11181174193553 350.44354220521927 0 0 0 0 967.94257006167027 1110.9703109785696 0 1110.9703109785696 785.98620688531082 0 0 0 0 871.21728496637661 804.60495462101244 0 804.60495462101244 441.46712211071281 0 0 0 0 869.1505999519286 634.31540171513188 0 634.31540171513188 593.12767958454447 0 0 0 0 1115.3411465216632 944.20412236243646 0 944.20412236243646 513.46941929828608 0 0 0 0 1447.8920025721454 1086.9582265665886 0 1086.9582265665886 341.84931483550463 0 0 0 0 1211.7270998859676 916.39339216360531 0 916.39339216360531 218.67530062621518 0 0 0 0 1852.6532322592975 1070.7775825860299 0 1070.7775825860299 83.485679332487052 0 0 0 0 1463.145012049572 1169.0039494385574 0 1169.0039494385574 309.60482764245535 0 0 0 0 1.3708596580384551 25.072313318748826 0 25.072313318748826 26.751018195031861 0 0 0 0 1320.4406493445131 543.7209367457981 0 543.7209367457981 206.07001907814993 0 0 0 0 1349.285133585734 608.9991419681719 0 608.9991419681719 263.73268112359801 0 0 0 0 9.1781400920907572 9.8647605657639303 0 9.8647605657639303 2.1536701137054308 0 0 0 0 1379.7971252034476 573.80775766126317 0 573.80775766126317 168.7224476065021 0 0 0 0 4.7774021824131552 7.5409931272008635 0 7.5409931272008635 10.651972797862641 0 0 0 0 4885.7617402136384 1089.0902937170249 0 1089.0902937170249 7.4976383114553755 0 0 0 0 1365.5307378839643 518.66329186619623 0 518.66329186619623 121.51580364012625 0 0 0 0 2705.0103535449016 518.09913835133921 0 518.09913835133921 -91.559761189608253 0 0 0 0 2013.3155035039526 1554.6487152312475 0 1554.6487152312475 562.25690799428412 0 0 0 0 1460.8640113964793 1108.5355034039239 0 1108.5355034039239 804.74285394720937 0 0 0 0 1443.4508319879533 1247.4520814270363 0 1247.4520814270363 1544.2829004998603 0 0 0 0 1505.3192610455044 959.77576178316667 0 959.77576178316667 553.88710458771675 0 0 0 0 2804.1121116231516 1989.1345298293672 0 1989.1345298293672 1276.3280628522771 0 0 0 0 -794.97235896598067 433.27864141718419 0 433.27864141718419 584.82860429064021 0 0 0 0 2481.0567724743414 1676.4155171099956 0 1676.4155171099956 278.46734924137127 0 0 0 0 2203.1510397536731 903.13464753945846 0 903.13464753945846 675.98017745382094 0 0 0 0 1687.9161007411312 1589.585859408493 0 1589.585859408493 412.42042253255931 0 0 0 0 1356.4036562429392 1260.2641859482974 0 1260.2641859482974 527.50273119013582 0 0 0 0 1341.4648707935994 878.96157108234911 0 878.96157108234911 360.16819632177067 0 0 0 0 671.04278459632769 790.92935062334436 0 790.92935062334436 731.08456715330249 0 0 0 0 644.51096398357186 900.14699721262878 0 900.14699721262878 339.04364772846748 0 0 0 0 1069.3148701361206 1276.9841827464988 0 1276.9841827464988 1091.3381752183632 0 0 0 0 874.53416441055742 845.79334972089055 0 845.79334972089055 502.17366181564284 0 0 0 0 823.48600518495368 918.71510502778619 0 918.71510502778619 398.15054636658169 0 0 0 0 585.70373794288025 922.03328643805071 0 922.03328643805071 596.43289674435073 0 0 0 0 458.73865128496618 1051.307335767935 0 1051.307335767935 -54.014725517408806 0 0 0 0 -58.785019356331532 56.144313033969013 0 56.144313033969013 -41.027948234519357 0 0 0 0 184.90355516805721 295.40262175680255 0 295.40262175680255 368.37435366621912 0 0 0 0 483.30042865545693 -33.866429104342387 0 -33.866429104342387 -518.88494888709829 0 0 0 0 -7.527304353134241 -631.19028531055665 0 -631.19028531055665 -1034.023002632508 0 0 0 0 -328.8900060056767 -207.76780260816304 0 -207.76780260816304 204.14377992892696 0 0 0 0 -41.756465526672628 60.025763025404643 0 60.025763025404643 -44.107620640120189 0 0 0 0 46.453030391887296 -51.906720443155791 0 -51.906720443155791 107.41481296312122 0 0 0 0 647.0556767405651 342.43955799927789 0 342.43955799927789 -265.23237168852211 0 0 0 0 247.56497497768578 304.96998914452342 0 304.96998914452342 -82.629084154759767 0 0 0 0 32.667518806934822 71.720829893405607 0 71.720829893405607 24.179380171398407 0 0 0 0 57.78897994834341 41.011152272481638 0 41.011152272481638 -43.441314991685061 0 0 0 0 135.32554806822736 134.52378361340197 0 134.52378361340197 -111.31850703117379 0 0 0 0 65.381143935684463 11.668030220734352 0 11.668030220734352 -6.9407784125918752 0 0 0 0 152.13930438662646 327.11246511359059 0 327.11246511359059 549.13728019808696 0 0 0 0 -0.18364736874957543 19.461968356621043 0 19.461968356621043 -8.0091867390236189 0 0 0 0 115.24653178500012 374.51411555354025 0 374.51411555354025 489.51685386970348 0 0 0 0 216.39775721353362 476.60867169273115 0 476.60867169273115 540.72841322734166 0 0 0 0 222.22571209602756 428.83154951622419 0 428.83154951622419 313.91189884899359 0 0 0 0 177.97081978862479 125.16548589315607 0 125.16548589315607 67.258120786988002 0 0 0 0 20.690221397215907 25.927459044296626 0 25.927459044296626 -27.583932054244769 0 0 0 0 139.73489716483164 260.67622708620183 0 260.67622708620183 419.29172277555335 0 0 0 0 219.16777460742742 454.38867492846839 0 454.38867492846839 358.97214892216289 0 0 0 0 329.19028730812715 446.515798080065 0 446.515798080065 357.7046551261501 0 0 0 0 148.48413145603263 338.24099473122988 0 338.24099473122988 -18.910874695553503 0 0 0 0 -74.540334108169191 46.227565188113658 0 46.227565188113658 -291.91039029219246 0 0 0 0 116.27635937920422 133.61312285321037 0 133.61312285321037 -357.83071046393161 0 0 0 0 190.52896037767641 93.409407631879731 0 93.409407631879731 -103.83868453794275 0 0 0 0 21.445842583074409 414.02248031616728 0 414.02248031616728 265.02595872367965 0 0 0 0 386.43781760438287 396.65350314612806 0 396.65350314612806 143.7123072387476 0 0 0 0 -11.722412700260065 5.1438145084387941 0 5.1438145084387941 11.929012668406727 0 0 0 0 -25.728854997974736 43.163234193793841 0 43.163234193793841 -17.959073536654103 0 0 0 0 703.2938540855248 11.293200634871027 0 11.293200634871027 94.799921535872272 0 0 0 0 -27.146598039178969 29.140089602719343 0 29.140089602719343 -24.417512020101739 0 0 0 0 515.2554969746343 639.41430463267534 0 639.41430463267534 193.30772920591698 0 0 0 0 34.173051733843749 320.59419396148587 0 320.59419396148587 197.48681041588316 0 0 0 0 843.68973135395208 1842.7586275941503 0 1842.7586275941503 2722.6138859109378 0 0 0 0 1431.2181584124555 -346.94658798070668 0 -346.94658798070668 -495.44134146958822 0 0 0 0 17.803041489655016 -0.57219397257635762 0 -0.57219397257635762 0.35966066895183957 0 0 0 0 448.94130186410621 557.13414114635088 0 557.13414114635088 38.633051976186835 0 0 0 0 42.686032919101024 20.441751132714288 0 20.441751132714288 -14.534568108488934 0 0 0 0 -12.003492799951346 196.51419478245953 0 196.51419478245953 -134.55233832076192 0 0 0 0 229.53982727386756 443.56337750831881 0 443.56337750831881 410.72377605164365 0 0 0 0 26.359866574706757 503.68770364732632 0 503.68770364732632 430.16523737460375 0 0 0 0 1727.6821967649157 1282.6239600326371 0 1282.6239600326371 407.89108460889111 0 0 0 0 582.07088919426315 453.0480671967016 0 453.0480671967016 140.76239544253622 0 0 0 0 666.02478560399868 1158.0536675804965 0 1158.0536675804965 1064.9165196612885 0 0 0 0 569.37148691516268 738.1970995916754 0 738.1970995916754 646.13465564290527 0 0 0 0 1767.9785370230184 1539.1060449867859 0 1539.1060449867859 444.06601218266587 0 0 0 0 2459.7615659406438 1951.2304243082981 0 1951.2304243082981 689.14154784778657 0 0 0 0 2222.2506696782511 829.08019698428416 0 829.08019698428416 832.56292777138879 0 0 0 0 792.88654764709645 1415.6869195167092 0 1415.6869195167092 637.82308845166699 0 0 0 0 666.98860977610457 885.91332823895209 0 885.91332823895209 335.60133184469305 0 0 0 0 100.41185929055791 1395.6282855855097 0 1395.6282855855097 946.81660601492331 0 0 0 0 355.52935908103973 1723.3824041027201 0 1723.3824041027201 1122.7184541613969 0 0 0 0 672.64924447751764 1256.5595789168538 0 1256.5595789168538 912.43656346430362 0 0 0 0 1253.0857670598198 2034.8753954076747 0 2034.8753954076747 1578.2340486812427 0 0 0 0 646.25100297742756 1245.6297989936793 0 1245.6297989936793 1923.7355753349111 0 0 0 0 2691.3856157974515 1448.9354534390222 0 1448.9354534390222 221.86674575894722 0 0 0 0 1125.4274659165239 727.42546761364065 0 727.42546761364065 -43.936159338576545 0 0 0 0 1293.8891243461676 1575.1633221216907 0 1575.1633221216907 520.48757072557055 0 0 0 0 677.60990931063134 1377.3138071428875 0 1377.3138071428875 838.90224492151901 0 0 0 0 377.53737591762911 1815.2847822890144 0 1815.2847822890144 -81.28345883590373 0 0 0 0 480.58178984865663 807.82826917315833 0 807.82826917315833 540.24822328236041 0 0 0 0 93.811424110579537 1378.9878467286762 0 1378.9878467286762 490.1956373648427 0 0 0 0 -9.76204324306741 8.7916726037705359 0 8.7916726037705359 -7.8836066677317262 0 0 0 0 265.07427049899707 1371.9862626260219 0 1371.9862626260219 325.62326660093458 0 0 0 0 367.30379899946274 1567.1076809781443 0 1567.1076809781443 628.56368476799253 0 0 0 0 154.04862450010842 1412.2209320467591 0 1412.2209320467591 647.45641988197622 0 0 0 0 0.46779871704347897 1307.2084013648564 0 1307.2084013648564 620.64696841417754 0 0 0 0 -0.33794801842304878 1379.1981943552746 0 1379.1981943552746 739.90223770947159 0 0 0 0 143.37098753475584 1416.1420615201387 0 1416.1420615201387 702.9149588541477 0 0 0 0 66.104207482912898 1095.9071714318591 0 1095.9071714318591 269.64440941904468 0 0 0 0 -337.35279418079881 773.14721602288773 0 773.14721602288773 263.56388080686429 0 0 0 0 -0.9270101556920467 1262.6531586237211 0 1262.6531586237211 -747.73937098367605 0 0 0 0 154.1866431900271 -162.2889248856045 0 -162.2889248856045 -2816.3710517239597 0 0 0 0 12.022081419258029 441.54007200433989 0 441.54007200433989 -476.27335920087353 0 0 0 0 133.87285992887337 1296.7412015127957 0 1296.7412015127957 38.109766056732042 0 0 0 0 1659.6220059931802 1261.6185489744821 0 1261.6185489744821 287.75757273825729 0 0 0 0 1380.1184801489435 1793.6033461516708 0 1793.6033461516708 897.04808047282131 0 0 0 0 223.30159083750914 930.85036256408057 0 930.85036256408057 662.98979784628682 0 0 0 0 175.63769686836167 340.05605492510949 0 340.05605492510949 -416.74486910942869 0 0 0 0 550.31203306237876 849.36727611194146 0 849.36727611194146 -261.01076540010399 0 0 0 0 -32.833496217572247 20.414562215642945 0 20.414562215642945 -239.22437046157495 0 0 0 0 209.2133512823566 -123.77898181906312 0 -123.77898181906312 -1410.2035328854545 0 0 0 0 395.10708912815608 452.80767891678624 0 452.80767891678624 -301.67586762710562 0 0 0 0 -48.439579984493321 174.55032504566043 0 174.55032504566043 -413.17352371573725 0 0 0 0 36.07417980993705 97.280546127470188 0 97.280546127470188 23.861915990404668 0 0 0 0 -28.686501145584145 31.272001981580928 0 31.272001981580928 -9.2603455983042409 0 0 0 0 39.165067038176858 82.143333105947022 0 82.143333105947022 42.486216069868533 0 0 0 0 63.639225696097128 101.00999179849896 0 101.00999179849896 73.251949356196747 0 0 0 0 2.5727148461010074 137.68044296386506 0 137.68044296386506 66.708862364386732 0 0 0 0 0.053413406959820789 161.73744968493256 0 161.73744968493256 223.9808669702179 0 0 0 0 -6.4832049863668999 3.0547501865924858 0 3.0547501865924858 -3.7734413261799489 0 0 0 0 -18.662438245136741 12.723598235082989 0 12.723598235082989 -10.109293923278202 0 0 0 0 40.074016344413394 163.48104498026078 0 163.48104498026078 141.78887841617689 0 0 0 0 53.132507340167649 252.07200574061244 0 252.07200574061244 208.0899566748194 0 0 0 0 258.02976351937104 211.19234507977308 0 211.19234507977308 -2.9771622165135341 0 0 0 0 306.30040710845788 482.05280465804026 0 482.05280465804026 186.64573301910059 0 0 0 0 0.1163827613054309 210.08369472047889 0 210.08369472047889 -10.517235831124708 0 0 0 0 114.45198230890674 97.001168085820609 0 97.001168085820609 -201.68728901496434 0 0 0 0 119.75329232000513 337.32334782385806 0 337.32334782385806 -116.53917333402205 0 0 0 0 -309.02313543624768 361.57306251607042 0 361.57306251607042 -208.25251064365875 0 0 0 0 -34.517066990702006 141.81656009059589 0 141.81656009059589 -32.782086572085973 0 0 0 0 145.65961928979232 -429.42711316642271 0 -429.42711316642271 -321.50935381439922 0 0 0 0 -435.95055664028041 -18.621718472395514 0 -18.621718472395514 64.688990610298788 0 0 0 0 -9.6893987566772921 4.4357082581176996 0 4.4357082581176996 0.32311829564967809 0 0 0 0 -152.3864815892448 -27.31910857675939 0 -27.31910857675939 39.093072516254324 0 0 0 0 -56.939303118488169 -53.169079310093366 0 -53.169079310093366 -4.9941236502527317 0 0 0 0 132.90923283417942 275.85141554228903 0 275.85141554228903 18.779710456168687 0 0 0 0 -43.409095772105502 101.95187520473337 0 101.95187520473337 340.50277637596446 0 0 0 0 -179.62551451390027 239.36071838871067 0 239.36071838871067 216.06142436283153 0 0 0 0 173.08648235689361 -296.10761866467237 0 -296.10761866467237 446.2047188517754 0 0 0 0 1532.5648679384467 901.33713566331062 0 901.33713566331062 -5.3090788167983192 0 0 0 0 478.21104487789853 1132.712088973607 0 1132.712088973607 935.03072079848607 0 0 0 0 524.077238173566 1541.2545860640512 0 1541.2545860640512 2487.4045698883856 0 0 0 0 888.94460528416676 451.95664938992195 0 451.95664938992195 158.05508100824227 0 0 0 0 61.059711290457926 686.36842226304907 0 686.36842226304907 962.93124034873836 0 0 0 0 0.88659500754147302 410.9793978855887 0 410.9793978855887 498.89956504094516 0 0 0 0 137.39831540924206 336.1349280682698 0 336.1349280682698 2063.800444528888 0 0 0 0 -0.94788579391024541 679.3969307383868 0 679.3969307383868 2372.2653271682575 0 0 0 0 225.02896867101663 -29.536927833836671 0 -29.536927833836671 3586.5744259042549 0 0 0 0 0.70291430244732811 766.38578562922521 0 766.38578562922521 1412.4944639049208 0 0 0 0 245.93483342372929 532.59641393244237 0 532.59641393244237 1343.4196726263071 0 0 0 0 792.76996481093738 540.62627008427125 0 540.62627008427125 687.10263785374991 0 0 0 0 532.04507683846168 924.97255667001446 0 924.97255667001446 181.88700656133187 0 0 0 0 0.12332162256643642 896.29818048408561 0 896.29818048408561 884.11465074980515 0 0 0 0 251.28447331581265 1519.3340453754845 0 1519.3340453754845 -819.83678633141972 0 0 0 0 217.2336075657804 -247.7571891419575 0 -247.7571891419575 -1574.2899516135803 0 0 0 0 839.78235217607653 794.42771679194129 0 794.42771679194129 -701.85835014481563 0 0 0 0 -489.9717427315918 721.27736281970101 0 721.27736281970101 990.29040391838134 0 0 0 0 -290.02091743976052 1374.8158037547437 0 1374.8158037547437 3987.805031426753 0 0 0 0 1817.1032343501429 1103.008967237387 0 1103.008967237387 1049.5197094763225 0 0 0 0 291.18342955618573 -961.85076858988396 0 -961.85076858988396 3509.7637476316086 0 0 0 0 12.456568709831856 14.909449767102842 0 14.909449767102842 25.985649613146876 0 0 0 0 -316.75599906485877 724.72855279128134 0 724.72855279128134 1822.9859248227731 0 0 0 0 -421.38097987876245 1161.251432522251 0 1161.251432522251 1465.0743850788494 0 0 0 0 -426.0529857094225 -27.812486881441146 0 -27.812486881441146 2255.9033636920485 0 0 0 0 -229.82005310093518 613.95750318005594 0 613.95750318005594 874.74415928613234 0 0 0 0 155.90148645907175 1175.2665756553397 0 1175.2665756553397 1345.0965172615579 0 0 0 0 -4.3961861505606521 5.0333384902641285 0 5.0333384902641285 0.82542895546674799 0 0 0 0 -274.01211379836968 1355.2788345092572 0 1355.2788345092572 1702.6980494295858 0 0 0 0 -58.924822334287455 1460.1291909223874 0 1460.1291909223874 1100.6451204750883 0 0 0 0 620.34963386296295 816.72777467122069 0 816.72777467122069 23.745385678301318 0 0 0 0 209.33418570460344 922.13747608691119 0 922.13747608691119 1402.0865908370397 0 0 0 0 418.09268578280171 404.27015229800963 0 404.27015229800963 -360.72701930622861 0 0 0 0 608.59039443453366 460.85351939616157 0 460.85351939616157 201.29735246034761 0 0 0 0 314.26536943970859 490.48351970990007 0 490.48351970990007 229.9730845871818 0 0 0 0 12.00986785026862 6.1012099881725703 0 6.1012099881725703 -2.4743120662148712 0 0 0 0 6.5191936529238887 3.9929749964076109 0 3.9929749964076109 -0.58246177024579993 0 0 0 0 344.89545028946304 212.07136726593671 0 212.07136726593671 246.40617470463803 0 0 0 0 -31.559584947754047 736.61745491221518 0 736.61745491221518 2083.2778170457823 0 0 0 0 95.881676006043563 888.27689038109747 0 888.27689038109747 1526.9321191868148 0 0 0 0 2337.0192319601774 954.03653922717785 0 954.03653922717785 2813.3300735741796 0 0 0 0 -813.45582598593319 1467.3042835098604 0 1467.3042835098604 2794.0995142868596 0 0 0 0 -1.3651709682353044 3.047318098897307 0 3.047318098897307 4.2761117072406449 0 0 0 0 543.56005448259384 899.58072913494834 0 899.58072913494834 308.46919804025674 0 0 0 0 -631.35989018160035 140.66739267600497 0 140.66739267600497 1928.6358664222716 0 0 0 0 -198.99912850131659 -28.333491168217734 0 -28.333491168217734 118.93189601693302 0 0 0 0 -51.685922517603615 88.510980598470937 0 88.510980598470937 -45.638583684077297 0 0 0 0 -624.64285587476661 424.94397462945767 0 424.94397462945767 283.86584633575694 0 0 0 0 261.53082657710911 144.36107458031302 0 144.36107458031302 -883.73180111223701 0 0 0 0 -34.151080772835712 87.574518746720258 0 87.574518746720258 -57.925032803965586 0 0 0 0 -130.24427198145713 116.80900581674359 0 116.80900581674359 251.76853115234553 0 0 0 0 146.61356670982786 276.5190388209885 0 276.5190388209885 -3.7349221452759593 0 0 0 0 263.16431046224898 329.5313457561424 0 329.5313457561424 278.90532179974252 0 0 0 0 297.75637190460111 414.4538984735118 0 414.4538984735118 385.26284216127624 0 0 0 0 -546.4380963590902 -189.39771192357648 0 -189.39771192357648 32.727569358234177 0 0 0 0 -1.3701163822909734 3.7868550822296072 0 3.7868550822296072 -8.6522328404003872 0 0 0 0 -480.57230333336338 267.2212601943429 0 267.2212601943429 789.2576238392503 0 0 0 0 -117.25267093902221 81.599429299807525 0 81.599429299807525 712.09166648275641 0 0 0 0 29.047113958670138 51.572776652284603 0 51.572776652284603 56.045506109394893 0 0 0 0 -212.26472051868041 123.63789995099069 0 123.63789995099069 41.714727176971792 0 0 0 0 9.1353808366366138 17.958648721630198 0 17.958648721630198 248.05698060599389 0 0 0 0 1.1589184406911954 91.877731870503339 0 91.877731870503339 517.55004755522077 0 0 0 0 14.227903672406683 175.04627605652058 0 175.04627605652058 354.55215895069705 0 0 0 0 -20.520256802256824 25.265499213724866 0 25.265499213724866 11.876318912895613 0 0 0 0 1.2133526751131285 246.18444707732124 0 246.18444707732124 303.030882081046 0 0 0 0 130.73512462517829 77.803362527170975 0 77.803362527170975 -154.63200241934101 0 0 0 0 10.240008380440997 69.679764250143364 0 69.679764250143364 -29.374763120618184 0 0 0 0 23.77507776254788 71.130451301207358 0 71.130451301207358 0.43078384580439888 0 0 0 0 31.80437625668128 123.15958272964053 0 123.15958272964053 -120.03042381909199 0 0 0 0 16.962899977683264 143.00477716522892 0 143.00477716522892 -125.69692829391352 0 0 0 0 -7.6290249079364685 76.488554308681415 0 76.488554308681415 -37.06209007555934 0 0 0 0 1.3017713819863275 121.82751578804709 0 121.82751578804709 -119.04191605055894 0 0 0 0 -60.208793686091667 155.85309717866403 0 155.85309717866403 -56.176837957180396 0 0 0 0 419.36939131160034 523.0397571262838 0 523.0397571262838 -514.05421020135691 0 0 0 0 64.402513207576703 34.43284230743302 0 34.43284230743302 -85.137365710226732 0 0 0 0 6.4670242914987739 14.688813263661473 0 14.688813263661473 12.369410037645174 0 0 0 0 27.352716460726299 62.264457711987902 0 62.264457711987902 -36.617816279726881 0 0 0 0 4.421006839430845 17.671013469695055 0 17.671013469695055 -17.276445785822204 0 0 0 0 -3.6270151648775197 4.3625529761332302 0 4.3625529761332302 -1.9568501386411299 0 0 0 0 741.98214843828464 102.36731085381143 0 102.36731085381143 -345.74337152067437 0 0 0 0 -509.25063304707874 303.57173819089076 0 303.57173819089076 279.05603707567934 0 0 0 0 -172.9513726591249 -125.85920888851615 0 -125.85920888851615 -860.1531601564493 0 0 0 0 64.064081926638778 37.498441109602439 0 37.498441109602439 -34.758874070880083 0 0 0 0 -651.02399339765179 -160.62976062815505 0 -160.62976062815505 -0.69282977433613269 0 0 0 0 106.76143892641994 55.809882365319936 0 55.809882365319936 -80.675812656798826 0 0 0 0 80.590487057619612 3.4803201449706194 0 3.4803201449706194 -2.0879601164415362 0 0 0 0 246.14245345712698 204.82584438398453 0 204.82584438398453 -251.33013018065685 0 0 0 0 175.79433624612284 -123.99601818928204 0 -123.99601818928204 -201.65516011611362 0 0 0 0 94.841682729911554 -26.382024321732843 0 -26.382024321732843 -288.64410529606539 0 0 0 0 40.839169199083699 140.92206061611114 0 140.92206061611114 -125.58207225401202 0 0 0 0 -1673.9598269776907 1017.0007251929401 0 1017.0007251929401 -178.66513882347863 0 0 0 0 -667.83823940872389 283.81599148697387 0 283.81599148697387 81.248181989820296 0 0 0 0 -472.8219970013015 382.23029989259703 0 382.23029989259703 -14.77098722835126 0 0 0 0 -1357.2703094050958 1032.5601383475405 0 1032.5601383475405 -253.31968512864751 0 0 0 0 -953.27380004621955 1016.9898859123405 0 1016.9898859123405 -549.19864414169206 0 0 0 0 -0.89809832726760419 -1.1651600399468123 0 -1.1651600399468123 -9.7999706885076989 0 0 0 0 112.78783714337624 29.875178915319339 0 29.875178915319339 -810.0781799260285 0 0 0 0 140.81343261626898 40.269658117424115 0 40.269658117424115 -56.03189679220668 0 0 0 0 3.4256528303418179 1.7537346170818182 0 1.7537346170818182 -27.828682698261311 0 0 0 0 -635.35857728269912 622.35296458028552 0 622.35296458028552 -27.630582492602116 0 0 0 0 -329.78475667188468 268.50541054356745 0 268.50541054356745 -135.49721691655759 0 0 0 0 -106.28547248750692 369.92797086550854 0 369.92797086550854 -1172.0405415387213 0 0 0 0 -1.0275987722062041 4.0357503882085837 0 4.0357503882085837 -5.8889189964884352 0 0 0 0 -879.60754176749469 1187.2292851117691 0 1187.2292851117691 -1025.6257655466543 0 0 0 0 -858.96437063165649 1259.3775062534214 0 1259.3775062534214 -1825.0639270111969 0 0 0 0 -1663.1038382382321 1069.6348806654519 0 1069.6348806654519 -651.49544204331869 0 0 0 0 332.28897952137049 622.89590228813995 0 622.89590228813995 -1477.8243912516718 0 0 0 0 -375.56396166878403 814.8661991852332 0 814.8661991852332 -643.45586223895771 0 0 0 0 -6.7038318085184301 4.979791899727104 0 4.979791899727104 -3.3800647841269402 0 0 0 0 -104.17112102534156 216.32434001914362 0 216.32434001914362 -881.8358379485735 0 0 0 0 -251.81887779016688 -145.76523597988034 0 -145.76523597988034 131.15234598001189 0 0 0 0 -40.454588072554543 193.15846497246514 0 193.15846497246514 260.90948303084951 0 0 0 0 -90.677132267124762 -91.864599980320463 0 -91.864599980320463 172.75122946229567 0 0 0 0 329.58311122108717 103.98576696969758 0 103.98576696969758 69.066238057392184 0 0 0 0 211.56870217729011 188.2928472381609 0 188.2928472381609 31.720691752063431 0 0 0 0 -12.068416426836393 13.968045863681198 0 13.968045863681198 -2.6998868808266749 0 0 0 0 -893.71383177593816 55.007697774481585 0 55.007697774481585 173.17290505449273 0 0 0 0 241.80967510718619 -1.2112227305551642 0 -1.2112227305551642 -57.656142414838541 0 0 0 0 171.3581564425549 173.13606613330376 0 173.13606613330376 127.95321822083861 0 0 0 0 -257.78849090723088 -34.597800144976645 0 -34.597800144976645 61.490424221345165 0 0 0 0 -138.48996732771957 113.92047794752148 0 113.92047794752148 40.688042694629985 0 0 0 0 -173.32836058455359 -31.886370738720188 0 -31.886370738720188 215.75323500944069 0 0 0 0 57.986450930315641 133.49710763084522 0 133.49710763084522 122.66036022531989 0 0 0 0 142.78224972114549 86.445165123654078 0 86.445165123654078 227.72038772346423 0 0 0 0 58.577672191473539 155.7656914588315 0 155.7656914588315 259.815405597672 0 0 0 0 -4.26336705592621 5.1794476958760143 0 5.1794476958760143 4.136319185569171 0 0 0 0 9.7233179632021347 178.49795833041935 0 178.49795833041935 320.98375866486822 0 0 0 0 -157.71098001138307 69.866940677024104 0 69.866940677024104 250.6090295035101 0 0 0 0 -53.229668323205658 85.630644675478379 0 85.630644675478379 -47.722651347734697 0 0 0 0 -228.89898608296608 278.19119663940626 0 278.19119663940626 617.73133171481823 0 0 0 0 -446.49162855398026 350.80781386275339 0 350.80781386275339 243.61027476450181 0 0 0 0 -576.54447874218749 -7.7088686960387349 0 -7.7088686960387349 455.75099641619272 0 0 0 0 -71.848624843041762 156.60990916498486 0 156.60990916498486 -476.23401008386054 0 0 0 0 -1211.1872670388402 768.29288733165504 0 768.29288733165504 860.48349854381468 0 0 0 0 -257.03225056616066 272.32265311860101 0 272.32265311860101 -41.56429296672286 0 0 0 0 -244.81218537451787 295.38364939008534 0 295.38364939008534 -31.665821840375429 0 0 0 0 -281.84869319514837 507.48695423993195 0 507.48695423993195 828.38955040984729 0 0 0 0 -361.75682164159662 89.483253237231111 0 89.483253237231111 -162.16375274699749 0 0 0 0 -370.67844888778131 441.44152653426579 0 441.44152653426579 -324.55888157620939 0 0 0 0 1199.2131087782909 -1655.2449808948513 0 -1655.2449808948513 2498.2554645506025 0 0 0 0 624.1882671921303 -262.36929626699384 0 -262.36929626699384 2396.7562611544563 0 0 0 0 -26.560292673646472 1421.9311684746426 0 1421.9311684746426 -979.66883203911857 0 0 0 0 10.616780004244731 14.278550481676447 0 14.278550481676447 12.277998060162403 0 0 0 0 -3991.1164607540704 208.89193657762371 0 208.89193657762371 7170.2744417964714 0 0 0 0 -281.24321173477801 464.06067912367871 0 464.06067912367871 -769.18312296154909 0 0 0 0 -33.372529561631382 1736.1230243628379 0 1736.1230243628379 495.60229324172178 0 0 0 0 755.79999611270614 271.07907545510534 0 271.07907545510534 1063.2304541924532 0 0 0 0 664.70794089409173 728.37722795515765 0 728.37722795515765 1331.5921953830548 0 0 0 0 -240.08914096314402 880.26031145845263 0 880.26031145845263 2242.6630163936279 0 0 0 0 7.2853294632694769 3.2899485740788066 0 3.2899485740788066 0.56998717452341907 0 0 0 0 337.90037042836775 -1165.6461755932032 0 -1165.6461755932032 2541.2606831730054 0 0 0 0 -695.92814235437254 363.32920977658068 0 363.32920977658068 912.85580780986493 0 0 0 0 78.666553704271792 489.92603214533301 0 489.92603214533301 928.40384887864639 0 0 0 0 6.846971172274209 4.929343846833234 0 4.929343846833234 -2.2365602010374701 0 0 0 0 -1013.7502599728468 -3.3293759309090092 0 -3.3293759309090092 1862.764745271721 0 0 0 0 279.47540403989842 127.00264266363956 0 127.00264266363956 1171.0210629237517 0 0 0 0 2.5459684930683579 559.13364411606744 0 559.13364411606744 1414.8902757037777 0 0 0 0 -11.150221385372703 9.926209872121774 0 9.926209872121774 -6.3161453489481687 0 0 0 0 -4781.8142772347492 -2364.0691182912706 0 -2364.0691182912706 12.288784483793279 0 0 0 0 2543.9918485783892 3308.7731459217957 0 3308.7731459217957 2074.8936674963479 0 0 0 0 1783.9396822480267 1580.4883938573985 0 1580.4883938573985 1705.8704841218714 0 0 0 0 -3121.1051666905405 -761.77783843342331 0 -761.77783843342331 -583.42542015843355 0 0 0 0 -1425.0704977769637 -770.83505694269843 0 -770.83505694269843 -1116.5263422804055 0 0 0 0 -3235.9283505187486 -666.12287778504106 0 -666.12287778504106 96.835827433489612 0 0 0 0 -1482.12666314737 1068.1172564956141 0 1068.1172564956141 356.73658324468124 0 0 0 0 -976.29397016225266 -185.09418434388499 0 -185.09418434388499 433.0091122929739 0 0 0 0 -4867.1590055215511 1435.0052493422145 0 1435.0052493422145 1053.4811346850474 0 0 0 0 -1346.3355516387091 39.360552518162876 0 39.360552518162876 813.51633001607479 0 0 0 0 -1585.4211619608395 151.94044280231174 0 151.94044280231174 2491.4324851605779 0 0 0 0 -2921.8794556139474 1127.183635309455 0 1127.183635309455 2582.7484332056629 0 0 0 0 -740.28214478414156 2282.01177701704 0 2282.01177701704 2537.9545372892171 0 0 0 0 887.66830006806413 3032.9478916399385 0 3032.9478916399385 2653.2685978224763 0 0 0 0 1313.6736082231437 1716.5289206378729 0 1716.5289206378729 1751.2389214559807 0 0 0 0 998.67069513910974 2039.82611217253 0 2039.82611217253 1487.786857135754 0 0 0 0 544.73243489705783 1167.4001605632657 0 1167.4001605632657 1128.0682529046171 0 0 0 0 191.33235592019628 696.08028715372348 0 696.08028715372348 579.77539677152527 0 0 0 0 -250.05167951641488 1509.6287886681093 0 1509.6287886681093 1266.7125608152273 0 0 0 0 -543.13472182344412 1149.3454456360341 0 1149.3454456360341 1845.2809656850586 0 0 0 0 -171.91710817470448 495.27976564721757 0 495.27976564721757 1309.8351808948573 0 0 0 0 40.628396522173546 43.18015422989221 0 43.18015422989221 34.438724300096396 0 0 0 0 -183.92357502836967 445.51894927478133 0 445.51894927478133 1897.6373598296777 0 0 0 0 -844.76582847745158 -417.5017391915535 0 -417.5017391915535 3086.3947805809221 0 0 0 0 -548.14330217018141 978.51035748772847 0 978.51035748772847 2498.0268951260368 0 0 0 0 11.542125674037379 75.133336079456058 0 75.133336079456058 -78.279103399192536 0 0 0 0 -38.733255035277182 92.374928954691811 0 92.374928954691811 -34.953841672648451 0 0 0 0 226.05888218976907 489.39887866830395 0 489.39887866830395 672.26810092747837 0 0 0 0 -104.6645300050659 257.35358328186885 0 257.35358328186885 -71.768349680532992 0 0 0 0 89.090264846671516 72.531608368258674 0 72.531608368258674 -8.0891163887826565 0 0 0 0 113.3223032209618 128.49173881524246 0 128.49173881524246 -40.017140323771478 0 0 0 0 237.66538412217051 63.8651416174107 0 63.8651416174107 -278.07194173629978 0 0 0 0 421.52283879581955 56.080245223245583 0 56.080245223245583 -354.17858126680767 0 0 0 0 12.268429902331889 2.6029948399014486 0 2.6029948399014486 -64.813580387399682 0 0 0 0 20.325861348571095 -8.7631464362189604 0 -8.7631464362189604 -54.125503621435172 0 0 0 0 46.740507733429695 24.112301107616076 0 24.112301107616076 -35.038392826274503 0 0 0 0 36.540107514912961 71.744565074470302 0 71.744565074470302 111.17979910584836 0 0 0 0 -12.523148993088398 77.840713074096129 0 77.840713074096129 35.201444978920335 0 0 0 0 67.227178027945968 99.458779415216441 0 99.458779415216441 48.418836350206817 0 0 0 0 85.759821693587583 472.12597991869734 0 472.12597991869734 -77.318507599102304 0 0 0 0 -221.84959170070215 435.57031483743822 0 435.57031483743822 245.3291315578972 0 0 0 0 52.943994038389064 96.342906444740947 0 96.342906444740947 -94.900608909432776 0 0 0 0 40.592921353993006 68.402649208321236 0 68.402649208321236 -81.437419074645732 0 0 0 0 104.47141710448503 110.50821807126619 0 110.50821807126619 -25.734109879746839 0 0 0 0 45.797013362675045 79.082288920417369 0 79.082288920417369 -2.4794630069547736 0 0 0 0 96.183223520515227 86.466474977093938 0 86.466474977093938 -50.065060313503324 0 0 0 0 11.890032250271872 10.084105090641472 0 10.084105090641472 -27.900188856493514 0 0 0 0 392.13609146814269 142.63484193987824 0 142.63484193987824 -90.359599085710215 0 0 0 0 563.93692958721658 700.70016477562604 0 700.70016477562604 326.28062371148553 0 0 0 0 191.45477857270453 201.8318478719375 0 201.8318478719375 347.83056269562803 0 0 0 0 1100.3860684938118 521.14271628693677 0 521.14271628693677 169.70213605518438 0 0 0 0 492.75233100842706 719.91651689155151 0 719.91651689155151 359.56391259966767 0 0 0 0 1261.9948773996584 1416.0705377658815 0 1416.0705377658815 909.95965934348351 0 0 0 0 2551.9281812549307 1451.3590781539751 0 1451.3590781539751 722.21038413293718 0 0 0 0 708.08023814390617 1509.9125489725811 0 1509.9125489725811 1423.5465638434252 0 0 0 0 1011.8031053150626 1890.454074379144 0 1890.454074379144 1890.1231011148484 0 0 0 0 1232.1458226343966 1891.3783473778458 0 1891.3783473778458 1533.2824470441774 0 0 0 0 1016.6046997118829 1884.8109728349955 0 1884.8109728349955 739.90373285597889 0 0 0 0 -1448.7493174894844 1014.9436424719106 0 1014.9436424719106 441.11611336743226 0 0 0 0 -3.3885342933652254 -7.9580318886017096 0 -7.9580318886017096 -2.0106756328729887 0 0 0 0 3220.0237263655472 944.97067555324429 0 944.97067555324429 413.67261218048225 0 0 0 0 664.91319263368496 3010.3179227653054 0 3010.3179227653054 2557.4591101179103 0 0 0 0 113.08378340123454 2246.9986778109233 0 2246.9986778109233 3631.0030763268114 0 0 0 0 73.093673414128716 1901.9748067669207 0 1901.9748067669207 2175.4546772421163 0 0 0 0 784.90711639571236 1528.92568237659 0 1528.92568237659 1866.3261192256905 0 0 0 0 1034.8043029435357 1788.79375968362 0 1788.79375968362 2097.2262736724952 0 0 0 0 1001.2647922227479 2037.4919421238737 0 2037.4919421238737 1975.0637271980231 0 0 0 0 -47.583628607419087 391.19894549627861 0 391.19894549627861 1605.8791975093809 0 0 0 0 973.08400143159815 301.58393859303033 0 301.58393859303033 360.87691239235573 0 0 0 0 741.58465504318156 -274.2166965507713 0 -274.2166965507713 2730.6980768546309 0 0 0 0 -118.4079123014526 9.8178267420116754 0 9.8178267420116754 432.86871531191537 0 0 0 0 -11.834160252441507 215.85202595994633 0 215.85202595994633 -647.69605717377999 0 0 0 0 953.82321065425276 367.58612069332594 0 367.58612069332594 -631.48786229177495 0 0 0 0 16.065215564611123 38.013566172743481 0 38.013566172743481 -22.328492552045276 0 0 0 0 -61.1679344199365 178.70668690997991 0 178.70668690997991 72.855944898765301 0 0 0 0 92.639138181039016 126.02806179899198 0 126.02806179899198 62.584083218021988 0 0 0 0 8.897332814654078 17.684335336326143 0 17.684335336326143 11.390406415428373 0 0 0 0 36.508514412602267 59.583241857340283 0 59.583241857340283 26.786695227680809 0 0 0 0 -127.48730821313075 118.39284937163029 0 118.39284937163029 45.627820213929226 0 0 0 0 119.97998366993852 194.612911762164 0 194.612911762164 -22.389051486519747 0 0 0 0 31.309100208512973 65.13257969160577 0 65.13257969160577 52.803086141688588 0 0 0 0 16.957873617428049 118.05803832547554 0 118.05803832547554 34.159723215205304 0 0 0 0 55.247880134549632 82.843600747675737 0 82.843600747675737 -106.968957025485 0 0 0 0 -10.738870904664509 27.296928435552218 0 27.296928435552218 -22.720510956787621 0 0 0 0 32.57894978877448 67.31974278484995 0 67.31974278484995 12.18641837283576 0 0 0 0 32.457953593300772 32.082191133958986 0 32.082191133958986 24.555311699577942 0 0 0 0 51.960740834958415 96.607125866526076 0 96.607125866526076 -15.807493038046232 0 0 0 0 7.7255305215611827 38.474868494279647 0 38.474868494279647 -4.185019225436875 0 0 0 0 28.624564645069768 61.408386907522072 0 61.408386907522072 34.242484919603157 0 0 0 0 18.359003455763741 54.276742003537038 0 54.276742003537038 47.566600223235582 0 0 0 0 -17.475383915589191 74.929007011167414 0 74.929007011167414 35.764260048810684 0 0 0 0 350.43002949717629 -72.166515313068885 0 -72.166515313068885 158.94860078009197 0 0 0 0 -16.251347114057239 16.520692744443608 0 16.520692744443608 16.992356655771495 0 0 0 0 -5.12736391898747 33.883503231608529 0 33.883503231608529 55.105884724027035 0 0 0 0 0.23930257360902374 37.113034317638153 0 37.113034317638153 37.959872991429236 0 0 0 0 30.698343592055608 31.869555010664953 0 31.869555010664953 32.582280071008427 0 0 0 0 4.8925669318414293 47.131683231664283 0 47.131683231664283 44.68899300526391 0 0 0 0 93.412097893829923 277.94332223403944 0 277.94332223403944 149.5132679264425 0 0 0 0 59.648859057808295 299.22376226394954 0 299.22376226394954 401.60917852665079 0 0 0 0 12.535441680418444 170.33100651691166 0 170.33100651691166 343.78395674714557 0 0 0 0 -10.41442385908158 161.09284436219104 0 161.09284436219104 603.06450824661442 0 0 0 0 -23.271582054197552 4.8589291435739028 0 4.8589291435739028 15.732867389300964 0 0 0 0 13.954200180043699 28.552110953301963 0 28.552110953301963 24.645245634274033 0 0 0 0 12.152540222363314 43.844273038776009 0 43.844273038776009 35.9987117390192 0 0 0 0 11.429583443808951 38.539383538625771 0 38.539383538625771 23.373436564132135 0 0 0 0 9.9504915147263091 36.697940522944918 0 36.697940522944918 51.115077743541406 0 0 0 0 12.98365494476468 25.745713662748841 0 25.745713662748841 7.3101526919089395 0 0 0 0 20.479685955884634 39.964766352213701 0 39.964766352213701 21.007395277196338 0 0 0 0 33.253032954104128 31.927728990459855 0 31.927728990459855 18.246468173620087 0 0 0 0 21.939387806640298 39.15604021272884 0 39.15604021272884 -4.2021789754799102 0 0 0 0 17.179219829158797 21.086663999770515 0 21.086663999770515 11.031850955321579 0 0 0 0 31.244046588420019 35.771144515325823 0 35.771144515325823 26.24813299578064 0 0 0 0 10.888363708257259 21.833045209330237 0 21.833045209330237 12.812938427948339 0 0 0 0 68.540796956105623 -64.93843169473439 0 -64.93843169473439 71.733861210741452 0 0 0 0 69.598485185182653 -33.51173349448618 0 -33.51173349448618 -23.980924941988633 0 0 0 0 29.627663372193638 -114.18128081247914 0 -114.18128081247914 -80.635354270424614 0 0 0 0 -175.3501655391301 10.087133042462028 0 10.087133042462028 5.1717782073776561 0 0 0 0 57.396894373858231 40.296327626320362 0 40.296327626320362 -47.868242832968463 0 0 0 0 3.8830048305430864 10.981916629567394 0 10.981916629567394 -3.5667056647652444 0 0 0 0 187.53711675423256 15.831567142806307 0 15.831567142806307 -40.543985813380459 0 0 0 0 112.98938092208118 41.86521019785323 0 41.86521019785323 -63.234849456819575 0 0 0 0 75.69313659123145 67.489688784788541 0 67.489688784788541 -10.934928123469945 0 0 0 0 102.63037945023248 63.036886459512218 0 63.036886459512218 31.82931286543884 0 0 0 0 113.56481999026437 119.8426117061058 0 119.8426117061058 -113.5920684945595 0 0 0 0 160.08055177456117 136.9385906805428 0 136.9385906805428 -109.87263086766393 0 0 0 0 135.49739775873604 84.296837640470585 0 84.296837640470585 -74.337963472227841 0 0 0 0 40.606864211789798 122.6635678519433 0 122.6635678519433 -76.922086103951415 0 0 0 0 30.800714582101023 26.556860646285031 0 26.556860646285031 -13.56504167814694 0 0 0 0 18.554093418380944 160.65923255228336 0 160.65923255228336 -63.454384968918021 0 0 0 0 -22.05194579869567 43.116297629678229 0 43.116297629678229 68.163356283414032 0 0 0 0 26.878568894098862 111.42250146801598 0 111.42250146801598 116.99412801062863 0 0 0 0 21.632283249488822 40.537802657409401 0 40.537802657409401 31.715527981544341 0 0 0 0 87.111102122700686 57.325435115534674 0 57.325435115534674 34.272616051646764 0 0 0 0 28.379657803103328 99.71566461348084 0 99.71566461348084 51.422381344042151 0 0 0 0 76.93168452855025 111.29425441244621 0 111.29425441244621 131.88458158244202 0 0 0 0 67.837712764790922 138.38168342422671 0 138.38168342422671 105.8632192561181 0 0 0 0 64.19645521446364 118.2206832907732 0 118.2206832907732 -5.4846111772221775 0 0 0 0 70.905409208502533 159.64910001082325 0 159.64910001082325 36.597777907767522 0 0 0 0 134.54368041403359 205.62491366770109 0 205.62491366770109 88.026176000112173 0 0 0 0 220.94270369532023 121.56338713000332 0 121.56338713000332 -51.936966935279088 0 0 0 0 105.8025042036752 106.68052008856966 0 106.68052008856966 -53.529641428154719 0 0 0 0 154.78653728514473 60.884825665668359 0 60.884825665668359 -31.314597661036714 0 0 0 0 159.92653917288408 65.579469517017515 0 65.579469517017515 -53.44037313938361 0 0 0 0 -567.75172232941259 358.23774837447172 0 358.23774837447172 -307.65157050325479 0 0 0 0 -1.1301576641538418 1.6368332449090133 0 1.6368332449090133 -3.2328179250114744 0 0 0 0 -177.23537203997694 534.01501021341232 0 534.01501021341232 -425.85597142034567 0 0 0 0 68.682079102021817 -146.48735140963549 0 -146.48735140963549 -379.48331752924241 0 0 0 0 -640.88728560632444 873.75432295278824 0 873.75432295278824 583.72583944718644 0 0 0 0 -404.74801905879531 -3.1687008356588748 0 -3.1687008356588748 -14.048464834635524 0 0 0 0 -391.41239997337993 657.96899032508134 0 657.96899032508134 -275.02071065975633 0 0 0 0 354.72896072690492 328.86696775899736 0 328.86696775899736 -6.1320644115152589 0 0 0 0 213.08027921908069 -56.99978392792309 0 -56.99978392792309 471.2341826316574 0 0 0 0 -211.45783421196393 902.1946559746998 0 902.1946559746998 -1644.0250356272149 0 0 0 0 -836.95847419257916 363.23746036918641 0 363.23746036918641 1630.0141678827586 0 0 0 0 -2.1351424911661638 3.0830354126767254 0 3.0830354126767254 -0.086172460542491669 0 0 0 0 -554.44651115307352 467.04879201909807 0 467.04879201909807 -329.02144127563497 0 0 0 0 -136.8776821554784 490.05426270757653 0 490.05426270757653 -1130.541389484365 0 0 0 0 -122.91483547156895 344.99458736553618 0 344.99458736553618 -531.38630531196941 0 0 0 0 -198.51280639041215 249.58219768094023 0 249.58219768094023 -305.78125297448389 0 0 0 0 0.67006904044268367 7.1405825778920597 0 7.1405825778920597 -0.91618019681146134 0 0 0 0 78.959346702926268 288.29355619496198 0 288.29355619496198 568.90402788050619 0 0 0 0 -32.036052415390031 77.671472353417698 0 77.671472353417698 -136.4335249297128 0 0 0 0 -30.164669359853633 125.03363054643762 0 125.03363054643762 -19.580771108437148 0 0 0 0 -338.64392105670413 1075.8874507559303 0 1075.8874507559303 -933.11037883801691 0 0 0 0 -643.39588632302184 600.10178989243286 0 600.10178989243286 6.4991262292019201 0 0 0 0 -996.94881603241083 -50.217969440936031 0 -50.217969440936031 -666.49485169639956 0 0 0 0 -11.551449799224088 -0.72969506048643495 0 -0.72969506048643495 -2.2904564901643418 0 0 0 0 21.341172594715317 1225.6190480232701 0 1225.6190480232701 -2403.7835440104554 0 0 0 0 -217.5384111621097 41.498488927395101 0 41.498488927395101 656.5989822145757 0 0 0 0 151.42453104860033 291.97872878887483 0 291.97872878887483 -1047.2606843827889 0 0 0 0 -129.97496291683638 436.94857706145376 0 436.94857706145376 -1068.9299881407933 0 0 0 0 13.579704852229838 16.547543782602162 0 16.547543782602162 9.4220037118263278 0 0 0 0 -266.13734098154237 466.74940317175424 0 466.74940317175424 -415.94513879964416 0 0 0 0 232.04422520817025 331.63350546111724 0 331.63350546111724 -1247.6791613663099 0 0 0 0 26.268430510944654 20.014306541441456 0 20.014306541441456 8.2641060173925531 0 0 0 0 -61.78374565319973 843.78754984086527 0 843.78754984086527 427.70519041159787 0 0 0 0 873.56060463610629 -416.89753912097194 0 -416.89753912097194 -682.9103811099194 0 0 0 0 150.12184150016401 666.25453195849605 0 666.25453195849605 -1020.3688224589096 0 0 0 0 -26.553861466323724 -258.31173925431904 0 -258.31173925431904 -289.20084614261941 0 0 0 0 -331.09104347918765 24.96995822318604 0 24.96995822318604 50.006411396507247 0 0 0 0 42.499225792169455 -594.1442773917579 0 -594.1442773917579 777.65558352666449 0 0 0 0 -11.955827235215111 -207.38071593437962 0 -207.38071593437962 -181.64275507347475 0 0 0 0 -10.534270946634933 -313.83685050243002 0 -313.83685050243002 -176.57775075775589 0 0 0 0 108.36325112212216 -81.993072188619408 0 -81.993072188619408 -612.52069394469981 0 0 0 0 271.65800180701626 -323.56932375400345 0 -323.56932375400345 -393.61188673676588 0 0 0 0 -28.755742490029661 -56.885812328509928 0 -56.885812328509928 -200.44179451429136 0 0 0 0 -145.49823673503124 -302.32602967397906 0 -302.32602967397906 -209.60580438879879 0 0 0 0 -285.58650276565459 -158.22216387217668 0 -158.22216387217668 -13.232750408842548 0 0 0 0 -53.421686811168911 -245.76558875039791 0 -245.76558875039791 -238.08859973062499 0 0 0 0 8.6009263948071748 24.019009065406863 0 24.019009065406863 -48.208713569787506 0 0 0 0 -67.422355049668113 -23.010000856767874 0 -23.010000856767874 -56.875344378069713 0 0 0 0 22.940965209258309 14.346493563075697 0 14.346493563075697 2.3110915487492445 0 0 0 0 -106.79983423561498 51.507109921983556 0 51.507109921983556 -114.90901292157105 0 0 0 0 17.933419695036719 35.74743446217326 0 35.74743446217326 -74.534311955285034 0 0 0 0 23.676650185574545 -16.977797655988979 0 -16.977797655988979 -80.345677577077367 0 0 0 0 23.812344395082789 10.647827347440185 0 10.647827347440185 -3.5577130099800485 0 0 0 0 214.04366795680835 106.58232595208392 0 106.58232595208392 -613.42931602814861 0 0 0 0 -38.977734576241346 376.21690976420723 0 376.21690976420723 -406.78834152136096 0 0 0 0 -4.2798665941227227 45.852288253874576 0 45.852288253874576 -73.873750711587491 0 0 0 0 14.589911020030797 14.944201951402121 0 14.944201951402121 8.2909322736014115 0 0 0 0 -371.0508906308969 -48.857444269657208 0 -48.857444269657208 -121.67608502531857 0 0 0 0 24.095713105022583 3.1305706136116243 0 3.1305706136116243 -3.6760105367645011 0 0 0 0 190.11037124525319 291.57106694671791 0 291.57106694671791 -886.06174759491478 0 0 0 0 -41.663941335544223 580.45607047107114 0 580.45607047107114 -808.78821817675043 0 0 0 0 -202.97866946752765 666.68636175243046 0 666.68636175243046 -498.75920540365587 0 0 0 0 -138.31950117591623 669.25207873112663 0 669.25207873112663 -538.95965224792599 0 0 0 0 -280.19031076929241 260.83847645203969 0 260.83847645203969 -83.717252825086689 0 0 0 0 -217.04354596560006 418.73053699792945 0 418.73053699792945 -337.89963156106114 0 0 0 0 -337.56597321017762 497.90325964063686 0 497.90325964063686 -347.20942902844513 0 0 0 0 -74.722226909711026 385.68791205892012 0 385.68791205892012 -404.30330340106593 0 0 0 0 -360.11074156676477 397.15873066130507 0 397.15873066130507 -179.47096719276988 0 0 0 0 11.09848779765467 14.874114915694605 0 14.874114915694605 -21.255662311350111 0 0 0 0 -166.10249149215815 175.5793120397949 0 175.5793120397949 -325.18324977650627 0 0 0 0 128.93033253976319 44.515640039661321 0 44.515640039661321 -28.670169538420851 0 0 0 0 0.82974324363578944 2.046106994234421 0 2.046106994234421 -8.5980575887617423 0 0 0 0 128.33931198803475 47.366607660221575 0 47.366607660221575 -16.544374472669915 0 0 0 0 20.465323039476061 77.436343529827354 0 77.436343529827354 -2.3449483333602075 0 0 0 0 76.201935812849115 62.451550999298732 0 62.451550999298732 -39.540957830208981 0 0 0 0 63.173267705657054 58.599613221822779 0 58.599613221822779 -31.90030118577738 0 0 0 0 79.792137877986534 37.639484472046121 0 37.639484472046121 -15.368851690372139 0 0 0 0 129.9935084040626 45.524533510243714 0 45.524533510243714 -42.702844774063351 0 0 0 0 140.13895817541197 -39.649668949571378 0 -39.649668949571378 -115.64064416844849 0 0 0 0 132.47712229492754 54.947762501659383 0 54.947762501659383 -5.642794569932903 0 0 0 0 -53.627074524934869 113.41003761803768 0 113.41003761803768 71.062978079504546 0 0 0 0 145.49987611314282 14.901357782360265 0 14.901357782360265 -7.511044981359646 0 0 0 0 27.001498044890468 91.29674272775253 0 91.29674272775253 -23.305326909840005 0 0 0 0 15.294361731037498 30.449605676829378 0 30.449605676829378 92.23141736908201 0 0 0 0 -30.132498666178435 162.31463597926995 0 162.31463597926995 7.0497221114101194 0 0 0 0 31.065510805829945 26.116386300868911 0 26.116386300868911 6.8293766962937621 0 0 0 0 19.747376148588955 67.875785286961218 0 67.875785286961218 -35.22830895606603 0 0 0 0 76.193505319482938 29.294814726143159 0 29.294814726143159 -66.285055829865087 0 0 0 0 11.585403876772034 65.425987496268135 0 65.425987496268135 -14.617229699659219 0 0 0 0 59.934116588585312 60.043815584105687 0 60.043815584105687 -19.696063286123717 0 0 0 0 7.3752359979384892 2.8849355018394931 0 2.8849355018394931 -7.4749307366907871 0 0 0 0 39.029665022564586 52.395975829754207 0 52.395975829754207 -127.75877305555423 0 0 0 0 9.0277513121254742 43.720849111374264 0 43.720849111374264 -61.555990013484916 0 0 0 0 67.753431528341025 -0.37358385503284808 0 -0.37358385503284808 -93.162145391514059 0 0 0 0 32.626876694866553 13.039701481608176 0 13.039701481608176 -37.987647347471729 0 0 0 0 -32.168115844746353 48.283888214911713 0 48.283888214911713 -9.3041399796311453 0 0 0 0 -20.670833926436899 32.045910083653325 0 32.045910083653325 9.9213372330486891 0 0 0 0 -0.99799899001970971 -2.1138808011718595 0 -2.1138808011718595 -1.2664609555546207 0 0 0 0 -78.601542755728588 -8.0113939903003484 0 -8.0113939903003484 -14.740267604272958 0 0 0 0 88.691984997145482 165.91011185724892 0 165.91011185724892 -27.179419914999016 0 0 0 0 16.810819942533271 91.32942538608404 0 91.32942538608404 23.804360488029488 0 0 0 0 296.5825160551467 8.2843682905204332 0 8.2843682905204332 -48.333605121475557 0 0 0 0 48.644318324819324 53.22893990202374 0 53.22893990202374 -1.4092528991714062 0 0 0 0 -92.150828489277046 53.834671126174726 0 53.834671126174726 43.321725530723597 0 0 0 0 -65.275402752158698 41.821501480352708 0 41.821501480352708 -545.57803710781445 0 0 0 0 -109.80041451017314 -124.24425870653249 0 -124.24425870653249 72.55822347796493 0 0 0 0 232.40639406963601 -407.05253728241951 0 -407.05253728241951 -536.69953199783595 0 0 0 0 -149.19303134032816 -148.96814628277934 0 -148.96814628277934 -400.59905279295253 0 0 0 0 -63.322787942175637 98.532472801633958 0 98.532472801633958 -226.09444763710053 0 0 0 0 -63.593153745183372 273.81576993968156 0 273.81576993968156 -916.8612093053398 0 0 0 0 -325.04824645005283 165.32539877915497 0 165.32539877915497 -82.303508324063841 0 0 0 0 0.14755521276359218 0.052855492375613267 0 0.052855492375613267 -6.0723450311216922 0 0 0 0 70.943095870577963 24.520962879679246 0 24.520962879679246 -226.07242368235529 0 0 0 0 -0.2205738393845138 -1.6844365334616782 0 -1.6844365334616782 -11.477046582834198 0 0 0 0 -169.01167560594331 -59.110453114627489 0 -59.110453114627489 15.167525853179541 0 0 0 0 -175.29831322845757 131.04114323431202 0 131.04114323431202 61.471439410901439 0 0 0 0 -39.869354977781768 97.603225024015956 0 97.603225024015956 26.955124531428737 0 0 0 0 112.08030350663466 55.301769179175608 0 55.301769179175608 -51.66156597464942 0 0 0 0 25.702703122791718 -4.7908199375051481 0 -4.7908199375051481 27.052204428182449 0 0 0 0 7.3553137366769903 6.3210335616320776 0 6.3210335616320776 -13.63238121739068 0 0 0 0 39.831505630899358 34.211666797708467 0 34.211666797708467 13.31309281551027 0 0 0 0 24.9181228892121 145.0698223331749 0 145.0698223331749 -91.984530120149884 0 0 0 0 14.908726908848621 78.293885461352602 0 78.293885461352602 -67.517688732345277 0 0 0 0 10.598278006327661 42.927063954598935 0 42.927063954598935 -4.5534509802478205 0 0 0 0 -5.5592784777909401 65.469794602552099 0 65.469794602552099 -15.229951176449958 0 0 0 0 -8.5429173987358809 82.086734156716034 0 82.086734156716034 -75.084530570865809 0 0 0 0 14.612973363953643 78.159483409440554 0 78.159483409440554 -108.10061400951099 0 0 0 0 6.5757396968156172 19.681508275276727 0 19.681508275276727 -7.6757470332049591 0 0 0 0 -11.825756367412396 110.56394209060591 0 110.56394209060591 35.699995707911739 0 0 0 0 32.271155923139304 98.786572909071197 0 98.786572909071197 -84.104058306715615 0 0 0 0 36.484306633239612 84.678057734154208 0 84.678057734154208 -42.081092776794009 0 0 0 0 -8.3868870841979515 106.5282013384244 0 106.5282013384244 -39.441874966174737 0 0 0 0 26.647660403803457 100.00705597605906 0 100.00705597605906 -48.486203818154536 0 0 0 0 -18.454794669701357 30.101350458225046 0 30.101350458225046 -1.11201282592301 0 0 0 0 0.26300157151899839 31.299215043480231 0 31.299215043480231 -3.0776581600120334 0 0 0 0 -70.417485120269703 31.556485438700292 0 31.556485438700292 44.307575487991926 0 0 0 0 -46.466779434878845 46.968103133104705 0 46.968103133104705 -11.979083322826682 0 0 0 0 2.3551544096881116 34.513737381099645 0 34.513737381099645 -29.3366730681837 0 0 0 0 12.921540073160998 17.826979306712417 0 17.826979306712417 -0.18533376461645901 0 0 0 0 -51.899181203090848 86.145704480463451 0 86.145704480463451 -21.589102173834362 0 0 0 0 -19.119370363529015 44.273386501407799 0 44.273386501407799 -26.681139930872632 0 0 0 0 -0.53187724346935283 44.409260593407453 0 44.409260593407453 -21.695853570859981 0 0 0 0 -81.858329422968382 76.46482903371566 0 76.46482903371566 52.596078976188437 0 0 0 0 13.405089971278102 21.183491352264753 0 21.183491352264753 -15.36576697068179 0 0 0 0 152.79770932046813 43.057544407316072 0 43.057544407316072 -51.611514948430795 0 0 0 0 2.1243230557447532 143.90839433906808 0 143.90839433906808 67.303857257684285 0 0 0 0 48.033438837959693 36.325986357233461 0 36.325986357233461 -17.788593367971771 0 0 0 0 50.179169369657757 40.271148741728041 0 40.271148741728041 -118.73931740872922 0 0 0 0 -8.0445172215986531 75.857461987979377 0 75.857461987979377 -21.665346881492951 0 0 0 0 -2.7185607435822021 131.60356478982555 0 131.60356478982555 -58.11052973825781 0 0 0 0 16.80932598155124 37.700682157883222 0 37.700682157883222 -25.375726839297968 0 0 0 0 3.5366342143970542 97.582421820682725 0 97.582421820682725 -55.557229652822116 0 0 0 0 -11.868193296650134 3.9600930415163305 0 3.9600930415163305 1.2671170193401533 0 0 0 0 46.860474157118006 88.40469437422405 0 88.40469437422405 -51.924713288314933 0 0 0 0 86.609810977126472 65.934906163291998 0 65.934906163291998 -62.11739083794123 0 0 0 0 102.82514991317294 35.280335514827584 0 35.280335514827584 -33.58462454057576 0 0 0 0 119.57681873407273 -13.032455659789775 0 -13.032455659789775 22.807646081462508 0 0 0 0 106.42747193918331 43.41039491134984 0 43.41039491134984 -54.699800736537554 0 0 0 0 123.88666368433041 51.240289399781204 0 51.240289399781204 -21.53555100928952 0 0 0 0 -584.70516601140844 92.689842760129977 0 92.689842760129977 -140.37424822662433 0 0 0 0 -435.46428499247122 475.9686845136298 0 475.9686845136298 -607.07135669518175 0 0 0 0 -995.41886525950395 541.36729771982266 0 541.36729771982266 -114.04109763192891 0 0 0 0 -954.52360522351228 954.41882176076581 0 954.41882176076581 -585.19491264358169 0 0 0 0 -1161.0144875585975 666.65860546772592 0 666.65860546772592 -196.01155184203299 0 0 0 0 5.6726233666514361 13.722808948281113 0 13.722808948281113 -14.950514259764132 0 0 0 0 344.08189742814284 24.667130669937706 0 24.667130669937706 -86.021261836224767 0 0 0 0 72.66581475132989 120.3190913147896 0 120.3190913147896 254.55828416613167 0 0 0 0 -628.60914735183178 828.76369725472682 0 828.76369725472682 -409.16023779105853 0 0 0 0 -542.72125987506297 207.97211644612935 0 207.97211644612935 -451.87245906374466 0 0 0 0 -1494.1197610209783 534.59080639070771 0 534.59080639070771 -249.67468072419251 0 0 0 0 1016.0258417482255 -13.802941868148309 0 -13.802941868148309 -363.45595355627847 0 0 0 0 -2081.3238405512529 1711.3966453866979 0 1711.3966453866979 -752.75835292318141 0 0 0 0 2.1103213166346109 6.9288372890646315 0 6.9288372890646315 -5.2721885899315275 0 0 0 0 -231.60281094296806 -233.42756865302181 0 -233.42756865302181 -11.515973829895302 0 0 0 0 -54.063241915078834 -29.614038373523272 0 -29.614038373523272 153.50672879883723 0 0 0 0 31.58016495789343 -16.833030296611923 0 -16.833030296611923 -352.01674235661994 0 0 0 0 -639.27940819176729 2033.9313273563566 0 2033.9313273563566 -1211.9863061426322 0 0 0 0 10.988991141948716 24.425260033094702 0 24.425260033094702 -12.343212373859693 0 0 0 0 32.590462682981524 33.695096295516805 0 33.695096295516805 -29.763439046882013 0 0 0 0 -11.62151302384882 42.292884777802101 0 42.292884777802101 -12.732466041135922 0 0 0 0 26.185515356555698 -16.549851817001127 0 -16.549851817001127 -48.932197969443223 0 0 0 0 -6.4281504944665357 78.357332437576133 0 78.357332437576133 -30.058707177355245 0 0 0 0 16.302373918093508 159.64676293094089 0 159.64676293094089 -58.16553815833322 0 0 0 0 -41.988447385202051 61.296425579519479 0 61.296425579519479 -33.756905432123553 0 0 0 0 -15.024763475601503 104.63956773511836 0 104.63956773511836 17.65383813821245 0 0 0 0 -7.9320036481658462 88.19561786377335 0 88.19561786377335 -44.617440151543633 0 0 0 0 24.284170277781982 26.163813833561704 0 26.163813833561704 -1.2434497398668469 0 0 0 0 78.835841382242506 51.142575585962732 0 51.142575585962732 -23.596175702779874 0 0 0 0 31.426135820550826 15.720734491392363 0 15.720734491392363 -27.756565875129546 0 0 0 0 74.805507519312613 52.171776447318521 0 52.171776447318521 -17.762810523052536 0 0 0 0 80.250497341170558 47.369778973914435 0 47.369778973914435 -77.52163280513787 0 0 0 0 -2.2945229781325907 150.30225421465184 0 150.30225421465184 -61.983073645285913 0 0 0 0 0.28737619407547754 167.37201624969202 0 167.37201624969202 -109.4068995547932 0 0 0 0 -179.5881483151461 95.576353906399163 0 95.576353906399163 52.211535110821842 0 0 0 0 -133.95388012888725 73.888734474630837 0 73.888734474630837 14.041674472740851 0 0 0 0 -120.66695372783579 175.3316443705844 0 175.3316443705844 -29.646610005471302 0 0 0 0 -7.1612620568000125 9.2136877397987575 0 9.2136877397987575 -4.9866266436603155 0 0 0 0 -241.00803643000108 -23.811376315912639 0 -23.811376315912639 26.789542515838548 0 0 0 0 -128.57749160395178 33.175204908841579 0 33.175204908841579 37.647473711549537 0 0 0 0 -90.446548486943357 54.855257003669976 0 54.855257003669976 33.780185054220055 0 0 0 0 -84.08234231825918 17.741802130918586 0 17.741802130918586 -23.420832404044631 0 0 0 0 -56.113389231322799 54.214705498321564 0 54.214705498321564 9.5645491034301813 0 0 0 0 -75.911531053949147 90.085313548312115 0 90.085313548312115 12.208507141549489 0 0 0 0 -130.95427250014291 74.365886236332472 0 74.365886236332472 50.470983634644654 0 0 0 0 -71.455938816448906 76.063853118292172 0 76.063853118292172 42.309537527296925 0 0 0 0 -71.007076749985572 70.766794372830191 0 70.766794372830191 37.422749766192283 0 0 0 0 -75.71217785862973 82.292432752841705 0 82.292432752841705 59.15979407003033 0 0 0 0 -44.154487084131688 120.99374679963512 0 120.99374679963512 70.295250516239321 0 0 0 0 -43.677739843842573 143.29376041753494 0 143.29376041753494 81.884089228908124 0 0 0 0 11.117621383687947 189.64958836850928 0 189.64958836850928 75.474770195669407 0 0 0 0 -49.319990706979297 23.814180489841874 0 23.814180489841874 -8.3336566541256616 0 0 0 0 -56.288964168572136 42.049343161065138 0 42.049343161065138 -30.355853815788699 0 0 0 0 24.281249794119503 112.10778477511485 0 112.10778477511485 168.42784451865009 0 0 0 0 -33.732317155908447 42.182902881727273 0 42.182902881727273 -32.628337839321169 0 0 0 0 -42.190051689918619 94.751349607953671 0 94.751349607953671 24.378369243257112 0 0 0 0 -2.8070441638992634 74.25810585464933 0 74.25810585464933 -36.046677661601279 0 0 0 0 29.255333994631656 124.14525507932194 0 124.14525507932194 30.529076595819788 0 0 0 0 13.902677708992883 4.3072208004818719 0 4.3072208004818719 -14.325922945061492 0 0 0 0 0.086019511218182743 77.663042898129788 0 77.663042898129788 27.658782170212362 0 0 0 0 -22.339358562836424 103.31025309416145 0 103.31025309416145 47.481633526531368 0 0 0 0 -86.713433273369446 75.701294067308481 0 75.701294067308481 53.630270133049635 0 0 0 0 -55.56115265347762 79.508407707597144 0 79.508407707597144 42.840883185621351 0 0 0 0 -55.073422873450909 78.623915321559252 0 78.623915321559252 37.556139845662983 0 0 0 0 -60.365483648725785 81.983510476689844 0 81.983510476689844 39.76835287924041 0 0 0 0 -45.955029523756821 87.807505731594574 0 87.807505731594574 42.354324002255453 0 0 0 0 -53.249658205895685 78.792572477526846 0 78.792572477526846 34.547790745884413 0 0 0 0 -51.956600819365121 82.056796463210048 0 82.056796463210048 27.91511531182914 0 0 0 0 -49.172898532473482 89.061010307625111 0 89.061010307625111 35.187762951367858 0 0 0 0 -21.568147686775774 75.877728061997914 0 75.877728061997914 35.579898315058017 0 0 0 0 -40.194163272855803 80.555007224866131 0 80.555007224866131 36.067595725324281 0 0 0 0 -39.943833481171168 68.897431852937416 0 68.897431852937416 -23.592344316599338 0 0 0 0 -40.750622810848654 73.493252474909923 0 73.493252474909923 27.59317777515389 0 0 0 0 4.3083755149212379 4.167995729430686 0 4.167995729430686 -9.8073880481438209 0 0 0 0 -101.10935876145959 22.687065467587672 0 22.687065467587672 50.010583487808617 0 0 0 0 -86.167283694259822 59.017700101667288 0 59.017700101667288 65.671154746036336 0 0 0 0 -97.317764396546409 52.12357632855128 0 52.12357632855128 49.492563509033062 0 0 0 0 -97.137718557962216 42.502908026555815 0 42.502908026555815 41.899715185267269 0 0 0 0 -73.339211349491961 52.781597571840393 0 52.781597571840393 20.981076884221693 0 0 0 0 -67.582815687404945 59.293024843864259 0 59.293024843864259 24.132771047683491 0 0 0 0 -82.646523631876335 51.11463777861718 0 51.11463777861718 33.662064164847834 0 0 0 0 -88.79522256180644 41.034028814654448 0 41.034028814654448 23.382684532618441 0 0 0 0 -96.657906954467762 54.453540712452195 0 54.453540712452195 38.713003628770821 0 0 0 0 -85.975147054879926 53.251373407219944 0 53.251373407219944 37.191789445991162 0 0 0 0 -93.755865620682016 56.158110872042016 0 56.158110872042016 39.784598438520334 0 0 0 0 -86.107460498460568 63.611463192821248 0 63.611463192821248 44.965304290366475 0 0 0 0 -69.466442732606083 67.636482870191685 0 67.636482870191685 29.918396920220403 0 0 0 0 -71.28703269752441 70.958345358347287 0 70.958345358347287 33.426962114084745 0 0 0 0 -70.638701219228096 70.001796997530619 0 70.001796997530619 33.13066601526225 0 0 0 0 -41.53887243650388 93.747273112367111 0 93.747273112367111 13.104330831526113 0 0 0 0 -46.708397677284665 81.460975721258365 0 81.460975721258365 -8.7184685708800771 0 0 0 0 -60.388677305309102 70.397587324994674 0 70.397587324994674 15.009131160804827 0 0 0 0 -71.805815102474298 33.632220348161354 0 33.632220348161354 -5.9830683992113336 0 0 0 0 -15.337534686830622 56.321689310851184 0 56.321689310851184 19.996334291575295 0 0 0 0 -11.075367509112198 22.853642793095588 0 22.853642793095588 23.846014961045292 0 0 0 0 -59.361499199643731 38.961270612092449 0 38.961270612092449 19.713281483114883 0 0 0 0 -20.119570948282785 26.514904366585512 0 26.514904366585512 -4.4516986691775644 0 0 0 0 -33.117687799531268 79.56841989173472 0 79.56841989173472 43.869296336697516 0 0 0 0 -17.80086613932508 31.229112474533395 0 31.229112474533395 -18.791976770816746 0 0 0 0 -15.803098328324268 17.159204884158498 0 17.159204884158498 138.7297125108862 0 0 0 0 0.12291132786390335 0.67385895201221047 0 0.67385895201221047 0.14012897148156167 0 0 0 0 -0.72264979296596721 99.96812850160245 0 99.96812850160245 45.303075968971825 0 0 0 0 34.480759704616503 66.131011945329192 0 66.131011945329192 -22.099514139431449 0 0 0 0 -15.500085287218099 44.588702638521227 0 44.588702638521227 -31.191575346359969 0 0 0 0 -37.025231206280296 62.06647686918177 0 62.06647686918177 -8.9461632177499268 0 0 0 0 -2.4618755794217577 73.795657503342454 0 73.795657503342454 -38.205002822196548 0 0 0 0 0.74781093990895897 59.334858389107467 0 59.334858389107467 -12.902008786176339 0 0 0 0 -18.246127316961065 52.12614343223504 0 52.12614343223504 -51.878985016594015 0 0 0 0 2.965074618550716 67.362725160905939 0 67.362725160905939 -49.091558967775427 0 0 0 0 -42.962408506231441 54.073397023904818 0 54.073397023904818 8.9080989811845939 0 0 0 0 -14.369209627417149 47.869750892807133 0 47.869750892807133 -0.74228386043205319 0 0 0 0 4.7965167047805153 79.451217482463107 0 79.451217482463107 -28.882299685946236 0 0 0 0 -30.405266482368461 32.545798412634213 0 32.545798412634213 27.485714984864899 0 0 0 0 -17.637995731087926 38.781571431849898 0 38.781571431849898 -5.3250555556089623 0 0 0 0 -16.896536833548453 53.564838671802136 0 53.564838671802136 -100.93853403715366 0 0 0 0 -0.32934234329763967 5.1679934593431724 0 5.1679934593431724 -14.583491022108426 0 0 0 0 -3.3571034056913049 -3.5273829533754224 0 -3.5273829533754224 -111.75424566581205 0 0 0 0 -38.518467028974555 53.993372130223179 0 53.993372130223179 -35.965389299894923 0 0 0 0 -15.529290285740274 40.253648196580414 0 40.253648196580414 -7.1369366593801411 0 0 0 0 6.1352585976710543 66.858031459065387 0 66.858031459065387 -152.8093193746663 0 0 0 0 -21.52593445351522 76.133078820928858 0 76.133078820928858 -91.789383639021253 0 0 0 0 42.702035634007188 25.250996277301965 0 25.250996277301965 -53.705252687619577 0 0 0 0 9.759468454765738 -108.3628212053336 0 -108.3628212053336 -68.379760236823131 0 0 0 0 -1.8746055804135722 8.8145441434687655 0 8.8145441434687655 -6.9027415369026315 0 0 0 0 -6.6172953203349607 124.99010262382853 0 124.99010262382853 48.274969291976049 0 0 0 0 39.617069027939579 111.54013911557922 0 111.54013911557922 0.55870578084250155 0 0 0 0 4.2399919216841226 -132.73249656985445 0 -132.73249656985445 -327.1841043993918 0 0 0 0 -95.290968609464471 -15.35954130211303 0 -15.35954130211303 -533.0926557636858 0 0 0 0 32.026863375107951 347.0433602991053 0 347.0433602991053 -40.27784251281264 0 0 0 0 56.493112281037611 405.82634538747061 0 405.82634538747061 -944.53570897164036 0 0 0 0 -167.58341567841853 303.41754084352033 0 303.41754084352033 -488.08975230780743 0 0 0 0 -15.016901272785617 93.837552453589524 0 93.837552453589524 -925.0467043564322 0 0 0 0 138.60217736660343 245.10841421553221 0 245.10841421553221 -1334.206126552408 0 0 0 0 -28.655128570186207 -80.891205645258196 0 -80.891205645258196 -974.69093618285979 0 0 0 0 -144.66766448543058 -51.59142376912132 0 -51.59142376912132 -126.80687844018212 0 0 0 0 40.661901230945659 229.33213662686239 0 229.33213662686239 -623.79715502766703 0 0 0 0 35.383275488071376 -171.03093536779625 0 -171.03093536779625 -711.1789553322933 0 0 0 0 -88.347958118923998 224.79165559945523 0 224.79165559945523 -279.76020572342532 0 0 0 0 -87.599185708102596 130.52307854130368 0 130.52307854130368 233.43872777474826 0 0 0 0 59.25772907116334 20.821661881514956 0 20.821661881514956 -72.376518214476164 0 0 0 0 -8.9455106756336136 28.843059152234741 0 28.843059152234741 -16.764627078874991 0 0 0 0 -99.416612789573264 57.934516637067645 0 57.934516637067645 185.83581930388027 0 0 0 0 28.321018279209966 36.828272528829984 0 36.828272528829984 -102.99445452721193 0 0 0 0 -25.010159480356378 46.139135703480179 0 46.139135703480179 -16.802275011866868 0 0 0 0 -28.503427870833548 99.19104385680339 0 99.19104385680339 22.322927762450945 0 0 0 0 -21.445971530929512 29.661431328068403 0 29.661431328068403 -2.4818625463438284 0 0 0 0 -0.018352217836593354 26.21817874170813 0 26.21817874170813 10.148155559480482 0 0 0 0 -5.0608612987707602 41.063162650644017 0 41.063162650644017 3.5150641721390912 0 0 0 0 -25.874272417692737 30.185670462829201 0 30.185670462829201 6.9806812541387444 0 0 0 0 -21.375260223673934 19.353011046908648 0 19.353011046908648 -1.8267355893590445 0 0 0 0 -137.29397066956153 -3.8220068933418361 0 -3.8220068933418361 61.471517784687478 0 0 0 0 -12.999979783489835 43.054191226887724 0 43.054191226887724 13.598552665005855 0 0 0 0 -47.720731061708648 65.694923929719607 0 65.694923929719607 175.54639737412276 0 0 0 0 195.95789676887216 -178.17779657342589 0 -178.17779657342589 77.173081903544954 0 0 0 0 -11.053627128181631 19.884691156276659 0 19.884691156276659 -33.147107941403902 0 0 0 0 213.26475078051089 390.00262503099879 0 390.00262503099879 -271.84524171052544 0 0 0 0 -10.540895625887771 22.413165684824776 0 22.413165684824776 -34.207513683436176 0 0 0 0 -70.909967373605468 76.344383467535636 0 76.344383467535636 -78.030876695167706 0 0 0 0 -1.9491039359228353 3.4089856182525082 0 3.4089856182525082 -7.5162165201441917 0 0 0 0 80.763427893296466 224.02233500997045 0 224.02233500997045 -236.54595995841009 0 0 0 0 98.484395579638658 -22.368330659937811 0 -22.368330659937811 -131.12404147120589 0 0 0 0 -59.965469603790552 -136.22598528741673 0 -136.22598528741673 -72.37179110753118 0 0 0 0 -144.19802849242842 119.15104826312745 0 119.15104826312745 661.9391682441842 0 0 0 0 -143.78970533751999 -529.48478055222699 0 -529.48478055222699 300.44291469465497 0 0 0 0 -172.76911976336851 249.20049297560672 0 249.20049297560672 -541.72783678803353 0 0 0 0 -90.311824567528674 -621.34819698434239 0 -621.34819698434239 -2042.3103311937648 0 0 0 0 -2.6459269794366094 5.8851660952137195 0 5.8851660952137195 -16.215557983224961 0 0 0 0 -138.0931577843312 920.85092389999738 0 920.85092389999738 -2334.1585158036851 0 0 0 0 -29.264327297860291 388.06863906658691 0 388.06863906658691 -3237.0084339086679 0 0 0 0 -325.88236793645774 1333.6926005839291 0 1333.6926005839291 -2356.8139357620362 0 0 0 0 248.13741891660902 431.15715501010436 0 431.15715501010436 -1993.1538216958725 0 0 0 0 -1166.6541841623257 2005.9104608986661 0 2005.9104608986661 -2214.6135943261643 0 0 0 0 76.26816848287126 1119.5602711227102 0 1119.5602711227102 -2749.2714644996404 0 0 0 0 127.04178382371902 807.1029562489698 0 807.1029562489698 -2978.3846899353625 0 0 0 0 -708.50381773339177 743.4366064550178 0 743.4366064550178 -377.65769188278045 0 0 0 0 -392.45558388889185 -80.324494774969025 0 -80.324494774969025 187.84414065578312 0 0 0 0 -6.0828786882372583 9.8342951616187406 0 9.8342951616187406 -13.534298325417694 0 0 0 0 299.43694976140978 -226.57391386865925 0 -226.57391386865925 -593.56154648779602 0 0 0 0 -0.70434140416909941 350.69511523007168 0 350.69511523007168 -745.01453922233577 0 0 0 0 -603.5737285647192 355.94105692650828 0 355.94105692650828 -66.204627908786279 0 0 0 0 -149.18585740739945 105.24045290856793 0 105.24045290856793 -112.24749715432245 0 0 0 0 42.770616358873667 -244.93088793612969 0 -244.93088793612969 -11.878704489536176 0 0 0 0 312.42803704576363 30.973291925678495 0 30.973291925678495 -63.986408577588008 0 0 0 0 -19.231492869352223 -16.82765320105409 0 -16.82765320105409 -20.923909225893567 0 0 0 0 8.827613744608243 -45.634118812649831 0 -45.634118812649831 -94.486099350189761 0 0 0 0 -0.35054053549538366 -0.045331003729188524 0 -0.045331003729188524 -37.819263181480892 0 0 0 0 -0.026530956169547665 104.68388610251769 0 104.68388610251769 263.12322485406912 0 0 0 0 -2.6013380125489221 -3.2294453101954446 0 -3.2294453101954446 3.3083873275404301 0 0 0 0 7.4439988310186891 25.643451043266396 0 25.643451043266396 150.30300759370766 0 0 0 0 44.104206654956215 127.90936272038925 0 127.90936272038925 201.17400689179703 0 0 0 0 0.61142777362601919 -0.66260897392582763 0 -0.66260897392582763 -2.8764410206467694 0 0 0 0 3.8623127926839516 137.91668812731587 0 137.91668812731587 265.88489933423261 0 0 0 0 73.340436171180045 7.8145175793015369 0 7.8145175793015369 -77.54081291818693 0 0 0 0 51.959774161063251 131.59565770914332 0 131.59565770914332 63.288933540547077 0 0 0 0 31.605455132026691 69.006032620863607 0 69.006032620863607 1.0241258036339786 0 0 0 0 -13.694969975436209 25.678617063483784 0 25.678617063483784 -35.078554993346174 0 0 0 0 -37.726084164669373 18.554941899557321 0 18.554941899557321 34.397008258703863 0 0 0 0 249.12517379768542 382.92505330190033 0 382.92505330190033 228.47715185504785 0 0 0 0 -10.327605460643667 13.875349660213431 0 13.875349660213431 0.22659531421994927 0 0 0 0 12.500719188232324 19.147520952688865 0 19.147520952688865 -18.110661902221182 0 0 0 0 -5.4490214796541068 22.422831947682795 0 22.422831947682795 -16.483883646160553 0 0 0 0 -11.64569473267693 47.261063128088722 0 47.261063128088722 -8.1248590227896784 0 0 0 0 60.047893341223244 103.19075422565584 0 103.19075422565584 232.72595473691763 0 0 0 0 -1.8596868362617442 123.72320224063104 0 123.72320224063104 237.03616759056604 0 0 0 0 -1.5877287627999408 43.071477861270097 0 43.071477861270097 104.58139512767229 0 0 0 0 -4.1888035495503573 48.769926582101107 0 48.769926582101107 23.508396019327847 0 0 0 0 -109.29027753724949 -15.09380369405153 0 -15.09380369405153 118.29304243208389 0 0 0 0 762.00800270780746 379.13759779375141 0 379.13759779375141 -76.400703892315505 0 0 0 0 -272.85239325847942 350.58698370587445 0 350.58698370587445 333.96505040015472 0 0 0 0 -195.21287800508435 725.75287097797991 0 725.75287097797991 -155.39102525128328 0 0 0 0 96.282528931304114 192.9284987256342 0 192.9284987256342 -598.89197947813955 0 0 0 0 -279.32878299708955 -367.36195950976355 0 -367.36195950976355 -269.55704652695567 0 0 0 0 167.47610647636611 169.10063129012269 0 169.10063129012269 -106.32050971908029 0 0 0 0 0.087389999408128582 108.58184403147932 0 108.58184403147932 90.926826664363034 0 0 0 0 -22.73504072468495 45.03124323218708 0 45.03124323218708 105.15478725564026 0 0 0 0 31.937474928839947 18.551477704417266 0 18.551477704417266 -103.78045995324254 0 0 0 0 -31.033111407215983 93.907015933149523 0 93.907015933149523 156.31888558890205 0 0 0 0 10.356494636322168 63.430746400175849 0 63.430746400175849 150.63685953911045 0 0 0 0 -6.7492224302368413 79.425040211866872 0 79.425040211866872 76.204816451907391 0 0 0 0 -108.85701172877998 133.30088362143943 0 133.30088362143943 103.21831220176682 0 0 0 0 -12.33771464154961 110.29988803258675 0 110.29988803258675 35.150354414538015 0 0 0 0 -253.68598580814432 -651.80213703335903 0 -651.80213703335903 -347.22837237542262 0 0 0 0 -15.004397795370096 73.352120653409656 0 73.352120653409656 128.22008521584212 0 0 0 0 213.85395250788133 -12.37118142790132 0 -12.37118142790132 69.015637890792277 0 0 0 0 -188.55460844423578 53.131049754403648 0 53.131049754403648 343.36317991430406 0 0 0 0 127.17267867611372 199.43565167480847 0 199.43565167480847 368.68773895660706 0 0 0 0 72.325741041691799 82.08817213245311 0 82.08817213245311 158.75283148093149 0 0 0 0 169.11391231492598 219.55463745898305 0 219.55463745898305 204.317676401266 0 0 0 0 72.261998837668216 124.95954551240357 0 124.95954551240357 116.90284253717255 0 0 0 0 322.37277722928775 176.63748908338312 0 176.63748908338312 98.53611708713288 0 0 0 0 -28.587790624570175 62.127998838259906 0 62.127998838259906 103.43825657097457 0 0 0 0 -23.963553341428554 -13.478520447297313 0 -13.478520447297313 3.1167786381378164 0 0 0 0 59.838019920471197 112.32174871345705 0 112.32174871345705 110.84555174445268 0 0 0 0 178.79833422844558 64.423711037727116 0 64.423711037727116 75.291463807938271 0 0 0 0 28.132587044005049 64.877761442548945 0 64.877761442548945 75.343632583446833 0 0 0 0 8.2008322569448353 18.392714426167586 0 18.392714426167586 10.070614598024434 0 0 0 0 62.302586690466796 90.337024723151444 0 90.337024723151444 164.3508267547586 0 0 0 0 -8.3907490087185579 97.978707434664102 0 97.978707434664102 115.57346967177 0 0 0 0 -34.688506831758069 82.756879143107227 0 82.756879143107227 127.55930085909961 0 0 0 0 156.15014315441658 113.119415499772 0 113.119415499772 38.490339091853457 0 0 0 0 19.561622290617379 186.03658132812052 0 186.03658132812052 138.64054643115378 0 0 0 0 -12.139167868559227 62.358301589458129 0 62.358301589458129 24.70750749325488 0 0 0 0 68.528844325311184 168.70118421188727 0 168.70118421188727 41.108731575252023 0 0 0 0 64.796284218209621 160.56102283660584 0 160.56102283660584 94.718849849807157 0 0 0 0 74.360637474543182 121.38838037017558 0 121.38838037017558 86.951334325589414 0 0 0 0 113.2217784140812 167.16068430901214 0 167.16068430901214 87.824495625303825 0 0 0 0 141.78311644139467 108.64063131355942 0 108.64063131355942 86.008269430836663 0 0 0 0 66.039229735244589 215.3360497386966 0 215.3360497386966 96.996800735235865 0 0 0 0 91.158877856232721 140.83249806758977 0 140.83249806758977 102.43171481139143 0 0 0 0 8.3395666256510594 238.24699982093807 0 238.24699982093807 10.612272486114762 0 0 0 0 69.572739776838716 196.44392482286457 0 196.44392482286457 14.322318854756304 0 0 0 0 17.319286365074113 95.181584774697995 0 95.181584774697995 20.549002333660411 0 0 0 0 64.529059012656944 169.12785980239642 0 169.12785980239642 21.141773439703684 0 0 0 0 -79.796484613605571 115.85432837781627 0 115.85432837781627 28.192507585279145 0 0 0 0 -47.139162829548695 83.376586647583281 0 83.376586647583281 60.491352341639868 0 0 0 0 -9.0401940189385641 54.519580190219131 0 54.519580190219131 159.85961121076252 0 0 0 0 -6.2360181717594969 75.403751068617566 0 75.403751068617566 211.61872386873983 0 0 0 0 -30.252906477145117 82.151944585464832 0 82.151944585464832 31.872862726522211 0 0 0 0 -39.073632597473988 31.574916528003087 0 31.574916528003087 123.03544264895027 0 0 0 0 -26.186483173902019 60.335883167717896 0 60.335883167717896 8.7150106885636305 0 0 0 0 -46.269851842000207 52.592217504483415 0 52.592217504483415 199.08238152627746 0 0 0 0 -32.268185534821896 106.20036787998652 0 106.20036787998652 93.948547037653043 0 0 0 0 -22.450639181108272 102.57204886240106 0 102.57204886240106 88.203061976757454 0 0 0 0 -28.892089953556123 71.682054030793807 0 71.682054030793807 62.66975158320075 0 0 0 0 -21.819338752189651 111.839226369073 0 111.839226369073 147.78597151891609 0 0 0 0 11.951466639946517 105.60764881226466 0 105.60764881226466 155.04981655613011 0 0 0 0 -194.6547819362022 250.88862925285503 0 250.88862925285503 -121.86883925102302 0 0 0 0 -156.64869659936812 293.7286559525237 0 293.7286559525237 -333.13122961358749 0 0 0 0 -192.38203631898796 238.67447601057211 0 238.67447601057211 -130.9883815539506 0 0 0 0 25.210300054675983 56.714329298024865 0 56.714329298024865 91.59932834395795 0 0 0 0 -94.760524543416977 97.576034279602027 0 97.576034279602027 138.22783731907475 0 0 0 0 202.19150766109692 448.56258003596554 0 448.56258003596554 46.975944399484433 0 0 0 0 -83.068561233565561 384.17268032424909 0 384.17268032424909 238.35686803694989 0 0 0 0 -137.64173156437755 486.31471182627138 0 486.31471182627138 278.57433237465739 0 0 0 0 -131.24957697823993 376.39949886555405 0 376.39949886555405 -14.182032777680433 0 0 0 0 -8.2326611765368227 99.530717354617423 0 99.530717354617423 -10.403093627496276 0 0 0 0 -338.9318172831845 746.47773294796934 0 746.47773294796934 110.285622583644 0 0 0 0 -39.607791014877876 285.33577492912718 0 285.33577492912718 37.774891047360143 0 0 0 0 -156.51059141186124 798.96471912476409 0 798.96471912476409 -86.574103295977693 0 0 0 0 -279.73685725686664 719.57535705196642 0 719.57535705196642 -14.090313619206427 0 0 0 0 0.076712215259021832 10.44041832583099 0 10.44041832583099 64.490649275515523 0 0 0 0 -87.471616542083211 339.4602180475631 0 339.4602180475631 -27.000115293090403 0 0 0 0 -96.962022200039883 288.53545552203468 0 288.53545552203468 339.93621975083079 0 0 0 0 -6.6581061156636849 8.0487827818872404 0 8.0487827818872404 29.842967258388498 0 0 0 0 -47.173965260641125 162.31637783751648 0 162.31637783751648 514.7622043734973 0 0 0 0 -129.12368066507042 522.36384170387464 0 522.36384170387464 -501.47659402998761 0 0 0 0 -295.3894366280656 396.96031157311518 0 396.96031157311518 35.344270679735928 0 0 0 0 -388.30749367103272 612.67636182888236 0 612.67636182888236 -81.267643327795668 0 0 0 0 -209.96569332755462 390.18754096099292 0 390.18754096099292 -93.102511482051341 0 0 0 0 -279.23592830620692 247.48587641159247 0 247.48587641159247 156.08586750552058 0 0 0 0 -418.72129240866525 459.9979042434461 0 459.9979042434461 137.4609723869944 0 0 0 0 -99.647851515634102 316.22560446079297 0 316.22560446079297 150.66330888687298 0 0 0 0 -117.92497784328589 224.2316719766095 0 224.2316719766095 370.07431313724373 0 0 0 0 89.824658785059 187.30805773042084 0 187.30805773042084 207.5568938870274 0 0 0 0 76.004739429694382 364.64617442885537 0 364.64617442885537 115.51112591236597 0 0 0 0 -209.17195247448399 166.05054435100465 0 166.05054435100465 265.1557256730448 0 0 0 0 12.734472990996437 127.11586963159789 0 127.11586963159789 223.536294792837 0 0 0 0 -69.993059789499966 210.22245826710423 0 210.22245826710423 286.14136375734233 0 0 0 0 -96.495274170738412 148.87499953074439 0 148.87499953074439 163.91764633790444 0 0 0 0 -78.437891956898966 202.56941626063053 0 202.56941626063053 210.72135587708908 0 0 0 0 -206.71884574631724 266.46977299852847 0 266.46977299852847 145.18144132287125 0 0 0 0 -234.68729318745318 214.93019180817646 0 214.93019180817646 68.458410288034429 0 0 0 0 -264.13019507726858 221.92696687872922 0 221.92696687872922 241.77095947341877 0 0 0 0 -244.7954776365732 160.94157871537027 0 160.94157871537027 227.17011876097968 0 0 0 0 -19.400427158900129 196.90491203928832 0 196.90491203928832 213.68285349454163 0 0 0 0 -149.8747551692868 228.58424742060015 0 228.58424742060015 225.40291277557844 0 0 0 0 -89.790482712669473 115.42266550553541 0 115.42266550553541 240.10676383084501 0 0 0 0 -21.086709915594838 118.54096659194329 0 118.54096659194329 222.19567607479621 0 0 0 0 9.4182399766723393 120.31696976226522 0 120.31696976226522 241.76480953010196 0 0 0 0 11.356591505682445 136.01179119457083 0 136.01179119457083 212.85408619360533 0 0 0 0 -289.00465504705062 -20.845031035853026 0 -20.845031035853026 259.232920783601 0 0 0 0 27.844774705815858 53.298904785141218 0 53.298904785141218 104.11824201290602 0 0 0 0 -234.01608164436766 63.952199775958434 0 63.952199775958434 -131.04368838447863 0 0 0 0 -261.36348238125538 288.23271668290909 0 288.23271668290909 12.409710508771241 0 0 0 0 -287.68478437802696 151.41261960544216 0 151.41261960544216 140.31765032677504 0 0 0 0 -284.87910427860697 132.29425353521583 0 132.29425353521583 264.89157839139807 0 0 0 0 -354.74071037861722 204.42321391236328 0 204.42321391236328 320.93131205219834 0 0 0 0 -264.25489298484172 248.556616382426 0 248.556616382426 332.64195129952714 0 0 0 0 -399.51623464030854 144.94727329615125 0 144.94727329615125 263.49800514033996 0 0 0 0 0.75302416294289287 324.56034862677916 0 324.56034862677916 360.61005414433021 0 0 0 0 -136.07921862545481 650.46452755848441 0 650.46452755848441 553.73082056769636 0 0 0 0 -415.43001192350494 134.66934495829992 0 134.66934495829992 580.12019076693105 0 0 0 0 2.8624135229728438 2.4472280909353117 0 2.4472280909353117 2.1832599884996853 0 0 0 0 -9.6254386540620089 4.4770639400178425 0 4.4770639400178425 69.922417959867744 0 0 0 0 -57.191581881696038 -36.0435083267148 0 -36.0435083267148 51.39995495043695 0 0 0 0 -12.051847025395546 21.297567542547768 0 21.297567542547768 17.438577037130017 0 0 0 0 -300.42440658163105 -3.662028562350315 0 -3.662028562350315 32.81668177350366 0 0 0 0 -262.62179852506961 53.174979105620878 0 53.174979105620878 -112.91508788148349 0 0 0 0 -358.31425958999898 111.6353685107315 0 111.6353685107315 252.62290829230915 0 0 0 0 -699.8912583786514 339.88003257926903 0 339.88003257926903 407.47059519361937 0 0 0 0 -483.57627301790126 -30.140031586670375 0 -30.140031586670375 106.06733524816809 0 0 0 0 -1206.7348587202941 167.73815839127928 0 167.73815839127928 136.61602733169275 0 0 0 0 -1730.5802732752672 -413.64906608793899 0 -413.64906608793899 113.96082161310187 0 0 0 0 -3.1941123289425946 3.1702780470018084 0 3.1702780470018084 -2.6222951754936048 0 0 0 0 -380.00055043697648 -257.19591681499878 0 -257.19591681499878 62.494186477240874 0 0 0 0 -64.436244148004334 26.473231806892727 0 26.473231806892727 -53.018406597373541 0 0 0 0 72.101194755668985 -57.544858172695967 0 -57.544858172695967 -133.10191596343066 0 0 0 0 -349.51873808118398 -66.952596374991117 0 -66.952596374991117 -12.127304682857357 0 0 0 0 -31.79796116894795 -53.215405021717743 0 -53.215405021717743 -59.094359698909102 0 0 0 0 -396.57096243902924 190.96202102405368 0 190.96202102405368 -121.69346291793045 0 0 0 0 91.065605391955614 88.046872412473022 0 88.046872412473022 173.1928132766916 0 0 0 0 37.052794128667301 125.72224836800524 0 125.72224836800524 172.81717028067214 0 0 0 0 132.74462659913115 122.95077404685435 0 122.95077404685435 172.43813974921522 0 0 0 0 -167.54474347092037 561.23584184989159 0 561.23584184989159 299.98597763539874 0 0 0 0 191.65975026269007 269.247974194579 0 269.247974194579 183.72180809800193 0 0 0 0 -229.63428992807894 316.70005762043002 0 316.70005762043002 191.45022482218337 0 0 0 0 337.93346223126355 210.69805052165611 0 210.69805052165611 244.9342709872144 0 0 0 0 643.81210028671194 597.94139260676457 0 597.94139260676457 240.70859268354616 0 0 0 0 86.936996212236409 159.53640859753796 0 159.53640859753796 226.588821236277 0 0 0 0 264.40134195242717 259.62018368222925 0 259.62018368222925 255.32270455075923 0 0 0 0 184.06108706501982 123.78924628392269 0 123.78924628392269 211.04674106047605 0 0 0 0 143.81485255296866 163.39095755360904 0 163.39095755360904 187.36633124045329 0 0 0 0 92.683566047206114 128.20820616522542 0 128.20820616522542 348.80750277411425 0 0 0 0 139.70041930588195 164.07317332911771 0 164.07317332911771 189.52349830816092 0 0 0 0 279.04949320167361 191.53207395697245 0 191.53207395697245 239.59584929718403 0 0 0 0 137.871264375799 164.61934373074473 0 164.61934373074473 276.54857049399288 0 0 0 0 321.40430191064661 128.17246723520657 0 128.17246723520657 279.20349636604078 0 0 0 0 394.44178789254511 311.42694222491991 0 311.42694222491991 305.80171976238489 0 0 0 0 665.84114077211416 297.03018178475759 0 297.03018178475759 230.659515465406 0 0 0 0 -731.12150020040917 -543.85978505255844 0 -543.85978505255844 -915.17267887547496 0 0 0 0 -11.010956132444264 11.128283253205367 0 11.128283253205367 -4.5169814302809073 0 0 0 0 2221.2801948689448 -1896.6248360292957 0 -1896.6248360292957 -539.30160407358198 0 0 0 0 609.66709310586521 29.310377720164979 0 29.310377720164979 317.49752633925527 0 0 0 0 369.16128372537787 209.95829171837249 0 209.95829171837249 295.73222517573595 0 0 0 0 81.170387766920612 381.66442188200017 0 381.66442188200017 582.14408244958031 0 0 0 0 278.42262157128425 -24.270705881819595 0 -24.270705881819595 657.27262316446286 0 0 0 0 -240.50218092099749 299.63635213104317 0 299.63635213104317 416.52307168080006 0 0 0 0 34.266936103653279 167.0610872348916 0 167.0610872348916 366.27034924106556 0 0 0 0 73.576634445678792 214.07644237077329 0 214.07644237077329 323.09125774216227 0 0 0 0 72.668285734878737 228.75287174750702 0 228.75287174750702 406.91437297523953 0 0 0 0 246.3781003332042 37.412721113840234 0 37.412721113840234 440.8149382591655 0 0 0 0 -5.4920708798914433 -1.248968486990151 0 -1.248968486990151 -1.4791522591185924 0 0 0 0 1126.0108399257297 -136.863413935469 0 -136.863413935469 192.39823385881027 0 0 0 0 -923.965321816293 -24.11537267757376 0 -24.11537267757376 204.71065796928087 0 0 0 0 -36.743698068117624 24.220578266022784 0 24.220578266022784 -16.808469015007063 0 0 0 0 -903.27866423173691 459.61480912717525 0 459.61480912717525 331.90807452698937 0 0 0 0 21.808112698978221 141.59458703610289 0 141.59458703610289 214.41752325765265 0 0 0 0 422.40875235167914 17.400526162629831 0 17.400526162629831 -88.262840645038523 0 0 0 0 -60.793332233748515 -200.54567129672796 0 -200.54567129672796 31.729232017387403 0 0 0 0 -859.77625640179031 -21.379977460994269 0 -21.379977460994269 -131.9644442327226 0 0 0 0 -10.809850777479852 10.077326949904716 0 10.077326949904716 -7.4894850680329341 0 0 0 0 -19.46864155876392 282.89941215043655 0 282.89941215043655 -671.96693390986184 0 0 0 0 101.39552188810922 108.58345464144804 0 108.58345464144804 -428.54491614643484 0 0 0 0 -2244.3153443565825 515.36316886683926 0 515.36316886683926 81.867823123000562 0 0 0 0 -582.5340327474114 63.069296758816563 0 63.069296758816563 -247.6192000269366 0 0 0 0 -407.70587882130349 928.66103206836851 0 928.66103206836851 -678.98394243427902 0 0 0 0 -3013.4212816386716 1390.841950038608 0 1390.841950038608 2209.5466293952486 0 0 0 0 -169.8761508314783 274.01827592636982 0 274.01827592636982 645.73333386269223 0 0 0 0 -314.42221527556831 650.3141908516991 0 650.3141908516991 125.70200126245618 0 0 0 0 -21.520184082273772 375.65239781096898 0 375.65239781096898 -6.7014876932080369 0 0 0 0 65.518815923518559 94.855297776804946 0 94.855297776804946 54.460646289226133 0 0 0 0 49.479447903893742 118.40309036083636 0 118.40309036083636 210.11539916836773 0 0 0 0 29.022620724699664 148.09401662246091 0 148.09401662246091 167.02235714931157 0 0 0 0 19.12706743830131 209.86942898015695 0 209.86942898015695 181.74641448934563 0 0 0 0 -38.534940833735163 133.51782700119657 0 133.51782700119657 232.82409529015422 0 0 0 0 17.35421553107517 137.85034222134709 0 137.85034222134709 207.38820448002662 0 0 0 0 -5.066441124137782 164.58714502456132 0 164.58714502456132 250.5424299660217 0 0 0 0 136.07298828862986 36.054190718976315 0 36.054190718976315 93.633082294545602 0 0 0 0 31.442111301270415 197.12179991613812 0 197.12179991613812 232.00740118892281 0 0 0 0 29.606246635459684 193.39621257824183 0 193.39621257824183 243.5776594945637 0 0 0 0 28.123410352040082 209.19064213907404 0 209.19064213907404 241.49665662784173 0 0 0 0 -34.306949596732011 189.60296048771124 0 189.60296048771124 330.49418159695051 0 0 0 0 29.243594977090652 213.22901984554846 0 213.22901984554846 219.88897861528676 0 0 0 0 462.33029417409853 420.26485217925801 0 420.26485217925801 318.30296314464067 0 0 0 0 644.80511133777873 590.14266928733559 0 590.14266928733559 -262.07885029696627 0 0 0 0 2.5269870691097722 9.652493535886066 0 9.652493535886066 -3.0278176932562246 0 0 0 0 20.019592646691308 7.2034688217609073 0 7.2034688217609073 294.49740486123483 0 0 0 0 -69.237592235951752 311.94938797278428 0 311.94938797278428 500.4674623546307 0 0 0 0 -102.35942235820676 84.479460170803577 0 84.479460170803577 234.36864265220356 0 0 0 0 -68.211203213097178 134.0825825004722 0 134.0825825004722 204.98708062076184 0 0 0 0 -133.26317742437459 107.96542438594042 0 107.96542438594042 194.63629031635355 0 0 0 0 4.5482878220773486 13.844599959569024 0 13.844599959569024 6.9050240210877973 0 0 0 0 -189.18808047022139 41.541972916042141 0 41.541972916042141 158.97036754322471 0 0 0 0 -42.78927801259124 123.09249858386465 0 123.09249858386465 143.38134971450199 0 0 0 0 -92.709463392062389 108.57738543479354 0 108.57738543479354 142.19858798827045 0 0 0 0 -11.157433770531497 162.31012842580094 0 162.31012842580094 102.17891648429213 0 0 0 0 51.120796253831941 101.5103715104924 0 101.5103715104924 15.221972246232326 0 0 0 0 -52.902064753874583 41.043601699529972 0 41.043601699529972 44.731898467289284 0 0 0 0 -180.92603649102102 373.25916043339021 0 373.25916043339021 -73.338868476683274 0 0 0 0 6.5313803810618936 21.135883262286853 0 21.135883262286853 15.866285895344987 0 0 0 0 -30.607407455841894 143.2508808428538 0 143.2508808428538 152.8349437854049 0 0 0 0 -51.710527177111217 52.162942159646377 0 52.162942159646377 5.9922108117219182 0 0 0 0 616.08203180268174 77.007292651644093 0 77.007292651644093 387.05317667518102 0 0 0 0 24.269879556442902 142.83015939884353 0 142.83015939884353 204.13740727995901 0 0 0 0 20.230910790800408 127.44615108025027 0 127.44615108025027 178.47593629715266 0 0 0 0 -24.399347636048333 121.80280049351859 0 121.80280049351859 234.91857702208654 0 0 0 0 -34.487373590018251 98.514239907963201 0 98.514239907963201 184.84934725798666 0 0 0 0 -9.7923323412032914 108.96063530178799 0 108.96063530178799 167.49592012166977 0 0 0 0 -42.033426122667152 128.0240883975348 0 128.0240883975348 175.39640177907131 0 0 0 0 300.71730436975122 286.55912170527517 0 286.55912170527517 50.86235269063036 0 0 0 0 36.505732650868595 250.42732849519234 0 250.42732849519234 400.1841640866478 0 0 0 0 103.27165268361568 276.3374807350483 0 276.3374807350483 229.68130656995345 0 0 0 0 90.429675493503964 137.00747869522274 0 137.00747869522274 40.773152632173151 0 0 0 0 79.179272326480714 126.62415461268392 0 126.62415461268392 72.358999248943292 0 0 0 0 89.603508995365701 114.87842310554697 0 114.87842310554697 42.623863402259303 0 0 0 0 -12.443216428964661 -4.689710487749835 0 -4.689710487749835 5.2401283091458026 0 0 0 0 100.43387036427157 127.63860446450417 0 127.63860446450417 9.8445554377976805 0 0 0 0 40.29179586416285 -14.443140416027745 0 -14.443140416027745 -26.344078977468598 0 0 0 0 75.827322060024017 48.259752325306181 0 48.259752325306181 78.387479781769798 0 0 0 0 81.983953770846711 58.270354440508527 0 58.270354440508527 68.308688709585113 0 0 0 0 14.817021061913692 138.89671438621008 0 138.89671438621008 289.856398605305 0 0 0 0 88.927243374608224 164.13631717672979 0 164.13631717672979 168.01343065976107 0 0 0 0 -67.38969749140233 53.719206787718576 0 53.719206787718576 7.9765320772276027 0 0 0 0 -36.287777175914862 72.344755200185347 0 72.344755200185347 44.963511908271926 0 0 0 0 -68.866356855371123 62.303515776438871 0 62.303515776438871 24.024294943199493 0 0 0 0 -44.320725987871143 105.74350058783068 0 105.74350058783068 32.038953993718792 0 0 0 0 60.704326054556759 85.608525633519065 0 85.608525633519065 40.690425510234888 0 0 0 0 17.204188418909325 68.028580044046976 0 68.028580044046976 35.036975424503908 0 0 0 0 43.435225983569552 123.09043847032295 0 123.09043847032295 135.95906057524928 0 0 0 0 71.603227841726039 59.397966084967265 0 59.397966084967265 129.52731457652408 0 0 0 0 -67.324311113705335 95.066293054260314 0 95.066293054260314 34.155832937045489 0 0 0 0 64.97111431151842 116.97671531215238 0 116.97671531215238 -20.619330615149863 0 0 0 0 29.866636515918799 113.25867071608081 0 113.25867071608081 123.15339114528615 0 0 0 0 6.7603199200740249 122.66093127872358 0 122.66093127872358 106.687047414243 0 0 0 0 -34.925448271458663 79.783337061468046 0 79.783337061468046 34.08369108394254 0 0 0 0 -5.1124892636247985 83.765451530435399 0 83.765451530435399 100.42680682271939 0 0 0 0 -42.965187565164527 51.28231086157507 0 51.28231086157507 41.716053103675137 0 0 0 0 7.0416575836116095 74.569555898166215 0 74.569555898166215 92.752779282564347 0 0 0 0 63.22238137945164 94.869026461800061 0 94.869026461800061 86.32719751457509 0 0 0 0 -83.200292657002137 105.83251612963795 0 105.83251612963795 87.10220332188328 0 0 0 0 31.608083150626044 51.077850480884081 0 51.077850480884081 227.40588100237073 0 0 0 0 2.432453597184093 44.126639608307528 0 44.126639608307528 50.271491475353457 0 0 0 0 -34.826725053235691 40.36201154650621 0 40.36201154650621 75.161644902580633 0 0 0 0 -38.139170321959682 93.681248124514241 0 93.681248124514241 62.952139623041148 0 0 0 0 -46.135703499493779 68.827052972231357 0 68.827052972231357 83.680867323151205 0 0 0 0 -9.0237754210484127 142.29768391794642 0 142.29768391794642 74.039767434209352 0 0 0 0 -73.61448664911768 163.16136642605125 0 163.16136642605125 93.340841217606794 0 0 0 0 -54.32076876256906 234.68327997729648 0 234.68327997729648 230.29335341427941 0 0 0 0 29.362029870160939 57.908361239199024 0 57.908361239199024 96.282351935831571 0 0 0 0 39.173888386692852 -28.521995617920766 0 -28.521995617920766 -25.770223682629876 0 0 0 0 40.043584528713836 -16.381431163230445 0 -16.381431163230445 27.037123897258425 0 0 0 0 -14.441447299254691 5.1727608197217023 0 5.1727608197217023 29.7484843533598 0 0 0 0 -125.05649608135718 98.703949807568279 0 98.703949807568279 239.05809045939168 0 0 0 0 461.91859560146986 50.55391082346614 0 50.55391082346614 508.09636132490414 0 0 0 0 -1.868291885195589 2.0429581580754217 0 2.0429581580754217 -5.5438140901213018 0 0 0 0 93.717499788661826 33.528989772015393 0 33.528989772015393 82.096313339854532 0 0 0 0 -55.542277803411707 74.921706172783161 0 74.921706172783161 243.71766870399006 0 0 0 0 -2.3654261689516716 60.627453123190207 0 60.627453123190207 245.52886779754772 0 0 0 0 -112.96548921686917 118.22613484161411 0 118.22613484161411 233.27925288432743 0 0 0 0 70.802992510325566 120.36534720871714 0 120.36534720871714 45.740427981933863 0 0 0 0 115.74455586155273 161.08310881160833 0 161.08310881160833 81.96325303363119 0 0 0 0 4.1431029182935077 23.238578570646268 0 23.238578570646268 13.954147631357728 0 0 0 0 164.96441504051381 268.98875210449478 0 268.98875210449478 492.58016320187016 0 0 0 0 74.506720337587467 177.67290174876689 0 177.67290174876689 217.68737442608835 0 0 0 0 1.7558049246581504 135.79414517976693 0 135.79414517976693 221.60527103464119 0 0 0 0 34.660109637555351 33.225012077393671 0 33.225012077393671 -8.1195918683628747 0 0 0 0 -120.04039828522946 415.70254174253205 0 415.70254174253205 419.11121487128548 0 0 0 0 39.103201865349547 161.33001651625091 0 161.33001651625091 191.68987326024217 0 0 0 0 73.430260396984522 121.51889716999722 0 121.51889716999722 155.61212589935167 0 0 0 0 54.052094888247666 108.86877875261416 0 108.86877875261416 173.47990404481243 0 0 0 0 50.463486992543039 100.76535670606245 0 100.76535670606245 171.10203805927813 0 0 0 0 148.17363461607238 80.075944298165268 0 80.075944298165268 174.49871842461289 0 0 0 0 42.800899444206152 42.049908620421775 0 42.049908620421775 235.4579237050566 0 0 0 0 -33.498642057405959 94.052728284412296 0 94.052728284412296 231.76677722853492 0 0 0 0 22.464094132017635 67.804975219332846 0 67.804975219332846 224.83033460052684 0 0 0 0 -37.279823082426446 87.251511852213298 0 87.251511852213298 224.47941618510231 0 0 0 0 41.922248560615117 80.251699454354821 0 80.251699454354821 203.52038242689741 0 0 0 0 -16.629511464772804 110.83533500398335 0 110.83533500398335 188.29779224943195 0 0 0 0 95.830137609256781 102.89739209390245 0 102.89739209390245 145.9474617840533 0 0 0 0 37.73085283942055 115.55959581836578 0 115.55959581836578 156.95582147191453 0 0 0 0 53.598787878432631 121.51162785141241 0 121.51162785141241 155.33074250092614 0 0 0 0 49.091128739710257 108.1041002353013 0 108.1041002353013 116.42195292555698 0 0 0 0 -15.206962273368845 138.66600674077927 0 138.66600674077927 182.47983602757085 0 0 0 0 55.793912548925938 112.4295289106508 0 112.4295289106508 147.33273167608425 0 0 0 0 2.2383789042396529 165.60781777574448 0 165.60781777574448 159.60440828598985 0 0 0 0 18.174842392872961 99.211844797777303 0 99.211844797777303 146.96296286040524 0 0 0 0 -269.86234314848298 -478.52909975987859 0 -478.52909975987859 562.88744461194437 0 0 0 0 606.33572448526093 -23.614244103820965 0 -23.614244103820965 142.92192507575965 0 0 0 0 -308.46553947925383 314.16811480937031 0 314.16811480937031 95.94932094507385 0 0 0 0 53.372271102357743 104.76179509950725 0 104.76179509950725 142.39477257186812 0 0 0 0 -510.05708306296469 146.41322453384055 0 146.41322453384055 429.14372779760743 0 0 0 0 -37.871452100476745 84.911550665507093 0 84.911550665507093 116.53111663123127 0 0 0 0 -139.76656219360302 41.379174191119091 0 41.379174191119091 144.25057371036382 0 0 0 0 -45.777620313778243 2.8506188957544509 0 2.8506188957544509 173.9842138006934 0 0 0 0 19.070098142394272 140.4008753998869 0 140.4008753998869 212.54428955733601 0 0 0 0 6.9433246909102309 186.03564418446331 0 186.03564418446331 120.43440452994696 0 0 0 0 -28.463917894861879 27.279042791691609 0 27.279042791691609 40.065010029851692 0 0 0 0 -104.76421524203039 94.877563887021097 0 94.877563887021097 116.54530385421822 0 0 0 0 -59.24668221424902 -2.501037858234298 0 -2.501037858234298 171.01036867084775 0 0 0 0 -15.011102790811748 78.483948900934195 0 78.483948900934195 51.513891740808361 0 0 0 0 67.340099094861216 69.021526994190936 0 69.021526994190936 194.66210833045989 0 0 0 0 6.3473116426996512 23.65108165557784 0 23.65108165557784 35.37560588055058 0 0 0 0 112.76487566781634 191.53621376891442 0 191.53621376891442 89.371911411828478 0 0 0 0 -43.980290046235879 49.167667643232079 0 49.167667643232079 -4.0493357669002421 0 0 0 0 -273.79402464781742 -69.935911884254892 0 -69.935911884254892 215.56082517698815 0 0 0 0 -92.465368321416463 144.40814901226076 0 144.40814901226076 301.32766832172638 0 0 0 0 -50.221022151468787 78.664475629069784 0 78.664475629069784 134.71778043213999 0 0 0 0 -23.953010429162532 85.542014109421871 0 85.542014109421871 111.07034309404082 0 0 0 0 5.4624439408818546 1.6174855891481741 0 1.6174855891481741 -6.4289174687115178 0 0 0 0 101.45503191210082 235.35988323840138 0 235.35988323840138 194.47011235378886 0 0 0 0 -157.50568787824886 174.68842574199516 0 174.68842574199516 201.03909480233415 0 0 0 0 -68.709532220760593 52.705418278856087 0 52.705418278856087 113.43710587150963 0 0 0 0 56.403128326259321 189.72167758289652 0 189.72167758289652 83.722696782533603 0 0 0 0 -3.9057516074317391 34.065524162288057 0 34.065524162288057 60.30809384836175 0 0 0 0 8.3782275362027576 58.606925675958337 0 58.606925675958337 72.89726912736387 0 0 0 0 -36.098049166178555 38.943594923436763 0 38.943594923436763 -22.691781725084439 0 0 0 0 -48.363525357701292 119.12635273245178 0 119.12635273245178 131.02033003002362 0 0 0 0 -17.470260890710051 165.90466083878709 0 165.90466083878709 -13.481512566520905 0 0 0 0 -476.09092969453195 43.195453484644531 0 43.195453484644531 28.818865555702359 0 0 0 0 -42.341572233552597 -34.875235298325606 0 -34.875235298325606 21.758753256159252 0 0 0 0 10.085978280992094 103.02180506608056 0 103.02180506608056 192.17061240776093 0 0 0 0 14.590374064850039 95.813106289821008 0 95.813106289821008 175.23717519257843 0 0 0 0 1.4987180007810821 176.8845387738038 0 176.8845387738038 249.69200855119925 0 0 0 0 16.035116813574859 90.113723074726295 0 90.113723074726295 158.88570690477354 0 0 0 0 26.765543383126897 102.24732576406086 0 102.24732576406086 164.70874007898237 0 0 0 0 19.952554274084832 98.211936946760943 0 98.211936946760943 146.29471098933573 0 0 0 0 36.539088524354156 68.865695909404167 0 68.865695909404167 180.15051740904892 0 0 0 0 164.88986275092611 -3.9455280414113076 0 -3.9455280414113076 203.94415701973776 0 0 0 0 45.626488646132202 96.172051861817636 0 96.172051861817636 123.72018051357009 0 0 0 0 -349.81892872882599 321.85196995602018 0 321.85196995602018 230.05196092242841 0 0 0 0 -321.23319315526169 507.57382868492277 0 507.57382868492277 259.53839750715997 0 0 0 0 149.47512867543992 697.85486777376354 0 697.85486777376354 -361.7480560237891 0 0 0 0 -9.3816423899248917 30.100594474008858 0 30.100594474008858 -31.892209067264403 0 0 0 0 370.59761064615304 194.88019533728948 0 194.88019533728948 -61.30762457785022 0 0 0 0 -168.85319591715233 190.28477720551746 0 190.28477720551746 219.68122808734188 0 0 0 0 -254.17502322027576 162.84941285806417 0 162.84941285806417 244.16932276939042 0 0 0 0 -103.80180704496161 131.16673170635477 0 131.16673170635477 250.8446241071797 0 0 0 0 -96.510775793154608 266.17902967052214 0 266.17902967052214 120.74826349921932 0 0 0 0 -91.86934788194776 243.19702182772744 0 243.19702182772744 232.80220988811925 0 0 0 0 -47.927991244421719 156.4568329639369 0 156.4568329639369 195.65549763472518 0 0 0 0 -91.648845818923292 174.92519504146185 0 174.92519504146185 210.02594296241296 0 0 0 0 -70.930870781769045 153.95683657711197 0 153.95683657711197 225.80141551514134 0 0 0 0 -84.744456769178214 136.54627085197717 0 136.54627085197717 210.33667599069304 0 0 0 0 -13.941030320176651 118.94908557356575 0 118.94908557356575 208.89790409390116 0 0 0 0 26.362176912175528 105.50326259422354 0 105.50326259422354 138.43789718188782 0 0 0 0 -3.0049824145680759 101.84303099674798 0 101.84303099674798 145.88161463456345 0 0 0 0 -44.682479143273667 200.12457611777791 0 200.12457611777791 170.6030192524122 0 0 0 0 -252.18264854467998 29.431554208291345 0 29.431554208291345 387.36790314650352 0 0 0 0 151.35996366360268 289.38563650608739 0 289.38563650608739 193.94163846477022 0 0 0 0 -123.83175933230086 -261.47704542459542 0 -261.47704542459542 -299.42768056178465 0 0 0 0 -4.7653220625298047 32.710342608110835 0 32.710342608110835 -19.473905081909763 0 0 0 0 -27.435208112656255 18.923853940446861 0 18.923853940446861 36.441796504732338 0 0 0 0 -58.451172658700671 -191.11321548182605 0 -191.11321548182605 -11.728386536531616 0 0 0 0 -434.26565157949517 -297.60374536886957 0 -297.60374536886957 -35.902028563803469 0 0 0 0 -21.067239659639597 36.117107453431345 0 36.117107453431345 -19.163645725351273 0 0 0 0 -237.88442239824508 -90.624873574775847 0 -90.624873574775847 30.120936116902158 0 0 0 0 8.3187462049754686 83.460373895479279 0 83.460373895479279 173.54966496056295 0 0 0 0 23.148576573439641 107.92070086898457 0 107.92070086898457 152.40995620225658 0 0 0 0 23.216783646043041 100.38007386800746 0 100.38007386800746 83.434766487232991 0 0 0 0 0.87713751394767314 84.234366891978425 0 84.234366891978425 153.24414746578623 0 0 0 0 24.115466084142099 100.58103054992171 0 100.58103054992171 69.486581156794273 0 0 0 0 -7.6028326776649919 94.458637329184057 0 94.458637329184057 213.5533903243122 0 0 0 0 14.11516194332944 91.626544283300063 0 91.626544283300063 155.04218683703948 0 0 0 0 23.272842403297545 60.821241942765482 0 60.821241942765482 143.56429802584898 0 0 0 0 26.985438924937625 123.37841236691747 0 123.37841236691747 79.820451395651617 0 0 0 0 12.517092435193263 65.758548425870686 0 65.758548425870686 206.77440018943526 0 0 0 0 8.0321921315318718 31.086506398149552 0 31.086506398149552 -20.418196762191442 0 0 0 0 251.30516632405306 -450.18566789546549 0 -450.18566789546549 -734.39393105947966 0 0 0 0 146.7838578082883 41.073403957689152 0 41.073403957689152 -529.27565021423652 0 0 0 0 -23.551036933480646 57.13526026127829 0 57.13526026127829 19.928435253466887 0 0 0 0 -3.3944759613623319 80.4269657310806 0 80.4269657310806 66.816032082373567 0 0 0 0 46.369779746285388 71.961702503805697 0 71.961702503805697 58.391385732930516 0 0 0 0 12.776625265825714 144.73660068283061 0 144.73660068283061 -6.0973535119846929 0 0 0 0 12.814824277142517 101.10721057500646 0 101.10721057500646 -12.246204549315735 0 0 0 0 -15.303839513304411 124.40970786165417 0 124.40970786165417 75.494555842440604 0 0 0 0 389.069098758584 930.55631644698224 0 930.55631644698224 -120.0872799529825 0 0 0 0 8.1099930173222674 204.52997739474813 0 204.52997739474813 -88.650176204188028 0 0 0 0 55.088238382970871 76.201848109836106 0 76.201848109836106 62.245567538693265 0 0 0 0 -175.1787095808977 -418.51663697540425 0 -418.51663697540425 297.77822455125715 0 0 0 0 45.264398696010176 192.961828596337 0 192.961828596337 -211.42530379047093 0 0 0 0 -40.101678591301607 179.43621650248679 0 179.43621650248679 54.849926471346407 0 0 0 0 19.624200408397883 113.76986864880746 0 113.76986864880746 8.4855806421837769 0 0 0 0 56.87723507235205 120.49932266708493 0 120.49932266708493 38.347978325764416 0 0 0 0 9.4289258838980459 112.77791076206631 0 112.77791076206631 95.967215756274527 0 0 0 0 37.151447466359969 144.03897999719993 0 144.03897999719993 73.583083452831488 0 0 0 0 57.040787546080537 205.02839573724486 0 205.02839573724486 172.91064444216317 0 0 0 0 74.280545821762644 181.06889293095446 0 181.06889293095446 14.864387119127059 0 0 0 0 51.773067775502568 241.62147850143083 0 241.62147850143083 142.2884475641622 0 0 0 0 15.248882339485561 8.8480804277588447 0 8.8480804277588447 -25.579825083870631 0 0 0 0 48.681432304438204 233.92776050217799 0 233.92776050217799 175.46352785357158 0 0 0 0 -9.633198272386899 17.652311397188328 0 17.652311397188328 -0.52076290291151395 0 0 0 0 221.58830436653807 213.70238105970202 0 213.70238105970202 152.2127335449768 0 0 0 0 -187.50046530482359 164.31364697886238 0 164.31364697886238 26.251437268962036 0 0 0 0 -3.2643977094267029 225.35179608137696 0 225.35179608137696 -185.88421451486647 0 0 0 0 45.508942947084705 90.26147003522027 0 90.26147003522027 51.15758337916531 0 0 0 0 41.606070855072176 89.118129916561884 0 89.118129916561884 -366.58100070368528 0 0 0 0 15.275740462630345 59.064223912539454 0 59.064223912539454 -101.84435760283671 0 0 0 0 -46.029050317993097 135.37753606425031 0 135.37753606425031 31.941058937256457 0 0 0 0 16.708920471268357 100.13300305957637 0 100.13300305957637 14.187130709709891 0 0 0 0 -3.4330597586581035 76.353921928520862 0 76.353921928520862 14.932869705760538 0 0 0 0 -93.64645672363622 49.434637969326104 0 49.434637969326104 31.072340464299486 0 0 0 0 -77.510301419228199 30.267373161623254 0 30.267373161623254 51.256287641801464 0 0 0 0 -220.17352412003675 18.362533341620292 0 18.362533341620292 81.831856169839739 0 0 0 0 -132.37055721906654 -45.109920239110579 0 -45.109920239110579 73.339015083762206 0 0 0 0 0.31005551779891505 1.181608444633838 0 1.181608444633838 11.503620365000643 0 0 0 0 -41.325168693438172 -40.39822365334112 0 -40.39822365334112 32.770241072164936 0 0 0 0 783.8917419185891 -64.435605520608078 0 -64.435605520608078 -55.964991348344483 0 0 0 0 549.17890303970489 433.08202204244299 0 433.08202204244299 285.5871479618072 0 0 0 0 125.32532302063191 148.28839318894825 0 148.28839318894825 -99.718203613625519 0 0 0 0 290.76284174384273 120.68112435109106 0 120.68112435109106 -305.46677806165826 0 0 0 0 233.51968892932928 -122.83424549816118 0 -122.83424549816118 78.462334895957611 0 0 0 0 104.06747047608039 68.213828901609389 0 68.213828901609389 39.48080845196823 0 0 0 0 12.572349873997155 159.56557244200667 0 159.56557244200667 112.29862079957093 0 0 0 0 90.083707511774264 301.14805076173434 0 301.14805076173434 -103.95521394687603 0 0 0 0 111.67114119383041 157.1320765470191 0 157.1320765470191 -78.077636720408918 0 0 0 0 -188.56702410007711 306.42684108956018 0 306.42684108956018 -129.44436858118934 0 0 0 0 169.46674517492647 115.39153898251971 0 115.39153898251971 -264.11055227370161 0 0 0 0 26.818263244443763 17.212382193904361 0 17.212382193904361 -10.071254442264532 0 0 0 0 29.338901809558593 211.35134637473493 0 211.35134637473493 159.99748848602758 0 0 0 0 101.02250279052532 320.3658046513774 0 320.3658046513774 285.49092157474661 0 0 0 0 221.82690064876806 135.60126551926805 0 135.60126551926805 100.26173524208752 0 0 0 0 -3.8268935817177407 282.7335668962769 0 282.7335668962769 755.54978011587082 0 0 0 0 -21.433973698527552 31.081833506981638 0 31.081833506981638 11.252519244561881 0 0 0 0 -124.80775446089683 25.327118873623476 0 25.327118873623476 363.3247995065758 0 0 0 0 -15.425316426713835 106.82583678598712 0 106.82583678598712 88.292289767162629 0 0 0 0 72.93767651807309 146.09755000407853 0 146.09755000407853 79.83823104154726 0 0 0 0 -8.7580263097133866 129.20500114323659 0 129.20500114323659 158.34820286774629 0 0 0 0 49.204697721369484 122.35981939697376 0 122.35981939697376 103.05975939526252 0 0 0 0 -29.746059742108628 123.1046418754886 0 123.1046418754886 84.593823969269579 0 0 0 0 -35.083927719177296 44.631980985057965 0 44.631980985057965 -34.714638726443525 0 0 0 0 15.39058726663643 78.748004341519845 0 78.748004341519845 280.67566543793873 0 0 0 0 -11.392080241595977 129.63546372607379 0 129.63546372607379 190.91039581030964 0 0 0 0 37.80197315172154 149.89844985532955 0 149.89844985532955 120.24699359455553 0 0 0 0 14.784522938705777 133.32980094190134 0 133.32980094190134 114.2314404380304 0 0 0 0 -35.058615453858181 130.36916350601894 0 130.36916350601894 142.33766154962359 0 0 0 0 -55.524712055584274 57.159951406152032 0 57.159951406152032 -47.054289518627101 0 0 0 0 -6.969021174354566 140.01564326594234 0 140.01564326594234 -17.050725595054246 0 0 0 0 -14.59782690805514 118.50015097903452 0 118.50015097903452 59.124853423018067 0 0 0 0 -16.585248024801103 144.48804038817025 0 144.48804038817025 -8.4489455987131805 0 0 0 0 -40.404585816657345 172.02452401697155 0 172.02452401697155 5.4724642645378481 0 0 0 0 -27.622794385060843 177.25462387205698 0 177.25462387205698 -2.5178822217058041 0 0 0 0 -21.799111630992229 162.87500358704801 0 162.87500358704801 -30.637627802672796 0 0 0 0 -27.768693693514138 122.53086428618212 0 122.53086428618212 -30.470570688827138 0 0 0 0 -7.4426702100900002 168.94752266533033 0 168.94752266533033 -2.5366697992212721 0 0 0 0 4.3566929088337929 185.31355175511271 0 185.31355175511271 -0.99640792503487319 0 0 0 0 14.428456787733012 148.25499605259392 0 148.25499605259392 6.6210016171644384 0 0 0 0 64.142354542505927 154.6397356392481 0 154.6397356392481 -95.60819678442931 0 0 0 0 -31.923751379498896 30.572765662684724 0 30.572765662684724 9.9889883204034788 0 0 0 0 49.177768130233744 129.77750324943554 0 129.77750324943554 -28.075385280986666 0 0 0 0 43.258283302908239 129.86015010895062 0 129.86015010895062 52.790958726742247 0 0 0 0 39.120228715226403 149.87930004948794 0 149.87930004948794 -43.588241030665813 0 0 0 0 4.6532374266353145 172.70772446147021 0 172.70772446147021 -53.90827163074573 0 0 0 0 4.2018836445058696 130.93834314363266 0 130.93834314363266 -46.45865652044813 0 0 0 0 11.317287201905856 149.57326082185682 0 149.57326082185682 -30.216780184269737 0 0 0 0 33.360912052603936 6.4469139814700327 0 6.4469139814700327 -0.0025241693571160795 0 0 0 0 16.985776507157425 138.41589325684618 0 138.41589325684618 -53.016898429850698 0 0 0 0 4.2020901973519358 152.50079826522779 0 152.50079826522779 -131.40156101940374 0 0 0 0 -60.767405611881259 178.48660223572733 0 178.48660223572733 -36.776032850670163 0 0 0 0 44.442449955866323 279.93336909607751 0 279.93336909607751 -263.78758129454036 0 0 0 0 -11.78277652061297 202.83096989194746 0 202.83096989194746 -25.866974256117828 0 0 0 0 -38.956548508307606 122.72838068166311 0 122.72838068166311 -131.46387287875041 0 0 0 0 -19.072914192031021 167.14934749780878 0 167.14934749780878 81.219735109377325 0 0 0 0 -26.819738398301524 135.68032187092922 0 135.68032187092922 14.686378166778013 0 0 0 0 39.03321743563356 191.18769392202012 0 191.18769392202012 69.534992600798432 0 0 0 0 39.470637146645458 201.70383574786683 0 201.70383574786683 6.2962073180424341 0 0 0 0 25.556688872544328 156.42731088951405 0 156.42731088951405 95.767299190632912 0 0 0 0 17.193087944964645 135.69889526496445 0 135.69889526496445 45.216531206191576 0 0 0 0 26.191161234128231 296.71304630405575 0 296.71304630405575 -61.263178620610745 0 0 0 0 15.068952714445913 158.18222626833995 0 158.18222626833995 -60.297705075354315 0 0 0 0 27.152977365110928 265.97756512809065 0 265.97756512809065 51.422388188777404 0 0 0 0 -1.901074927089212 187.20008338537082 0 187.20008338537082 40.640761364514219 0 0 0 0 80.53231490851249 182.66367848629307 0 182.66367848629307 -48.432026024187508 0 0 0 0 122.77243000923772 323.67693360985868 0 323.67693360985868 160.77065693421537 0 0 0 0 0.43988148836437801 -1.9525309184954409 0 -1.9525309184954409 -0.17515327459765118 0 0 0 0 59.488811352690391 66.220196126741939 0 66.220196126741939 -503.51418481293513 0 0 0 0 -25.296443291339529 197.88873838931067 0 197.88873838931067 611.28071749296578 0 0 0 0 -34.450364556356362 87.175501502699262 0 87.175501502699262 -90.906001982097223 0 0 0 0 9.3347215203539236 128.32640528455522 0 128.32640528455522 217.3463687759795 0 0 0 0 5.0542578661470401 12.025242127338259 0 12.025242127338259 3.1553923537145714 0 0 0 0 28.627299388950632 91.139099822012213 0 91.139099822012213 -115.5733345129629 0 0 0 0 52.785671965051733 30.375118740055768 0 30.375118740055768 -34.399606187754216 0 0 0 0 28.131396070886694 116.18748601516563 0 116.18748601516563 128.77413555052772 0 0 0 0 45.569512971385848 115.76602285894842 0 115.76602285894842 111.43976902772192 0 0 0 0 50.636739558209229 131.94523075174948 0 131.94523075174948 46.724989177775569 0 0 0 0 64.225140291484422 96.357244623119186 0 96.357244623119186 56.044538689777255 0 0 0 0 38.264252561806643 177.62589744403158 0 177.62589744403158 147.03188212889654 0 0 0 0 79.044789298342948 97.285541863999242 0 97.285541863999242 170.59621164092096 0 0 0 0 43.152956961885138 243.83942367548298 0 243.83942367548298 -10.303490978621994 0 0 0 0 -8.7872226421932282 199.34222068456438 0 199.34222068456438 139.5438359481077 0 0 0 0 96.502057631323467 78.710903885787985 0 78.710903885787985 48.110529158345599 0 0 0 0 81.672587056236807 171.97939474123996 0 171.97939474123996 -99.070856036560144 0 0 0 0 210.0963264722086 146.67632405303266 0 146.67632405303266 -45.177506879370412 0 0 0 0 54.563164064777084 11.894802429898391 0 11.894802429898391 11.316454138788686 0 0 0 0 119.60306749382647 93.966842540340252 0 93.966842540340252 32.569438007054202 0 0 0 0 2.7477689065685666 30.211425547646783 0 30.211425547646783 16.792830481977969 0 0 0 0 136.37618341527923 156.55166381885306 0 156.55166381885306 79.185276196089944 0 0 0 0 272.00886551348958 129.66217706280872 0 129.66217706280872 -61.797951852755432 0 0 0 0 58.914101502406993 70.884324525789907 0 70.884324525789907 1.3507304317724902 0 0 0 0 52.410403061097895 112.72099707989628 0 112.72099707989628 -13.42056502709147 0 0 0 0 80.29000926986248 69.356231633937185 0 69.356231633937185 48.237183021076092 0 0 0 0 70.171804350999082 97.849175119926258 0 97.849175119926258 -97.422632692119805 0 0 0 0 42.838202185837872 190.98117910717883 0 190.98117910717883 -118.26420946694452 0 0 0 0 122.55897946640289 79.503614490297878 0 79.503614490297878 -32.856238856664277 0 0 0 0 -12.442992279757163 78.724848528391021 0 78.724848528391021 86.055977108553407 0 0 0 0 12.866166940075345 117.38052072972994 0 117.38052072972994 142.35417711136597 0 0 0 0 56.679201596671192 136.21769215054587 0 136.21769215054587 51.511589144658501 0 0 0 0 48.336732906289399 106.55671546459871 0 106.55671546459871 54.141202538032303 0 0 0 0 76.097884200440603 149.59158265452743 0 149.59158265452743 0.87326278465479845 0 0 0 0 52.502285643859068 129.65993073948721 0 129.65993073948721 71.806422646121064 0 0 0 0 29.515341037071735 75.259237970246218 0 75.259237970246218 82.933872498638891 0 0 0 0 53.61263866891386 131.07409547990937 0 131.07409547990937 46.251389577671034 0 0 0 0 166.40835258013249 80.516408022856012 0 80.516408022856012 8.7285241972567746 0 0 0 0 88.256857673906779 48.145955461520316 0 48.145955461520316 -3.1069407722934557 0 0 0 0 -30.876171002208139 117.73310958936054 0 117.73310958936054 181.48506781458127 0 0 0 0 -17.259695912152381 15.801239023590139 0 15.801239023590139 26.344754035177665 0 0 0 0 109.97637038692483 118.68699072369054 0 118.68699072369054 -134.47304202473606 0 0 0 0 44.642301855361438 60.23390116632072 0 60.23390116632072 26.583898100886245 0 0 0 0 41.788538978468537 52.950916292832659 0 52.950916292832659 26.018372062080889 0 0 0 0 32.193427980141109 42.958711165028262 0 42.958711165028262 14.210509787961289 0 0 0 0 26.294856060492748 70.470141966408164 0 70.470141966408164 28.764291140243586 0 0 0 0 3.5694044548436068 59.402887710872164 0 59.402887710872164 21.988855347954086 0 0 0 0 19.767978875429918 46.839686855567678 0 46.839686855567678 19.639338299838776 0 0 0 0 5.7496710738751204 18.038593761270434 0 18.038593761270434 24.329857346712842 0 0 0 0 -38.004022601657198 69.919311084104265 0 69.919311084104265 38.613447884326888 0 0 0 0 -49.182739253286854 83.532856693225767 0 83.532856693225767 30.426477143599186 0 0 0 0 -29.86957925799652 75.515885641267232 0 75.515885641267232 32.503017970426299 0 0 0 0 -3.3754699611377248 46.310794867611598 0 46.310794867611598 6.6574766150063542 0 0 0 0 -18.402653368815663 91.75375081339007 0 91.75375081339007 12.347257700152113 0 0 0 0 -1.326211266205064 89.694618581939721 0 89.694618581939721 12.35257929938598 0 0 0 0 -13.358102996968555 40.202737982061066 0 40.202737982061066 16.570513656323286 0 0 0 0 22.624534851331859 53.283061041751452 0 53.283061041751452 -14.332880522643094 0 0 0 0 57.616744769999059 51.039085719865398 0 51.039085719865398 6.8849989920272492 0 0 0 0 49.386967311262026 88.53244904549291 0 88.53244904549291 13.168263518118025 0 0 0 0 -12.587424289855505 43.616973268572423 0 43.616973268572423 21.550030912057665 0 0 0 0 53.856308213376906 71.785617302703031 0 71.785617302703031 20.829590728542144 0 0 0 0 57.005826332106153 79.11370940620418 0 79.11370940620418 20.575193870161456 0 0 0 0 20.792647568079701 73.47547440701419 0 73.47547440701419 21.157948386246744 0 0 0 0 22.311623032046928 66.91533145938746 0 66.91533145938746 39.658853406553987 0 0 0 0 -91.293495195917785 83.42378470116887 0 83.42378470116887 89.399746975498601 0 0 0 0 34.780028947025016 52.830527881611793 0 52.830527881611793 7.6701853537539035 0 0 0 0 27.985733738285489 62.775537791585975 0 62.775537791585975 -27.248236297990388 0 0 0 0 29.262326044990914 68.990699849863631 0 68.990699849863631 -12.790021940970291 0 0 0 0 9.5889883456239033 55.221697016945633 0 55.221697016945633 18.106753990012809 0 0 0 0 2.3950463547953404 48.267919037829415 0 48.267919037829415 8.2053335159434937 0 0 0 0 20.848178469981917 44.687923157101579 0 44.687923157101579 -11.227662430291783 0 0 0 0 150.11272330276552 93.104914301191457 0 93.104914301191457 -7.9794200409212408 0 0 0 0 -12.117414195084578 2.4797371610013101 0 2.4797371610013101 0.017631500527432564 0 0 0 0 17.512614367560158 11.884832125798411 0 11.884832125798411 -0.0084208084032617592 0 0 0 0 -56.097768688327051 135.09472209963383 0 135.09472209963383 116.1911304980822 0 0 0 0 72.444475513140787 169.59400495523596 0 169.59400495523596 33.199920360534691 0 0 0 0 35.138014206604566 38.987290115280302 0 38.987290115280302 -4.5795520899364419 0 0 0 0 49.457461373021943 86.088127471320945 0 86.088127471320945 8.7262537703290946 0 0 0 0 69.342580646541137 145.90128676059635 0 145.90128676059635 54.638274787912451 0 0 0 0 98.683872736870399 122.48841538138458 0 122.48841538138458 60.445219179173364 0 0 0 0 -19.224732023577999 37.282996368699926 0 37.282996368699926 10.78379423577427 0 0 0 0 14.651477729458065 46.615474517047019 0 46.615474517047019 9.4203709615609608 0 0 0 0 9.3836590562350466 78.31044505656169 0 78.31044505656169 18.488441154004448 0 0 0 0 39.423594174848404 48.932349527260129 0 48.932349527260129 46.514831441033444 0 0 0 0 -3.6253045503381145 59.918840143601301 0 59.918840143601301 21.910645535015014 0 0 0 0 23.300343986732003 52.935742585403148 0 52.935742585403148 16.161497638393659 0 0 0 0 -3.3272717330110027 113.6509397312675 0 113.6509397312675 -12.533783787991752 0 0 0 0 -33.489593643593253 73.166457626988176 0 73.166457626988176 36.634780059450804 0 0 0 0 28.04664067050544 81.806476576182831 0 81.806476576182831 -27.866162167769289 0 0 0 0 17.948311827058205 129.56664887714578 0 129.56664887714578 153.08053735452222 0 0 0 0 11.93260549291 18.683653465262122 0 18.683653465262122 2.0755686835526683 0 0 0 0 14.860953953670105 114.91014155051425 0 114.91014155051425 -94.559950243498577 0 0 0 0 -656.93232272690511 760.84875234282845 0 760.84875234282845 -632.72987922705852 0 0 0 0 -39.78189019562916 15.969023459750325 0 15.969023459750325 9.7094139384554854 0 0 0 0 -81.665271666643093 132.14508344322167 0 132.14508344322167 239.57230172421623 0 0 0 0 -16.173349719771068 100.41757394691786 0 100.41757394691786 11.715014013505424 0 0 0 0 41.251233396273165 167.73396948364666 0 167.73396948364666 42.607417187223291 0 0 0 0 -89.201267850978184 118.46915457746536 0 118.46915457746536 107.45993852822448 0 0 0 0 2.6520346635396237 51.560836743232727 0 51.560836743232727 36.879346703130039 0 0 0 0 -45.99651267818183 83.542145624586027 0 83.542145624586027 77.890560695242542 0 0 0 0 -72.754190995445242 58.469378225949185 0 58.469378225949185 44.665820022801199 0 0 0 0 91.281838823292276 83.467391238068842 0 83.467391238068842 18.815238864319845 0 0 0 0 106.27234777363628 129.61138016388031 0 129.61138016388031 53.857349317279841 0 0 0 0 150.22019115646617 103.51301115230945 0 103.51301115230945 69.350008504330617 0 0 0 0 -2.6260497818730215 41.218165401523564 0 41.218165401523564 21.271690812819827 0 0 0 0 188.91086894703767 139.29954411306539 0 139.29954411306539 45.099410173663273 0 0 0 0 -6.0191084063699236 69.033894512328061 0 69.033894512328061 43.638088793520637 0 0 0 0 92.159226200499688 120.00659524753337 0 120.00659524753337 65.585846197718638 0 0 0 0 131.94441817954066 121.33254249307083 0 121.33254249307083 38.459577635927417 0 0 0 0 97.87737781200849 145.00324652991821 0 145.00324652991821 34.786018494984262 0 0 0 0 79.833168453455073 73.705006391098777 0 73.705006391098777 25.540344934688619 0 0 0 0 148.1961442901702 466.30050835073644 0 466.30050835073644 -1076.4429324807061 0 0 0 0 -19.883200968120946 765.48495924011513 0 765.48495924011513 -833.5609214306071 0 0 0 0 207.16766455666948 291.36462390638417 0 291.36462390638417 -691.82073548863809 0 0 0 0 235.80908202588034 523.78313781640281 0 523.78313781640281 -1044.1349117399886 0 0 0 0 -44.338272382126888 1.0457412488394766 0 1.0457412488394766 -247.06037911106205 0 0 0 0 -1614.4295786132061 1135.2626217914012 0 1135.2626217914012 -732.27042827375772 0 0 0 0 97.099586550000822 -200.83379309267775 0 -200.83379309267775 -1538.4434987395107 0 0 0 0 6.4630222849872609 17.038017151124336 0 17.038017151124336 -8.4014489500323037 0 0 0 0 0.1039069053700814 13.36297910511793 0 13.36297910511793 10.107188797834846 0 0 0 0 146.56943042078638 791.97705134292755 0 791.97705134292755 -1803.0601678881437 0 0 0 0 -1958.079457771717 10.47375714640657 0 10.47375714640657 -736.80408541668385 0 0 0 0 -12.262811031498131 -319.79918475086924 0 -319.79918475086924 34.258511012856616 0 0 0 0 599.48050456042984 647.9063044203067 0 647.9063044203067 -1308.294510161013 0 0 0 0 112.82638369911001 1599.6152064330818 0 1599.6152064330818 -1731.5924399566202 0 0 0 0 -209.03691856804107 873.91467224019675 0 873.91467224019675 -1320.9040935680714 0 0 0 0 63.090877968839777 86.321797959899413 0 86.321797959899413 -33.584453016230327 0 0 0 0 -3.1306034942965795 43.034866559873223 0 43.034866559873223 -31.553793000620558 0 0 0 0 58.750949613047851 90.63563426974406 0 90.63563426974406 2.1333626110972546 0 0 0 0 50.613786650405018 86.158491261890049 0 86.158491261890049 1.5665631706360728 0 0 0 0 48.609554384649527 86.54698671517167 0 86.54698671517167 18.993231818369168 0 0 0 0 91.585248428076738 74.085014324419717 0 74.085014324419717 23.502715096121392 0 0 0 0 94.84351049068573 87.531230494171723 0 87.531230494171723 -28.016442255551738 0 0 0 0 58.685178375715623 70.290437542818836 0 70.290437542818836 -6.1899476769731336 0 0 0 0 56.706384196302679 83.182062422353738 0 83.182062422353738 21.828383963521446 0 0 0 0 -75.762775948513081 -20.142517812334972 0 -20.142517812334972 -6.7567003445656155 0 0 0 0 75.435798323945562 69.681822836236961 0 69.681822836236961 17.263994452222668 0 0 0 0 -4.3564889123226749 252.40879022192439 0 252.40879022192439 -208.74527925246252 0 0 0 0 -153.66790032535209 474.29143252215727 0 474.29143252215727 -443.92758486879984 0 0 0 0 60.547224387599272 279.14526068467239 0 279.14526068467239 -392.62043742647802 0 0 0 0 -37.94382842068444 456.13183571883201 0 456.13183571883201 -748.95299701048498 0 0 0 0 -349.03155059754499 436.50815000985858 0 436.50815000985858 -29.346939768981088 0 0 0 0 5.4557714619161857 -0.060920864301422739 0 -0.060920864301422739 -4.8516550003347589 0 0 0 0 1070.947137977746 1282.4247310037517 0 1282.4247310037517 -1343.2415449909131 0 0 0 0 58.851612935036485 72.146534066092755 0 72.146534066092755 15.046664468603705 0 0 0 0 53.564136409040657 81.230060946221784 0 81.230060946221784 72.381855513354822 0 0 0 0 113.8319781212922 138.73967224959642 0 138.73967224959642 -25.895232525890776 0 0 0 0 98.481518700571243 41.574076191800103 0 41.574076191800103 4.1549835094881713 0 0 0 0 -217.55359516834142 -42.475042967184436 0 -42.475042967184436 555.80089408729691 0 0 0 0 19.730665243765969 18.056008923197254 0 18.056008923197254 19.561247958118813 0 0 0 0 129.90463444871421 -278.54367556325542 0 -278.54367556325542 -913.11045055396607 0 0 0 0 277.85568582675478 545.42801722446711 0 545.42801722446711 606.16816737628687 0 0 0 0 -828.06309822558251 -243.51229991001128 0 -243.51229991001128 579.02104694767979 0 0 0 0 26.933475121826632 178.39754114758944 0 178.39754114758944 50.480973076630107 0 0 0 0 44.277621052191535 -143.63508409356928 0 -143.63508409356928 251.19778037001288 0 0 0 0 26.51588097576218 153.17123103886769 0 153.17123103886769 -109.49497503176866 0 0 0 0 673.40896949329408 -143.64954816165181 0 -143.64954816165181 -420.53255183572946 0 0 0 0 22.438510294166917 138.82638488349221 0 138.82638488349221 -93.999739575226499 0 0 0 0 19.394090930964367 88.076587834856156 0 88.076587834856156 -31.439023979896014 0 0 0 0 104.34521325470067 79.111865237403904 0 79.111865237403904 -14.741619702455514 0 0 0 0 15.257181084511728 77.990859543693347 0 77.990859543693347 13.669224321326054 0 0 0 0 -11.60595298933913 180.69518379594956 0 180.69518379594956 -155.11936287622666 0 0 0 0 30.751516865835583 150.25277831815038 0 150.25277831815038 -387.52982159960084 0 0 0 0 41.284936370311698 100.7969830091879 0 100.7969830091879 -201.64149085368263 0 0 0 0 -1.8582078042611414 2.3249192930219067 0 2.3249192930219067 33.000222544078852 0 0 0 0 -10.360348779675405 90.933914984128933 0 90.933914984128933 -188.92526459092187 0 0 0 0 -34.849592767892318 98.627934098883998 0 98.627934098883998 -181.22283747203619 0 0 0 0 -6.2551325780077605 110.8352232018442 0 110.8352232018442 -199.5151055238166 0 0 0 0 -180.86002535048647 109.75322850262455 0 109.75322850262455 -137.79337147746264 0 0 0 0 -44.671415657925536 146.08640705073412 0 146.08640705073412 -206.85381095421326 0 0 0 0 -19.407646194668004 114.17820894928892 0 114.17820894928892 11.735900462690715 0 0 0 0 116.09502979877652 132.17888041727019 0 132.17888041727019 -18.775975857002777 0 0 0 0 19.823427427043498 107.20483276836467 0 107.20483276836467 67.136003128079665 0 0 0 0 -3.0173364737165684 88.809405228434571 0 88.809405228434571 47.292332451253969 0 0 0 0 21.830335993137851 92.018755965261334 0 92.018755965261334 -7.1466526014555711 0 0 0 0 -2351.1265594745419 176.42360093660136 0 176.42360093660136 408.22562914582068 0 0 0 0 21.805347418759993 144.3970965024514 0 144.3970965024514 -81.169859519626698 0 0 0 0 48.649977183923113 50.241018698237482 0 50.241018698237482 39.381237326127298 0 0 0 0 -12.841579660620482 120.59880879946104 0 120.59880879946104 -2.2782267430011416 0 0 0 0 694.38054457242833 2047.2983175172494 0 2047.2983175172494 -2056.9407486650634 0 0 0 0 43.333242005583998 79.839478119127762 0 79.839478119127762 -53.281572386991684 0 0 0 0 30.061851330838181 145.7338028411923 0 145.7338028411923 -93.653040842816154 0 0 0 0 616.7768600782274 -38.74775563569392 0 -38.74775563569392 38.7744699595778 0 0 0 0 54.69313379399216 75.332878984811643 0 75.332878984811643 31.849338303535198 0 0 0 0 68.666611088330683 158.92050156432288 0 158.92050156432288 -27.965958990543186 0 0 0 0 -93.511610909525189 465.7919220716758 0 465.7919220716758 150.80470748567495 0 0 0 0 -578.30587900392129 861.47425608838512 0 861.47425608838512 1036.8405499941264 0 0 0 0 1255.8687569948233 754.23102884786113 0 754.23102884786113 -679.8084063004535 0 0 0 0 -811.44066447931982 1336.2094532875085 0 1336.2094532875085 245.19673794600021 0 0 0 0 -435.04394253248756 605.53428241512665 0 605.53428241512665 308.94813497296127 0 0 0 0 -121.41273449239088 713.05996851964483 0 713.05996851964483 3.2713168323261925 0 0 0 0 -101.6241389742745 865.26394875550295 0 865.26394875550295 507.30661829825476 0 0 0 0 -467.57817338014138 594.98344805274064 0 594.98344805274064 799.00721718727436 0 0 0 0 74.141330561353243 95.119165838890467 0 95.119165838890467 27.001144288145952 0 0 0 0 80.62722393693366 96.582514927608031 0 96.582514927608031 -63.568191780250345 0 0 0 0 37.506027462022537 78.033688825665109 0 78.033688825665109 -39.983516503621708 0 0 0 0 63.456788952516945 145.52995480456411 0 145.52995480456411 5.4500729027167836 0 0 0 0 78.871287189460418 142.02394313195418 0 142.02394313195418 0.60386794992973591 0 0 0 0 31.936721644906029 101.33280803899527 0 101.33280803899527 0.37890252485415132 0 0 0 0 84.665571772493422 164.7557736848521 0 164.7557736848521 4.977411866990451 0 0 0 0 59.324642777111876 96.619102845526413 0 96.619102845526413 3.8498568521908965 0 0 0 0 -13.097892741438841 45.013530946937905 0 45.013530946937905 -34.63441132938938 0 0 0 0 20.718160286829516 153.06273881416382 0 153.06273881416382 -151.22740479571075 0 0 0 0 58.394014071165913 67.215111781872508 0 67.215111781872508 31.744403819340935 0 0 0 0 13.71433358892682 135.66928933191821 0 135.66928933191821 -110.01174931280548 0 0 0 0 -2.3469296357870917 171.04177284804609 0 171.04177284804609 8.9019767328391026 0 0 0 0 16.39352186500949 129.0754928005872 0 129.0754928005872 -102.79279774150295 0 0 0 0 -42.186815157929232 159.32928473156426 0 159.32928473156426 -77.848973806358117 0 0 0 0 68.050410651776474 228.93826583492819 0 228.93826583492819 -133.01019112446374 0 0 0 0 51.891180872742552 163.60380050250478 0 163.60380050250478 -156.6988935956997 0 0 0 0 -1.7045435428444762 210.90997863059783 0 210.90997863059783 -123.71408343402436 0 0 0 0 100.20955446877633 151.0142107614538 0 151.0142107614538 -202.20655359141711 0 0 0 0 4.6594652146209565 102.57345035291121 0 102.57345035291121 -28.077987792413303 0 0 0 0 8.0728454083549845 73.39462940105156 0 73.39462940105156 -50.162252762328933 0 0 0 0 17.789881289388177 120.21984016740225 0 120.21984016740225 -44.158202539301783 0 0 0 0 96.141511364050984 145.851604586387 0 145.851604586387 -68.752132687333869 0 0 0 0 58.711855460278457 127.07084615121312 0 127.07084615121312 -77.959086833994661 0 0 0 0 56.25410285795806 265.05591441940487 0 265.05591441940487 -54.562069760635495 0 0 0 0 62.999180610094186 -9.4984501865738835 0 -9.4984501865738835 -41.253244564199633 0 0 0 0 139.33149177933956 226.70786668818482 0 226.70786668818482 -5.7797660849300883 0 0 0 0 -33.276271311784512 108.07098235903413 0 108.07098235903413 -36.158224489841814 0 0 0 0 86.446740697603673 137.36942526455368 0 137.36942526455368 -186.03095261459202 0 0 0 0 86.99640215364343 125.81095356395872 0 125.81095356395872 -135.52638576290337 0 0 0 0 -406.21690843418764 267.34136828543433 0 267.34136828543433 545.83672153035877 0 0 0 0 -125.7953819737304 428.43598916358314 0 428.43598916358314 409.95971235042271 0 0 0 0 -296.53099686204951 248.27751598680607 0 248.27751598680607 234.00659866427304 0 0 0 0 -276.22780818337924 136.65986229773898 0 136.65986229773898 277.75455367863924 0 0 0 0 -110.35024682986841 -0.90619743537035902 0 -0.90619743537035902 -173.20543775624537 0 0 0 0 -554.31010924748261 -180.46298459327909 0 -180.46298459327909 -76.871332959479332 0 0 0 0 -102.85732269070286 -147.29190686761558 0 -147.29190686761558 -526.54686547226356 0 0 0 0 139.50406546613522 193.98183282664559 0 193.98183282664559 -217.56786790191882 0 0 0 0 46.791238925579819 103.17075250197558 0 103.17075250197558 -209.66447034695193 0 0 0 0 56.877888434275519 77.443957346443312 0 77.443957346443312 -211.0076343228402 0 0 0 0 132.61336501910409 163.57353180942573 0 163.57353180942573 -341.566045840892 0 0 0 0 -46.772731142803309 105.03834024194502 0 105.03834024194502 -44.039347788614137 0 0 0 0 31.440314441100782 353.46515784233679 0 353.46515784233679 123.37402466034746 0 0 0 0 132.63835445269797 402.28676725875539 0 402.28676725875539 -154.09638475951533 0 0 0 0 -464.18947972627211 348.91616291675382 0 348.91616291675382 470.85288444917205 0 0 0 0 -153.25161727784871 527.48483083869269 0 527.48483083869269 553.91228584954933 0 0 0 0 147.53190185216954 306.90909300703925 0 306.90909300703925 -583.81039217488342 0 0 0 0 -41.877231410574893 74.470679479177221 0 74.470679479177221 -40.599448805171015 0 0 0 0 -34.552430937987083 121.97348881080325 0 121.97348881080325 117.09133330885379 0 0 0 0 -32.285678513962011 124.74760750979249 0 124.74760750979249 51.498240077668015 0 0 0 0 -13.898227763517971 102.63580032170503 0 102.63580032170503 42.458166000872779 0 0 0 0 -44.29856966477746 152.66661570663564 0 152.66661570663564 91.044668835231278 0 0 0 0 -119.99056921711235 177.10778943234254 0 177.10778943234254 31.978261126356301 0 0 0 0 33.024784457535134 150.89855518097465 0 150.89855518097465 16.767462889336457 0 0 0 0 -13.574727316963617 136.46129388002282 0 136.46129388002282 -91.330702245410066 0 0 0 0 -35.618453998251425 251.64035558902833 0 251.64035558902833 -57.636119969138235 0 0 0 0 -157.53576491371496 141.7176013065 0 141.7176013065 -1.3243397033947986 0 0 0 0 41.569503250040597 71.972631237528176 0 71.972631237528176 -34.693779597535823 0 0 0 0 149.29549741541268 -92.845625429133179 0 -92.845625429133179 -467.09916069901305 0 0 0 0 -310.84898031801276 489.24034940902629 0 489.24034940902629 -316.74739539801351 0 0 0 0 233.22831955505535 146.05700241879117 0 146.05700241879117 -482.12336979291695 0 0 0 0 -32.420525550711318 67.542370558300718 0 67.542370558300718 244.59887989760318 0 0 0 0 267.60697017250641 185.86084330623362 0 185.86084330623362 -615.36779026835393 0 0 0 0 -22.584355584986042 73.928703370937228 0 73.928703370937228 -472.9058478937622 0 0 0 0 130.98178799595917 519.33775781072291 0 519.33775781072291 -314.62950248340439 0 0 0 0 -339.36699453041365 95.866640895699675 0 95.866640895699675 129.6107822580052 0 0 0 0 -2.7065813592533772 17.040075790528135 0 17.040075790528135 19.482317759698919 0 0 0 0 131.62730293736968 46.062153453528936 0 46.062153453528936 108.63215253110957 0 0 0 0 -19.752410116348926 90.730611164952862 0 90.730611164952862 -3.9318067674005022 0 0 0 0 -207.44319387868745 388.07250818712055 0 388.07250818712055 5.4429619388829451 0 0 0 0 -150.30367704838864 429.59071680566558 0 429.59071680566558 -273.60095073102457 0 0 0 0 -221.81479417157061 453.92473659645202 0 453.92473659645202 -28.055503993004095 0 0 0 0 -8.1719565482362384 108.49326772820859 0 108.49326772820859 59.309211421204225 0 0 0 0 13.829291515699808 235.2965532126361 0 235.2965532126361 62.170229486428084 0 0 0 0 122.85015242730151 243.75336212536786 0 243.75336212536786 510.46579770039534 0 0 0 0 40.713697259960924 163.46257769566904 0 163.46257769566904 -45.505199072962895 0 0 0 0 -59.286054100608453 74.195770470110801 0 74.195770470110801 608.29716132981775 0 0 0 0 40.334438833509921 161.3820331229731 0 161.3820331229731 331.51233816070089 0 0 0 0 -214.34057269806362 354.8349379965851 0 354.8349379965851 247.87555087286091 0 0 0 0 195.14201163448161 360.5056356391724 0 360.5056356391724 237.06420271329625 0 0 0 0 -37.061927883149934 50.30713162703637 0 50.30713162703637 39.063203602022149 0 0 0 0 -12.610235878687348 80.496743999921904 0 80.496743999921904 -9.1392776920960657 0 0 0 0 -66.195535743114306 314.08409187060352 0 314.08409187060352 750.72435177910302 0 0 0 0 1.498754148311491 106.81707761775942 0 106.81707761775942 90.827874486771179 0 0 0 0 47.05623613832153 45.016370571426847 0 45.016370571426847 -61.346203040063415 0 0 0 0 142.56944129893964 196.69424048532801 0 196.69424048532801 1184.5111728678785 0 0 0 0 101.55439151973405 396.90347710598144 0 396.90347710598144 471.48280100525881 0 0 0 0 311.84297387063634 655.69648045343092 0 655.69648045343092 214.46419852974213 0 0 0 0 -219.08483072284071 -53.104865054351649 0 -53.104865054351649 122.23949770749641 0 0 0 0 -6.5156799288320997 4.8172812864906867 0 4.8172812864906867 -4.2130862826664703 0 0 0 0 163.90594045895341 118.64032290476007 0 118.64032290476007 161.07527663433575 0 0 0 0 -87.166405945616134 100.7688412589423 0 100.7688412589423 674.78664634529855 0 0 0 0 253.63502170286574 63.891336015092691 0 63.891336015092691 -429.8319835520474 0 0 0 0 -18.445199933902643 16.401941591466361 0 16.401941591466361 -18.312724823085425 0 0 0 0 182.28774047746265 99.987654257751274 0 99.987654257751274 73.028489815776766 0 0 0 0 -42.638639181219332 59.144373431548047 0 59.144373431548047 502.7643694914965 0 0 0 0 264.07744118627306 100.7477495992589 0 100.7477495992589 -416.80529542210184 0 0 0 0 -65.049457503504527 -133.65226982120339 0 -133.65226982120339 -263.89066533174446 0 0 0 0 312.52657703292789 390.21452139588564 0 390.21452139588564 -376.51843711924539 0 0 0 0 211.45121329369431 214.11670614514333 0 214.11670614514333 451.10491596904831 0 0 0 0 427.51579889782079 452.97583092629179 0 452.97583092629179 47.14453562118706 0 0 0 0 76.866663985449122 -364.53114241984986 0 -364.53114241984986 -1187.0166282836108 0 0 0 0 -102.69962768807454 461.63430168646573 0 461.63430168646573 -707.51237102185132 0 0 0 0 -683.56198944580319 279.9262578701979 0 279.9262578701979 257.88563376365892 0 0 0 0 268.79166600765166 402.58263333081413 0 402.58263333081413 277.48348235648155 0 0 0 0 -41.871562678381451 145.02528235849968 0 145.02528235849968 288.71859420127839 0 0 0 0 494.39924363786122 320.95219779024592 0 320.95219779024592 692.68079646734827 0 0 0 0 -188.70261838950682 245.53843554543164 0 245.53843554543164 695.75659546226234 0 0 0 0 -368.29977040015729 375.85934431721876 0 375.85934431721876 725.39348003217674 0 0 0 0 -127.83760086334951 88.450121238161955 0 88.450121238161955 322.90704268017635 0 0 0 0 -41.190347237270601 37.013667544958849 0 37.013667544958849 -19.961184390592919 0 0 0 0 563.74307245036471 750.6583820268097 0 750.6583820268097 633.98891581268072 0 0 0 0 629.59507171947917 616.87643323953125 0 616.87643323953125 342.36946705682294 0 0 0 0 475.64450199691055 704.88414040466341 0 704.88414040466341 822.04953632445984 0 0 0 0 214.5367139672453 363.1856476413268 0 363.1856476413268 824.67856028005917 0 0 0 0 7.4219449970921687 12.269073902023274 0 12.269073902023274 -10.403758993447452 0 0 0 0 159.40136039091158 715.32826737209734 0 715.32826737209734 1474.0220613630772 0 0 0 0 78.504578086354741 551.17536659562131 0 551.17536659562131 835.04581968512866 0 0 0 0 190.53310317919386 210.18447653286648 0 210.18447653286648 586.67229678145395 0 0 0 0 -10.661712535829594 2.7193222450404164 0 2.7193222450404164 7.2998371935778028 0 0 0 0 -324.96465245188665 350.40559791549458 0 350.40559791549458 232.26266787310124 0 0 0 0 159.30210872010502 52.342107847761326 0 52.342107847761326 -10.542510138499892 0 0 0 0 36.830939977815433 382.32635499131726 0 382.32635499131726 27.423592895198453 0 0 0 0 175.8140625115193 58.245933094219254 0 58.245933094219254 377.69784741893045 0 0 0 0 363.40269723054371 547.74175743340857 0 547.74175743340857 81.926381253911131 0 0 0 0 -59.05370415592617 48.263233699873986 0 48.263233699873986 -23.072363006580698 0 0 0 0 -170.22803251084406 206.1815629356106 0 206.1815629356106 22.330641362436381 0 0 0 0 -156.93235556871514 84.842067569812571 0 84.842067569812571 201.97292251458657 0 0 0 0 6.3010723297993536 285.0400816747258 0 285.0400816747258 -239.68101826802194 0 0 0 0 -96.590649633828434 129.60252399810224 0 129.60252399810224 -547.74761877595722 0 0 0 0 -62.574240514310077 139.57633763457352 0 139.57633763457352 -231.09159833892954 0 0 0 0 -31.975579356614617 241.47760811601938 0 241.47760811601938 -581.44985374789053 0 0 0 0 -12.495593957843084 172.91566998665456 0 172.91566998665456 -586.62815692237041 0 0 0 0 89.35295063231024 58.334390175535056 0 58.334390175535056 -917.6450581819231 0 0 0 0 -262.87129625042144 601.68486178742705 0 601.68486178742705 -932.80330549941721 0 0 0 0 -45.017407467545127 -58.169582524948169 0 -58.169582524948169 -200.78372829369675 0 0 0 0 -28.472464076832694 263.28463052519442 0 263.28463052519442 -522.72319044583219 0 0 0 0 -17.576658027177047 9.5300390603457146 0 9.5300390603457146 -8.4244932253421858 0 0 0 0 -69.493243019402144 130.20286636353285 0 130.20286636353285 -466.49154351663219 0 0 0 0 -60.449894240048025 37.362289069289943 0 37.362289069289943 -13.89669324081985 0 0 0 0 -64.389987985603511 106.62510934260081 0 106.62510934260081 -619.53273725144061 0 0 0 0 -46.522315257076116 136.01440883947726 0 136.01440883947726 -715.07334230178822 0 0 0 0 0.1686352228425676 230.41455236106162 0 230.41455236106162 -612.38637415887206 0 0 0 0 246.96245478795026 -730.69925747260277 0 -730.69925747260277 -1774.5578762353944 0 0 0 0 -11.335353126293228 14.401141188988468 0 14.401141188988468 -12.809264086215762 0 0 0 0 -424.38970621953922 429.64627857680898 0 429.64627857680898 1138.9202327195153 0 0 0 0 -108.57202746230178 105.94996297563466 0 105.94996297563466 977.25670539520797 0 0 0 0 -122.59373465579029 -607.86650603187172 0 -607.86650603187172 -1184.8808398312558 0 0 0 0 -153.19505870364083 88.293432053981235 0 88.293432053981235 -697.58385743326471 0 0 0 0 -57.752430842709146 25.616523954969125 0 25.616523954969125 -766.85279406491054 0 0 0 0 302.24755791413281 -84.143060558353795 0 -84.143060558353795 -949.33858560107365 0 0 0 0 62.677026587909495 115.87928757333975 0 115.87928757333975 -149.15969446193458 0 0 0 0 312.74627264188894 -211.38232174739915 0 -211.38232174739915 -12.936379657738144 0 0 0 0 -7.4553313739026521 -0.96005054883848118 0 -0.96005054883848118 5.7652014860739982 0 0 0 0 455.76510454693926 -111.30371781744725 0 -111.30371781744725 -1779.9095220305535 0 0 0 0 494.39691615531046 251.54817613136538 0 251.54817613136538 -986.94586124709349 0 0 0 0 139.11013243678462 296.92233665244203 0 296.92233665244203 -52.176266539532662 0 0 0 0 14.009012800372147 102.22506758404506 0 102.22506758404506 -0.55838574914537276 0 0 0 0 30.789973765029572 75.36619859388702 0 75.36619859388702 -37.732726980169105 0 0 0 0 20.420032846691981 53.704008736401178 0 53.704008736401178 5.2117264970847046 0 0 0 0 44.738239944586894 43.446671234374662 0 43.446671234374662 31.912376383090304 0 0 0 0 70.927937004424166 175.49140287136925 0 175.49140287136925 42.268880806552261 0 0 0 0 46.19061312880487 55.577307110421437 0 55.577307110421437 23.213863492194832 0 0 0 0 22.321755454051527 143.63686682320258 0 143.63686682320258 -41.059849244644283 0 0 0 0 26.591795094521245 52.599978070263411 0 52.599978070263411 1.2054862363203966 0 0 0 0 53.737257492437493 145.85749735909485 0 145.85749735909485 -179.81691929330736 0 0 0 0 16.188991716546298 153.56405601179085 0 153.56405601179085 -123.74560094095068 0 0 0 0 7.6150170645378239 107.5553160030031 0 107.5553160030031 -210.02067790613364 0 0 0 0 22.228020373469917 73.328583407982478 0 73.328583407982478 -96.925771722730133 0 0 0 0 90.925624078183318 284.11316474020498 0 284.11316474020498 91.359191325036591 0 0 0 0 90.482974294205633 215.01291190093741 0 215.01291190093741 54.113035246457457 0 0 0 0 83.424527526431859 55.404631096190144 0 55.404631096190144 -0.25827749577881498 0 0 0 0 92.554368848999729 48.205532668417391 0 48.205532668417391 -83.524137304406395 0 0 0 0 23.765734832785199 68.337601111099644 0 68.337601111099644 -7.4603045910757046 0 0 0 0 50.651845624911431 47.761933261033079 0 47.761933261033079 5.7895183442526701 0 0 0 0 32.743273773419787 120.94867538109338 0 120.94867538109338 -59.823913680088026 0 0 0 0 137.23362753601396 7.4973782415145251 0 7.4973782415145251 -146.34846219421161 0 0 0 0 14.025067199774639 150.71879170893953 0 150.71879170893953 48.899358861095607 0 0 0 0 34.054167919202882 55.369307402743289 0 55.369307402743289 25.843930313098099 0 0 0 0 57.953367404688706 50.483005414115681 0 50.483005414115681 11.547456679420886 0 0 0 0 -31.349700498249149 178.68306382606534 0 178.68306382606534 36.557307683426188 0 0 0 0 81.683508048330253 80.466615624867927 0 80.466615624867927 42.503984559013702 0 0 0 0 19.77629342505989 38.559430234434565 0 38.559430234434565 19.348423430272131 0 0 0 0 67.320777403765533 137.72460863289962 0 137.72460863289962 229.65940548803246 0 0 0 0 205.30286417305979 148.69068779233567 0 148.69068779233567 92.244332731665054 0 0 0 0 71.256353688881063 106.43534091486799 0 106.43534091486799 70.145042581665621 0 0 0 0 36.152739554712753 216.27325079769435 0 216.27325079769435 58.852120996915346 0 0 0 0 -4.1959699721319339 180.77066858488615 0 180.77066858488615 27.668085213306767 0 0 0 0 51.79131396759567 99.523453169008235 0 99.523453169008235 89.388160368478566 0 0 0 0 31.989986807253445 191.70380767999814 0 191.70380767999814 -115.52788180432981 0 0 0 0 54.760225158741378 214.34446784988904 0 214.34446784988904 -108.41452890324581 0 0 0 0 8.2326550663856324 221.44514499908837 0 221.44514499908837 40.166471581083897 0 0 0 0 -57.085545182922942 248.45817198133227 0 248.45817198133227 30.924895282167199 0 0 0 0 246.41420540696345 304.63411472132429 0 304.63411472132429 -76.179071791695605 0 0 0 0 40.167917132323055 344.6063335224917 0 344.6063335224917 107.7019363819345 0 0 0 0 -167.68120895858374 203.7310515469344 0 203.7310515469344 145.61942197986718 0 0 0 0 2.4677238111823598 2.9506837045879202 0 2.9506837045879202 3.0363677295695766 0 0 0 0 -18.076289790113151 155.95416604270758 0 155.95416604270758 -154.99078734287468 0 0 0 0 8.1639133681636977 7.6588578518369168 0 7.6588578518369168 7.0747091311203576 0 0 0 0 -18.300636380274227 169.57969031884568 0 169.57969031884568 -156.71890600907636 0 0 0 0 -6.116042410828868 114.02310361216541 0 114.02310361216541 -130.32240864323103 0 0 0 0 -97.642014213963193 91.846352114920592 0 91.846352114920592 -7.9039645014054258 0 0 0 0 -12.758975037462733 244.95622122088298 0 244.95622122088298 -195.17038913271608 0 0 0 0 -41.550105601570976 208.88053728365776 0 208.88053728365776 20.637795597333934 0 0 0 0 26.982802577780603 121.9642557849711 0 121.9642557849711 -160.13411507716955 0 0 0 0 40.511547444257303 114.61023561205002 0 114.61023561205002 -333.04159145781523 0 0 0 0 1.5726015431441738 3.7327292260502958 0 3.7327292260502958 -4.4979495500477356 0 0 0 0 -110.13802870425388 70.870406727324735 0 70.870406727324735 141.19518358472124 0 0 0 0 5.4232581716169079 -21.436010326533506 0 -21.436010326533506 -222.17241243831086 0 0 0 0 128.62480283773039 108.95326927859787 0 108.95326927859787 175.48992160029593 0 0 0 0 256.36283616677974 149.88037819837336 0 149.88037819837336 -93.450921659459709 0 0 0 0 -4.5245528318679646 1.3021657731966449 0 1.3021657731966449 2.0471227867275985 0 0 0 0 319.28489994315896 331.40385432069161 0 331.40385432069161 209.43432987519736 0 0 0 0 -106.98405709594226 51.59973918752803 0 51.59973918752803 0.029986818450197461 0 0 0 0 9.6810358858804477 13.217052664288307 0 13.217052664288307 10.30623996990812 0 0 0 0 -3.6827546394606543 -35.080171328574579 0 -35.080171328574579 -101.19134563506668 0 0 0 0 -101.29444879771836 112.58126065064062 0 112.58126065064062 -53.507841508943784 0 0 0 0 -11.781976599893824 134.65294793502471 0 134.65294793502471 -59.87638447455538 0 0 0 0 -51.847980670920151 182.71281713170538 0 182.71281713170538 8.9828629028925207 0 0 0 0 -38.990310573781244 177.41919594905994 0 177.41919594905994 -60.541796312245424 0 0 0 0 -99.156479499222314 88.439337160860759 0 88.439337160860759 13.261052027148253 0 0 0 0 -146.34174054258983 46.153100556733989 0 46.153100556733989 42.957371417236573 0 0 0 0 -202.32592123642462 84.891031613449741 0 84.891031613449741 19.153453440632802 0 0 0 0 -191.00257428935947 178.40036724428865 0 178.40036724428865 24.38718599031381 0 0 0 0 -97.217006737355405 230.99966895837861 0 230.99966895837861 48.166946337172703 0 0 0 0 -366.22924761506147 172.65131644050052 0 172.65131644050052 59.538118549926367 0 0 0 0 -147.17347207824059 355.26948379380701 0 355.26948379380701 61.959508708736394 0 0 0 0 -80.319182779185212 290.07324227503705 0 290.07324227503705 12.848036990078981 0 0 0 0 -329.63369356311341 146.48933689120895 0 146.48933689120895 35.920615619033924 0 0 0 0 -451.61824527268254 -7.870114683657448 0 -7.870114683657448 34.303910087640361 0 0 0 0 31.645463830755034 204.85905300303057 0 204.85905300303057 434.37895474578181 0 0 0 0 743.76791753998896 849.03953846203331 0 849.03953846203331 357.03574218202994 0 0 0 0 591.07283771573566 327.26980342667957 0 327.26980342667957 270.91686267056866 0 0 0 0 -8.6285792549370797 10.04238362098009 0 10.04238362098009 0.012963337203359515 0 0 0 0 -2.2993000309634084 4.027684086136631 0 4.027684086136631 -3.480204123665203 0 0 0 0 260.90986884436279 318.63038220169256 0 318.63038220169256 316.38892964868137 0 0 0 0 348.86904855663261 328.15388342375309 0 328.15388342375309 297.19450443346432 0 0 0 0 -8.7604777337685107 12.109629345090923 0 12.109629345090923 4.9440891964396769 0 0 0 0 358.85912312573055 291.42931856107316 0 291.42931856107316 217.5774625672675 0 0 0 0 -139.43448544319472 50.141181299222808 0 50.141181299222808 6.0057207642130379 0 0 0 0 -347.00246881967178 279.62720284768875 0 279.62720284768875 -41.24855996624683 0 0 0 0 -9.9052372501861896 58.445929418704793 0 58.445929418704793 85.248789482592173 0 0 0 0 164.80962825614552 3.7117482339817798 0 3.7117482339817798 120.30029213831585 0 0 0 0 36.174396248570702 -73.042790655825229 0 -73.042790655825229 160.38952087590587 0 0 0 0 -347.00246881977364 279.62720284762327 0 279.62720284762327 -41.248559966188623 0 0 0 0 44.076435595314251 38.712271674390649 0 38.712271674390649 161.4640161844527 0 0 0 0 -93.234755406127078 35.635180590063101 0 35.635180590063101 184.81323477856495 0 0 0 0 -170.70073080424481 51.719609402767674 0 51.719609402767674 183.2891911202023 0 0 0 0 -129.62815835070796 12.146602075485134 0 12.146602075485134 198.59728622005787 0 0 0 0 -33.963376671483275 -22.004979010154784 0 -22.004979010154784 180.28977376577677 0 0 0 0 3.6323798098019324 4.7452340259915218 0 4.7452340259915218 172.55902533310291 0 0 0 0 -29.633143843122525 -39.471515489945887 0 -39.471515489945887 152.72336131807242 0 0 0 0 -123.31949949609407 -38.346578533419233 0 -38.346578533419233 186.82208091580833 0 0 0 0 -179.78058474305726 -35.481853720048093 0 -35.481853720048093 113.47849886836775 0 0 0 0 -20.870549567844137 -51.928494219828281 0 -51.928494219828281 93.934999701246852 0 0 0 0 -158.98013186929165 1.3644500808150042 0 1.3644500808150042 178.33440065528703 0 0 0 0 -15.03161059966078 -24.143780796977808 0 -24.143780796977808 206.89534731888853 0 0 0 0 198.4745354712577 -105.14533221938382 0 -105.14533221938382 142.39195355279662 0 0 0 0 -30.197107526448235 -43.787490865041946 0 -43.787490865041946 174.53048317151843 0 0 0 0 95.199098642187892 -94.794051602206309 0 -94.794051602206309 138.74667448568653 0 0 0 0 214.23997253144626 78.508555621971027 0 78.508555621971027 291.01985550531754 0 0 0 0 101.7150199319949 -64.486208018339312 0 -64.486208018339312 270.30024999284069 0 0 0 0 260.8461581057054 292.94093113187409 0 292.94093113187409 154.98161257279935 0 0 0 0 238.26142056368235 325.91881605945446 0 325.91881605945446 12.594370134087512 0 0 0 0 303.78987336896535 186.88726457527082 0 186.88726457527082 30.572554641584247 0 0 0 0 247.24939845484187 257.13712259950989 0 257.13712259950989 82.839644058025442 0 0 0 0 309.1960529655189 310.5904058374872 0 310.5904058374872 0.91193633697548648 0 0 0 0 222.6690562843869 330.26222180058539 0 330.26222180058539 15.072054957752698 0 0 0 0 246.71631855329179 268.39703352258221 0 268.39703352258221 -10.411624758198741 0 0 0 0 310.45136542185355 320.19703756513627 0 320.19703756513627 71.629955892043654 0 0 0 0 -75.964853142926586 321.12910673509759 0 321.12910673509759 80.259501132743026 0 0 0 0 89.48910982588859 342.71565130841191 0 342.71565130841191 28.238664726326533 0 0 0 0 134.20837775534892 312.640893853546 0 312.640893853546 48.18878461397253 0 0 0 0 132.76610858585627 302.09140495555403 0 302.09140495555403 -1.6283863212156575 0 0 0 0 -14.82133138764766 254.88229111799592 0 254.88229111799592 -5.9468098024008214 0 0 0 0 110.88227654164439 275.24513113490138 0 275.24513113490138 19.996898769662948 0 0 0 0 56.662389031560451 316.43917439458164 0 316.43917439458164 10.85143113936283 0 0 0 0 74.256816382955549 259.00093383444346 0 259.00093383444346 -9.9790256494452478 0 0 0 0 -97.76351130665762 235.98682228921098 0 235.98682228921098 2.8045135032734834 0 0 0 0 -347.00246881977364 279.6272028475596 0 279.6272028475596 -41.248559966101311 0 0 0 0 326.1257568603869 184.08841287516589 0 184.08841287516589 -71.214432415246847 0 0 0 0 49.287904572588211 164.27518321803188 0 164.27518321803188 -20.470692181906344 0 0 0 0 382.78864583804716 259.21910987078627 0 259.21910987078627 -56.108448133672937 0 0 0 0 241.29474481275247 291.77105997995386 0 291.77105997995386 -20.175957260100404 0 0 0 0 211.01325160438864 252.64234649122227 0 252.64234649122227 -20.914184866003779 0 0 0 0 177.05983929816284 235.88625457957824 0 235.88625457957824 -45.269989676642581 0 0 0 0 182.84484390442958 152.6216687518172 0 152.6216687518172 -10.543970981350867 0 0 0 0 35.791657789362944 245.20436741419871 0 245.20436741419871 -58.724705443470157 0 0 0 0 10.774955000515538 157.15745479043179 0 157.15745479043179 -54.218475595571533 0 0 0 0 89.360479119510273 265.25795330931578 0 265.25795330931578 -37.23914918756418 0 0 0 0 100.19682260743866 189.94763686509395 0 189.94763686509395 -15.569711446559268 0 0 0 0 45.606844757367071 260.10875297203893 0 260.10875297203893 -10.229518093241495 0 0 0 0 66.059532287505135 234.33360133371752 0 234.33360133371752 -78.020907285259455 0 0 0 0 100.27640747211626 180.41260057710679 0 180.41260057710679 -89.786882274514937 0 0 0 0 124.09467678280271 246.69538595466656 0 246.69538595466656 -107.3081567647605 0 0 0 0 96.260738688906713 246.13386374217953 0 246.13386374217953 -89.711123596400284 0 0 0 0 88.753014672590325 268.54099655703067 0 268.54099655703067 -101.29765513436723 0 0 0 0 110.48809338879437 259.60354871752861 0 259.60354871752861 -107.43648196725371 0 0 0 0 -286.77763860131381 -14.879829716743188 0 -14.879829716743188 198.59064934608887 0 0 0 0 -174.70714472258624 550.39172413963206 0 550.39172413963206 -159.74786243309063 0 0 0 0 35.09574346835312 59.225651593772966 0 59.225651593772966 114.40790765363077 0 0 0 0 -542.42143931308146 488.73768101685209 0 488.73768101685209 37.778299758851063 0 0 0 0 46.654940448536763 306.59563809554697 0 306.59563809554697 -195.94296463258797 0 0 0 0 -460.96055894628807 17.386450664293079 0 17.386450664293079 98.537665231326173 0 0 0 0 -13.558022251840157 69.379672070158449 0 69.379672070158449 161.11528539615392 0 0 0 0 2.5823097554239212 32.133240795363236 0 32.133240795363236 150.16336134174344 0 0 0 0 -22.177040693146409 31.096998872599215 0 31.096998872599215 180.59022395790453 0 0 0 0 -100.11644162118318 70.216295739912312 0 70.216295739912312 172.18446021313139 0 0 0 0 -21.474699256184977 32.540173002787924 0 32.540173002787924 162.37254079049308 0 0 0 0 -13.273968231413164 94.059456423015945 0 94.059456423015945 132.99303579944535 0 0 0 0 41.888170408608858 123.18416137132954 0 123.18416137132954 147.82633986925066 0 0 0 0 -866.77061600086199 648.47173938571495 0 648.47173938571495 -31.882676532390178 0 0 0 0 30.347384752054879 79.032123881790753 0 79.032123881790753 129.75762471905045 0 0 0 0 -2022.7060035852483 347.12565151923627 0 347.12565151923627 84.882990273195901 0 0 0 0 -490.26491643638292 809.26540977171862 0 809.26540977171862 -680.63895857070747 0 0 0 0 783.81023075206031 346.60092943411564 0 346.60092943411564 -537.99204250811272 0 0 0 0 16.385181821609322 155.60076211262995 0 155.60076211262995 -81.853298011308013 0 0 0 0 -865.78865130529721 659.22902760345005 0 659.22902760345005 -7.801539392065024 0 0 0 0 -119.87065124229412 314.97329334246024 0 314.97329334246024 -150.20386252140452 0 0 0 0 277.2458011287672 749.58062529546169 0 749.58062529546169 -230.70978506249958 0 0 0 0 -406.99378200671345 366.53330297158936 0 366.53330297158936 250.37782715492176 0 0 0 0 -1300.2836723006876 847.35202464888471 0 847.35202464888471 -57.709139299633534 0 0 0 0 -550.70560582475446 45.607502387134446 0 45.607502387134446 -283.99717560232148 0 0 0 0 -1073.7143168939219 794.68124158921455 0 794.68124158921455 -585.24238811934174 0 0 0 0 1.145887270917143 19.223050076684757 0 19.223050076684757 6.3680759987761428 0 0 0 0 359.76354623711086 48.439313573344407 0 48.439313573344407 -119.39651351733846 0 0 0 0 -197.04984581241945 254.38312040831499 0 254.38312040831499 -41.101175489886373 0 0 0 0 194.14340823314342 434.29914730279961 0 434.29914730279961 -19.351203564892785 0 0 0 0 269.32480936656611 14.705659218590881 0 14.705659218590881 -135.62944881583098 0 0 0 0 -390.66916281542217 121.4231699894026 0 121.4231699894026 77.872206218722567 0 0 0 0 -147.58611353534798 -40.46538386681641 0 -40.46538386681641 105.39006421773411 0 0 0 0 -37.733809276422562 112.62849751176691 0 112.62849751176691 -199.99756884920498 0 0 0 0 -38.604219779746472 113.81021948108082 0 113.81021948108082 -103.43613429954712 0 0 0 0 67.344424417631672 103.16294827073216 0 103.16294827073216 -197.12673122513115 0 0 0 0 54.939502192031796 191.63170346733023 0 191.63170346733023 -142.97186527700978 0 0 0 0 -251.30276081379452 166.7774624450567 0 166.7774624450567 -656.93653366398212 0 0 0 0 888.70736387809302 -84.253594712495214 0 -84.253594712495214 -441.44381706833701 0 0 0 0 13.265448153145428 146.89490523646276 0 146.89490523646276 -99.492049229576082 0 0 0 0 -189.10317543231213 402.94219551346077 0 402.94219551346077 107.03316792176702 0 0 0 0 -1401.223697778616 1192.2097406665725 0 1192.2097406665725 -790.59776241050122 0 0 0 0 1116.1929284435537 -289.91998349706046 0 -289.91998349706046 -575.62903157900109 0 0 0 0 -5.4806175215431381 -6.9569125130304599 0 -6.9569125130304599 -11.524076307029297 0 0 0 0 279.15326025606191 253.02731901201423 0 253.02731901201423 -82.352608350060791 0 0 0 0 313.43942601550953 26.268881239810071 0 26.268881239810071 68.481579539571158 0 0 0 0 214.93467581215737 329.06017142935866 0 329.06017142935866 -475.20543022937636 0 0 0 0 252.17103397459869 71.284012823209196 0 71.284012823209196 -481.84913929584036 0 0 0 0 684.14397301802819 258.08005428573961 0 258.08005428573961 -1143.5897109962134 0 0 0 0 84.817817882430973 308.51710025767898 0 308.51710025767898 -792.76520826168417 0 0 0 0 -86.963012411993986 177.70923986541629 0 177.70923986541629 -676.40278929634587 0 0 0 0 -297.56725300045218 353.9844083117905 0 353.9844083117905 -538.87069589158727 0 0 0 0 -92.395888618029858 710.37245369775587 0 710.37245369775587 -406.75944600659386 0 0 0 0 5.9979061054280152 -6.0143445515289358 0 -6.0143445515289358 -12.879430156744984 0 0 0 0 260.21794386432884 136.33178766387869 0 136.33178766387869 -403.44002229076978 0 0 0 0 -667.25154423021013 217.35717719739887 0 217.35717719739887 -22.478719548262234 0 0 0 0 -44.637452102193492 231.0225089609421 0 231.0225089609421 -127.74680211080067 0 0 0 0 -226.50043827551417 536.29530647001502 0 536.29530647001502 -609.02817054818468 0 0 0 0 -76.309788157595904 374.02211673419964 0 374.02211673419964 -79.403058226491581 0 0 0 0 -52.808157668609056 25.027048602860454 0 25.027048602860454 36.098254351255989 0 0 0 0 -59.437003022780118 90.712592458759019 0 90.712592458759019 203.17245870832312 0 0 0 0 1.5233945496606651 31.549612629183116 0 31.549612629183116 9.3599011610129708 0 0 0 0 102.27462902311527 182.67733895264973 0 182.67733895264973 -64.415952078936243 0 0 0 0 22.660204223398239 120.92757507276529 0 120.92757507276529 -21.28521829429252 0 0 0 0 34.525865426759992 199.79507675994137 0 199.79507675994137 29.150057737228053 0 0 0 0 29.1829217649356 205.76304301780692 0 205.76304301780692 109.59932283143053 0 0 0 0 45.579043754547484 118.08555378821443 0 118.08555378821443 -13.25546744105619 0 0 0 0 35.156147533600233 198.0905060444727 0 198.0905060444727 119.39638894333621 0 0 0 0 29.595682290295372 134.48479676034913 0 134.48479676034913 160.48910821491882 0 0 0 0 8.9037921002745861 143.03316533500038 0 143.03316533500038 205.37861832852559 0 0 0 0 412.38415596027335 102.23872306587646 0 102.23872306587646 -197.89444370879664 0 0 0 0 16.271938586545929 1.9741496298272381 0 1.9741496298272381 -58.376085039703028 0 0 0 0 275.55084859118506 81.849569063716444 0 81.849569063716444 -166.65908083687827 0 0 0 0 69.477913455333294 117.16528115404648 0 117.16528115404648 -3.785041827909283 0 0 0 0 41.356270261363534 250.47896127440683 0 250.47896127440683 50.223759750043143 0 0 0 0 19.853002939587896 196.50953874986544 0 196.50953874986544 -74.569773571342921 0 0 0 0 -3.1312986618622318 -6.1719819246822567 0 -6.1719819246822567 13.463859508092852 0 0 0 0 329.43882555199889 209.90178551147767 0 209.90178551147767 -20.939964016360136 0 0 0 0 -159.11508344091999 -115.69105632165838 0 -115.69105632165838 394.52346010680253 0 0 0 0 -101.34552160664953 679.458741231408 0 679.458741231408 -16.947298613447856 0 0 0 0 -272.2985670169146 -5.8610825850382753 0 -5.8610825850382753 511.22967449108182 0 0 0 0 -131.57512095557468 100.13440198277073 0 100.13440198277073 401.36020003632092 0 0 0 0 -134.14636951304419 27.928781562341953 0 27.928781562341953 3.3768264546961291 0 0 0 0 -4.1640420304422605 8.029139055083661 0 8.029139055083661 6.848736660836261 0 0 0 0 -227.37035412988553 134.19140858132789 0 134.19140858132789 650.16867387765342 0 0 0 0 -263.21377976778604 25.219951259694426 0 25.219951259694426 366.68015167371141 0 0 0 0 139.67604662910162 839.96833296849672 0 839.96833296849672 -1235.8445606165988 0 0 0 0 55.653572645489476 330.8199462875416 0 330.8199462875416 374.40236114965484 0 0 0 0 198.16922739594156 187.89764920287291 0 187.89764920287291 40.38154602992995 0 0 0 0 26.35708528876421 135.21304784629683 0 135.21304784629683 70.665809938439452 0 0 0 0 76.164606873877347 128.23418587952733 0 128.23418587952733 -86.045347240335104 0 0 0 0 -86.984315920693916 129.89258977396094 0 129.89258977396094 125.5386465217457 0 0 0 0 53.773691531467193 131.80193926771972 0 131.80193926771972 -93.835447474659304 0 0 0 0 -4.2447908907565761 104.4334793985646 0 104.4334793985646 -19.282984364199784 0 0 0 0 -7.834136985503676 49.785560616465034 0 49.785560616465034 -3.7948368508122314 0 0 0 0 -51.129661498140194 125.70925890009772 0 125.70925890009772 87.521000482857232 0 0 0 0 -54.240597853407962 164.68557332746934 0 164.68557332746934 79.034774265668261 0 0 0 0 -65.938430025074922 128.99608784375118 0 128.99608784375118 2.3775092063915508 0 0 0 0 -160.14019030608324 163.5965819344965 0 163.5965819344965 96.962458108152532 0 0 0 0 -13.521395956939401 27.347959331122723 0 27.347959331122723 9.5385726348144253 0 0 0 0 -60.32622909374038 111.31888067651983 0 111.31888067651983 -13.717303430589119 0 0 0 0 78.881249260317418 219.45754502861746 0 219.45754502861746 -109.31054523439116 0 0 0 0 21.909061550212627 57.74441693481171 0 57.74441693481171 -84.369424714415317 0 0 0 0 -33.98962979717362 69.592045199115091 0 69.592045199115091 -7.5904856547812063 0 0 0 0 12.332621746521909 126.31694003197231 0 126.31694003197231 -46.788390616892457 0 0 0 0 -29.974003450028249 96.554786637238067 0 96.554786637238067 -49.621391047705401 0 0 0 0 65.968534309031384 110.50891679370307 0 110.50891679370307 -78.728266470089693 0 0 0 0 -41.542083929998626 204.57178708031688 0 204.57178708031688 -10.84564452133236 0 0 0 0 -7.8013422038056888 50.492368264884135 0 50.492368264884135 -81.799818600073195 0 0 0 0 27.488268292895469 29.193218750622464 0 29.193218750622464 -42.091993526726014 0 0 0 0 -1242.8944863377837 804.97919071176875 0 804.97919071176875 -267.03221945175028 0 0 0 0 -47.430523002934933 85.128233980338337 0 85.128233980338337 -57.100683011860383 0 0 0 0 -26.884149808603979 71.155994870747236 0 71.155994870747236 -56.383190250046027 0 0 0 0 -6.8294417911529308 83.859694808043059 0 83.859694808043059 -71.874799923047249 0 0 0 0 -29.414211901181261 62.473078587565396 0 62.473078587565396 -85.975780553260847 0 0 0 0 -19.64169390340976 67.922912264213664 0 67.922912264213664 -83.834458227356663 0 0 0 0 -55.488740059481643 77.550565000414281 0 77.550565000414281 -71.555032418524206 0 0 0 0 28.664309299340431 28.774181918609969 0 28.774181918609969 -73.445767371420686 0 0 0 0 67.686920067542815 705.50522547967557 0 705.50522547967557 -1262.051824427137 0 0 0 0 -411.0153126809164 -765.09967809983209 0 -765.09967809983209 272.46728156866448 0 0 0 0 -803.59254060697276 -113.10285787093744 0 -113.10285787093744 612.2230101172172 0 0 0 0 -114.39931548316167 75.704717587359255 0 75.704717587359255 32.50073578923184 0 0 0 0 590.99745093091042 -158.87937121142022 0 -158.87937121142022 -226.03680111831636 0 0 0 0 -122.54959394769685 397.92451143367362 0 397.92451143367362 -203.69380917704257 0 0 0 0 -696.09206649106636 110.24388516956242 0 110.24388516956242 79.361212253643316 0 0 0 0 -0.90073535000576044 2.5993808461990398 0 2.5993808461990398 -14.231983508641832 0 0 0 0 308.01443485497293 194.96387202406004 0 194.96387202406004 -92.929856037240825 0 0 0 0 159.29603229428176 -152.22250390981935 0 -152.22250390981935 -903.25423817575211 0 0 0 0 670.9543672712316 979.2263906074877 0 979.2263906074877 -831.49318730857613 0 0 0 0 209.68519905339053 867.73590476149911 0 867.73590476149911 781.81386777329317 0 0 0 0 438.56383060858934 315.79972246503166 0 315.79972246503166 570.36548618195229 0 0 0 0 1198.2459571483341 755.67495343262999 0 755.67495343262999 508.12538649979979 0 0 0 0 271.76236575565918 505.23473669395594 0 505.23473669395594 550.03636201335758 0 0 0 0 137.09776660095667 456.6520987002441 0 456.6520987002441 320.35624768672642 0 0 0 0 617.97008051363264 872.7946580844864 0 872.7946580844864 923.90222585541778 0 0 0 0 654.97385824593948 519.4227222759655 0 519.4227222759655 275.76779163554602 0 0 0 0 271.650002526756 521.83698833397102 0 521.83698833397102 732.40145695019601 0 0 0 0 940.60722816138878 778.12988391266845 0 778.12988391266845 828.20282164687524 0 0 0 0 828.97278551149384 812.79521206185973 0 812.79521206185973 180.21285747586808 0 0 0 0 1849.2539695960586 1358.3576024392969 0 1358.3576024392969 1169.2575682934839 0 0 0 0 794.4676742941374 628.25625492051768 0 628.25625492051768 970.32457666040864 0 0 0 0 810.08620763858198 670.83159392207745 0 670.83159392207745 231.25382898031967 0 0 0 0 929.16653519190731 498.50249888499093 0 498.50249888499093 164.54807152762805 0 0 0 0 842.15703693902469 485.94204672300111 0 485.94204672300111 389.66732162307017 0 0 0 0 0.77444321503050162 10.288746349260606 0 10.288746349260606 -5.4990462403137883 0 0 0 0 22.003583460693918 33.786371819227355 0 33.786371819227355 -75.414235819643324 0 0 0 0 347.79509912897629 -520.66950701288442 0 -520.66950701288442 321.41718511062209 0 0 0 0 15.431949791068718 -3.6215576901599604 0 -3.6215576901599604 -8.9888235177995739 0 0 0 0 1038.6098374472313 1152.6816810953042 0 1152.6816810953042 785.01636567962123 0 0 0 0 46.555768539168639 40.815519104202394 0 40.815519104202394 637.83389920466288 0 0 0 0 -59.016761278289778 48.8377364097596 0 48.8377364097596 -52.486098932604364 0 0 0 0 -12.388474875348038 33.448790814749373 0 33.448790814749373 -65.700355772041803 0 0 0 0 -24.235812089595839 38.33470733553078 0 38.33470733553078 -45.413019273752113 0 0 0 0 12.278453510322066 32.073179410261218 0 32.073179410261218 -52.681605239628624 0 0 0 0 -1706.9869172568433 1103.7940678324967 0 1103.7940678324967 -811.49670158385561 0 0 0 0 -40.672974603396142 183.37210801117908 0 183.37210801117908 194.39471572669936 0 0 0 0 -167.66605851148779 169.62692255234288 0 169.62692255234288 209.30205265125915 0 0 0 0 -90.900046391303476 88.527228990144067 0 88.527228990144067 208.52885803322715 0 0 0 0 -17.472436032599489 163.86757498580823 0 163.86757498580823 142.47978348513425 0 0 0 0 -77.499437145404954 250.92444526396321 0 250.92444526396321 129.37672757878317 0 0 0 0 104.70759244490182 304.0949621641048 0 304.0949621641048 47.87626748889943 0 0 0 0 139.58395307546016 553.04215722533263 0 553.04215722533263 -122.07966182914788 0 0 0 0 88.220362830390513 565.55178220990274 0 565.55178220990274 275.224173268507 0 0 0 0 139.4648388212081 338.307942110554 0 338.307942110554 -75.924757045300794 0 0 0 0 -44.491178321506595 377.93974135103053 0 377.93974135103053 43.866276393957378 0 0 0 0 -28.378918333444744 310.87694274647947 0 310.87694274647947 199.60323042684468 0 0 0 0 -224.15447644340748 300.94980422555636 0 300.94980422555636 248.90231481849332 0 0 0 0 -246.70293422632676 443.32096718405228 0 443.32096718405228 460.05082332407255 0 0 0 0 -84.463248897518497 483.70508718658675 0 483.70508718658675 642.7185400610615 0 0 0 0 -105.49530597825469 369.81125821617934 0 369.81125821617934 305.55096695116663 0 0 0 0 277.88386118160179 339.45269486443453 0 339.45269486443453 297.42524494758982 0 0 0 0 -105.86932628577051 262.18169874128944 0 262.18169874128944 22.043252974501229 0 0 0 0 -136.18570742993325 369.49204899489268 0 369.49204899489268 316.31485156845156 0 0 0 0 -410.84766130559001 199.84525680997103 0 199.84525680997103 234.69371679966571 0 0 0 0 -350.71996180564747 313.56812799247564 0 313.56812799247564 351.75559175729722 0 0 0 0 -301.90283131315664 273.15605157305617 0 273.15605157305617 76.790175075017032 0 0 0 0 -293.84882338580792 165.37798552068853 0 165.37798552068853 165.20292226217862 0 0 0 0 -405.60384965274716 280.02704906823783 0 280.02704906823783 69.153827528643887 0 0 0 0 -478.03263198613422 95.368032366597618 0 95.368032366597618 141.71252052559066 0 0 0 0 -348.57935024467588 310.43661060367594 0 310.43661060367594 299.93684998510798 0 0 0 0 -168.48916825609194 182.16597741199621 0 182.16597741199621 234.67043307085987 0 0 0 0 -218.92413735823357 303.33090676963184 0 303.33090676963184 249.62430804752512 0 0 0 0 -283.0644288961339 189.29027883401432 0 189.29027883401432 245.4455168061977 0 0 0 0 -342.50377126841386 147.51251834406435 0 147.51251834406435 216.21170516523125 0 0 0 0 -204.78145005516126 96.114933977711189 0 96.114933977711189 208.55696474633623 0 0 0 0 -213.53451326909271 93.9864406713059 0 93.9864406713059 217.16869836951082 0 0 0 0 -248.80189574509859 8.619809395280754 0 8.619809395280754 175.26037375244778 0 0 0 0 -357.10138038333389 123.77215627061378 0 123.77215627061378 212.28729665585161 0 0 0 0 -302.50588698271895 76.941505751950899 0 76.941505751950899 139.47773325476737 0 0 0 0 -365.05372931753664 168.57043068694293 0 168.57043068694293 6.617945029240218 0 0 0 0 -280.62382528827584 -5.2113051244814415 0 -5.2113051244814415 -10.004390153553686 0 0 0 0 -437.79951551072008 33.730445571934979 0 33.730445571934979 133.61551279262494 0 0 0 0 -564.44676703082587 296.19543775547027 0 296.19543775547027 -202.64571121675544 0 0 0 0 -476.73367635388786 10.131445310122217 0 10.131445310122217 -155.6468364156317 0 0 0 0 -826.93303948982793 371.25940943919704 0 371.25940943919704 -385.48312093029745 0 0 0 0 -569.83266105239454 629.56582362345944 0 629.56582362345944 -1060.2731833327853 0 0 0 0 -472.29612587796873 279.94962649537774 0 279.94962649537774 -460.9487416878037 0 0 0 0 -614.10395075459382 150.25032747311343 0 150.25032747311343 11.760272601917677 0 0 0 0 -553.06138555770303 343.12620895321743 0 343.12620895321743 -196.57565718768456 0 0 0 0 -515.22741040402616 128.74654754876246 0 128.74654754876246 -233.09416782203334 0 0 0 0 -463.68845560483169 289.85493919288274 0 289.85493919288274 76.701439852869953 0 0 0 0 -419.37175316938374 166.07589971249399 0 166.07589971249399 -58.448464133871312 0 0 0 0 -290.628264543775 251.39253264004219 0 251.39253264004219 -256.11993303245981 0 0 0 0 -471.85164760332555 344.23613868490065 0 344.23613868490065 -283.39650349254953 0 0 0 0 -180.93420822395274 394.97383332099344 0 394.97383332099344 -92.873964258076739 0 0 0 0 199.26720373514399 339.54353522970632 0 339.54353522970632 -85.815320976267685 0 0 0 0 -363.03896038743551 314.51160537131364 0 314.51160537131364 11.396870747095818 0 0 0 0 -88.615408853002009 293.57144270902791 0 293.57144270902791 -395.74628986368771 0 0 0 0 -68.500169520586496 399.00617242954468 0 399.00617242954468 -861.79473323996353 0 0 0 0 -354.02385664661415 386.75600210373523 0 386.75600210373523 -421.93827754342783 0 0 0 0 -244.02658126827009 336.03843708921704 0 336.03843708921704 -724.95662990794517 0 0 0 0 -267.99465755851998 286.65027092200035 0 286.65027092200035 -1257.7080525777565 0 0 0 0 -456.10266261176002 517.35684058789775 0 517.35684058789775 -894.24754046960152 0 0 0 0 -370.44256585408584 280.24975575618009 0 280.24975575618009 -555.9077194374695 0 0 0 0 -324.00481224060059 550.70657076085263 0 550.70657076085263 -1234.32459322465 0 0 0 0 -345.57452955056215 440.71491137651901 0 440.71491137651901 -745.06343259686219 0 0 0 0 -578.66336150474672 457.03769938469486 0 457.03769938469486 -559.97864645734489 0 0 0 0 -364.79833958667587 944.17642701706791 0 944.17642701706791 -2021.0560391953477 0 0 0 0 -204.56470248757978 533.2076309189797 0 533.2076309189797 -1250.6245000830531 0 0 0 0 -432.7457922776739 128.98107939235888 0 128.98107939235888 -2237.3555819006433 0 0 0 0 -905.6042165996696 791.91744597231991 0 791.91744597231991 -1454.3255081053649 0 0 0 0 -205.41243834763009 578.36949674275093 0 578.36949674275093 -1451.4253566205225 0 0 0 0 18.493393546246807 129.22746416130394 0 129.22746416130394 -728.43349542872602 0 0 0 0 -257.16411177890404 968.02640585360678 0 968.02640585360678 -2523.1322379336489 0 0 0 0 -843.76882247700269 766.82848442920658 0 766.82848442920658 -140.41865033288195 0 0 0 0 228.11242610347108 432.37041517323451 0 432.37041517323451 -2276.201630438818 0 0 0 0 -1063.1060351112246 1522.3048749254522 0 1522.3048749254522 -2222.1475459978901 0 0 0 0 40.314237630554999 905.47877188006532 0 905.47877188006532 -3335.1745817117808 0 0 0 0 -1691.0833556880898 763.899283317558 0 763.899283317558 -653.30162953730905 0 0 0 0 -1031.9255719367648 90.734758447870263 0 90.734758447870263 -861.13959339683061 0 0 0 0 -581.35792971546471 420.28008504741956 0 420.28008504741956 -998.02232791560527 0 0 0 0 -754.30194453296281 167.7322274725193 0 167.7322274725193 -339.57282093330286 0 0 0 0 -567.65090996730214 701.0383483032565 0 701.0383483032565 -1006.6365559638216 0 0 0 0 -324.53943633382733 653.28969793548458 0 653.28969793548458 -1004.9615079430951 0 0 0 0 -46.673946020866993 51.553277199624617 0 51.553277199624617 -52.220467263080081 0 0 0 0 -2029.3923016605331 1756.5895233363672 0 1756.5895233363672 -934.64910681721085 0 0 0 0 -994.14791738252097 620.15534651428607 0 620.15534651428607 -937.62211354524516 0 0 0 0 -12.728989787014271 14.276060350568684 0 14.276060350568684 -15.385592078024274 0 0 0 0 1671.7107589671505 216.2208839122286 0 216.2208839122286 -519.30691969416512 0 0 0 0 -621.11828995388078 719.97848661689136 0 719.97848661689136 -886.1861949422746 0 0 0 0 -656.83639430436597 1191.4471303699393 0 1191.4471303699393 -1171.8194651518279 0 0 0 0 491.92776221126405 881.39545567845198 0 881.39545567845198 -1411.917378152255 0 0 0 0 1171.0567526491941 888.43993134795892 0 888.43993134795892 -1417.1204592921531 0 0 0 0 54.88133154422394 1418.0782839188541 0 1418.0782839188541 -1488.7746900530183 0 0 0 0 770.64336367978831 632.83551914565032 0 632.83551914565032 202.62969594161677 0 0 0 0 855.02868384562316 677.33670874321615 0 677.33670874321615 -373.74751113881939 0 0 0 0 437.44280364393489 714.75672845856752 0 714.75672845856752 69.655023540268303 0 0 0 0 284.62109207446338 682.42716453110916 0 682.42716453110916 -358.45120313420193 0 0 0 0 491.61871981889271 577.2811477916257 0 577.2811477916257 -878.37855435133679 0 0 0 0 87.982464949018322 510.5087117057119 0 510.5087117057119 -238.50136226646646 0 0 0 0 553.59721943732075 422.37745222325429 0 422.37745222325429 -222.23630245641107 0 0 0 0 206.74166859422985 401.11898833615851 0 401.11898833615851 -586.31025441379461 0 0 0 0 207.53662969378638 558.72250377059754 0 558.72250377059754 -1078.4383122606523 0 0 0 0 -234.82884865230881 572.33417760761949 0 572.33417760761949 -643.84705350779768 0 0 0 0 28.403613871894777 761.86075008879561 0 761.86075008879561 -927.69724161758495 0 0 0 0 -376.96599096931459 790.38721395801258 0 790.38721395801258 -1168.0933717563385 0 0 0 0 -195.83738065436773 1091.6048242050274 0 1091.6048242050274 -2398.8974379828287 0 0 0 0 -160.69818936169031 554.2439461446811 0 554.2439461446811 -1378.6805975165189 0 0 0 0 164.63876326453465 940.764600151786 0 940.764600151786 -1709.0951548325102 0 0 0 0 -42.988528879446676 683.16245832086133 0 683.16245832086133 -1717.7398223717173 0 0 0 0 148.93623857722559 93.876619121852855 0 93.876619121852855 -2554.5311065937713 0 0 0 0 -245.5624757771584 176.17328567858567 0 176.17328567858567 225.77557166837505 0 0 0 0 -11.162501407726609 9.025057322290067 0 9.025057322290067 -7.4954125203037165 0 0 0 0 134.69332856210531 -280.34949449959458 0 -280.34949449959458 -1110.6190598332323 0 0 0 0 18.346729962446261 572.59465002812794 0 572.59465002812794 -1652.410933862142 0 0 0 0 -7.348155896004755 825.00734317739989 0 825.00734317739989 -1405.1070545387192 0 0 0 0 36.124673829850508 997.33613894900191 0 997.33613894900191 -1439.5479419525691 0 0 0 0 3.4219786166213453 897.22783448116206 0 897.22783448116206 -1051.8357866458828 0 0 0 0 7.3481700136180734 939.14595788195402 0 939.14595788195402 -1519.2529270494415 0 0 0 0 -150.43282095713948 596.41205018392793 0 596.41205018392793 -951.9920355775248 0 0 0 0 -327.18468485603807 759.1485163831785 0 759.1485163831785 -995.53099103218119 0 0 0 0 -232.35139372786216 -81.980674432048545 0 -81.980674432048545 -105.45797722274438 0 0 0 0 -110.3499398814165 334.89151707097335 0 334.89151707097335 -650.3561217932438 0 0 0 0 113.53659421760676 260.12242221416091 0 260.12242221416091 -787.23804863312398 0 0 0 0 -247.53810465569404 168.99397448239688 0 168.99397448239688 -253.33804238180164 0 0 0 0 -239.13187207801093 142.38352818717613 0 142.38352818717613 -187.79779749703448 0 0 0 0 -79.729355718183797 133.23531245714184 0 133.23531245714184 -421.93354835025093 0 0 0 0 -395.09664872908616 406.6915989812187 0 406.6915989812187 -346.094364446697 0 0 0 0 -510.44131610075419 705.62379008756034 0 705.62379008756034 -765.03684766420338 0 0 0 0 95.038817929431389 56.0113996385262 0 56.0113996385262 54.27476711354393 0 0 0 0 -217.14169825163117 232.84260906260897 0 232.84260906260897 271.214233071747 0 0 0 0 -0.65757619265161793 4.5455296414832844 0 4.5455296414832844 -8.0932317579086828 0 0 0 0 -49.034009163388362 29.87587653083267 0 29.87587653083267 -16.085017768999478 0 0 0 0 -136.12272224432672 -4.3668547616762226 0 -4.3668547616762226 128.56864820386545 0 0 0 0 -52.087312854127958 -102.56386910367291 0 -102.56386910367291 -29.009573449846357 0 0 0 0 -181.4011237356317 283.89463868558232 0 283.89463868558232 24.026187280298473 0 0 0 0 -47.803256419007084 41.097976960507367 0 41.097976960507367 179.09308805926412 0 0 0 0 80.386409080878366 121.43942159784274 0 121.43942159784274 -274.73820550749042 0 0 0 0 -31.990152963090111 23.064509634200935 0 23.064509634200935 -14.60353211147789 0 0 0 0 -95.757520474762714 443.27963935405569 0 443.27963935405569 653.16899973136242 0 0 0 0 -58.099165291366347 37.846252948169905 0 37.846252948169905 -19.726064282398696 0 0 0 0 -157.19228193804156 51.457264322278206 0 51.457264322278206 205.73631149235734 0 0 0 0 -9.7815498631167088 -2.154859428846585 0 -2.154859428846585 11.50670090034032 0 0 0 0 83.11152306238364 195.50262888428551 0 195.50262888428551 179.56334544890706 0 0 0 0 3.0664677279855823 5.0215334631357109 0 5.0215334631357109 236.52462479984615 0 0 0 0 52.826824139643577 -289.93413767227321 0 -289.93413767227321 -23.208492175261199 0 0 0 0 -22.575122339403606 158.43157323918422 0 158.43157323918422 -172.40616592343281 0 0 0 0 0.73850918587271508 -0.46334760235654215 0 -0.46334760235654215 0.16353883794479884 0 0 0 0 223.26110905560927 271.15782973554087 0 271.15782973554087 87.067544920952059 0 0 0 0 -108.37285566644277 268.79038073641277 0 268.79038073641277 99.16211267359904 0 0 0 0 227.61890864808083 -34.108571947603195 0 -34.108571947603195 -1072.8733509186859 0 0 0 0 33.377275765362754 8.4940119395236025 0 8.4940119395236025 -5.3402350253509212 0 0 0 0 56.45428081076534 459.92592794180382 0 459.92592794180382 -591.66674143497949 0 0 0 0 -152.33075501363783 349.03493593329767 0 349.03493593329767 101.47572816697357 0 0 0 0 210.422929016735 179.54280771931371 0 179.54280771931371 163.17750795202301 0 0 0 0 118.18939294755364 499.50764955473187 0 499.50764955473187 164.79739142180188 0 0 0 0 231.02740353981062 247.15279140508937 0 247.15279140508937 -369.58824828520301 0 0 0 0 -148.88754983370018 39.085110650994466 0 39.085110650994466 -244.54079742408067 0 0 0 0 65.918186541763134 44.525874376529828 0 44.525874376529828 -182.03576967288973 0 0 0 0 173.54898778707138 100.83895287537598 0 100.83895287537598 -230.63647931405285 0 0 0 0 35.243249209306668 113.38811359310057 0 113.38811359310057 -125.77664023594116 0 0 0 0 81.450147395371459 145.08759575584554 0 145.08759575584554 -145.7834946581861 0 0 0 0 223.07392544019967 228.3380399706366 0 228.3380399706366 -108.62585993972607 0 0 0 0 282.12294826752623 179.49659549475473 0 179.49659549475473 -184.35236310068285 0 0 0 0 64.135322632733732 137.09811212393834 0 137.09811212393834 202.83220558226458 0 0 0 0 -46.602703417069279 180.99438666502101 0 180.99438666502101 -151.79756225980964 0 0 0 0 -53.414236255708062 44.104674263051372 0 44.104674263051372 -36.286093365511647 0 0 0 0 -161.16794751582347 -50.31403355342627 0 -50.31403355342627 31.255594669171842 0 0 0 0 -147.24265742162243 623.07266611816522 0 623.07266611816522 1920.6473379938325 0 0 0 0 -1147.2854290330433 1362.5832521490811 0 1362.5832521490811 1614.1481618746548 0 0 0 0 -2353.7540920112515 1909.4939574860327 0 1909.4939574860327 1542.4940721459752 0 0 0 0 -1872.9452087736718 564.63209269062645 0 564.63209269062645 2108.5378967829747 0 0 0 0 -2068.1873090430745 1134.1902248071274 0 1134.1902248071274 3024.0640805622825 0 0 0 0 34.25210837717168 -243.86760881463124 0 -243.86760881463124 1787.200882323421 0 0 0 0 -1837.9678215468311 284.3637074294129 0 284.3637074294129 1700.4478987916955 0 0 0 0 -1630.4621689510095 810.82162639214221 0 810.82162639214221 1679.2624950424943 0 0 0 0 -1246.0020341273048 1667.1913541537197 0 1667.1913541537197 35.757233949174406 0 0 0 0 -1553.4498245040377 1411.8006979576476 0 1411.8006979576476 1948.1996540595574 0 0 0 0 -1279.0818984871366 1034.4212510793259 0 1034.4212510793259 2378.3367775675724 0 0 0 0 -20.498680828480872 12.109083924643187 0 12.109083924643187 -5.1863088812427947 0 0 0 0 -581.33561843688221 497.76531045114098 0 497.76531045114098 -170.63788631850184 0 0 0 0 -48.61898097807736 29.808333956934746 0 29.808333956934746 -11.204235340508689 0 0 0 0 803.93301988827284 630.79282467535677 0 630.79282467535677 333.60654945128772 0 0 0 0 276.12386270067509 638.51309215641231 0 638.51309215641231 1230.1482058737274 0 0 0 0 787.14388907766988 901.99798380508946 0 901.99798380508946 691.20236423092138 0 0 0 0 1093.1118848780025 1281.79917047247 0 1281.79917047247 698.25596396339097 0 0 0 0 945.32227605917433 1096.4465613827633 0 1096.4465613827633 477.93153804611211 0 0 0 0 1331.6116595713829 1026.3246235426122 0 1026.3246235426122 266.70756940907631 0 0 0 0 11.87551048100454 2.9304844430461401 0 2.9304844430461401 -0.43563043237966781 0 0 0 0 771.64225630373039 -45.279659796691703 0 -45.279659796691703 -1743.4830664448091 0 0 0 0 1161.0920354774717 2385.4334122456203 0 2385.4334122456203 3133.4433818663929 0 0 0 0 1353.0045309361594 1098.0458756193693 0 1098.0458756193693 825.40877250592894 0 0 0 0 1451.5367310348083 629.63649322265701 0 629.63649322265701 615.85036455672525 0 0 0 0 -2573.4481569484778 -539.61863269872993 0 -539.61863269872993 628.96816050323105 0 0 0 0 -5190.8271656655561 448.71379425049236 0 448.71379425049236 331.89815343421651 0 0 0 0 -7.0457859686495681 7.49988638142338 0 7.49988638142338 11.881886244300915 0 0 0 0 1857.1644818598616 1723.6153300340302 0 1723.6153300340302 445.04381987344823 0 0 0 0 -4335.8639747690031 878.74451762993704 0 878.74451762993704 -3172.4137438303442 0 0 0 0 559.34934414769668 2182.5394569861382 0 2182.5394569861382 360.13399314932758 0 0 0 0 -29.047363143301737 8.5696117339206239 0 8.5696117339206239 -1.9394553619394337 0 0 0 0 -1270.21210449723 1938.7819458064405 0 1938.7819458064405 -3768.4873033743788 0 0 0 0 -2424.9133016853593 -705.10138731624465 0 -705.10138731624465 2200.5793761099048 0 0 0 0 -5724.3552437630424 556.87864913603698 0 556.87864913603698 3404.9859403709124 0 0 0 0 -4244.2352598061843 2612.0009879848512 0 2612.0009879848512 -1546.6168529024726 0 0 0 0 -1550.0622343070936 1766.2206595682292 0 1766.2206595682292 -1638.5254077254795 0 0 0 0 -2252.9314579578204 1226.1744445731747 0 1226.1744445731747 -194.47889886549092 0 0 0 0 -2199.9867892768816 1038.2167102792082 0 1038.2167102792082 -336.19425185592263 0 0 0 0 -665.93362354693818 791.31987013136677 0 791.31987013136677 -678.94102422049764 0 0 0 0 -647.87651029674453 880.8167415845237 0 880.8167415845237 -715.01606949284542 0 0 0 0 -191.04623881776934 533.72180940787075 0 533.72180940787075 -1221.0301375377603 0 0 0 0 -540.71960833968478 616.7143213902018 0 616.7143213902018 -222.31575713484926 0 0 0 0 -90.323021989737754 312.43692039648886 0 312.43692039648886 -576.71027087076072 0 0 0 0 -180.93475442970521 289.88015495207219 0 289.88015495207219 -541.56076572746679 0 0 0 0 -90.231734218639758 112.45594089033693 0 112.45594089033693 -352.98181509188726 0 0 0 0 -32.304747611851781 141.20905581699844 0 141.20905581699844 -643.45933766092639 0 0 0 0 -11.377363606085765 14.202008526918576 0 14.202008526918576 -0.73795318544600264 0 0 0 0 -76.21240837879327 16.59473320025657 0 16.59473320025657 2.7490306400456674 0 0 0 0 -275.62424103364901 143.61807899788255 0 143.61807899788255 -356.19684023180162 0 0 0 0 317.71693579381099 958.78756317713123 0 958.78756317713123 1994.6671248647326 0 0 0 0 -83.437060857613687 -125.74328123594751 0 -125.74328123594751 -792.31833077181363 0 0 0 0 100.06782261839544 410.51360231189756 0 410.51360231189756 -2066.8413797383437 0 0 0 0 -112.24018454385805 638.75737853800092 0 638.75737853800092 2394.2802760092018 0 0 0 0 -249.77971493262157 340.82084234365902 0 340.82084234365902 1181.5784012286822 0 0 0 0 -398.67317676980747 719.15384475597239 0 719.15384475597239 860.90104081337631 0 0 0 0 407.01792160602054 -1.5223698812260409 0 -1.5223698812260409 1357.2308801862382 0 0 0 0 63.98011320331716 130.53949515616841 0 130.53949515616841 3022.9198135536062 0 0 0 0 544.97339382873542 825.62647408981593 0 825.62647408981593 690.54155851254473 0 0 0 0 9.450539331384789 528.94502964243748 0 528.94502964243748 649.62191876207362 0 0 0 0 -423.80621410858294 1002.0709456801087 0 1002.0709456801087 586.95479873240402 0 0 0 0 88.686806201149011 754.88891019047878 0 754.88891019047878 679.66956192371435 0 0 0 0 -8.8147670264879707 909.22110706131207 0 909.22110706131207 -334.9859980296751 0 0 0 0 177.29879645953042 678.48961063337629 0 678.48961063337629 -113.78399282316968 0 0 0 0 128.13162052894768 1002.8957174753741 0 1002.8957174753741 -279.79646641632644 0 0 0 0 186.05570453187102 749.85068339479039 0 749.85068339479039 -172.95400171862275 0 0 0 0 -31.654100566027651 953.67862755947203 0 953.67862755947203 -356.95380167578696 0 0 0 0 262.3095147745189 883.22610795783112 0 883.22610795783112 -126.83905146163306 0 0 0 0 63.2250617587124 422.14933253399431 0 422.14933253399431 224.6429371671922 0 0 0 0 -12.561264567011904 75.253498943324075 0 75.253498943324075 27.449344002463086 0 0 0 0 -81.357241932593752 716.37767476864246 0 716.37767476864246 -124.57869275475969 0 0 0 0 162.28083567103022 257.66937065114325 0 257.66937065114325 -754.45258015003947 0 0 0 0 23.496421686912072 656.92867203681817 0 656.92867203681817 1074.4810483744764 0 0 0 0 141.31377335042635 819.83565071793419 0 819.83565071793419 -1915.2729031600866 0 0 0 0 -3.4934454820441943 -10.601639530051727 0 -10.601639530051727 0.66264154277048637 0 0 0 0 -353.63192765451095 430.2600744362353 0 430.2600744362353 21.15675100639055 0 0 0 0 -555.48260163509985 339.22950490855874 0 339.22950490855874 1591.3679717982013 0 0 0 0 220.12994600601087 376.40578647651273 0 376.40578647651273 22.821201544053565 0 0 0 0 -254.17249882881879 333.07055034099903 0 333.07055034099903 484.00716850893878 0 0 0 0 21.349877322136308 635.66352123664728 0 635.66352123664728 68.788847459160024 0 0 0 0 118.56461687784758 503.98202926777594 0 503.98202926777594 34.09610925722518 0 0 0 0 -176.94000693659473 95.051165743869205 0 95.051165743869205 25.135554795881035 0 0 0 0 -92.117085953072262 47.72072446699319 0 47.72072446699319 -3.5913939959434771 0 0 0 0 -94.651902312019956 76.36742345210223 0 76.36742345210223 -50.822502950009948 0 0 0 0 -67.031916109943126 9.5630890219334788 0 9.5630890219334788 14.317999411518457 0 0 0 0 -17.700988204553141 -56.219620818970725 0 -56.219620818970725 -33.682137832853186 0 0 0 0 -42.236395787532672 13.205674400548645 0 13.205674400548645 0.6840966264662498 0 0 0 0 -152.70368676641374 239.66545940952346 0 239.66545940952346 -214.80083929328248 0 0 0 0 -103.6257984124768 287.35361467415532 0 287.35361467415532 -427.68113643211836 0 0 0 0 -92.290277469073771 3.8387765147417667 0 3.8387765147417667 52.616450852765411 0 0 0 0 -36.607762501277335 15.651892605413224 0 15.651892605413224 30.790422430583121 0 0 0 0 -139.26699902868859 310.5850743812407 0 310.5850743812407 -256.04437532448355 0 0 0 0 -89.858883474166532 113.10056348293642 0 113.10056348293642 -14.899059457311523 0 0 0 0 -165.35521362079453 117.03732545155799 0 117.03732545155799 -3.0975068851075775 0 0 0 0 -22.841011400140388 45.561468337277375 0 45.561468337277375 17.369703768159127 0 0 0 0 -85.968463965218689 155.12585688699619 0 155.12585688699619 -38.8288417160893 0 0 0 0 -4.9905166473561025 69.165006561394961 0 69.165006561394961 45.523499849377572 0 0 0 0 -164.18589198370319 193.17534684242128 0 193.17534684242128 -35.48837269921205 0 0 0 0 -3.2586672282996005 121.33892890717107 0 121.33892890717107 -21.733541762871027 0 0 0 0 -166.23909125293903 196.84709629813733 0 196.84709629813733 -51.865436736567062 0 0 0 0 -5.4214651625154957 54.490655324951902 0 54.490655324951902 67.572362776781134 0 0 0 0 -259.39878213947668 352.5527316942098 0 352.5527316942098 -61.806194645469077 0 0 0 0 0.24298485024608141 47.073078970522204 0 47.073078970522204 27.642956966759584 0 0 0 0 -288.05302288737221 136.62588447330199 0 136.62588447330199 -14.111050929932389 0 0 0 0 -210.07177619019058 109.8249824456143 0 109.8249824456143 -8.2303384676051792 0 0 0 0 11.113084424195677 62.417515892220223 0 62.417515892220223 -15.029830021504797 0 0 0 0 -100.49393456694452 -62.780635559600341 0 -62.780635559600341 120.5609164974303 0 0 0 0 -226.04816493368708 58.589800167406793 0 58.589800167406793 169.49665979072597 0 0 0 0 -47.358336708661227 95.22728193889634 0 95.22728193889634 -64.671397092464758 0 0 0 0 20.47506217764014 23.610041376408915 0 23.610041376408915 6.7667376370226862 0 0 0 0 -33.441002458951061 2068.1967210652524 0 2068.1967210652524 665.64461913811101 0 0 0 0 7.9011001122698872 11.696727127502299 0 11.696727127502299 -6.4888945254427597 0 0 0 0 39.209604102623416 -103.10916569114488 0 -103.10916569114488 63.449472889798926 0 0 0 0 92.396575053295237 -30.218744173478626 0 -30.218744173478626 80.068491273621476 0 0 0 0 -81.420934913066958 140.76948614692265 0 140.76948614692265 -4.2978743970306823 0 0 0 0 -65.144708547739057 70.791392930588302 0 70.791392930588302 -8.6249423638639939 0 0 0 0 90.673807767227117 -12.24636937690957 0 -12.24636937690957 -16.201345303867129 0 0 0 0 55.257807695171707 47.685933374384945 0 47.685933374384945 -0.29118010684211981 0 0 0 0 384.63727139579714 64.961267965118168 0 64.961267965118168 -21.814454967746315 0 0 0 0 -18.011443435834821 57.724994927009682 0 57.724994927009682 -27.99625309852226 0 0 0 0 209.70263844933652 -151.66533086118216 0 -151.66533086118216 -85.132903757687018 0 0 0 0 -30.682798928799457 -116.78606920715538 0 -116.78606920715538 61.396899420658883 0 0 0 0 833.19878388532379 391.96038304326066 0 391.96038304326066 -265.03564392818953 0 0 0 0 141.61805903958742 -47.141391035336767 0 -47.141391035336767 42.236939338356024 0 0 0 0 1176.7449159770913 236.16151690201514 0 236.16151690201514 -308.11108969729685 0 0 0 0 220.70351873087202 25.037817890828592 0 25.037817890828592 -82.03806980662921 0 0 0 0 -39.649976674639319 32.150777320615106 0 32.150777320615106 29.785234572774073 0 0 0 0 52.074201794322732 76.391041803716078 0 76.391041803716078 -4.6659227292906875 0 0 0 0 -856.52827358515788 175.32894433708498 0 175.32894433708498 712.98872599948902 0 0 0 0 26.73025441639038 84.038687558810125 0 84.038687558810125 90.802752359828446 0 0 0 0 663.49829493776019 226.09937329111727 0 226.09937329111727 -791.4343910072057 0 0 0 0 197.95578238647431 797.48929820601188 0 797.48929820601188 192.9571095132851 0 0 0 0 129.46847778293886 460.44445109175285 0 460.44445109175285 527.78266469814116 0 0 0 0 644.91186854956322 -59.338250028937182 0 -59.338250028937182 329.84947839155211 0 0 0 0 -275.85648593354563 431.48938640006963 0 431.48938640006963 102.84451230197737 0 0 0 0 390.7470168537111 328.64118155882898 0 328.64118155882898 -262.3442625918251 0 0 0 0 23.252010923875787 694.18489775512353 0 694.18489775512353 101.43668784425245 0 0 0 0 -107.5902652649238 540.43077838566387 0 540.43077838566387 252.33676994525013 0 0 0 0 118.3524147715047 128.47240433200579 0 128.47240433200579 4.2088477299898273 0 0 0 0 -71.025556328755727 39.245477586938705 0 39.245477586938705 21.760558955750525 0 0 0 0 76.938840872031079 91.846938148717584 0 91.846938148717584 -52.90135425510141 0 0 0 0 -78.134893517537421 273.83362973811745 0 273.83362973811745 -289.5021268685814 0 0 0 0 -21.30380040881295 82.478757389223205 0 82.478757389223205 79.227712642719723 0 0 0 0 -328.33758442784892 213.00231663312297 0 213.00231663312297 -166.32568393915426 0 0 0 0 -6.448494015495271 189.18624235241805 0 189.18624235241805 6.2401504342924454 0 0 0 0 53.199295422356954 59.531444554675545 0 59.531444554675545 10.258163938011421 0 0 0 0 109.54157063397489 110.8595950457029 0 110.8595950457029 10.175850088147181 0 0 0 0 173.65754488205857 68.354953032121557 0 68.354953032121557 382.15256461798941 0 0 0 0 -8.6481908326918528 163.46643969490469 0 163.46643969490469 42.254369888883957 0 0 0 0 438.59734987254706 22.398521564937255 0 22.398521564937255 104.04530687075749 0 0 0 0 -82.108554689446464 675.21759854659649 0 675.21759854659649 -247.20719691262275 0 0 0 0 492.16045266684887 37.620871264547532 0 37.620871264547532 -488.25739974800672 0 0 0 0 -378.7233813354942 418.47250352645642 0 418.47250352645642 68.053038913842101 0 0 0 0 -185.4649526527428 641.21194472328716 0 641.21194472328716 133.24649214524834 0 0 0 0 209.26621118654657 392.89490010739974 0 392.89490010739974 21.57300037087407 0 0 0 0 26.328777623331007 162.5638610847036 0 162.5638610847036 245.89667023134098 0 0 0 0 227.30426038423684 684.64509886456926 0 684.64509886456926 3.177398709114641 0 0 0 0 643.58174577929458 280.81315388577059 0 280.81315388577059 -789.50671805297839 0 0 0 0 617.29348734264931 341.17349100021238 0 341.17349100021238 -920.98940830009087 0 0 0 0 1.8272725383512878 39.767898038333627 0 39.767898038333627 -48.82823889001827 0 0 0 0 663.12275974809745 243.38929532222392 0 243.38929532222392 -787.59580680014915 0 0 0 0 -3.0679088824276306 6.9951997140644835 0 6.9951997140644835 -10.004406836448055 0 0 0 0 -363.92857097502929 573.77624032961467 0 573.77624032961467 52.075818884164619 0 0 0 0 -211.56780353687736 204.07652695063098 0 204.07652695063098 118.96483956425072 0 0 0 0 179.90890833388403 468.90080039005261 0 468.90080039005261 65.250834773203678 0 0 0 0 -65.860840041510528 235.88134460359652 0 235.88134460359652 87.702650331506447 0 0 0 0 -408.72458433187239 -886.4198267028969 0 -886.4198267028969 1411.1123134489462 0 0 0 0 120.2129571098485 118.99885312500555 0 118.99885312500555 119.18187923755359 0 0 0 0 159.33171477512042 109.29270311401524 0 109.29270311401524 12.567176860626205 0 0 0 0 209.89072591916192 131.32825237178258 0 131.32825237178258 -43.793678345020453 0 0 0 0 344.70858937715229 193.16044162414528 0 193.16044162414528 -140.69057378931029 0 0 0 0 246.13279300815339 151.34517268220225 0 151.34517268220225 -37.740372120177199 0 0 0 0 156.72026863073188 211.62903772434584 0 211.62903772434584 13.204342960845679 0 0 0 0 328.31068196564593 324.45464953107876 0 324.45464953107876 38.190804915280751 0 0 0 0 80.650093459385971 290.91876035573659 0 290.91876035573659 192.10701101469385 0 0 0 0 175.14451725077743 249.32254767993618 0 249.32254767993618 88.354683694284176 0 0 0 0 255.67121506178955 184.2052386644682 0 184.2052386644682 136.28060807169823 0 0 0 0 894.27839964943632 103.82574226925863 0 103.82574226925863 -198.9370535353155 0 0 0 0 190.14868876605306 799.89304200693005 0 799.89304200693005 622.67701253303676 0 0 0 0 722.41582032790939 270.1674787267084 0 270.1674787267084 -187.2789714596147 0 0 0 0 618.67037546512802 597.58118837459551 0 597.58118837459551 55.758469934058667 0 0 0 0 169.34044920258202 393.38698459864099 0 393.38698459864099 52.793593028865871 0 0 0 0 324.13428765670687 264.53467597487179 0 264.53467597487179 -27.300996191792365 0 0 0 0 -731.83912071172745 606.21071112296158 0 606.21071112296158 -50.635900626541115 0 0 0 0 89.979688333276499 205.07286146838123 0 205.07286146838123 -196.61143796001852 0 0 0 0 453.95146645056775 764.0350107015397 0 764.0350107015397 147.95699238358065 0 0 0 0 1517.9097808295992 870.55173080631357 0 870.55173080631357 -148.5036276340179 0 0 0 0 -2.6475507999042023 3.9281603589396212 0 3.9281603589396212 -1.7796246543545635 0 0 0 0 -1514.1377946677076 -103.72727760117596 0 -103.72727760117596 140.09475939004915 0 0 0 0 -544.30428481092531 -4.0023933321936056 0 -4.0023933321936056 -55.46250462716489 0 0 0 0 32.163892157383088 284.94089399545192 0 284.94089399545192 -196.54612801965413 0 0 0 0 -521.02293213609403 409.46330345706224 0 409.46330345706224 37.564011598173238 0 0 0 0 16.117388049446163 212.62929270162931 0 212.62929270162931 24.85677223629682 0 0 0 0 185.92282930521469 375.7445527509808 0 375.7445527509808 -77.076945604552748 0 0 0 0 471.05676999609022 -86.765315830118197 0 -86.765315830118197 19.215383763542491 0 0 0 0 331.60774092381325 396.13743435553624 0 396.13743435553624 36.555772869447537 0 0 0 0 416.27858393434144 317.50254156495794 0 317.50254156495794 -101.65209691144264 0 0 0 0 256.15180322749075 -28.204857216573146 0 -28.204857216573146 261.99056944334006 0 0 0 0 583.6702761646884 -82.982325894405221 0 -82.982325894405221 -31.692107179886079 0 0 0 0 533.97953498276911 88.616392932432063 0 88.616392932432063 -78.913407767984609 0 0 0 0 106.50908149738424 198.36493268891601 0 198.36493268891601 72.983237010364888 0 0 0 0 258.14246442184231 162.70415574872459 0 162.70415574872459 178.38058265269683 0 0 0 0 378.49673400330357 156.63835053099319 0 156.63835053099319 159.55660751176765 0 0 0 0 303.56065727589885 44.114071326126577 0 44.114071326126577 84.316198025037011 0 0 0 0 79.602492411548155 -79.598085724159318 0 -79.598085724159318 149.63942251511617 0 0 0 0 9.9123965594917536 -40.218701192374283 0 -40.218701192374283 100.56038093270763 0 0 0 0 -243.52424868545495 62.495910462093889 0 62.495910462093889 91.728776446481788 0 0 0 0 -149.84450202248991 -50.013655694536283 0 -50.013655694536283 126.10334234566108 0 0 0 0 -28.769655907773995 101.09197679514182 0 101.09197679514182 10.260687308324123 0 0 0 0 -204.37550225150335 -39.88886326449574 0 -39.88886326449574 -94.07828271391918 0 0 0 0 -331.0994277378195 147.61512869211583 0 147.61512869211583 -31.088616107860616 0 0 0 0 -277.58600372471847 208.13461061917769 0 208.13461061917769 -136.01279395201163 0 0 0 0 -247.36039596528281 201.49378688762954 0 201.49378688762954 -452.96401804374182 0 0 0 0 -52.804992364763166 -20.249119679509022 0 -20.249119679509022 -184.94702991455415 0 0 0 0 237.43728504485171 135.89257102833335 0 135.89257102833335 -142.79442890487553 0 0 0 0 242.31438368136878 185.97812593894378 0 185.97812593894378 -158.82229676799034 0 0 0 0 183.12012724678061 346.2375606242249 0 346.2375606242249 -435.8393243264145 0 0 0 0 -152.19215043194708 296.64935250503186 0 296.64935250503186 -373.16956906361156 0 0 0 0 -151.98740032767819 350.92578363532812 0 350.92578363532812 -974.55745144901448 0 0 0 0 -31.734297030241578 639.99097452014394 0 639.99097452014394 -1438.1882927618717 0 0 0 0 185.48889744401095 634.54438965206646 0 634.54438965206646 -843.10381702141603 0 0 0 0 189.58536108830231 559.84395119906276 0 559.84395119906276 -60.356468310434138 0 0 0 0 91.547700892799185 373.30433170131437 0 373.30433170131437 88.052070097633987 0 0 0 0 329.28869889838097 343.17343702819926 0 343.17343702819926 49.785317199624842 0 0 0 0 142.7814341514075 208.86604260262098 0 208.86604260262098 104.40829546130755 0 0 0 0 184.24622552569417 348.63273639864383 0 348.63273639864383 21.398681955673965 0 0 0 0 141.67033352481886 194.94739934302791 0 194.94739934302791 88.075052033762489 0 0 0 0 321.94833509653108 442.46431031749671 0 442.46431031749671 -391.74538089461566 0 0 0 0 530.95222187651234 157.97289178629944 0 157.97289178629944 -162.11897391965613 0 0 0 0 -954.39341198248439 1598.8577390929586 0 1598.8577390929586 -999.49877171251137 0 0 0 0 -738.7398569687648 824.15929194611908 0 824.15929194611908 -995.74225999159898 0 0 0 0 0.45537604557466693 1267.1271097019753 0 1267.1271097019753 -908.42809273207968 0 0 0 0 -827.75561330653727 1040.7414807104306 0 1040.7414807104306 89.769462240237772 0 0 0 0 -583.44684568543744 1195.1688513385125 0 1195.1688513385125 147.88267726631057 0 0 0 0 -1271.3570794003317 1820.9286234444648 0 1820.9286234444648 -314.34440754221214 0 0 0 0 -1537.0461607781763 1254.7857625426295 0 1254.7857625426295 581.61417696399917 0 0 0 0 -771.50570182449883 1409.9107972020538 0 1409.9107972020538 586.13784332240971 0 0 0 0 3.5981961063018844 5.7908346590837425 0 5.7908346590837425 1.7656472642373302 0 0 0 0 -697.19397905760707 932.83625083418156 0 932.83625083418156 -1050.007851984863 0 0 0 0 -937.63975424608361 1022.8358075176266 0 1022.8358075176266 -1077.8208958315936 0 0 0 0 1.636896241443992 5.4532158968015096 0 5.4532158968015096 4.5724352668600829 0 0 0 0 -760.87456653549452 371.37265993240089 0 371.37265993240089 81.38751037545353 0 0 0 0 -911.25419127415807 1274.4850047736345 0 1274.4850047736345 -974.98959681154338 0 0 0 0 -1060.8710017699632 1242.5783068267961 0 1242.5783068267961 10.888964216661407 0 0 0 0 -962.69167851704697 979.16842032565637 0 979.16842032565637 -965.84437781629094 0 0 0 0 8.0723144332728225 10.742229120343325 0 10.742229120343325 3.7257306941664652 0 0 0 0 -985.58680014924357 1269.0880407187017 0 1269.0880407187017 -974.18876533945513 0 0 0 0 -778.39596301615893 836.68659163816005 0 836.68659163816005 -1078.6486466501374 0 0 0 0 -1326.1114162796366 988.92683106747927 0 988.92683106747927 82.268961557243529 0 0 0 0 -1.6595564136950998 790.9937361311695 0 790.9937361311695 -1153.8514580726769 0 0 0 0 5.0306015126666921 5.9036907977065027 0 5.9036907977065027 -0.18072309122263164 0 0 0 0 -2.8696249658387387 1614.846740097094 0 1614.846740097094 -596.30816483605849 0 0 0 0 -972.07673617295222 1292.9401201346291 0 1292.9401201346291 165.85698405344692 0 0 0 0 -1209.9701196362439 880.44665803793032 0 880.44665803793032 100.1182396629506 0 0 0 0 -615.09688379004365 1190.1465521135583 0 1190.1465521135583 -905.55284541669971 0 0 0 0 -560.49566763098119 943.29511192825885 0 943.29511192825885 -1211.2802408551524 0 0 0 0 -553.86086598904512 1180.132608347119 0 1180.132608347119 -1384.3778664554357 0 0 0 0 0.22163212644227315 1045.3831029983069 0 1045.3831029983069 -2145.4145358064466 0 0 0 0 -626.15850327445514 1097.7795089601991 0 1097.7795089601991 -1670.3429557834024 0 0 0 0 -460.60798400286876 861.48028869466407 0 861.48028869466407 -2145.1382664121084 0 0 0 0 3.0376182264480462 4.2782987781127204 0 4.2782987781127204 -2.3922172997089945 0 0 0 0 -234.18764419651416 1259.5987671974667 0 1259.5987671974667 -3201.481239094584 0 0 0 0 -1261.5005007359432 249.05512975774354 0 249.05512975774354 -1112.6313489899405 0 0 0 0 -877.46480694646016 1260.1063097542299 0 1260.1063097542299 -2347.2960663865974 0 0 0 0 -721.45302097648528 565.64625590915591 0 565.64625590915591 -2450.6453151930373 0 0 0 0 0.097097397985635325 587.06560604809204 0 587.06560604809204 -2881.979079949258 0 0 0 0 14.877257554074333 12.318675493710543 0 12.318675493710543 0.0058154669666734549 0 0 0 0 292.47213877167815 517.13278965397467 0 517.13278965397467 -1789.4071964904974 0 0 0 0 681.64503009122564 634.90941548574801 0 634.90941548574801 -2665.765198842043 0 0 0 0 -1357.2529409333947 -722.98647162056341 0 -722.98647162056341 -2315.3095159008435 0 0 0 0 -273.51614813043852 645.40619977624738 0 645.40619977624738 -2617.8873056185275 0 0 0 0 -356.69991051593752 730.34352766572806 0 730.34352766572806 -1663.8174578171747 0 0 0 0 -288.03318936008145 776.07257415977529 0 776.07257415977529 -1671.3021078583599 0 0 0 0 -113.60620695605758 732.6585375796476 0 732.6585375796476 -2009.400182278976 0 0 0 0 -336.99796702212552 831.63745042291339 0 831.63745042291339 -1065.5813238758747 0 0 0 0 -566.91667891963152 1009.3071049839809 0 1009.3071049839809 -907.8429186325593 0 0 0 0 -467.85178144060774 883.16845150459903 0 883.16845150459903 -1571.58771536109 0 0 0 0 -614.3972290148813 738.93904002848922 0 738.93904002848922 -343.99879397368841 0 0 0 0 -459.78458520817367 927.97252905608366 0 927.97252905608366 -898.63347533154774 0 0 0 0 -616.6669276417233 930.53439557882893 0 930.53439557882893 -159.58886160051043 0 0 0 0 -300.73244756140048 348.40870635801093 0 348.40870635801093 -496.49713651056027 0 0 0 0 -106.62418452692509 242.44820882711429 0 242.44820882711429 -1068.9275755328645 0 0 0 0 -402.32271103020867 592.24671523911547 0 592.24671523911547 -727.53975152060775 0 0 0 0 -403.13569050574733 612.42415713862647 0 612.42415713862647 -946.71308039169344 0 0 0 0 -153.62920209573349 413.55001857023399 0 413.55001857023399 -1521.3638932803551 0 0 0 0 -136.6983528277633 468.55781483526471 0 468.55781483526471 -1347.5287505234573 0 0 0 0 30.76434523495692 15.032470520796039 0 15.032470520796039 1.2880633423792069 0 0 0 0 -47.604045232452336 449.94679071853079 0 449.94679071853079 -1235.0320750449366 0 0 0 0 92.617678583374072 260.01772522212741 0 260.01772522212741 -1860.5558881247316 0 0 0 0 -153.14854062300583 372.14094845850923 0 372.14094845850923 -1271.455232136115 0 0 0 0 -111.58951961022103 356.84076397254466 0 356.84076397254466 -1369.5423138959995 0 0 0 0 25.204334963302244 310.5637369750948 0 310.5637369750948 -1379.1794235591697 0 0 0 0 -89.321341196351568 113.20554738454121 0 113.20554738454121 -1333.8296719368172 0 0 0 0 485.87835824945068 493.78424452804666 0 493.78424452804666 -1403.0882831170129 0 0 0 0 141.15443341030914 392.91632319282689 0 392.91632319282689 -1856.3494172401261 0 0 0 0 36.153055187111534 15.18813426634236 0 15.18813426634236 1.2337643222634469 0 0 0 0 124.29572367655055 -382.69330460742276 0 -382.69330460742276 -418.04468984096457 0 0 0 0 1.9701257631841145 4.9099218064494643 0 4.9099218064494643 -1.5341118942669123 0 0 0 0 -412.69981780720991 239.01437498903852 0 239.01437498903852 1037.5454717636949 0 0 0 0 -80.235525967087597 815.55094838728201 0 815.55094838728201 -205.62561832485699 0 0 0 0 -363.70786996385141 525.34846943017419 0 525.34846943017419 -821.87903414125685 0 0 0 0 158.0679364339303 39.044251463072214 0 39.044251463072214 -2250.4922279079537 0 0 0 0 -193.51201239199872 395.91999680400704 0 395.91999680400704 -1074.6611291385307 0 0 0 0 -137.25478643636598 26.970441008953458 0 26.970441008953458 45.400230310315237 0 0 0 0 228.20856607397218 739.46176103972221 0 739.46176103972221 333.4354323711068 0 0 0 0 -161.29594228659698 54.911608518706089 0 54.911608518706089 155.74294789505439 0 0 0 0 1.9080266426462913 224.98902890352656 0 224.98902890352656 -741.82044388190661 0 0 0 0 -367.21712714593014 61.10174112243476 0 61.10174112243476 -161.98907704763587 0 0 0 0 -664.3943376148236 360.20762670834938 0 360.20762670834938 -460.85331382173899 0 0 0 0 -710.87369030839182 371.30282806408286 0 371.30282806408286 -134.2691735155895 0 0 0 0 -1204.8548338945693 655.92380187497201 0 655.92380187497201 -257.84111558622772 0 0 0 0 -429.4558224286593 354.91576143202656 0 354.91576143202656 -146.67244260908694 0 0 0 0 -242.87910684330564 319.65859301024466 0 319.65859301024466 -632.26676469833365 0 0 0 0 -1007.1372595340363 80.044674700270662 0 80.044674700270662 85.221580509782143 0 0 0 0 1.7664483503685915 11.277886999565169 0 11.277886999565169 15.197906466524088 0 0 0 0 -1883.6677817660384 853.11416517987345 0 853.11416517987345 576.64094340695192 0 0 0 0 -1585.6379904093774 -154.40571474888748 0 -154.40571474888748 2331.3680520343332 0 0 0 0 -923.38330552357365 1971.7018005839218 0 1971.7018005839218 -6.4280457652594123 0 0 0 0 1.5953759436675909 6.5718746504067269 0 6.5718746504067269 8.4873690185959703 0 0 0 0 -220.15011682427576 298.91844387599849 0 298.91844387599849 2074.3326663952175 0 0 0 0 357.57354477365152 2163.8261803516252 0 2163.8261803516252 1742.2863822609711 0 0 0 0 -0.31908719108923833 978.79975227111913 0 978.79975227111913 1723.9322471213418 0 0 0 0 -58.6745203511922 43.44283548448098 0 43.44283548448098 -24.521661126958691 0 0 0 0 847.62026263622101 507.08832639425964 0 507.08832639425964 354.65135821374861 0 0 0 0 67.19669274170883 450.31731882994427 0 450.31731882994427 1396.6445821885154 0 0 0 0 -13.054206452783546 900.83782617598035 0 900.83782617598035 399.22653321921098 0 0 0 0 655.98100775142666 704.65260117687649 0 704.65260117687649 724.71794729635803 0 0 0 0 -62.221540141972355 49.389163714172028 0 49.389163714172028 -32.469218062981071 0 0 0 0 578.66889446640562 1310.1083317062412 0 1310.1083317062412 1628.3145269178904 0 0 0 0 176.1640499021596 377.27888774213898 0 377.27888774213898 812.75584941239504 0 0 0 0 161.27015725543606 59.46512044121846 0 59.46512044121846 449.86196562680198 0 0 0 0 188.47233066949411 264.92416169548596 0 264.92416169548596 443.57447887894341 0 0 0 0 0.78009393779446867 2.8723725190038465 0 2.8723725190038465 -5.9446342898051796 0 0 0 0 693.44984520081925 113.24309649257339 0 113.24309649257339 93.565609051907813 0 0 0 0 -90.008495067246258 275.15845020987399 0 275.15845020987399 -189.93993004618096 0 0 0 0 -371.04279487705935 368.17170864162654 0 368.17170864162654 46.630405408868683 0 0 0 0 -163.79902075674909 586.5123660425852 0 586.5123660425852 274.70975591210663 0 0 0 0 965.25441670318833 355.82428835467363 0 355.82428835467363 254.15554294384856 0 0 0 0 717.04058902672841 783.57552909095102 0 783.57552909095102 -335.19048080753419 0 0 0 0 440.2689473569335 679.81715081030598 0 679.81715081030598 1316.1798608781173 0 0 0 0 -39.10551614749545 38.261692247642763 0 38.261692247642763 -29.102086431496218 0 0 0 0 660.18176209158264 854.03557792010906 0 854.03557792010906 193.81919636336534 0 0 0 0 14.453842369977792 767.73609055810539 0 767.73609055810539 1665.4363684718992 0 0 0 0 596.21018318773713 891.45736773804674 0 891.45736773804674 223.49654265919889 0 0 0 0 593.61616881401278 671.65106689943241 0 671.65106689943241 110.16290797785314 0 0 0 0 711.63353749310772 666.82995170084087 0 666.82995170084087 251.77218929315859 0 0 0 0 580.47406325448537 902.06662202590633 0 902.06662202590633 19.14167340187123 0 0 0 0 652.44279347238989 582.83532343891511 0 582.83532343891511 -198.8170617646465 0 0 0 0 202.88784962103819 341.76898296724721 0 341.76898296724721 -332.01584808267626 0 0 0 0 543.87560722315538 669.40053227283533 0 669.40053227283533 -259.29946108099102 0 0 0 0 371.14860600841348 805.34809035781836 0 805.34809035781836 303.48413994748262 0 0 0 0 411.71972376140184 1328.4107653001047 0 1328.4107653001047 1455.083591378112 0 0 0 0 648.81347460096003 1267.9410183094442 0 1267.9410183094442 1093.3973115859153 0 0 0 0 -54.05680449094092 48.316563695538392 0 48.316563695538392 -34.598309786962851 0 0 0 0 637.27019354868389 763.69118371941931 0 763.69118371941931 298.26353356481195 0 0 0 0 816.24399392483792 654.39955902614349 0 654.39955902614349 371.61313131937095 0 0 0 0 90.067957016901346 567.59029025444215 0 567.59029025444215 501.84491955860722 0 0 0 0 376.04489724546147 629.46220609121519 0 629.46220609121519 -482.34280452455459 0 0 0 0 54.565211430395721 -3.9888085780894471 0 -3.9888085780894471 -725.66022951514788 0 0 0 0 274.10792620103166 551.86545066029066 0 551.86545066029066 -802.66894483043507 0 0 0 0 368.48517895268742 780.4637813347781 0 780.4637813347781 -326.8715960334539 0 0 0 0 470.02819003979675 465.76351407438779 0 465.76351407438779 -677.89677687259427 0 0 0 0 -103.25727593561169 -156.33471321495927 0 -156.33471321495927 -1144.2762669397425 0 0 0 0 -21.419648425897321 544.38157767156679 0 544.38157767156679 -612.3174621783437 0 0 0 0 85.259611438516004 252.36049991776736 0 252.36049991776736 -627.26913437218718 0 0 0 0 -253.05466817709384 538.81629311129291 0 538.81629311129291 10.325531884027669 0 0 0 0 7.8601552217353401 12.860080837693467 0 12.860080837693467 -3.2241999361746583 0 0 0 0 390.73099055857165 82.724433741301254 0 82.724433741301254 -1945.628786934285 0 0 0 0 -2.1309660332335625 190.52444737427777 0 190.52444737427777 -1615.7625672529539 0 0 0 0 25.671869018764824 11.697064494623746 0 11.697064494623746 0.86858910009551948 0 0 0 0 -72.944659831089666 330.6282192611252 0 330.6282192611252 -1740.0345060886402 0 0 0 0 -233.13226428178314 275.06409219359739 0 275.06409219359739 -1504.9033770454225 0 0 0 0 -325.60538560463465 230.04626712917525 0 230.04626712917525 -1524.0452406228451 0 0 0 0 -325.71335066879692 707.53793822688567 0 707.53793822688567 -1043.1312082849527 0 0 0 0 -86.185560441419511 225.08265722236729 0 225.08265722236729 -1590.19331976799 0 0 0 0 -91.460025148378918 220.19583458751367 0 220.19583458751367 -941.10925929632685 0 0 0 0 0.41027199307427509 440.35897874167063 0 440.35897874167063 -1378.0050863615979 0 0 0 0 -207.14732007164275 352.78625499280679 0 352.78625499280679 -606.34155070496399 0 0 0 0 -13.282973320194287 448.69694864489156 0 448.69694864489156 -559.53164401412141 0 0 0 0 -326.2320686414314 -19.899229591315816 0 -19.899229591315816 -443.58548969378535 0 0 0 0 280.41516523891187 -246.49777491203167 0 -246.49777491203167 -1141.494582134379 0 0 0 0 -23.232383020804264 499.22720365355053 0 499.22720365355053 -1393.796497944089 0 0 0 0 -290.77245338578359 329.33189534788471 0 329.33189534788471 -1460.5803651893402 0 0 0 0 216.38345325247792 540.76035815228443 0 540.76035815228443 -1831.93202687145 0 0 0 0 -311.88915879299748 309.5460494346662 0 309.5460494346662 -1466.6336578427035 0 0 0 0 478.72282977824216 843.40397669888625 0 843.40397669888625 -1485.1231486663146 0 0 0 0 57.152687091642292 393.36568193180483 0 393.36568193180483 -1399.0197763122305 0 0 0 0 459.31235959756305 1131.9790759126204 0 1131.9790759126204 -1368.7075434597791 0 0 0 0 4.8023996958916655 8.7377091088454755 0 8.7377091088454755 -1.3189121387078546 0 0 0 0 -220.78960881216335 2023.2491328271153 0 2023.2491328271153 2237.1993153160511 0 0 0 0 2599.1202791784308 1451.6374138089268 0 1451.6374138089268 -2850.0020126001855 0 0 0 0 -1132.722656146856 -578.20042977343837 0 -578.20042977343837 -1444.5442739837581 0 0 0 0 10.604947559251229 15.870206541159233 0 15.870206541159233 -3.3076490877639197 0 0 0 0 459.42897491794429 541.51895201488514 0 541.51895201488514 -826.48322335263674 0 0 0 0 7.9376057424785245 4.689478920787721 0 4.689478920787721 -1.0191314826251308 0 0 0 0 268.47169567615492 246.43031253119625 0 246.43031253119625 -964.64182032309327 0 0 0 0 560.3059997803939 458.82582601913782 0 458.82582601913782 -759.03974259104143 0 0 0 0 555.28942500037374 639.61369249195195 0 639.61369249195195 -268.75739133948809 0 0 0 0 622.28431173850549 806.51630135872801 0 806.51630135872801 -298.43892685127867 0 0 0 0 516.9987317517116 723.14956626779986 0 723.14956626779986 -396.07016713263874 0 0 0 0 467.69001848186599 774.25506625670459 0 774.25506625670459 784.93917295884785 0 0 0 0 312.07496541598812 113.37902194641174 0 113.37902194641174 -993.26184818378169 0 0 0 0 494.72940508417378 538.03256078644699 0 538.03256078644699 -351.2244382160934 0 0 0 0 920.98287269237335 1538.3349732824754 0 1538.3349732824754 -860.54293506281829 0 0 0 0 -30.136256073019467 2123.8001053157386 0 2123.8001053157386 -2738.3361329462496 0 0 0 0 290.81677224636951 883.8040509645416 0 883.8040509645416 -1101.0733241358321 0 0 0 0 -2802.5504493810777 1029.8856576616604 0 1029.8856576616604 -2673.6904686845628 0 0 0 0 -873.95862124337873 -100.21159130841261 0 -100.21159130841261 594.86556687726261 0 0 0 0 -4.701341002136644 -1.2681130956906408 0 -1.2681130956906408 -0.92692961288586861 0 0 0 0 -226.99608690748573 1234.5902679103274 0 1234.5902679103274 -2880.110607058903 0 0 0 0 -2695.1753933974542 2019.3926758722228 0 2019.3926758722228 -1060.7987539625028 0 0 0 0 -2213.8717591998138 734.24423088373624 0 734.24423088373624 433.77342944312477 0 0 0 0 -1695.8108327941736 2321.7265473521747 0 2321.7265473521747 -1019.8070496079308 0 0 0 0 -368.72245612143888 512.91078019432098 0 512.91078019432098 170.29325748802694 0 0 0 0 -822.92750230865204 786.2350404470817 0 786.2350404470817 29.418047243596448 0 0 0 0 726.3638851234864 2601.1716255605716 0 2601.1716255605716 -555.88039479172494 0 0 0 0 -545.56545548124996 1193.3385091399359 0 1193.3385091399359 -34.862227462384908 0 0 0 0 -644.2075059855415 1584.11356008246 0 1584.11356008246 -615.35419221789562 0 0 0 0 -521.95654762355844 1290.3032585814981 0 1290.3032585814981 13.936258872812687 0 0 0 0 -53.18785501178354 1994.356786534252 0 1994.356786534252 -2646.2500055114269 0 0 0 0 -288.36228956717241 824.57807319710446 0 824.57807319710446 -62.828744981241471 0 0 0 0 -199.50757101605996 702.99628681925242 0 702.99628681925242 -577.39697840823078 0 0 0 0 -278.49417285161326 987.0949883236317 0 987.0949883236317 -1167.1977053738974 0 0 0 0 259.21970632270677 633.37439979819464 0 633.37439979819464 -308.43798454586795 0 0 0 0 185.24925235020055 676.82278616683016 0 676.82278616683016 635.15820064115724 0 0 0 0 -212.78984666767064 388.70026056249844 0 388.70026056249844 -143.17762385304104 0 0 0 0 -25.100475149149133 266.82513750201861 0 266.82513750201861 -161.53760987608621 0 0 0 0 -356.81909731164342 -168.51294397600032 0 -168.51294397600032 636.15521704862158 0 0 0 0 -351.55631709817681 -87.877539833193623 0 -87.877539833193623 727.41984025601857 0 0 0 0 -382.01131241949042 -120.42100426611887 0 -120.42100426611887 721.39586165711808 0 0 0 0 -324.43698305654107 -128.32239780867712 0 -128.32239780867712 676.26571527588112 0 0 0 0 3.5077269914290525 4.4816953008471785 0 4.4816953008471785 19.491689394144124 0 0 0 0 1232.4726813587768 134.20184901685479 0 134.20184901685479 -142.90761004906744 0 0 0 0 0.90832932812918443 146.34157206352006 0 146.34157206352006 102.14500559026055 0 0 0 0 318.62269699131866 98.270905214781124 0 98.270905214781124 -46.287228966761177 0 0 0 0 2.031592507189913 29.418270582762233 0 29.418270582762233 45.737927221150542 0 0 0 0 -180.89641407325689 154.91997421638644 0 154.91997421638644 4.4707764169615984 0 0 0 0 172.94106678073877 291.18794743513718 0 291.18794743513718 -65.13614709806825 0 0 0 0 -432.2573567381387 119.01473308607956 0 119.01473308607956 35.744829341456352 0 0 0 0 160.35047275425495 217.13913450939913 0 217.13913450939913 182.31770229682297 0 0 0 0 177.97170157529763 155.43413859860811 0 155.43413859860811 -24.476823756142039 0 0 0 0 -400.99594195547979 510.47283875916764 0 510.47283875916764 -525.32868267051799 0 0 0 0 -7.1242302807823421 15.124902083565111 0 15.124902083565111 2.6330516882807879 0 0 0 0 24.476342062525219 43.977398326994177 0 43.977398326994177 -42.50439541554077 0 0 0 0 -358.21180445112259 478.04611160470631 0 478.04611160470631 -543.98480751682655 0 0 0 0 -860.20023489263258 621.82537806699293 0 621.82537806699293 -274.78358922852931 0 0 0 0 -917.25638823976624 843.84490687167636 0 843.84490687167636 -292.95248099188393 0 0 0 0 -737.91085968397965 941.48747740049293 0 941.48747740049293 -245.677396310115 0 0 0 0 -898.95824060380983 1337.6952010054247 0 1337.6952010054247 -901.02503605086167 0 0 0 0 -65.547143182891887 630.51958521878805 0 630.51958521878805 -1027.3196988315685 0 0 0 0 -1154.5704339174263 1202.2011996187694 0 1202.2011996187694 275.6061310549303 0 0 0 0 -1357.6230622019066 1958.4633663699187 0 1958.4633663699187 -890.29257951769614 0 0 0 0 -1222.5907023571781 1108.2872985173926 0 1108.2872985173926 1429.2049302071828 0 0 0 0 -15.581143621674926 14.368073383818981 0 14.368073383818981 -11.840116192216563 0 0 0 0 583.16625300947635 -7.1056986109942954 0 -7.1056986109942954 -3040.1538301460751 0 0 0 0 295.26002966287342 -38.877747308978542 0 -38.877747308978542 428.62522648603408 0 0 0 0 -538.24086701766646 371.39291723753013 0 371.39291723753013 325.2172444723692 0 0 0 0 -873.95169662911212 620.46211701730135 0 620.46211701730135 225.9295181509799 0 0 0 0 -563.7267280726428 617.44005312244326 0 617.44005312244326 -223.61116262627183 0 0 0 0 -526.77519018927705 344.66486347395585 0 344.66486347395585 -33.145706608105684 0 0 0 0 134.97754997979791 331.89887104433092 0 331.89887104433092 -171.62077435634637 0 0 0 0 -178.57769023577566 272.51808369993159 0 272.51808369993159 -135.59136884913823 0 0 0 0 -300.61063818368712 439.05565385688351 0 439.05565385688351 -339.42810232631746 0 0 0 0 -618.00150970742106 613.68997627133103 0 613.68997627133103 -559.87073346495163 0 0 0 0 -796.63000356973498 519.84184604152324 0 519.84184604152324 -351.27614108181297 0 0 0 0 -805.1626952773222 587.04106564129506 0 587.04106564129506 -877.30920971476007 0 0 0 0 -1309.3512681100401 607.89264243212892 0 607.89264243212892 -374.69725516163089 0 0 0 0 -998.19135339584318 677.84283159922416 0 677.84283159922416 -460.57796575237626 0 0 0 0 -1004.835323897787 673.62793376702257 0 673.62793376702257 -125.24074549083161 0 0 0 0 -9.4436252215877943 6.3452286147116297 0 6.3452286147116297 -0.19060406155762166 0 0 0 0 -133.55592537006305 -110.65705728752255 0 -110.65705728752255 -489.85538687840562 0 0 0 0 -375.53536566521507 537.97295197385756 0 537.97295197385756 -778.61692492684233 0 0 0 0 -40.14446106516391 43.038812840727033 0 43.038812840727033 -49.625780384390993 0 0 0 0 -982.39127046878912 493.54214309080794 0 493.54214309080794 -649.76517139079806 0 0 0 0 -208.49636558200291 370.61960339071811 0 370.61960339071811 -915.97473995519977 0 0 0 0 -216.08988653923734 150.95852844594629 0 150.95852844594629 -300.6166642513017 0 0 0 0 -72.43114507154678 190.75387950978984 0 190.75387950978984 -461.3940052943708 0 0 0 0 -119.51722109303228 135.21583608769288 0 135.21583608769288 -128.69859549632019 0 0 0 0 71.189814101511729 6.5492960125884565 0 6.5492960125884565 -262.19200940757582 0 0 0 0 -127.78515425564547 28.104308110017882 0 28.104308110017882 -28.213539849504741 0 0 0 0 -240.30519922386156 -81.933839449156949 0 -81.933839449156949 -18.588495335305197 0 0 0 0 -117.0796489912027 -16.884394387565408 0 -16.884394387565408 -458.01607224768668 0 0 0 0 -199.88731301459484 -70.342281866942358 0 -70.342281866942358 26.043724895022024 0 0 0 0 -184.22363186317671 -35.247622924166535 0 -35.247622924166535 1.3579514007869875 0 0 0 0 -44.324903468106641 -43.661427102928428 0 -43.661427102928428 -102.25617183911527 0 0 0 0 -273.4878682714625 -230.84236604321268 0 -230.84236604321268 -80.014637831376604 0 0 0 0 -7.8033353091368554 3.2961855831457854 0 3.2961855831457854 -0.32380064320446422 0 0 0 0 -35.480764617004979 -114.83460107096249 0 -114.83460107096249 98.429348483470676 0 0 0 0 -39.618510336644249 17.783408648923796 0 17.783408648923796 -18.491043258247373 0 0 0 0 -13.789380328398408 25.535121298250687 0 25.535121298250687 -56.224763032845601 0 0 0 0 122.90362291506244 63.069312924562837 0 63.069312924562837 -141.7489947238937 0 0 0 0 52.807173665627488 -32.209595788848674 0 -32.209595788848674 -91.993277423986001 0 0 0 0 -32.240328259664238 -55.312258756392112 0 -55.312258756392112 -53.152958193270024 0 0 0 0 -6.8743795501881095 5.8432971506131608 0 5.8432971506131608 -11.627511681851502 0 0 0 0 30.912712140154326 -50.612771133142815 0 -50.612771133142815 -249.75342929434919 0 0 0 0 -518.05878408059652 203.71148725224703 0 203.71148725224703 -34.257105254589987 0 0 0 0 -182.02912104602729 -81.581107911551953 0 -81.581107911551953 -78.578078131467919 0 0 0 0 -51.221713343271404 -20.078166164250433 0 -20.078166164250433 -74.348963020071096 0 0 0 0 -78.389614802232245 74.189785177171871 0 74.189785177171871 127.69787175523618 0 0 0 0 -80.01347155541589 -69.490498551231212 0 -69.490498551231212 -24.943719286180567 0 0 0 0 -39.737767967977561 -16.056548113614554 0 -16.056548113614554 16.840006400940183 0 0 0 0 -3.9601989425378576 18.272280081277017 0 18.272280081277017 -52.5775669266215 0 0 0 0 12.065310980149661 -24.056004448804742 0 -24.056004448804742 -50.491272006438521 0 0 0 0 -39.820678157906514 -12.929524274302821 0 -12.929524274302821 -40.502565428309026 0 0 0 0 -52.502053870058887 39.183233399593242 0 39.183233399593242 -31.09266965184402 0 0 0 0 -42.392488867742941 24.24467894238478 0 24.24467894238478 -15.448011489104829 0 0 0 0 -45.407111839769641 22.611436652041448 0 22.611436652041448 -7.3543363959765884 0 0 0 0 -40.178889687784249 20.42348482561647 0 20.42348482561647 -31.560127919205115 0 0 0 0 -40.351711612660438 10.403600699446542 0 10.403600699446542 -6.9198305115860421 0 0 0 0 -41.019812074722722 10.745721673207299 0 10.745721673207299 -6.0465672840000479 0 0 0 0 174.57343143362959 130.75606454519948 0 130.75606454519948 -69.458545456422144 0 0 0 0 143.05679132891237 9.9863269063498592 0 9.9863269063498592 -167.84071223766659 0 0 0 0 -5.4092944331641775 -74.801738603287959 0 -74.801738603287959 -117.36192919927998 0 0 0 0 -45.740778653751477 35.969611547625391 0 35.969611547625391 73.208473586077162 0 0 0 0 -11.00015956061543 37.146071025548736 0 37.146071025548736 -23.038193569249415 0 0 0 0 3.8723178809304954 68.632310883593163 0 68.632310883593163 -5.7295344391022809 0 0 0 0 0.57672761182766408 75.779652459343197 0 75.779652459343197 -18.344078574045852 0 0 0 0 35.732992357559851 68.531859809554589 0 68.531859809554589 -47.493428559042513 0 0 0 0 78.801523183879908 22.982209110457916 0 22.982209110457916 -21.327410971476638 0 0 0 0 -24.169381981366314 127.68098827089125 0 127.68098827089125 34.357214906834997 0 0 0 0 53.038452225664514 177.30124372006321 0 177.30124372006321 34.470641077539767 0 0 0 0 -11.274350755251362 102.50385850384555 0 102.50385850384555 -38.782007154950406 0 0 0 0 -29.658851259395306 119.39232586256185 0 119.39232586256185 27.171094332152279 0 0 0 0 -10.44785966409836 110.88326932649943 0 110.88326932649943 -7.9129098435805645 0 0 0 0 39.116062379413052 81.890876982419286 0 81.890876982419286 -24.20799565204652 0 0 0 0 38.70169721354614 135.20332031339058 0 135.20332031339058 3.6966928565234412 0 0 0 0 10.160923713068769 101.32545269179354 0 101.32545269179354 -24.776910559332464 0 0 0 0 7.0053946101797919 82.200547645956249 0 82.200547645956249 -11.998434072651435 0 0 0 0 -15.776668590813642 142.01797781577625 0 142.01797781577625 -54.988577714102576 0 0 0 0 115.1690672863042 149.29704846011009 0 149.29704846011009 -149.77892651531147 0 0 0 0 17.133387564657028 54.29654053793783 0 54.29654053793783 18.235562068390095 0 0 0 0 -25.08270101970993 104.17434511057218 0 104.17434511057218 -16.758832239807816 0 0 0 0 -10.067343059003178 95.236354728513106 0 95.236354728513106 -12.957933977886569 0 0 0 0 -12.648238059646246 116.90192952117286 0 116.90192952117286 -29.237066547735594 0 0 0 0 -26.104597989527974 117.7363271418144 0 117.7363271418144 -20.382961720053572 0 0 0 0 -13.388040146790445 129.52749622239207 0 129.52749622239207 -40.826250336656813 0 0 0 0 -18.128645177261205 108.20928478967107 0 108.20928478967107 -14.961081251618452 0 0 0 0 -44.77583739743568 125.77941637160257 0 125.77941637160257 -25.560798613179941 0 0 0 0 -6.4187160221190425 125.60896223572854 0 125.60896223572854 -61.459383757362957 0 0 0 0 -15.167637202190235 126.57624564979051 0 126.57624564979051 -28.281638449749153 0 0 0 0 191.35082244791556 5.3769990656146547 0 5.3769990656146547 -190.69263777090237 0 0 0 0 213.95400111866184 -17.912445305613801 0 -17.912445305613801 -242.6472072135366 0 0 0 0 207.39789859694429 -3.9950193283730187 0 -3.9950193283730187 -224.19239907636074 0 0 0 0 -36.296076161466772 140.44979811557278 0 140.44979811557278 -35.277802638192952 0 0 0 0 -48.125926862936467 125.54559315944789 0 125.54559315944789 -23.242136941757053 0 0 0 0 190.44436660339125 -68.843929095979547 0 -68.843929095979547 -235.62055940645223 0 0 0 0 5.5370182255282998 150.58789900911506 0 150.58789900911506 200.11324046595837 0 0 0 0 -6.8738601451041177 212.32720667030662 0 212.32720667030662 138.95726575568551 0 0 0 0 88.826711359226749 36.064255833748234 0 36.064255833748234 -21.925666270884903 0 0 0 0 -31.709537655988242 87.306308531071409 0 87.306308531071409 28.415022143919487 0 0 0 0 224.19232912008738 303.93288789984581 0 303.93288789984581 -85.86729530026787 0 0 0 0 -45.285073542134768 56.915113334154768 0 56.915113334154768 -42.189418666621691 0 0 0 0 -45.900237511104933 112.74054415967294 0 112.74054415967294 -17.160798293509288 0 0 0 0 74.955648463277612 307.88220387350884 0 307.88220387350884 75.416229246126022 0 0 0 0 18.884620094846468 72.951562031899812 0 72.951562031899812 224.11005708646553 0 0 0 0 24.165551641548518 52.192048635159153 0 52.192048635159153 107.8433443434842 0 0 0 0 10.473503263667226 179.3740620946628 0 179.3740620946628 6.8180805501178838 0 0 0 0 24.019249734585173 193.42550377827138 0 193.42550377827138 20.481012288364582 0 0 0 0 33.443590772396419 92.755921224059421 0 92.755921224059421 -40.046388182905503 0 0 0 0 44.445321042003343 104.17930995402276 0 104.17930995402276 -98.239207447506487 0 0 0 0 8.8992517874576151 158.93072941654827 0 158.93072941654827 33.241374853474554 0 0 0 0 12.033068492106395 154.146631400552 0 154.146631400552 -40.782260516774841 0 0 0 0 23.669102038664278 155.29564781591762 0 155.29564781591762 -82.504946374305291 0 0 0 0 9.1203070392948575 210.5090302551107 0 210.5090302551107 20.60605224352912 0 0 0 0 72.846119319612626 261.69417590188095 0 261.69417590188095 0.65536645625252277 0 0 0 0 31.480125647271052 145.47370733530261 0 145.47370733530261 -97.736413535429165 0 0 0 0 22.240389982587658 163.29563194455113 0 163.29563194455113 -46.627714807313168 0 0 0 0 36.293007810105337 178.37149951860192 0 178.37149951860192 -58.178080088051502 0 0 0 0 11.912821836420335 185.10298115987098 0 185.10298115987098 2.0398583402275108 0 0 0 0 67.929919361427892 155.69869308438501 0 155.69869308438501 -120.49725108768325 0 0 0 0 103.03950027155224 230.64098979838309 0 230.64098979838309 -46.625543619185919 0 0 0 0 -16.483332657429855 81.430437676957808 0 81.430437676957808 8.3632031534798443 0 0 0 0 -30.771449546155054 100.06228175498836 0 100.06228175498836 -8.5390993549954146 0 0 0 0 -1409.7403142634721 1374.0693973491143 0 1374.0693973491143 -870.46016317835893 0 0 0 0 -1157.7225574469194 716.73354547315466 0 716.73354547315466 -660.65602055715863 0 0 0 0 -1594.8370394703525 298.26905595090648 0 298.26905595090648 132.28413241384987 0 0 0 0 290.26636312351911 -49.574204020929756 0 -49.574204020929756 -155.36696401035442 0 0 0 0 -115.98228061737609 -319.55479327413195 0 -319.55479327413195 45.787105710594915 0 0 0 0 -1698.672053878603 -54.923695570716518 0 -54.923695570716518 334.21450260367419 0 0 0 0 71.2774230131472 -159.2835470209393 0 -159.2835470209393 278.3300863372715 0 0 0 0 -17.47088537328635 27.635750204833386 0 27.635750204833386 17.173012309538422 0 0 0 0 -200.84499040161609 104.46476180377067 0 104.46476180377067 101.52568017972226 0 0 0 0 501.08788184729929 84.584948422110756 0 84.584948422110756 137.30486516014207 0 0 0 0 -211.65849099436309 -445.42167733311362 0 -445.42167733311362 250.23087460172246 0 0 0 0 -111.42919519178395 153.64418385791578 0 153.64418385791578 140.61947077188233 0 0 0 0 -63.861623358108716 57.2691306211278 0 57.2691306211278 70.376622249768943 0 0 0 0 -345.52024016701034 246.81648593311911 0 246.81648593311911 743.39569920767462 0 0 0 0 -307.3878799523518 -3.2030484984970826 0 -3.2030484984970826 145.13430123863873 0 0 0 0 -29.271242245165666 77.389962245317122 0 77.389962245317122 -65.570717091116933 0 0 0 0 -43.922497559091426 90.901749207419925 0 90.901749207419925 -29.275360499719682 0 0 0 0 5.0556455105688656 166.23975332055124 0 166.23975332055124 -239.88143464356835 0 0 0 0 18.997706639229705 13.915074800823596 0 13.915074800823596 -25.273232499802532 0 0 0 0 -54.004891622560535 -64.011442615608757 0 -64.011442615608757 64.740446018389775 0 0 0 0 -112.53003978120978 78.008455163406325 0 78.008455163406325 172.7620225235587 0 0 0 0 -912.6129533158819 902.01258086654707 0 902.01258086654707 -124.9960679433425 0 0 0 0 -44.681910496942976 73.851919676160918 0 73.851919676160918 56.473298956983953 0 0 0 0 -141.114595194289 267.16136651115085 0 267.16136651115085 -609.60586300072464 0 0 0 0 -257.51921839267015 375.02328035760729 0 375.02328035760729 -646.79473092479748 0 0 0 0 -40.021977189695463 258.88511177553301 0 258.88511177553301 -611.50194533366812 0 0 0 0 -135.33647910437139 -65.421672099757416 0 -65.421672099757416 65.014165321059409 0 0 0 0 -12.7171108898699 3.6649240074514822 0 3.6649240074514822 17.699317058969271 0 0 0 0 -205.88929557519441 250.2741118134627 0 250.2741118134627 -476.41347450208559 0 0 0 0 610.47861674564047 488.17775657914535 0 488.17775657914535 -968.21922179097601 0 0 0 0 -18.522707408082582 23.463816285919734 0 23.463816285919734 -37.545274926710846 0 0 0 0 -279.58178373370174 338.43554599252457 0 338.43554599252457 -365.88034790524398 0 0 0 0 -404.19474818001618 -4.6099460217556043 0 -4.6099460217556043 238.61545022116479 0 0 0 0 379.08713856015675 -100.94247135758997 0 -100.94247135758997 -36.122290903877001 0 0 0 0 -198.28423727106565 -61.350403546588495 0 -61.350403546588495 98.409762448849506 0 0 0 0 54.867158138891682 -297.46672053719522 0 -297.46672053719522 86.624276336635376 0 0 0 0 15.821022998105036 59.697320667608437 0 59.697320667608437 -474.70647134143405 0 0 0 0 -54.414388231321936 -103.93374800196761 0 -103.93374800196761 -73.636742238544684 0 0 0 0 -112.22541498267674 210.60900202101402 0 210.60900202101402 -566.82170616296935 0 0 0 0 -1418.2571555726317 1031.2635769217177 0 1031.2635769217177 -673.88241428510082 0 0 0 0 206.21796342778543 119.56254757865827 0 119.56254757865827 -1076.512044664385 0 0 0 0 -42.884955542540411 -496.79093293654478 0 -496.79093293654478 -232.90065903124923 0 0 0 0 -0.50379929470741658 3.5479335040323292 0 3.5479335040323292 -11.364960166231498 0 0 0 0 -1.8398688544879747 0.91978898728882541 0 0.91978898728882541 -1.207234743563248 0 0 0 0 -1536.2120936252031 1066.2492730410813 0 1066.2492730410813 -359.5743812052242 0 0 0 0 -1488.9420514862868 923.20233874406767 0 923.20233874406767 -635.80109530159461 0 0 0 0 -53.558988682198105 79.479803493057261 0 79.479803493057261 -25.24309675940458 0 0 0 0 0.23295830664230266 46.287638717382322 0 46.287638717382322 23.402256419402732 0 0 0 0 -1715.8239572151369 875.21272474700083 0 875.21272474700083 -714.60702214796038 0 0 0 0 -1442.9107842156955 964.81341276648482 0 964.81341276648482 -692.09115404158365 0 0 0 0 -1474.8278570625189 791.41919704744669 0 791.41919704744669 -1101.2089009062911 0 0 0 0 -315.19030240690336 354.6318441317926 0 354.6318441317926 -603.18055716149684 0 0 0 0 -315.58828242489835 652.51388880569721 0 652.51388880569721 -1045.1539374752028 0 0 0 0 -256.23813720728504 292.7244627471373 0 292.7244627471373 -653.18413433085516 0 0 0 0 -180.30593207516358 319.38088522405815 0 319.38088522405815 -645.49056990476674 0 0 0 0 46.132041791192023 373.16326224727527 0 373.16326224727527 -832.78038200949959 0 0 0 0 -1740.579513957724 328.87250914426113 0 328.87250914426113 -1086.2402235853174 0 0 0 0 -2128.8779298484951 287.6290424001163 0 287.6290424001163 280.72750839299988 0 0 0 0 -634.52267208672129 177.10079894101364 0 177.10079894101364 -75.340834112997982 0 0 0 0 -1988.0899215752797 837.71930294914819 0 837.71930294914819 -377.67710203694878 0 0 0 0 -523.18157599959522 549.44076036164188 0 549.44076036164188 -729.70777868793812 0 0 0 0 -523.18157599953702 549.44076036127808 0 549.44076036127808 -729.70777868770529 0 0 0 0 -523.18157599924598 549.44076036140177 0 549.44076036140177 -729.70777868786536 0 0 0 0 -772.20998913259245 961.20907801370777 0 961.20907801370777 -1055.0114785687038 0 0 0 0 -391.43467093401705 509.66568096113042 0 509.66568096113042 -719.45405431833933 0 0 0 0 -300.62212939251913 471.93499540640914 0 471.93499540640914 -794.01695398792799 0 0 0 0 -1328.2750113963593 936.11927546958577 0 936.11927546958577 -764.02827050736232 0 0 0 0 -1513.4676719106501 499.1110093389434 0 499.1110093389434 59.139814206937444 0 0 0 0 -39.917558479811532 96.803180318904936 0 96.803180318904936 -21.264364474199049 0 0 0 0 -1750.2312644611811 69.406371784774819 0 69.406371784774819 397.10192017164081 0 0 0 0 -2115.8982710129058 724.14732792562427 0 724.14732792562427 609.49679907661994 0 0 0 0 -1714.8739506960846 804.00485313819809 0 804.00485313819809 -60.025391337432666 0 0 0 0 -460.98131555856526 494.68298317347035 0 494.68298317347035 269.55242575293232 0 0 0 0 -26.994785559705747 52.157550001897455 0 52.157550001897455 -34.718807749801115 0 0 0 0 154.12908715258527 506.40342108133336 0 506.40342108133336 -910.95022427492222 0 0 0 0 85.662416437524371 -46.470853232454829 0 -46.470853232454829 -1192.3402933447796 0 0 0 0 -2318.3854443003656 1403.337109308588 0 1403.337109308588 -308.34221784272086 0 0 0 0 -15.334886648052816 10.521679995765936 0 10.521679995765936 -17.212761836065056 0 0 0 0 -1987.4388812294492 699.0874996282073 0 699.0874996282073 -49.204775218917348 0 0 0 0 -29.226969809811976 14.773422639354642 0 14.773422639354642 -11.062624898379056 0 0 0 0 -1074.3055094846495 2342.8790508155289 0 2342.8790508155289 -5010.258155425865 0 0 0 0 -1297.8009123756492 2713.4981618712045 0 2713.4981618712045 -4753.1057773147113 0 0 0 0 -1169.1218006223789 2258.5236311968692 0 2258.5236311968692 -4631.2753055439243 0 0 0 0 -6.7806395485438458 9.4813279655445513 0 9.4813279655445513 -29.0618045286854 0 0 0 0 -64.199482799900579 -931.90046394494129 0 -931.90046394494129 -1584.1012356816937 0 0 0 0 -37.09521900859545 77.371029386144073 0 77.371029386144073 -32.525400679987797 0 0 0 0 -2165.7658684620546 275.2433357419286 0 275.2433357419286 692.94513036482385 0 0 0 0 344.665086040186 -287.2759022866594 0 -287.2759022866594 -13.864449282165879 0 0 0 0 -1237.8542485674261 1267.2777459389108 0 1267.2777459389108 -12.079036763272597 0 0 0 0 -131.18142413525493 631.32933670553393 0 631.32933670553393 -22.785917492132285 0 0 0 0 190.57266131763754 1063.95921098076 0 1063.95921098076 397.79153568513721 0 0 0 0 -26.584048899268964 65.831239348393865 0 65.831239348393865 -31.950637353686034 0 0 0 0 1542.2070115154347 396.87052058432891 0 396.87052058432891 -607.02937854913034 0 0 0 0 0.96040215211883861 47.622826469643059 0 47.622826469643059 -21.610706039627416 0 0 0 0 -45.663071123810369 55.734709951491823 0 55.734709951491823 -13.062828943759087 0 0 0 0 -7.4173424028055592 5.8157343166868714 0 5.8157343166868714 23.184520924880687 0 0 0 0 -91.031156779339653 56.582936728358618 0 56.582936728358618 -7.8760916355677182 0 0 0 0 -1543.2087632808689 1309.896535448901 0 1309.896535448901 -545.85973906436993 0 0 0 0 10.756816235717942 34.667900214535052 0 34.667900214535052 -16.024588665354258 0 0 0 0 1122.4901822233805 128.88926487144272 0 128.88926487144272 321.28131005933619 0 0 0 0 3376.7995851173764 1022.6558283788695 0 1022.6558283788695 -688.89053568620147 0 0 0 0 184.58251537755859 1806.2538234966314 0 1806.2538234966314 181.64978805980354 0 0 0 0 4954.2039768950199 -351.2968791667663 0 -351.2968791667663 -394.37958228059597 0 0 0 0 2134.1896975466661 2075.7122684896094 0 2075.7122684896094 -877.29259210552118 0 0 0 0 310.38457891406142 723.3060616317598 0 723.3060616317598 -379.60691210992809 0 0 0 0 950.49738807037647 453.4697422410627 0 453.4697422410627 -1310.2074458640018 0 0 0 0 623.9974985824083 921.02796420005689 0 921.02796420005689 -567.26536317751743 0 0 0 0 -2888.4031219288718 1389.4096287105936 0 1389.4096287105936 -274.73244553685799 0 0 0 0 14.678436545684235 1235.5918075376139 0 1235.5918075376139 -696.92317897625253 0 0 0 0 -6.2595909913390351 12.322465477645466 0 12.322465477645466 2.870574052213442 0 0 0 0 -1334.7572135116061 1232.8905863535729 0 1232.8905863535729 -642.00099797200164 0 0 0 0 -1171.1164129236276 635.26742012933482 0 635.26742012933482 -1.825443186899065 0 0 0 0 228.45491154948832 87.543092501644423 0 87.543092501644423 -378.0741340679424 0 0 0 0 -184.58995427014088 55.122795396981928 0 55.122795396981928 181.81844991944672 0 0 0 0 0.97990435248559749 5.3192026554235383 0 5.3192026554235383 -22.418166798464 0 0 0 0 295.37381558739435 10.389125316305581 0 10.389125316305581 -83.075658557812858 0 0 0 0 -50.627320736422917 -77.842781851540394 0 -77.842781851540394 14.603333717292116 0 0 0 0 -438.04406610040678 556.21063702183437 0 556.21063702183437 -111.95536775533037 0 0 0 0 100.14597734976269 340.2918858242956 0 340.2918858242956 -35.427594429482269 0 0 0 0 614.00240115047927 -45.942917011957775 0 -45.942917011957775 -165.49525380010891 0 0 0 0 173.44794911071949 136.64510343529219 0 136.64510343529219 -98.241735750270891 0 0 0 0 1.3403154602999905 4.7807166361725706 0 4.7807166361725706 -17.010000922887102 0 0 0 0 334.46358072667499 -18.519999327010737 0 -18.519999327010737 108.46015443145257 0 0 0 0 -185.20628163615766 -116.49540978461118 0 -116.49540978461118 535.09264954715763 0 0 0 0 388.5039943636948 -12.225626319646835 0 -12.225626319646835 -545.65685002669852 0 0 0 0 315.89585919414139 -68.02358766819134 0 -68.02358766819134 -571.23294427971268 0 0 0 0 -1851.3406605263954 1538.3503652601212 0 1538.3503652601212 -985.41218084815046 0 0 0 0 -394.91153423645301 823.47109246084074 0 823.47109246084074 -1149.7568076465232 0 0 0 0 -1236.9215352931642 -481.73609716389183 0 -481.73609716389183 -339.84652281041417 0 0 0 0 316.34205756550728 -82.239772796602097 0 -82.239772796602097 -1657.511858973885 0 0 0 0 188.28086563505349 59.110931684357638 0 59.110931684357638 -166.04421666001872 0 0 0 0 -889.51148449072207 -240.67215242884959 0 -240.67215242884959 1458.7742312481205 0 0 0 0 1386.7310511911637 94.82434352643395 0 94.82434352643395 -608.74508718270863 0 0 0 0 -188.28634197744395 2543.2347001985881 0 2543.2347001985881 -1649.5446154335586 0 0 0 0 -3718.4747060859809 1438.5206954029272 0 1438.5206954029272 2839.3472010274972 0 0 0 0 -351.11466770543484 427.14694573649467 0 427.14694573649467 2043.0037484342993 0 0 0 0 -24.778730070154438 19.584414926783751 0 19.584414926783751 -11.312273541849471 0 0 0 0 -2614.4217042683158 2681.4102839397756 0 2681.4102839397756 32.387599741068698 0 0 0 0 -94.361684279021574 1450.4959834564161 0 1450.4959834564161 -1370.5538061460011 0 0 0 0 -2093.2632044122838 -140.90969989003202 0 -140.90969989003202 555.73442127878661 0 0 0 0 -894.52517334229196 2448.2598570560149 0 2448.2598570560149 -2354.6040787204765 0 0 0 0 -1374.0768074973457 2652.1989198559295 0 2652.1989198559295 -1836.5994319211859 0 0 0 0 -1120.2024233153206 2880.4772888475854 0 2880.4772888475854 -1632.0795637103342 0 0 0 0 -234.83250783447875 2783.7095527104411 0 2783.7095527104411 -2263.7077464295944 0 0 0 0 -464.34140100696823 -3177.93923426111 0 -3177.93923426111 -4836.8359570264292 0 0 0 0 -2003.2093818851135 -1843.2814722517069 0 -1843.2814722517069 1319.9643073821899 0 0 0 0 -42.251462050840075 -0.97076455787365035 0 -0.97076455787365035 0.80147988045198559 0 0 0 0 -300.78988298491458 4176.172696856007 0 4176.172696856007 -1956.5974817035421 0 0 0 0 -996.05681811370596 1515.4426944372426 0 1515.4426944372426 957.99423158103309 0 0 0 0 -71.988998473070978 4.4628665963583103 0 4.4628665963583103 7.9347319653215074 0 0 0 0 -2593.3958578573747 555.36959401902914 0 555.36959401902914 -57.733734454912337 0 0 0 0 83.980060864807456 283.72869131779044 0 283.72869131779044 -3654.6904803183293 0 0 0 0 -21.107349462649239 42.365095055610368 0 42.365095055610368 -10.435504035213334 0 0 0 0 -1720.796309309997 1074.9189775506529 0 1074.9189775506529 -226.3316022873114 0 0 0 0 -1966.4262173195311 1713.8253786742207 0 1713.8253786742207 -1720.5373025395093 0 0 0 0 -2317.7714682623919 286.95151601389807 0 286.95151601389807 -1232.7984683504656 0 0 0 0 -2822.6367251926858 1039.6706072841189 0 1039.6706072841189 33.482568845538481 0 0 0 0 -4239.1367627339932 1246.2970107028123 0 1246.2970107028123 -1065.4514353101363 0 0 0 0 -1981.7762423680979 3520.0740160564128 0 3520.0740160564128 -3099.3803896031404 0 0 0 0 474.57528386474587 477.64983037805359 0 477.64983037805359 -3066.6530804874074 0 0 0 0 -1655.8108672214294 -927.25535125453825 0 -927.25535125453825 -1963.2641058896224 0 0 0 0 -1191.8517946069769 2096.6709618833884 0 2096.6709618833884 -1384.2477956295043 0 0 0 0 152.60706398423645 490.73667860577552 0 490.73667860577552 127.66733615397243 0 0 0 0 -1529.7507387931691 1603.4927449232637 0 1603.4927449232637 8.8993564544057335 0 0 0 0 -1085.8226569199323 1009.3482380763853 0 1009.3482380763853 279.77702885459439 0 0 0 0 -2093.2696510324386 1224.7723057299781 0 1224.7723057299781 -4.49371037108358 0 0 0 0 -1730.5331330118497 1786.3310144683928 0 1786.3310144683928 -121.83956308199868 0 0 0 0 -1860.2123665952968 1267.0079418406276 0 1267.0079418406276 -1089.5923100489817 0 0 0 0 -1596.071860966229 1324.7932068929476 0 1324.7932068929476 -136.05652250756975 0 0 0 0 -1017.421840419498 1768.4896975099691 0 1768.4896975099691 146.3454603340806 0 0 0 0 -1407.7184492967353 2620.4226144252607 0 2620.4226144252607 -719.76270740698237 0 0 0 0 -1495.8095923629735 1192.4375496380453 0 1192.4375496380453 424.72711133702251 0 0 0 0 -2000.0815543558565 2428.6628061795509 0 2428.6628061795509 -630.36441247188486 0 0 0 0 -3849.0434753519075 2378.9050554814385 0 2378.9050554814385 102.08760474996416 0 0 0 0 9.4862218664378588 19.677823202930512 0 19.677823202930512 17.921717693335552 0 0 0 0 -1394.0609592082619 2603.5684668346003 0 2603.5684668346003 -1687.1303845557177 0 0 0 0 -1101.3816276966099 664.65278233860954 0 664.65278233860954 -91.422932199275238 0 0 0 0 -926.25778925773193 831.45412643006603 0 831.45412643006603 -559.65462333649339 0 0 0 0 -352.63348508604395 745.38642172591062 0 745.38642172591062 -852.47752946249966 0 0 0 0 1.6714624408441523 4.722976435576868 0 4.722976435576868 0.35892326627993043 0 0 0 0 -3717.1483698618831 45.248375183233293 0 45.248375183233293 -3925.6595067178459 0 0 0 0 -559.79723862192441 -300.07291059546151 0 -300.07291059546151 -1822.4553721516713 0 0 0 0 -2767.9421365466478 4048.7870069372784 0 4048.7870069372784 -2192.4272643920413 0 0 0 0 -630.50736777769635 820.69741525951031 0 820.69741525951031 -716.86148781501106 0 0 0 0 -754.01580155310512 1129.2576447748143 0 1129.2576447748143 -803.77239140859592 0 0 0 0 -982.26448520535268 999.03301354019459 0 999.03301354019459 -671.50513386963576 0 0 0 0 -907.01342982353526 1055.1279175082673 0 1055.1279175082673 -736.89331456452419 0 0 0 0 -916.63637374636437 918.24426966054011 0 918.24426966054011 -665.41158062424802 0 0 0 0 -855.28658166152309 1009.9112797739435 0 1009.9112797739435 -942.22816895039523 0 0 0 0 -1883.3730557795679 1345.0761881737494 0 1345.0761881737494 -288.72148209872103 0 0 0 0 26.659145161792992 36.704806842983317 0 36.704806842983317 41.452580636583633 0 0 0 0 -1925.656015515473 1274.4449735278686 0 1274.4449735278686 -278.05157467875415 0 0 0 0 -2064.622569711606 1199.3718590226772 0 1199.3718590226772 -247.47231149321306 0 0 0 0 -799.90870106791408 -30.126107677772779 0 -30.126107677772779 -40.361511206770956 0 0 0 0 -1037.885665003676 1176.597780462318 0 1176.597780462318 -971.82036345992674 0 0 0 0 34.163495145284742 66.794630323608374 0 66.794630323608374 41.551792423508346 0 0 0 0 -1037.7142357814446 922.13745714713878 0 922.13745714713878 -817.76101426011155 0 0 0 0 -45.80195927856289 63.336480005283619 0 63.336480005283619 -26.042673260352387 0 0 0 0 -775.5151142415416 1144.9486213257151 0 1144.9486213257151 -990.24998074984887 0 0 0 0 -889.90668817579262 619.63086437502125 0 619.63086437502125 -418.05917624705762 0 0 0 0 -46.999336619299243 54.181549530507979 0 54.181549530507979 -45.293727723088679 0 0 0 0 -845.90398421822465 899.39989934382174 0 899.39989934382174 -826.65856101908321 0 0 0 0 -847.52320393683954 773.99278844768082 0 773.99278844768082 -578.52933004006627 0 0 0 0 -610.46857390081277 664.06321237137308 0 664.06321237137308 -613.32715233236922 0 0 0 0 -571.53450310531844 468.80740211328157 0 468.80740211328157 -467.58223063416517 0 0 0 0 -703.63718333415454 649.13429503966108 0 649.13429503966108 -338.10565541272808 0 0 0 0 -737.60049597262696 836.63068015077442 0 836.63068015077442 -437.08248102529615 0 0 0 0 -0.61998251675686333 9.0537045093951747 0 9.0537045093951747 -9.9394653133076645 0 0 0 0 -213.82727596013865 -27.422078746381885 0 -27.422078746381885 -16.216501687158598 0 0 0 0 1.50094892172703 9.2061454524805129 0 9.2061454524805129 -8.4559805810324633 0 0 0 0 -1183.6642208706326 -428.15737752416317 0 -428.15737752416317 227.68570937257027 0 0 0 0 -567.31543404993135 361.19108540500747 0 361.19108540500747 -60.307825986996249 0 0 0 0 33.692735717714925 40.448846915729831 0 40.448846915729831 -30.75719732124054 0 0 0 0 -47.078332611083169 199.3862401666247 0 199.3862401666247 -374.98534327391826 0 0 0 0 5.7032505495768646 8.7079751293722865 0 8.7079751293722865 -4.3403293144548343 0 0 0 0 -1186.1418950748048 50.325443076006195 0 50.325443076006195 4.4018404081070912 0 0 0 0 -521.58503822024795 336.83246394768321 0 336.83246394768321 -177.88704396315734 0 0 0 0 1.1302818913426833 9.4700977544839304 0 9.4700977544839304 -9.315008748343331 0 0 0 0 -0.00037726925802417099 9.7478383932320867 0 9.7478383932320867 -10.460718025038659 0 0 0 0 -1022.8709998706763 970.02377756375063 0 970.02377756375063 -267.87015230207726 0 0 0 0 -725.57693159447808 193.61888093864764 0 193.61888093864764 -203.32673455321492 0 0 0 0 -0.55669188633328304 8.5989216760644922 0 8.5989216760644922 -6.7379416099283844 0 0 0 0 2.3207448526577252 22.607189931122321 0 22.607189931122321 9.3123927425245654 0 0 0 0 -710.8289792190626 61.182733789966733 0 61.182733789966733 -17.086832601627975 0 0 0 0 -944.02342652634979 842.15596636992268 0 842.15596636992268 -544.33372491244518 0 0 0 0 -1215.6487960255326 794.81701756135681 0 794.81701756135681 -548.01721448151511 0 0 0 0 -0.28466868311444671 7.0198694009703502 0 7.0198694009703502 -3.2476794362403609 0 0 0 0 -0.0041460994543740526 8.1623196857126459 0 8.1623196857126459 -6.5111918347702158 0 0 0 0 -1594.7841686784523 395.25073556176358 0 395.25073556176358 252.71917813475375 0 0 0 0 -24.375371126167011 1022.3704486354691 0 1022.3704486354691 -979.87024686601944 0 0 0 0 3.6179904017896831 6.4564676089998443 0 6.4564676089998443 2.1466399708551762 0 0 0 0 -1508.399574424795 1178.8673672925506 0 1178.8673672925506 -642.68274103989825 0 0 0 0 -997.23003589978907 1720.3418716148917 0 1720.3418716148917 -545.42366133707401 0 0 0 0 -2.7786743373435456 1746.3584233532056 0 1746.3584233532056 -1418.2418864702704 0 0 0 0 -532.29121503030183 1312.3155605543579 0 1312.3155605543579 -1769.6092166228846 0 0 0 0 -1478.0079502450244 1591.7779488845408 0 1591.7779488845408 -1242.2960482443782 0 0 0 0 -1477.9871781316906 1281.1483899488376 0 1281.1483899488376 -930.21498658540077 0 0 0 0 10.055723869301687 25.208331242728008 0 25.208331242728008 36.282411575270217 0 0 0 0 -1422.4776639424817 1063.9659840231798 0 1063.9659840231798 -725.81879305917755 0 0 0 0 -1070.5629247539182 1040.8261922935817 0 1040.8261922935817 -1143.0818416723414 0 0 0 0 -1232.5456498684362 1228.0673049413672 0 1228.0673049413672 -974.63813090880831 0 0 0 0 -37.921906340576243 435.43017233936507 0 435.43017233936507 -964.24421997451282 0 0 0 0 18.267075395079758 62.215492678814968 0 62.215492678814968 51.553873246266591 0 0 0 0 -668.52090710203629 1187.7889132430901 0 1187.7889132430901 -1193.5713785062462 0 0 0 0 -339.66106783197847 1477.2841536967865 0 1477.2841536967865 -2643.0250701284749 0 0 0 0 -519.67200639953717 137.29727337889744 0 137.29727337889744 -706.58119143668227 0 0 0 0 -29.186979372324174 4.9589099312905205 0 4.9589099312905205 3.5586290964361567 0 0 0 0 -423.92293641358265 2560.4823089867132 0 2560.4823089867132 -3221.6000495163316 0 0 0 0 -1062.7171466210275 179.51848962526674 0 179.51848962526674 2482.4647439948858 0 0 0 0 333.89144823362949 312.79376979012568 0 312.79376979012568 340.63640697137453 0 0 0 0 -813.61504664379754 1448.2655389636056 0 1448.2655389636056 852.92234464693865 0 0 0 0 -819.4567258033203 1393.6164431935185 0 1393.6164431935185 674.88258962234977 0 0 0 0 -1974.8452042897406 1183.2694201692575 0 1183.2694201692575 1538.2713912709005 0 0 0 0 -1184.8645863861166 1592.3225253731944 0 1592.3225253731944 1359.3644205293167 0 0 0 0 -1.0914120418747189 2043.3199785951019 0 2043.3199785951019 1378.4809865506613 0 0 0 0 -2.3803677675769017 1507.2206217667633 0 1507.2206217667633 -1769.469451326273 0 0 0 0 2.2226129403011896 7.5215373206842173 0 7.5215373206842173 8.7463872820981408 0 0 0 0 -222.80943722711527 -324.26602216241008 0 -324.26602216241008 1928.5104650647991 0 0 0 0 235.76278784532042 811.31252394298735 0 811.31252394298735 -1220.661869899428 0 0 0 0 -3439.469033810572 2447.7458613882227 0 2447.7458613882227 -99.466314580598009 0 0 0 0 -54.033995633988525 70.512995811470319 0 70.512995811470319 16.926477638618962 0 0 0 0 -53.559305305862836 77.54617522082026 0 77.54617522082026 27.434811951388838 0 0 0 0 0.44967298832673919 48.748914295530312 0 48.748914295530312 -10.341649046073599 0 0 0 0 28.970311507568113 51.598031300411094 0 51.598031300411094 -52.033790440706071 0 0 0 0 0.042272360983759735 54.949053772334423 0 54.949053772334423 -16.663331370276865 0 0 0 0 -0.49137374220299534 62.034063849940139 0 62.034063849940139 -26.891243900041445 0 0 0 0 8.8547035183015481 46.233200599717975 0 46.233200599717975 -25.978930567794464 0 0 0 0 105.63418168098724 126.19332564920478 0 126.19332564920478 -37.122537204544642 0 0 0 0 -24.1078489573556 96.380905830104894 0 96.380905830104894 1.9055766302044503 0 0 0 0 -162.49871709648869 48.144944941501308 0 48.144944941501308 48.360773611973855 0 0 0 0 -114.88194039995142 163.46824314518017 0 163.46824314518017 31.597883601789363 0 0 0 0 -101.14456117032387 46.33213194799464 0 46.33213194799464 7.9598733981547412 0 0 0 0 -82.452319234114839 64.482489429428824 0 64.482489429428824 24.402641270258755 0 0 0 0 -107.45364084253379 46.908109489064373 0 46.908109489064373 39.374264565238263 0 0 0 0 -134.52240189822624 3.3829110590668279 0 3.3829110590668279 88.604585576045793 0 0 0 0 -120.68598193807338 68.148154051443271 0 68.148154051443271 56.722393885909696 0 0 0 0 -93.975563921470894 87.098748312215321 0 87.098748312215321 107.4841110010675 0 0 0 0 -82.699919738457538 46.646065775923489 0 46.646065775923489 62.395387272696098 0 0 0 0 -59.045923980957014 29.532282667757499 0 29.532282667757499 68.24735752446577 0 0 0 0 -35.472533528463032 6.6901214263328512 0 6.6901214263328512 -1.2833947175535485 0 0 0 0 -89.62211177466088 29.820903833722696 0 29.820903833722696 76.732184549873637 0 0 0 0 -57.982053529980476 -8.4894027755253774 0 -8.4894027755253774 90.241439163291943 0 0 0 0 -200.54675848884654 107.0269347474391 0 107.0269347474391 74.178277255079593 0 0 0 0 -212.72722194982634 171.04838609161379 0 171.04838609161379 13.533186565240612 0 0 0 0 -98.097268889468978 163.55629248457262 0 163.55629248457262 -140.92205495955932 0 0 0 0 -73.914435225189663 42.082061000855902 0 42.082061000855902 5.0006726382271154 0 0 0 0 -51.648741620609485 22.568391499238956 0 22.568391499238956 0.34233934215092177 0 0 0 0 -69.428940681144013 49.676309285496245 0 49.676309285496245 15.100369387806495 0 0 0 0 -0.031081998298759572 32.643987459869095 0 32.643987459869095 13.794412979877961 0 0 0 0 2.5985657692717155 4.8923690369423554 0 4.8923690369423554 4.1155317690793964 0 0 0 0 -15.612459526244493 19.91172477487271 0 19.91172477487271 12.301697835791856 0 0 0 0 -4.990749449590254 15.66872067646031 0 15.66872067646031 18.987958954243823 0 0 0 0 2.7314921659812654 11.444449843311332 0 11.444449843311332 9.9660372252189404 0 0 0 0 -0.0024594110727775842 17.850965985813673 0 17.850965985813673 11.976753610519154 0 0 0 0 -4.7222276823886205 11.670313390790398 0 11.670313390790398 5.8409580274601467 0 0 0 0 -180.94514643205912 88.616604071386973 0 88.616604071386973 -9.5320512205071282 0 0 0 0 -151.51242490334334 68.337353865263594 0 68.337353865263594 -8.2017836008380982 0 0 0 0 -0.0022418931912397966 12.458322767837672 0 12.458322767837672 4.8182036108955799 0 0 0 0 -259.57305365707725 81.012291025686864 0 81.012291025686864 13.72732876297232 0 0 0 0 1.5487708543217238 10.652229924749633 0 10.652229924749633 0.53125028270719099 0 0 0 0 -1.0834388735966058 9.4677110687198365 0 9.4677110687198365 -3.3905018831137568 0 0 0 0 -249.61933031542867 85.261524136760272 0 85.261524136760272 -9.7062339237745618 0 0 0 0 -451.5775247260317 94.335132230942691 0 94.335132230942691 36.137495893417508 0 0 0 0 -278.03964838212414 240.21441383328784 0 240.21441383328784 -33.731558014240363 0 0 0 0 -0.00057707481028046459 10.918671031031408 0 10.918671031031408 -4.4573030917090364 0 0 0 0 -371.37541932282329 614.38791823803331 0 614.38791823803331 -557.82738105381213 0 0 0 0 -219.18414383526397 174.71107613898312 0 174.71107613898312 -52.665945606335299 0 0 0 0 45.284923534973615 39.141154130719485 0 39.141154130719485 -19.868648630410348 0 0 0 0 -224.60932650421455 233.37513520209905 0 233.37513520209905 -269.91992822937937 0 0 0 0 -210.82859804863983 153.27084360358276 0 153.27084360358276 -58.216016786800537 0 0 0 0 47.061942858631539 45.593379138433392 0 45.593379138433392 -8.3793322936296875 0 0 0 0 -92.133343036664883 55.800397638213326 0 55.800397638213326 -321.11045034832932 0 0 0 0 -191.04189124573168 126.43255333318666 0 126.43255333318666 -23.133041206296184 0 0 0 0 -162.90319226820429 137.24467926662328 0 137.24467926662328 -19.617363309413122 0 0 0 0 -145.44069939028122 116.18143354813947 0 116.18143354813947 1.339710912121518 0 0 0 0 52.503790241838402 51.257866002547473 0 51.257866002547473 6.2965022515845135 0 0 0 0 -200.98511192243313 214.43178478192567 0 214.43178478192567 107.58984808998503 0 0 0 0 -119.73202088790276 60.140323931216699 0 60.140323931216699 36.312482022418408 0 0 0 0 -15.772816390060257 31.96629398041577 0 31.96629398041577 -55.981401472318822 0 0 0 0 530.83480223313381 327.96653227973002 0 327.96653227973002 -54.112942604784621 0 0 0 0 107.96825163457106 -14.349849810303567 0 -14.349849810303567 -38.947396068804665 0 0 0 0 748.53074220777489 -23.964580868108897 0 -23.964580868108897 -483.40691455402703 0 0 0 0 -94.613709426541391 324.43765004696888 0 324.43765004696888 223.3926124911668 0 0 0 0 -278.1941044996347 91.441857003774203 0 91.441857003774203 -4.0281720955790661 0 0 0 0 -44.326093376381323 88.594396853251965 0 88.594396853251965 -31.843038861130481 0 0 0 0 288.276219775762 526.85972766266605 0 526.85972766266605 -1108.7239843615462 0 0 0 0 -374.63136525891605 779.36466706076681 0 779.36466706076681 -814.54432393158697 0 0 0 0 -1091.7679541973266 1426.8142798350236 0 1426.8142798350236 -1178.6110047349503 0 0 0 0 -429.64251935492211 484.81952208153234 0 484.81952208153234 -313.70235560498259 0 0 0 0 -848.32976369932294 -423.15774268095993 0 -423.15774268095993 -1813.5589797372668 0 0 0 0 -976.34729515816434 -252.88391364272684 0 -252.88391364272684 -2302.5992068403866 0 0 0 0 -1052.8022134292405 -468.0368983363951 0 -468.0368983363951 -1761.0976665196213 0 0 0 0 -1635.844212734446 -272.2163231096165 0 -272.2163231096165 -1659.01361816196 0 0 0 0 -1931.2947521089081 808.49592796460274 0 808.49592796460274 -535.40636621501289 0 0 0 0 -2278.0053805078496 945.75245330965845 0 945.75245330965845 -2254.6055455965834 0 0 0 0 -5152.2494426383928 1059.7788387978289 0 1059.7788387978289 152.61216863655136 0 0 0 0 -8.1856960986687994 13.837235773175451 0 13.837235773175451 -20.479831805490903 0 0 0 0 -1237.5420438619913 60.438956695463276 0 60.438956695463276 -429.02225823286062 0 0 0 0 -1257.2951727839682 -606.71598417022324 0 -606.71598417022324 -502.95814566421905 0 0 0 0 -740.57198013481684 -593.07881011416612 0 -593.07881011416612 -1725.4357932318817 0 0 0 0 -243.07875517377397 30.201031039490772 0 30.201031039490772 -1428.3811756421055 0 0 0 0 1257.5926615222706 60.663216012369958 0 60.663216012369958 1962.481104620616 0 0 0 0 -21.178153336761795 11.858233928977825 0 11.858233928977825 -10.237667686547042 0 0 0 0 -1666.3470564640884 102.90424611378694 0 102.90424611378694 1266.853316202807 0 0 0 0 -81.209403867513174 342.07205098016129 0 342.07205098016129 -1040.7460148733226 0 0 0 0 -332.94746375264367 26.459540720796213 0 26.459540720796213 570.07586886174977 0 0 0 0 1674.4315511604073 -93.605663966620341 0 -93.605663966620341 506.32163673004834 0 0 0 0 1239.8664805798326 1334.2404476851807 0 1334.2404476851807 3852.0846015334828 0 0 0 0 1324.6758970308474 -717.71547927928259 0 -717.71547927928259 1743.8352762554423 0 0 0 0 2785.4027328763041 934.83064720107359 0 934.83064720107359 1419.0422154492699 0 0 0 0 6910.4754819282098 3684.6530701535521 0 3684.6530701535521 3109.9766423913097 0 0 0 0 -8.3011267178389581 10.949265402829383 0 10.949265402829383 3.0438602452801433 0 0 0 0 -430.80050872225547 -532.81543705418881 0 -532.81543705418881 2036.2123987363593 0 0 0 0 -369.87337016343736 -823.23990195090937 0 -823.23990195090937 462.24628493143246 0 0 0 0 -950.56358189450111 271.06373485714721 0 271.06373485714721 857.38649360078853 0 0 0 0 -1691.4626216555916 -449.28946332041232 0 -449.28946332041232 1049.1452224601526 0 0 0 0 -3195.4304111166857 33.242324267368531 0 33.242324267368531 946.25316199156805 0 0 0 0 -3500.5614930471347 398.05494760445436 0 398.05494760445436 1533.1862500384959 0 0 0 0 203.08582918488537 -230.93250873874058 0 -230.93250873874058 -334.00807551153412 0 0 0 0 -20.815602322357957 27.186254985874001 0 27.186254985874001 -40.784809485823814 0 0 0 0 -5668.6813214259128 -92.76345372832111 0 -92.76345372832111 912.75293398840586 0 0 0 0 -3987.781598208705 1007.3710134643334 0 1007.3710134643334 852.56161466770209 0 0 0 0 -3175.9177888286395 -103.99373280868622 0 -103.99373280868622 643.09587533341255 0 0 0 0 -4146.6957661893757 132.45041524593398 0 132.45041524593398 -394.18410332227359 0 0 0 0 -2075.4216027905932 2502.3851036083652 0 2502.3851036083652 -963.21717731985518 0 0 0 0 -3471.6328770573891 -284.70911216732929 0 -284.70911216732929 -1999.8888397541305 0 0 0 0 -4028.4127791273495 -51.460004621541884 0 -51.460004621541884 -180.6108513828658 0 0 0 0 -3396.5276368216728 -859.20114133899915 0 -859.20114133899915 -111.58861794989389 0 0 0 0 -1710.8304744435918 313.67440089761658 0 313.67440089761658 -404.20753594409325 0 0 0 0 -2758.2734855681047 373.94278272757947 0 373.94278272757947 66.70787253594608 0 0 0 0 -2197.4203950776719 -795.96990686461504 0 -795.96990686461504 -1170.7561792883789 0 0 0 0 -2290.4309331570694 1149.7694820969919 0 1149.7694820969919 170.68184737105912 0 0 0 0 -6380.3397042586148 1758.2056112596765 0 1758.2056112596765 816.89818386314437 0 0 0 0 -4467.6029604243231 -1257.5895048472448 0 -1257.5895048472448 -1130.2610711958259 0 0 0 0 -3376.2552098009328 630.44265250832541 0 630.44265250832541 274.94361975425272 0 0 0 0 -2437.9260339199536 609.38942208467051 0 609.38942208467051 273.82066228940084 0 0 0 0 -1725.8246909398295 1101.8608086497843 0 1101.8608086497843 -659.84411172177352 0 0 0 0 -462.68428502065944 240.35000521576148 0 240.35000521576148 381.54725168639561 0 0 0 0 -945.59270566616033 643.41663075618999 0 643.41663075618999 -483.75893202361476 0 0 0 0 5.2278904995632161 12.789583213365944 0 12.789583213365944 -16.858810733187539 0 0 0 0 -2307.9600910028494 971.3513279886356 0 971.3513279886356 -43.602669236686779 0 0 0 0 -2147.2251818820077 816.88849487938569 0 816.88849487938569 -128.21374463151733 0 0 0 0 -1493.3549221297799 118.94123450596453 0 118.94123450596453 55.715150680785882 0 0 0 0 -2.3434382626042094 32.271813689377282 0 32.271813689377282 -52.058143800317339 0 0 0 0 -2444.7227437021793 -163.90544542917632 0 -163.90544542917632 161.66553889958595 0 0 0 0 -2142.0499068265235 -90.235759396349749 0 -90.235759396349749 178.40848771773744 0 0 0 0 -2658.1081955032714 649.31546718119353 0 649.31546718119353 -409.52436025414863 0 0 0 0 -4.8521409950874386 25.968440267390889 0 25.968440267390889 -31.984804443089274 0 0 0 0 -2715.7391838840122 826.53630515452824 0 826.53630515452824 42.164591088687303 0 0 0 0 5.8470985896497609 15.869727236718887 0 15.869727236718887 -1.357820264385623 0 0 0 0 60.285131742668455 46.748899536236422 0 46.748899536236422 -378.48206935858047 0 0 0 0 -2787.8396561264381 262.93374098083586 0 262.93374098083586 212.54966435865208 0 0 0 0 -248.24486788274953 119.72381807513011 0 119.72381807513011 7.200283681973815 0 0 0 0 -2261.6925261526485 1447.4149692494702 0 1447.4149692494702 -333.19625070039183 0 0 0 0 -2957.3481863252819 170.2968497543261 0 170.2968497543261 502.29592136235442 0 0 0 0 -2417.1608503384996 401.50018439422638 0 401.50018439422638 597.73423481552163 0 0 0 0 -2466.263934630173 570.1643573420879 0 570.1643573420879 512.31288841553032 0 0 0 0 -2559.9517674466042 403.08223868755158 0 403.08223868755158 296.53444160631625 0 0 0 0 13.149261032767825 44.505013210248677 0 44.505013210248677 -78.659696245192464 0 0 0 0 106.06391080825415 248.42818068456472 0 248.42818068456472 -46.465920049029933 0 0 0 0 45.199937720609967 74.367241126638334 0 74.367241126638334 20.812126035628836 0 0 0 0 -13.079005493361592 0.23859623244474193 0 0.23859623244474193 0.48940242333313222 0 0 0 0 1119.0245019960566 1552.2059954198048 0 1552.2059954198048 -2312.7691587802256 0 0 0 0 -230.72985483665252 -501.86641196352866 0 -501.86641196352866 -2175.7476981374784 0 0 0 0 -225.55525195068913 -168.68006105357927 0 -168.68006105357927 -58.341968269975041 0 0 0 0 -437.33498743412201 -11.535290553041705 0 -11.535290553041705 263.22319217288168 0 0 0 0 -164.12090136719053 173.45296885196876 0 173.45296885196876 305.01453082001899 0 0 0 0 -226.74592067067897 251.40244211698882 0 251.40244211698882 -112.07369770886726 0 0 0 0 204.2829267851921 -21.860709340355243 0 -21.860709340355243 -56.6037322182965 0 0 0 0 18.376041956683473 7.713989992711646 0 7.713989992711646 3.3124494432943266 0 0 0 0 81.465502757870127 59.949492980766081 0 59.949492980766081 -8.7264651101431809 0 0 0 0 199.89504266693257 3.6091214217594825 0 3.6091214217594825 3.9017372644739226 0 0 0 0 3.2466938537978081 61.908483618905564 0 61.908483618905564 -13.133770626502667 0 0 0 0 31.30338475953485 68.870138906396051 0 68.870138906396051 -32.036300592019643 0 0 0 0 61.092551368868492 43.683230558045949 0 43.683230558045949 -5.6242888748549831 0 0 0 0 90.077193487115437 13.286918100464391 0 13.286918100464391 -16.036337892292067 0 0 0 0 1308.6233094351046 417.61834242176565 0 417.61834242176565 -100.26527439404163 0 0 0 0 119.00552597565712 14.878097617169388 0 14.878097617169388 -14.202372024560702 0 0 0 0 53.002011676273469 27.09924883130131 0 27.09924883130131 -29.727769124041174 0 0 0 0 139.34081168123521 80.446951471465582 0 80.446951471465582 -22.522818775178166 0 0 0 0 43.025959002209561 55.498438717388581 0 55.498438717388581 13.485741544670475 0 0 0 0 -204.46648451930378 34.62554282212659 0 34.62554282212659 136.23504339237115 0 0 0 0 90.409799442801159 218.53128019534051 0 218.53128019534051 109.48198064493772 0 0 0 0 -74.320450997285661 89.105711880416493 0 89.105711880416493 7.9665836454951204 0 0 0 0 -29.160023455471048 36.066393388693442 0 36.066393388693442 -27.742531220622084 0 0 0 0 10.522082581184804 190.54217642214098 0 190.54217642214098 177.75660001239157 0 0 0 0 -80.530162751034368 55.293726811883971 0 55.293726811883971 19.651699648249632 0 0 0 0 -8.1742103833960584 14.394018475957836 0 14.394018475957836 7.4815652587182058 0 0 0 0 25.757268459972693 101.5377618299608 0 101.5377618299608 125.47869637896656 0 0 0 0 87.001300655334489 57.168978347006487 0 57.168978347006487 12.640571132564219 0 0 0 0 24.614640452255799 9.6961697486870264 0 9.6961697486870264 25.075168661651503 0 0 0 0 -30.789032910688547 136.57134763727663 0 136.57134763727663 247.17289081023773 0 0 0 0 207.53206606673484 203.11814072483321 0 203.11814072483321 101.92583329300396 0 0 0 0 -1236.8911069614842 -226.78304396774183 0 -226.78304396774183 -458.88188683452609 0 0 0 0 208.9249082152528 6.3912119973319932 0 6.3912119973319932 18.318653443362564 0 0 0 0 58.71763156220544 66.050214908747876 0 66.050214908747876 -4.9669602365083279 0 0 0 0 -3.4472459230912342 11.244734563005011 0 11.244734563005011 -9.9598343174479282 0 0 0 0 -5111.9354010821589 465.67915506562531 0 465.67915506562531 492.12407562980661 0 0 0 0 -1781.7609731845587 1826.1959534259877 0 1826.1959534259877 -823.83797766816861 0 0 0 0 -2809.7464693896909 279.02033367427066 0 279.02033367427066 -174.25481658868011 0 0 0 0 -1466.8376777906815 655.2446029100247 0 655.2446029100247 173.12018045934383 0 0 0 0 -1076.0369797070161 161.3436273765401 0 161.3436273765401 214.7774975674638 0 0 0 0 -2827.8999299131247 209.02153374887712 0 209.02153374887712 656.51616444012325 0 0 0 0 76.44775494516216 379.29314172652084 0 379.29314172652084 240.97159912298957 0 0 0 0 28.511215013102628 448.19822473570821 0 448.19822473570821 192.79002249610676 0 0 0 0 506.48787719268148 258.37644282836118 0 258.37644282836118 246.55180377341458 0 0 0 0 380.50495717444574 617.55310383936012 0 617.55310383936012 193.03715135815037 0 0 0 0 730.51662299490272 1129.972940581938 0 1129.972940581938 -273.24159375661111 0 0 0 0 1843.0110152430998 524.68449338141181 0 524.68449338141181 -337.68054389249301 0 0 0 0 -54.482070464364369 408.33148334699945 0 408.33148334699945 256.62226550361993 0 0 0 0 3.0520764349566889 369.49118981057109 0 369.49118981057109 -29.73800496874901 0 0 0 0 -219.95330366032431 352.20615208480012 0 352.20615208480012 211.86368115956429 0 0 0 0 -166.39587190728344 258.39696412610647 0 258.39696412610647 68.052761227103474 0 0 0 0 -210.33334486964486 280.31139063686351 0 280.31139063686351 93.147476371304947 0 0 0 0 -234.37304391774887 327.30239469097614 0 327.30239469097614 197.96438603126444 0 0 0 0 -127.55934492880624 298.35689789929893 0 298.35689789929893 199.31457496400253 0 0 0 0 38.483477353060152 326.41239964074339 0 326.41239964074339 271.88733424607926 0 0 0 0 -133.42877971135204 378.85791667540616 0 378.85791667540616 258.56474073918071 0 0 0 0 -178.23245703696193 262.07219820451974 0 262.07219820451974 185.7496147613565 0 0 0 0 -260.02436010468227 239.29411701496792 0 239.29411701496792 1154.265688147847 0 0 0 0 -387.91108769051061 636.20836251923174 0 636.20836251923174 109.24299547995906 0 0 0 0 1.4562685191340279 319.34677317972819 0 319.34677317972819 272.22707493223425 0 0 0 0 38.172312768962001 226.8032194348998 0 226.8032194348998 249.25998069372963 0 0 0 0 17.12053295224905 366.13145038864604 0 366.13145038864604 233.66457343719685 0 0 0 0 160.71803635494871 449.59090989245306 0 449.59090989245306 216.88440320955124 0 0 0 0 544.11331015778342 390.14170314256944 0 390.14170314256944 84.465334484761115 0 0 0 0 316.19490910696913 234.22800668203126 0 234.22800668203126 40.417803836620806 0 0 0 0 56.720617500483058 115.85552310101048 0 115.85552310101048 66.443952356981754 0 0 0 0 54.326587915552409 126.37147913073295 0 126.37147913073295 45.738584754377371 0 0 0 0 76.095171757180651 114.12847073137527 0 114.12847073137527 35.237467031940469 0 0 0 0 -4.6774687607478995 17.089174204581582 0 17.089174204581582 -8.9482124828184126 0 0 0 0 72.010256181834848 127.16533752183022 0 127.16533752183022 16.256274865445448 0 0 0 0 -17.642322243278613 470.64997706243594 0 470.64997706243594 -617.19648600846267 0 0 0 0 1.772929314895805 6.7385581010196063 0 6.7385581010196063 1.7658734698595637 0 0 0 0 -36.946020389244495 107.5020315317422 0 107.5020315317422 -273.33703023038106 0 0 0 0 -87.642215827685504 640.15132639892181 0 640.15132639892181 -261.95243129445589 0 0 0 0 -602.7624914542248 1275.3787847046042 0 1275.3787847046042 1533.2664064225537 0 0 0 0 -302.66111943783471 602.88877060350205 0 602.88877060350205 215.31172618797427 0 0 0 0 -75.873156909392321 48.274874800412135 0 48.274874800412135 -22.58450222489769 0 0 0 0 -382.51431291492372 187.36965450086564 0 187.36965450086564 -263.04029969967087 0 0 0 0 1458.7170114665423 456.82105346631215 0 456.82105346631215 263.64589625195367 0 0 0 0 -585.39868157823003 869.99108284114936 0 869.99108284114936 2811.5849748315231 0 0 0 0 1043.2687113377615 730.76013423823315 0 730.76013423823315 88.179503259656485 0 0 0 0 -696.9139225652325 24.825605951904436 0 24.825605951904436 28.090475403311757 0 0 0 0 -430.69571244642793 239.86483159549061 0 239.86483159549061 -1579.8170336788753 0 0 0 0 -249.83332701883046 -138.92964453532477 0 -138.92964453532477 -1303.0659047168738 0 0 0 0 -1013.2166275669006 316.73987777571892 0 316.73987777571892 1244.1521897229468 0 0 0 0 402.47279939400323 271.77679991584228 0 271.77679991584228 -1548.2322704734688 0 0 0 0 -807.86508392181713 1693.2709073971891 0 1693.2709073971891 -459.81848316604737 0 0 0 0 -2235.5435720043315 522.42371210712736 0 522.42371210712736 -1560.3754897500999 0 0 0 0 -683.27727824044268 2515.2242564928201 0 2515.2242564928201 -4416.8293872890208 0 0 0 0 -1354.2191388529318 2519.1603758816273 0 2519.1603758816273 -4194.651105930483 0 0 0 0 -368.67595146688109 421.44459482197999 0 421.44459482197999 -3824.0256548788602 0 0 0 0 -1462.7019557013409 7.715722598702996 0 7.715722598702996 -1626.2835149020393 0 0 0 0 -4217.9808493388409 76.517177342029754 0 76.517177342029754 -5620.9289151068078 0 0 0 0 -6.4587801002079175 -2.2174763269268283 0 -2.2174763269268283 -2.5083629070576876 0 0 0 0 -848.5429303952842 2924.5011913594553 0 2924.5011913594553 -3305.8406271564018 0 0 0 0 -926.74708966351682 3438.639021979734 0 3438.639021979734 -5831.9074631090334 0 0 0 0 770.8714552387537 514.44946033120505 0 514.44946033120505 -5113.6378864539329 0 0 0 0 263.68661718016665 1122.7752827367294 0 1122.7752827367294 -5180.443710307125 0 0 0 0 -65.333567273915037 46.463084381181687 0 46.463084381181687 -22.65234040771314 0 0 0 0 473.64631544286385 596.28153130277133 0 596.28153130277133 -1809.2416019978191 0 0 0 0 -1381.4813166877721 47.376366215830785 0 47.376366215830785 1655.2111101047376 0 0 0 0 -27.375320054076383 20.311637660925626 0 20.311637660925626 -12.462656093068318 0 0 0 0 590.51110585557035 1414.7021598243628 0 1414.7021598243628 -7662.9875206360593 0 0 0 0 -3026.459848376835 2408.4715020668082 0 2408.4715020668082 2118.5945008994076 0 0 0 0 -824.8571677844011 467.9460194043495 0 467.9460194043495 -505.28867104987148 0 0 0 0 -2483.6322780789342 1539.2979922687373 0 1539.2979922687373 -332.81778031145222 0 0 0 0 -1022.539623167504 234.98438631097451 0 234.98438631097451 -385.65271061524982 0 0 0 0 626.29427804425359 -301.9398605502065 0 -301.9398605502065 -105.70060915037175 0 0 0 0 580.29515482948045 1292.8276660640913 0 1292.8276660640913 643.65269533394167 0 0 0 0 -7.4044448445129092 287.48398723525315 0 287.48398723525315 483.79227315547178 0 0 0 0 7.0090385504154256 781.55787320657691 0 781.55787320657691 -1089.7300214116403 0 0 0 0 -657.37921439186903 712.88239161999081 0 712.88239161999081 -1745.9002339243452 0 0 0 0 159.04562315322983 -185.80232047114259 0 -185.80232047114259 -1031.1473074029054 0 0 0 0 1.301699864117893 2.4237655626120045 0 2.4237655626120045 -0.044363136970865469 0 0 0 0 -1037.1547375575901 687.79784136279341 0 687.79784136279341 -602.12398734227463 0 0 0 0 -606.85697029844232 1032.5106875606798 0 1032.5106875606798 -329.74622044028365 0 0 0 0 -519.00798501164536 1073.0967583823949 0 1073.0967583823949 -525.948093319279 0 0 0 0 -1484.9717002280195 1740.5603807374555 0 1740.5603807374555 -814.89767866140755 0 0 0 0 -819.69152475536976 1502.1478234260649 0 1502.1478234260649 -1395.8142464712873 0 0 0 0 -1550.4062481072178 2341.6141346550867 0 2341.6141346550867 -2235.2985672969953 0 0 0 0 -1992.2938583965879 1177.5788682146522 0 1177.5788682146522 -773.00801244196919 0 0 0 0 -1936.3699863679067 1042.3205307461285 0 1042.3205307461285 -988.10608929389855 0 0 0 0 -2203.2135457094701 1406.201574664432 0 1406.201574664432 -1353.1616172902577 0 0 0 0 -2187.7070888131566 4090.3496163277305 0 4090.3496163277305 -1544.1702873347303 0 0 0 0 -4309.5224251452601 5382.6293316214433 0 5382.6293316214433 -1140.6849054130726 0 0 0 0 -1745.7700987694407 3998.3477829244803 0 3998.3477829244803 -6011.9300656379783 0 0 0 0 -1109.9053309612791 3368.1014611495775 0 3368.1014611495775 -6822.0271413118171 0 0 0 0 -1842.111102215189 538.45760326180607 0 538.45760326180607 -5389.1565286562254 0 0 0 0 -1651.9064076368086 3716.9352273743571 0 3716.9352273743571 -5213.4801404013997 0 0 0 0 -953.53646115836455 2955.9960986669321 0 2955.9960986669321 -5810.5562367869425 0 0 0 0 -2571.4424905556662 2166.9557295816194 0 2166.9557295816194 -1536.047532625671 0 0 0 0 -2524.9189872783609 1442.5794548079575 0 1442.5794548079575 -2840.1153604552092 0 0 0 0 -824.57359109948447 1503.9824842206872 0 1503.9824842206872 783.71516319041257 0 0 0 0 -82.262792677538528 1346.7863889068321 0 1346.7863889068321 -4930.3078331101788 0 0 0 0 -15.732423517611153 8.5509351657408956 0 8.5509351657408956 -6.1760240911397091 0 0 0 0 -2422.4876820789941 2734.6395650542108 0 2734.6395650542108 -2231.111376719929 0 0 0 0 -1453.9699246090167 3256.225584112326 0 3256.225584112326 -2506.1318414557318 0 0 0 0 -747.1393209611997 1026.2270022766825 0 1026.2270022766825 -830.49517589143943 0 0 0 0 118.02288726913685 -72.444680059183156 0 -72.444680059183156 563.02098382396798 0 0 0 0 -1271.7940681124455 532.16192502201011 0 532.16192502201011 -1283.5083707385493 0 0 0 0 192.36366360594548 -349.02153746296608 0 -349.02153746296608 91.544223443605006 0 0 0 0 444.70857702459762 -128.26543186405979 0 -128.26543186405979 -714.56777922494803 0 0 0 0 -3010.6761975045083 1299.7368263574754 0 1299.7368263574754 -1020.3315805632737 0 0 0 0 -2714.3414013561851 1667.5376232967101 0 1667.5376232967101 -612.60265441054071 0 0 0 0 -1541.9215864013677 342.233899112769 0 342.233899112769 -969.04247587831924 0 0 0 0 -1439.5434899607499 785.11011358106043 0 785.11011358106043 -8.9576549389457796 0 0 0 0 -2846.5532269461437 170.79800205556967 0 170.79800205556967 -3017.3327383918804 0 0 0 0 -3057.1382977796893 853.36433750063588 0 853.36433750063588 -881.21368807862746 0 0 0 0 -1830.9070589531329 1557.8623994757509 0 1557.8623994757509 -2653.8190317095723 0 0 0 0 -8.0673877378721954 263.55126726059825 0 263.55126726059825 227.68705383237102 0 0 0 0 -32.740633972488581 32.501588010583092 0 32.501588010583092 -7.4015892553893821 0 0 0 0 83.273507672245614 509.76443199755158 0 509.76443199755158 -330.46793376151618 0 0 0 0 309.28351170901442 172.64394940712373 0 172.64394940712373 114.28197573323268 0 0 0 0 -27.796218158036936 -1.4303735008143121 0 -1.4303735008143121 88.479974773887079 0 0 0 0 91.919338551260807 30.997682639950369 0 30.997682639950369 -13.839369950901983 0 0 0 0 45.029084088106174 153.09434909638367 0 153.09434909638367 -215.07525257336601 0 0 0 0 31.018374538500211 152.23008444641891 0 152.23008444641891 -185.09675627190154 0 0 0 0 26.634844318963587 123.1091560687637 0 123.1091560687637 -133.66372307515121 0 0 0 0 29.251266259932891 142.51007552325609 0 142.51007552325609 -149.86157410516171 0 0 0 0 39.023560098838061 143.42321367241675 0 143.42321367241675 -176.73713900439907 0 0 0 0 42.350779952597804 110.33471352432389 0 110.33471352432389 -209.47953153660637 0 0 0 0 -9.5611028075873037 140.64710617910896 0 140.64710617910896 -124.19014813215472 0 0 0 0 -2.1147922952513909 98.120804376012529 0 98.120804376012529 -158.409467896563 0 0 0 0 37.551924992585555 120.9284752071253 0 120.9284752071253 -165.05876729337615 0 0 0 0 32.298184552637395 143.74760137067642 0 143.74760137067642 -133.04307782504475 0 0 0 0 33.909544672467746 155.27610781477415 0 155.27610781477415 -125.24182370095514 0 0 0 0 9.2973641829448752 136.24717362708179 0 136.24717362708179 -94.601868614787236 0 0 0 0 58.722638881503372 147.60216619147104 0 147.60216619147104 -144.3867588333087 0 0 0 0 90.60263319281097 31.849423651085829 0 31.849423651085829 -11.363533353918484 0 0 0 0 34.336409018025734 156.99210138741182 0 156.99210138741182 -76.328123882762156 0 0 0 0 10.654779005621094 393.1099695279554 0 393.1099695279554 -102.08932803508651 0 0 0 0 34.450558626733255 161.42100295360433 0 161.42100295360433 -131.93249636504333 0 0 0 0 33.183030676387716 144.03454489511205 0 144.03454489511205 -94.605951606063172 0 0 0 0 -47.196168478752952 245.63125290663447 0 245.63125290663447 -420.00584515871014 0 0 0 0 -103.61968100901868 4.438443682196521 0 4.438443682196521 -150.46873376320582 0 0 0 0 48.246346165484283 324.93945569658536 0 324.93945569658536 -61.105924609393696 0 0 0 0 -173.65782194468193 321.21137212595204 0 321.21137212595204 -33.216618019214366 0 0 0 0 381.5952532584779 78.217638994188746 0 78.217638994188746 -160.53203557089728 0 0 0 0 261.35053130552114 -133.66257928941559 0 -133.66257928941559 -67.073972450220026 0 0 0 0 178.17784782999661 -9.1453994487237651 0 -9.1453994487237651 -128.00212874499266 0 0 0 0 194.07357034692541 -38.90823337007896 0 -38.90823337007896 -162.8248262576526 0 0 0 0 398.93684696982382 -418.67375309869385 0 -418.67375309869385 101.38978376689192 0 0 0 0 695.35395550524117 -116.29846337011259 0 -116.29846337011259 -129.66191762240487 0 0 0 0 418.54569205507869 245.88230641611153 0 245.88230641611153 -44.87109719964792 0 0 0 0 38.132466959563317 416.13094889790955 0 416.13094889790955 -1773.13325388261 0 0 0 0 -85.208542822983873 305.86214018084866 0 305.86214018084866 -921.84305767834303 0 0 0 0 -110.98676798917586 691.16610003808455 0 691.16610003808455 -293.48384871130111 0 0 0 0 114.94273644972418 603.11315587794525 0 603.11315587794525 -471.10871144093107 0 0 0 0 47.993955280660884 1169.5463621605159 0 1169.5463621605159 -767.81136938098643 0 0 0 0 100.73943844478345 1718.4480671770652 0 1718.4480671770652 -1288.0729532489422 0 0 0 0 121.89972197350289 1207.6616750037574 0 1207.6616750037574 -749.55257354163041 0 0 0 0 45.403015523450449 1405.8545006097702 0 1405.8545006097702 -1237.155854204444 0 0 0 0 244.52028042933671 1297.8511823654553 0 1297.8511823654553 -2450.0610046367146 0 0 0 0 -747.31007260418846 2141.4921370698357 0 2141.4921370698357 -1561.7069427323804 0 0 0 0 -191.42618553587818 1650.0054565866158 0 1650.0054565866158 -1430.8475572213647 0 0 0 0 -34.457411039365979 1749.6033879868119 0 1749.6033879868119 -1371.3625344112879 0 0 0 0 21.930675051125945 1916.7007277593711 0 1916.7007277593711 -1157.6353266743536 0 0 0 0 124.51713692592966 1253.0566183203155 0 1253.0566183203155 -1211.9705405151617 0 0 0 0 73.1238318708929 207.19915485845559 0 207.19915485845559 -911.03951606008741 0 0 0 0 225.71687269508402 1122.9477938230193 0 1122.9477938230193 -1112.9442387546587 0 0 0 0 -151.82519252556085 656.48384558629914 0 656.48384558629914 -355.45993899155292 0 0 0 0 -611.66623882977728 1199.822171622629 0 1199.822171622629 -649.15069310874969 0 0 0 0 -900.47107768868591 845.64063919358159 0 845.64063919358159 -105.22816958272597 0 0 0 0 -507.79180215846281 434.12407035352226 0 434.12407035352226 -110.5682207891914 0 0 0 0 -363.38807966391323 469.11887392829522 0 469.11887392829522 -34.8824883031848 0 0 0 0 -485.25146415334893 313.02443660404242 0 313.02443660404242 327.1140636215423 0 0 0 0 -348.29053133314301 397.29009050715831 0 397.29009050715831 143.46281376722618 0 0 0 0 -173.16916985488933 758.23318936997384 0 758.23318936997384 -233.66504034824175 0 0 0 0 -300.00454513905424 382.65115250582312 0 382.65115250582312 111.65003691043967 0 0 0 0 -318.77068360563862 290.37050605558034 0 290.37050605558034 190.72063096317288 0 0 0 0 -254.45967888933956 283.56558203687018 0 283.56558203687018 92.919256477171075 0 0 0 0 -157.50733806279459 350.23917869858997 0 350.23917869858997 55.871736329427222 0 0 0 0 -180.31425262552511 213.34541799373255 0 213.34541799373255 23.869525738802622 0 0 0 0 -690.20977434025372 248.14196531952166 0 248.14196531952166 965.20207287500671 0 0 0 0 0.16626292382589014 5.4472000506295899 0 5.4472000506295899 12.104478545282461 0 0 0 0 308.20845845871372 -314.14025213501009 0 -314.14025213501009 -189.15124850314169 0 0 0 0 -560.92748057780409 200.76075477824725 0 200.76075477824725 -494.02267475484405 0 0 0 0 0.15545581770113159 2.0940010795271462 0 2.0940010795271462 4.8371233784600918 0 0 0 0 508.1618909454337 311.8452405891112 0 311.8452405891112 -96.853283229153021 0 0 0 0 -727.01578858063294 103.43438720144331 0 103.43438720144331 293.83975668500352 0 0 0 0 905.46065522081972 1138.1154774481529 0 1138.1154774481529 685.94267836530344 0 0 0 0 0.7063687081946739 4.3578322428448075 0 4.3578322428448075 7.0273253260219803 0 0 0 0 759.24041515105637 273.82123831088757 0 273.82123831088757 -174.3387408849303 0 0 0 0 -317.17170623989114 289.05504220813236 0 289.05504220813236 14.89771595718048 0 0 0 0 -227.9904843087279 245.95315746522829 0 245.95315746522829 -65.169726376669132 0 0 0 0 -230.70560880903213 265.32504901121138 0 265.32504901121138 19.784678885349422 0 0 0 0 -219.26250490060193 280.10993924966897 0 280.10993924966897 -10.512360804423224 0 0 0 0 -217.36199426017993 295.72166143578215 0 295.72166143578215 15.514971749929828 0 0 0 0 -210.29169145938067 268.24198126184638 0 268.24198126184638 -43.590536258590873 0 0 0 0 -263.2262238156145 359.01705328001117 0 359.01705328001117 -43.382544387306552 0 0 0 0 -246.13469888140389 310.77561941104068 0 310.77561941104068 85.854642970494751 0 0 0 0 -301.09843573020771 406.2410935445223 0 406.2410935445223 31.332368967003276 0 0 0 0 -285.88392776329056 525.0193303450942 0 525.0193303450942 240.08594637989881 0 0 0 0 -252.20115007744607 781.11755679696944 0 781.11755679696944 21.658009444789059 0 0 0 0 -250.36037075026252 745.76370114038582 0 745.76370114038582 275.27147092918312 0 0 0 0 161.18476077009109 1006.1184261988383 0 1006.1184261988383 420.70842953285319 0 0 0 0 -429.57276708578866 528.52047778933775 0 528.52047778933775 715.63941736087145 0 0 0 0 563.77276269804861 460.86726760577221 0 460.86726760577221 264.69876014611509 0 0 0 0 659.18576357157872 559.07775988139838 0 559.07775988139838 94.5625286809518 0 0 0 0 351.94514331383107 729.46079378529976 0 729.46079378529976 33.011276039927907 0 0 0 0 475.02160808748158 424.22638066345644 0 424.22638066345644 28.414893460925668 0 0 0 0 -211.38997686981202 1070.3516710499989 0 1070.3516710499989 -193.0475513284473 0 0 0 0 -33.58470670917086 496.63003854200724 0 496.63003854200724 78.806030027219094 0 0 0 0 132.47850502752408 703.60375246033072 0 703.60375246033072 -108.18146569514647 0 0 0 0 254.31997201296326 484.64979734475855 0 484.64979734475855 238.88402302982286 0 0 0 0 322.66257576421776 531.82616359551685 0 531.82616359551685 43.972607472067466 0 0 0 0 257.11208371489192 627.32829123605916 0 627.32829123605916 258.65607425233247 0 0 0 0 -838.02746715446119 680.90849662206165 0 680.90849662206165 534.66635642034817 0 0 0 0 51.081323936319677 152.8246884297987 0 152.8246884297987 848.0252510720311 0 0 0 0 -24.021027029867753 8.5198544967902023 0 8.5198544967902023 -2.614557742246717 0 0 0 0 -776.66090737978811 370.95625005027978 0 370.95625005027978 1393.2239622142006 0 0 0 0 -409.3630099654838 645.8912658831614 0 645.8912658831614 -1102.1841000809509 0 0 0 0 86.798278837028192 -97.439574671923765 0 -97.439574671923765 -1.8482370164711028 0 0 0 0 -2913.4079053254973 2021.4532256256643 0 2021.4532256256643 344.16385829310457 0 0 0 0 230.46011782728601 4211.5398920662992 0 4211.5398920662992 -2.1717953831830528 0 0 0 0 -3049.8017895136145 2480.9347424787702 0 2480.9347424787702 0.16465493123669458 0 0 0 0 964.4345875487852 3250.6367479177861 0 3250.6367479177861 -1792.8494280844825 0 0 0 0 -3.1788519465923102 9.2267878608685265 0 9.2267878608685265 0.0019644000013840923 0 0 0 0 -811.59390102529869 581.65616237864015 0 581.65616237864015 881.38703008311859 0 0 0 0 -757.55484259095829 187.28047283207707 0 187.28047283207707 708.25302901258692 0 0 0 0 -34.301405477395747 1122.5308638182905 0 1122.5308638182905 -81.322918603720609 0 0 0 0 320.01910999077518 1263.541242350344 0 1263.541242350344 20.439047759064124 0 0 0 0 1703.9300082522896 900.98727122223499 0 900.98727122223499 -449.04439280327279 0 0 0 0 -272.39354602780077 793.59835966827086 0 793.59835966827086 64.422710970509797 0 0 0 0 -2.7366803115709217 8.3324502992280429 0 8.3324502992280429 -0.27005354413438454 0 0 0 0 -2506.0376769757058 792.9623898072241 0 792.9623898072241 708.66202147846343 0 0 0 0 -378.34065752035895 824.51385236935312 0 824.51385236935312 -330.62805571993522 0 0 0 0 -207.36690290315164 807.46020629702252 0 807.46020629702252 -220.62025579508918 0 0 0 0 -582.06401043113874 567.3745106700153 0 567.3745106700153 -252.98061544254961 0 0 0 0 -249.98042775402428 692.3030107811428 0 692.3030107811428 -394.40273682375846 0 0 0 0 170.67187811329859 1416.7764394680016 0 1416.7764394680016 -1412.4306075303175 0 0 0 0 122.38926956399519 1169.2534133811714 0 1169.2534133811714 -410.06488031458321 0 0 0 0 -599.43553720934142 685.74623292524848 0 685.74623292524848 -413.46124820422847 0 0 0 0 -84.440797507952084 777.85028365625476 0 777.85028365625476 -1134.7462253439007 0 0 0 0 -11.22476017454261 20.645119461895348 0 20.645119461895348 4.2147336311048917 0 0 0 0 10.220609362571849 23.713346344877209 0 23.713346344877209 -0.077296523275435902 0 0 0 0 -155.63921980221858 37.12295949345571 0 37.12295949345571 108.01549419334333 0 0 0 0 8.7254941695760522 44.052913023183834 0 44.052913023183834 5.4890258568509012 0 0 0 0 1.5879904661125863 3.9305386688096462 0 3.9305386688096462 -4.3605117837000194 0 0 0 0 21.981209969250074 10.388724019832466 0 10.388724019832466 -0.97820309967789854 0 0 0 0 832.76371520236717 -24.368685802051914 0 -24.368685802051914 -22.736952351697255 0 0 0 0 2716.4741298230874 1543.3048009043705 0 1543.3048009043705 -1406.1517010776151 0 0 0 0 -96.623615369804611 42.116606338520796 0 42.116606338520796 -0.33148642352898605 0 0 0 0 -36.20709261946314 11.530505569156105 0 11.530505569156105 9.5472265363494984 0 0 0 0 -82.709576397028286 51.541572810121579 0 51.541572810121579 -13.01919353575795 0 0 0 0 -10.765028799891297 20.365586370397068 0 20.365586370397068 0.061550837388494983 0 0 0 0 -67.947863663641328 10.243106243400689 0 10.243106243400689 33.017603482454433 0 0 0 0 -251.6155804584414 275.73431023130252 0 275.73431023130252 246.41605111444187 0 0 0 0 78.665110008968753 98.655912852404299 0 98.655912852404299 24.705390133523736 0 0 0 0 -104.11996743250762 12.471325893651766 0 12.471325893651766 8.2175897592173612 0 0 0 0 67.299363621335942 92.308934891858371 0 92.308934891858371 15.412842681216716 0 0 0 0 -27.51657329309819 128.32755573591567 0 128.32755573591567 -5.6304063249990577 0 0 0 0 -983.77283673715283 859.26819867155427 0 859.26819867155427 -315.48452470748452 0 0 0 0 87.280744473603846 91.507861918192617 0 91.507861918192617 18.38828806369122 0 0 0 0 60.341981225858035 396.13818786130651 0 396.13818786130651 -48.16631749185035 0 0 0 0 -1044.9845871509824 613.77832365279755 0 613.77832365279755 -191.75601139834907 0 0 0 0 -1164.0686766464969 1009.7402884627299 0 1009.7402884627299 -338.47889133389981 0 0 0 0 -636.23010204087768 546.89169930558273 0 546.89169930558273 -356.17811903400434 0 0 0 0 -355.58086250069027 502.03169427192915 0 502.03169427192915 -168.47620480077785 0 0 0 0 -278.17394953497933 551.8550387865198 0 551.8550387865198 -180.02313174541632 0 0 0 0 -371.20009791398479 422.75995334044273 0 422.75995334044273 -250.84666987072978 0 0 0 0 -560.40215804786931 657.20951323474947 0 657.20951323474947 -234.66472566078301 0 0 0 0 -410.04489383358305 484.23806240294653 0 484.23806240294653 -142.9756686881301 0 0 0 0 -297.23703840477538 359.66740964920609 0 359.66740964920609 -8.7844465942034731 0 0 0 0 -296.5911522919414 471.43080351327808 0 471.43080351327808 -229.25481888900686 0 0 0 0 -250.45419348520227 252.52206809113704 0 252.52206809113704 27.526087934616953 0 0 0 0 -255.20480772857263 350.44248412909656 0 350.44248412909656 5.0352465831747395 0 0 0 0 -187.1673162933439 310.17561462499725 0 310.17561462499725 -143.37465515722579 0 0 0 0 -399.17140703387849 503.55606598265877 0 503.55606598265877 -61.344602029479574 0 0 0 0 -392.54243268292339 445.75658286074759 0 445.75658286074759 -210.20101532730041 0 0 0 0 -783.60769821655413 1286.5512826095 0 1286.5512826095 -239.57737413637096 0 0 0 0 -478.07635637824433 711.21217302865637 0 711.21217302865637 -470.79666169443226 0 0 0 0 -487.54116313556005 435.18626892247994 0 435.18626892247994 -164.93011093787209 0 0 0 0 180.52021353725286 21.757304501516046 0 21.757304501516046 58.244123862830747 0 0 0 0 250.01449876144761 11.82019051178213 0 11.82019051178213 18.095023233589018 0 0 0 0 217.37317859675386 39.930675375595456 0 39.930675375595456 52.16463091771584 0 0 0 0 71.419988558337437 71.619091352068523 0 71.619091352068523 0.94281897285651439 0 0 0 0 -1552.9558443352798 732.35856169137332 0 732.35856169137332 -67.769304803994601 0 0 0 0 -1515.9759656330843 549.39983916877463 0 549.39983916877463 -73.918887563311728 0 0 0 0 180.65622018753493 8.7681600870200782 0 8.7681600870200782 46.542744473292259 0 0 0 0 217.71285428297415 -18.652360051091819 0 -18.652360051091819 14.066782452224288 0 0 0 0 -208.22266653337283 110.55301114547183 0 110.55301114547183 -72.024720624176553 0 0 0 0 27.288301348657114 47.388412958680419 0 47.388412958680419 -3.7159548917261418 0 0 0 0 -45.278769727272447 -22.801346316045965 0 -22.801346316045965 32.890511224497459 0 0 0 0 -38.249005985198892 148.83822197153859 0 148.83822197153859 213.06636939215241 0 0 0 0 51.326377018500352 87.275884502960253 0 87.275884502960253 -33.572872867778642 0 0 0 0 -116.76781413843128 217.80843358905804 0 217.80843358905804 -134.5237206852471 0 0 0 0 173.74521156173432 48.092589563137153 0 48.092589563137153 -297.4509420849281 0 0 0 0 131.44074334483594 161.31021898611652 0 161.31021898611652 -534.62819969070551 0 0 0 0 110.78986300520774 157.85104523091286 0 157.85104523091286 -369.98502691127942 0 0 0 0 28.622087120675133 360.09477547787537 0 360.09477547787537 -743.8516885904246 0 0 0 0 -102.0687878766621 151.81662510051683 0 151.81662510051683 -146.99868813420107 0 0 0 0 -177.55923490863643 94.196366969328665 0 94.196366969328665 -186.29338753400953 0 0 0 0 -2.1125605089145107 6.060631619899624 0 6.060631619899624 15.220665815402356 0 0 0 0 -64.787173038042965 137.0095205430116 0 137.0095205430116 -293.30832266202196 0 0 0 0 -339.4286932090472 322.71250166928803 0 322.71250166928803 -344.24437475769082 0 0 0 0 -365.14557726605562 93.110079665289959 0 93.110079665289959 -72.697223362949444 0 0 0 0 -419.57502024440328 -61.760610913770506 0 -61.760610913770506 149.0532691940316 0 0 0 0 0.17784245979056301 3.9599959546351045 0 3.9599959546351045 4.9848891774307162 0 0 0 0 -870.38733550957113 388.12247856334579 0 388.12247856334579 77.962351320893504 0 0 0 0 -415.07447890043045 688.6741688936429 0 688.6741688936429 97.685867273743497 0 0 0 0 -528.85222663567401 365.75475487906078 0 365.75475487906078 -140.54504094086587 0 0 0 0 -672.2862913243589 562.13925624938565 0 562.13925624938565 409.51968746456987 0 0 0 0 1.8677942942882169 1.5714337753033476 0 1.5714337753033476 -0.28754298324146532 0 0 0 0 -620.38191035398631 427.94208550287294 0 427.94208550287294 238.47822325681045 0 0 0 0 97.862184858968249 692.88855998515646 0 692.88855998515646 -1256.2616432328941 0 0 0 0 -649.87732364459953 1508.7244577004967 0 1508.7244577004967 -664.86781433975557 0 0 0 0 -636.37441757050692 1533.0599555221743 0 1533.0599555221743 -1024.7178278821521 0 0 0 0 -447.26214529466233 504.95984453661367 0 504.95984453661367 -326.37160557643801 0 0 0 0 -1629.9857755035919 730.00131113393581 0 730.00131113393581 -207.744072576701 0 0 0 0 42.290328723829589 268.05637467763881 0 268.05637467763881 -198.47129632822907 0 0 0 0 173.16033479582984 41.108663682396582 0 41.108663682396582 56.493564957185299 0 0 0 0 360.64146798476304 69.094361388037669 0 69.094361388037669 -74.935555014002603 0 0 0 0 77.744956656531983 82.386966219286251 0 82.386966219286251 11.410596967009155 0 0 0 0 186.77267844611197 36.426318090147106 0 36.426318090147106 -58.77107998469728 0 0 0 0 162.17511030077003 12.792295701299736 0 12.792295701299736 53.888309964655491 0 0 0 0 39.840603550430387 -19.759407463483512 0 -19.759407463483512 -75.178101743076695 0 0 0 0 152.19946680949943 343.0449351897405 0 343.0449351897405 -447.92850961776276 0 0 0 0 -324.46713360220383 -139.70329025453702 0 -139.70329025453702 -642.67367090817424 0 0 0 0 -722.28004952671472 967.52133886715455 0 967.52133886715455 -893.68625671921109 0 0 0 0 -1.8680485928343842 247.36893707709532 0 247.36893707709532 -246.24112263749703 0 0 0 0 -618.56635905285657 -337.20772061218304 0 -337.20772061218304 820.59238271747017 0 0 0 0 -827.29361976354267 392.03636741806986 0 392.03636741806986 429.39807117902092 0 0 0 0 328.2304130239645 412.91497947472089 0 412.91497947472089 108.84466139443248 0 0 0 0 -19.437156330899597 431.94259306848608 0 431.94259306848608 123.13227643840946 0 0 0 0 -40.868217013389142 -7.9925413939222949 0 -7.9925413939222949 0.95437130695918881 0 0 0 0 -65.417319789026806 343.6547723340118 0 343.6547723340118 962.46955007886572 0 0 0 0 -153.68130888189626 -101.26904433388336 0 -101.26904433388336 115.35915342523367 0 0 0 0 -55.406930449326524 4.6768602118800686 0 4.6768602118800686 4.2391911847998216 0 0 0 0 1386.4817137225764 706.69837804936105 0 706.69837804936105 1818.9503409909084 0 0 0 0 409.0588646242104 -300.94863693483057 0 -300.94863693483057 780.67734939427464 0 0 0 0 -767.19474297427223 1114.2526280582242 0 1114.2526280582242 -1902.7975356474635 0 0 0 0 -285.34353013544751 454.3893505503147 0 454.3893505503147 -1033.0182680401485 0 0 0 0 -283.38988999769208 495.70629443993676 0 495.70629443993676 -218.65765727852704 0 0 0 0 -66.365991432060753 -12.291874593177738 0 -12.291874593177738 2.6123659013294969 0 0 0 0 -750.79651821911102 426.17055021255146 0 426.17055021255146 -0.67409524867252912 0 0 0 0 -1241.1950676844717 987.15559119185491 0 987.15559119185491 -584.21213815311057 0 0 0 0 -314.50863843310799 253.71670418139547 0 253.71670418139547 -205.81504092358955 0 0 0 0 -154.83332985448214 263.42484716103172 0 263.42484716103172 -694.24162563749996 0 0 0 0 -9.0686242773866326 9.3420882876990845 0 9.3420882876990845 -16.172868402250288 0 0 0 0 -1586.0868914191378 812.90646329830633 0 812.90646329830633 0.9695468694804813 0 0 0 0 -1336.3206851273426 958.73159926055087 0 958.73159926055087 -576.54924582820968 0 0 0 0 -1240.2604299408208 883.50282730835249 0 883.50282730835249 -588.95704555764678 0 0 0 0 -1537.0412741303444 -1186.502595108781 0 -1186.502595108781 2163.9435599445424 0 0 0 0 -32.864865661757563 -3.7615880249740599 0 -3.7615880249740599 1.1359888817020192 0 0 0 0 -1500.1257138305809 723.77578397081015 0 723.77578397081015 -901.56273769761901 0 0 0 0 -1241.2679271741945 1842.8521353163815 0 1842.8521353163815 -2001.6343922322412 0 0 0 0 -1784.9786128870619 1246.9307187361701 0 1246.9307187361701 -644.29283470557129 0 0 0 0 -10511.787797187455 581.5588004150195 0 581.5588004150195 2600.6303711385699 0 0 0 0 -5869.9279751277318 1051.8262632910755 0 1051.8262632910755 551.9479659346689 0 0 0 0 -1980.706470086996 1368.5709550723113 0 1368.5709550723113 376.19832974663586 0 0 0 0 -438.23403158583096 916.80070064701431 0 916.80070064701431 -92.693448795442237 0 0 0 0 14.525190081301844 1481.2912299832169 0 1481.2912299832169 -700.41584003905882 0 0 0 0 -1240.6456797095307 901.15160135502811 0 901.15160135502811 554.35772119688045 0 0 0 0 -931.15341584194539 1711.0274556735494 0 1711.0274556735494 -571.75487270468147 0 0 0 0 -4207.5838842061639 491.81944199126883 0 491.81944199126883 1434.1179084477481 0 0 0 0 -7.009504386035502 12.688624980075673 0 12.688624980075673 -15.076613484238408 0 0 0 0 -3034.4308677057852 -491.52953116130084 0 -491.52953116130084 1969.6264451239622 0 0 0 0 -3490.9721805977169 -341.95913137597381 0 -341.95913137597381 2009.5717403576127 0 0 0 0 -5076.8378400518559 1772.1084466818429 0 1772.1084466818429 -438.42422544573492 0 0 0 0 -2311.1922504621907 640.54257131897612 0 640.54257131897612 294.80257720794179 0 0 0 0 -2967.3351292347943 2072.3766832011752 0 2072.3766832011752 -1064.1514831586101 0 0 0 0 -1215.3680967969703 271.0570294064164 0 271.0570294064164 295.86921227519633 0 0 0 0 -240.32110618697698 630.23987472067438 0 630.23987472067438 -1763.6777763819264 0 0 0 0 -676.59494315096526 1508.3525161327598 0 1508.3525161327598 -612.21269421311445 0 0 0 0 -579.89187596188276 1765.7564028816996 0 1765.7564028816996 -635.17588500576676 0 0 0 0 -884.21634642702702 1664.2811006488337 0 1664.2811006488337 -665.70267249079188 0 0 0 0 -1441.4248714909627 2401.0944123235895 0 2401.0944123235895 -465.9598211313205 0 0 0 0 -799.80413485133613 1986.2804101055735 0 1986.2804101055735 -1041.1229790267753 0 0 0 0 -2235.3932783512937 3667.3325193759774 0 3667.3325193759774 1.7149951052306278 0 0 0 0 -1797.3652827605911 3240.1446883718327 0 3240.1446883718327 -900.29609169234755 0 0 0 0 -1268.4457010984843 2870.873375835441 0 2870.873375835441 -838.21807411104965 0 0 0 0 -2064.7298660339002 2611.5116900612193 0 2611.5116900612193 -482.05239101228653 0 0 0 0 -1684.095548891084 2939.8541304957762 0 2939.8541304957762 -218.56412710649602 0 0 0 0 -3959.6437539371909 3122.0917673365657 0 3122.0917673365657 27.866097374135279 0 0 0 0 -0.42988495697838269 3485.4041527245809 0 3485.4041527245809 -1396.8966891336604 0 0 0 0 -789.34965559917327 3860.8435688684986 0 3860.8435688684986 -600.80299620812002 0 0 0 0 -938.4267576749553 2902.0050365788484 0 2902.0050365788484 -1325.8184453206923 0 0 0 0 -948.38143416262756 2835.1261147771584 0 2835.1261147771584 -1612.5553744469271 0 0 0 0 -308.35199513799489 2105.2746831425538 0 2105.2746831425538 -4512.6447524543764 0 0 0 0 -0.9173745174848591 2852.2794605313284 0 2852.2794605313284 -2891.4529883085706 0 0 0 0 -483.74269564289352 1042.401189349288 0 1042.401189349288 -6051.9024272741808 0 0 0 0 -44.573953665581939 2266.874063596355 0 2266.874063596355 -3878.1466561154812 0 0 0 0 659.55333126720507 -815.60359000638709 0 -815.60359000638709 -5931.4163452810608 0 0 0 0 4.6115160556157733 4.4834234400796902 0 4.4834234400796902 -4.9680095536876365 0 0 0 0 -142.12499296278111 1899.5258749233908 0 1899.5258749233908 -3257.8611085032608 0 0 0 0 -581.09214513688858 2743.0533761642109 0 2743.0533761642109 -2186.9843269358098 0 0 0 0 -741.35173101400142 2385.5749880223011 0 2385.5749880223011 -1681.3033209230416 0 0 0 0 -794.47087570896838 2304.2215126964002 0 2304.2215126964002 -1768.366829505132 0 0 0 0 -313.18407372341608 1711.2774616025999 0 1711.2774616025999 -1963.4553396904048 0 0 0 0 -698.70338266674662 2056.9727074600596 0 2056.9727074600596 -1181.3688170371461 0 0 0 0 -445.77850300894352 1259.96985245221 0 1259.96985245221 -817.01850281154475 0 0 0 0 -296.99982656139764 1488.7197118298354 0 1488.7197118298354 -1539.9595758940923 0 0 0 0 -169.1923021752591 905.32092932439991 0 905.32092932439991 -1352.8784306104499 0 0 0 0 -380.64540208975086 1650.3944914093736 0 1650.3944914093736 -1797.3189839721017 0 0 0 0 113.80751955765299 687.1768846777486 0 687.1768846777486 -3330.5514888860052 0 0 0 0 -205.60235294641461 1824.611740944034 0 1824.611740944034 -2380.8236981903028 0 0 0 0 27.505322847398929 762.20213655046246 0 762.20213655046246 -1861.4533010575342 0 0 0 0 31.996700955438428 823.04910083978029 0 823.04910083978029 -3495.7569940216199 0 0 0 0 89.525667765294202 -1477.4176710148167 0 -1477.4176710148167 -195.4300739508617 0 0 0 0 463.25943538825959 -1653.4245402640663 0 -1653.4245402640663 -1296.7584827513201 0 0 0 0 164.37796031156904 170.24250047035457 0 170.24250047035457 -348.79254702794606 0 0 0 0 231.84730946883792 338.57518999787862 0 338.57518999787862 -1760.1335521215551 0 0 0 0 256.18287918866554 61.373215126128343 0 61.373215126128343 -307.72665517142741 0 0 0 0 146.84344863437582 191.78431970570819 0 191.78431970570819 -465.41492242043023 0 0 0 0 -662.18841057393001 1160.9173162982624 0 1160.9173162982624 364.53622603985059 0 0 0 0 9.7940254955394153 0.5365497355911657 0 0.5365497355911657 -0.60067610697184648 0 0 0 0 154.14591065733111 118.85634544715867 0 118.85634544715867 -416.50730755526456 0 0 0 0 -740.10632822109619 177.0879257733468 0 177.0879257733468 -67.995010967570124 0 0 0 0 -16.092193998824087 10.999266985784203 0 10.999266985784203 -7.4435499508748535 0 0 0 0 -16.294381944899214 144.16633098240709 0 144.16633098240709 -8.1891490131383762 0 0 0 0 -230.8795684511424 -4.3596238951431587 0 -4.3596238951431587 -3.8891310467806761 0 0 0 0 -412.77021105375752 379.15036744242389 0 379.15036744242389 -80.50430637478712 0 0 0 0 -10.259500040890998 177.8535278556883 0 177.8535278556883 31.612447344523389 0 0 0 0 -0.036646796579589136 55.253602075237723 0 55.253602075237723 -33.596469580879784 0 0 0 0 -10.341225836795161 8.3709504925642761 0 8.3709504925642761 -8.9142973142731776 0 0 0 0 -27.431109201235813 53.927185901316989 0 53.927185901316989 0.68301898807112593 0 0 0 0 -614.27023738267599 1862.2597749114502 0 1862.2597749114502 -5482.0229373240727 0 0 0 0 -97.119480376364663 -631.66238726007577 0 -631.66238726007577 671.16965534485644 0 0 0 0 430.63788826487144 29.602587318433507 0 29.602587318433507 -171.66007871089096 0 0 0 0 256.10498603187079 107.47140904571279 0 107.47140904571279 167.42102846651687 0 0 0 0 35.796545799089813 0.79955419748444001 0 0.79955419748444001 -13.149737634950252 0 0 0 0 13.45448517561227 42.421430168157116 0 42.421430168157116 -40.385282247720284 0 0 0 0 -643.17277829056911 720.43236717217223 0 720.43236717217223 -986.88009940793563 0 0 0 0 -488.09291727567324 699.88600303291605 0 699.88600303291605 -1059.8131859105924 0 0 0 0 -491.01078046846487 697.57248567074203 0 697.57248567074203 -982.9498039479804 0 0 0 0 -165.50155601309234 143.23020955072207 0 143.23020955072207 188.75337271217722 0 0 0 0 31.569177396200573 33.319977124773658 0 33.319977124773658 18.332542542977535 0 0 0 0 -433.17372510337009 617.62790575600229 0 617.62790575600229 -998.90371024157685 0 0 0 0 -52.013907773286121 -3.5110082761090382 0 -3.5110082761090382 3.5271722418996632 0 0 0 0 -451.42352271208074 737.1818924422987 0 737.1818924422987 -1018.8539695011132 0 0 0 0 -876.99302292779612 501.64478626717755 0 501.64478626717755 -798.58821824504412 0 0 0 0 -725.89186891439022 643.83441448910162 0 643.83441448910162 -919.19984440198459 0 0 0 0 -856.03279375680449 575.83503370796461 0 575.83503370796461 -765.01981634537515 0 0 0 0 -858.71159857771636 677.66085253488563 0 677.66085253488563 -1266.920187744312 0 0 0 0 -771.20096717850538 528.76140088503234 0 528.76140088503234 -1091.3206470024743 0 0 0 0 -703.90829689631209 631.48760171842878 0 631.48760171842878 -969.44082833247376 0 0 0 0 -726.71139949646749 609.34200433501974 0 609.34200433501974 -945.5867268557995 0 0 0 0 -711.91221783691435 592.65229975125112 0 592.65229975125112 -1011.399923647914 0 0 0 0 -719.13881741112709 656.41260287410114 0 656.41260287410114 -879.77598968640086 0 0 0 0 -541.03207451448543 646.5436506510232 0 646.5436506510232 -1086.6214278990665 0 0 0 0 -779.5081597442113 819.31232400496083 0 819.31232400496083 -1256.0149074123401 0 0 0 0 -1061.5912314296002 1030.1143406146148 0 1030.1143406146148 -1031.8186894323371 0 0 0 0 -995.57311642886634 871.25900372535398 0 871.25900372535398 -907.59711951031932 0 0 0 0 -648.01912104237272 687.05453858067631 0 687.05453858067631 -898.12064003088744 0 0 0 0 -1000.0442883542928 795.52179874941066 0 795.52179874941066 -407.60202251341252 0 0 0 0 -632.11039248555971 620.40277150721522 0 620.40277150721522 -663.12535429687705 0 0 0 0 -544.92938108820044 691.65325335257376 0 691.65325335257376 -1044.3303958923789 0 0 0 0 -332.76065749169356 553.92627395239833 0 553.92627395239833 -955.38211647768912 0 0 0 0 -594.62065540985714 765.32849079918378 0 765.32849079918378 -1012.0392471530649 0 0 0 0 -317.60517190414203 789.71062553515503 0 789.71062553515503 -1121.5753616825677 0 0 0 0 -342.36631170962937 496.44897651232895 0 496.44897651232895 -619.1857293265457 0 0 0 0 142.09473748131131 756.46225225144735 0 756.46225225144735 -1292.4494679417694 0 0 0 0 -1638.8099387664406 2398.3337898692698 0 2398.3337898692698 -1176.0401278113422 0 0 0 0 7.9011984956888455 10.74324152727624 0 10.74324152727624 5.6380041728619403 0 0 0 0 -3156.0002931163181 828.63364557025488 0 828.63364557025488 -2585.7989140530117 0 0 0 0 -286.30781156405283 155.3028809769603 0 155.3028809769603 -106.38575921296069 0 0 0 0 -654.52958874259639 1461.8539435730199 0 1461.8539435730199 -1663.7057943043037 0 0 0 0 291.24565187084318 -211.52795245687776 0 -211.52795245687776 5.9274354913213756 0 0 0 0 -54.55808419965615 -37.910191905582906 0 -37.910191905582906 109.29551163755241 0 0 0 0 -400.85237427988545 277.68961019263361 0 277.68961019263361 -21.856022177467821 0 0 0 0 -204.57755041651035 383.32781559253635 0 383.32781559253635 -491.15388405276462 0 0 0 0 -459.2635879084919 226.20973985502496 0 226.20973985502496 -20.025661324820248 0 0 0 0 48.07279397786624 -36.611011222412344 0 -36.611011222412344 -20.452640223345952 0 0 0 0 -392.15907708336454 261.88967877275718 0 261.88967877275718 61.116106231493177 0 0 0 0 -439.69558444559516 503.81715144310147 0 503.81715144310147 -31.995896108433953 0 0 0 0 -403.46285330085084 91.602761401823955 0 91.602761401823955 -110.86989033504506 0 0 0 0 -468.08332108993636 534.3149706653785 0 534.3149706653785 -371.20240965593257 0 0 0 0 -152.45875115912713 324.1367903384089 0 324.1367903384089 -799.96893225074746 0 0 0 0 -417.70919274179323 1020.0858895739657 0 1020.0858895739657 -1378.6835975181602 0 0 0 0 69.58810840825754 5877.3171088756062 0 5877.3171088756062 200.75515812789672 0 0 0 0 -212.28019014184247 424.83537049718143 0 424.83537049718143 -163.30928891796793 0 0 0 0 -29.28280616144184 289.58207513109664 0 289.58207513109664 74.699732214125106 0 0 0 0 -223.3246276031241 296.0381771975226 0 296.0381771975226 206.03187016901211 0 0 0 0 -52.380854251343408 219.79146457760362 0 219.79146457760362 123.83075304227532 0 0 0 0 -232.39087358257893 375.4429959274421 0 375.4429959274421 133.73532947764033 0 0 0 0 131.89634870476584 115.18924382466503 0 115.18924382466503 100.20444342416886 0 0 0 0 22.222232856908121 15.936920858691281 0 15.936920858691281 5.979949208954821 0 0 0 0 19.683571307570674 215.77976289473008 0 215.77976289473008 66.277710025216948 0 0 0 0 -58.498747761699633 233.67332937361789 0 233.67332937361789 134.86752769348095 0 0 0 0 238.32149845834283 60.54617105826037 0 60.54617105826037 -56.183171674201731 0 0 0 0 221.37060696139815 140.3195105384948 0 140.3195105384948 156.99871107662329 0 0 0 0 -63.544341391898342 220.21656760046608 0 220.21656760046608 252.50969241044368 0 0 0 0 -42.100058493913821 293.80913573434373 0 293.80913573434373 203.41265878832201 0 0 0 0 42.673959065889889 26.237127693411111 0 26.237127693411111 -5.5995364211281071 0 0 0 0 203.60074956255266 73.297259375540307 0 73.297259375540307 71.4988046985236 0 0 0 0 83.310391559280944 85.676616995132136 0 85.676616995132136 49.623728232737903 0 0 0 0 67.64383868011052 103.58817098480566 0 103.58817098480566 76.955752915915753 0 0 0 0 821.60811896606901 74.748500331974356 0 74.748500331974356 -140.05745364111499 0 0 0 0 144.83704736687287 87.022202204541827 0 87.022202204541827 61.954712285631103 0 0 0 0 187.48901784719055 158.00361782607797 0 158.00361782607797 392.58700510206108 0 0 0 0 214.37882291948699 131.18899800381041 0 131.18899800381041 169.00411219446687 0 0 0 0 802.35451795317567 720.33290545835916 0 720.33290545835916 -364.00781824439764 0 0 0 0 -59.353397213200878 441.87607182937063 0 441.87607182937063 217.24315932393074 0 0 0 0 -19.291954708955018 289.82081001377082 0 289.82081001377082 160.1957869415055 0 0 0 0 -30.720853311620886 392.03095655996003 0 392.03095655996003 166.84747898789465 0 0 0 0 -142.14944403563823 224.81302574786969 0 224.81302574786969 172.13639487372711 0 0 0 0 -536.58644593181089 291.45799063000595 0 291.45799063000595 272.38359338566079 0 0 0 0 -909.39942206475007 76.467610077166682 0 76.467610077166682 297.17585411760956 0 0 0 0 -435.16129291525976 124.96232224096457 0 124.96232224096457 241.32504095183685 0 0 0 0 -249.68265591291492 -918.4824334059449 0 -918.4824334059449 -22.680235765772522 0 0 0 0 -48.965566296930774 1286.5855419411673 0 1286.5855419411673 -204.37115907896077 0 0 0 0 -1048.2031348470991 658.23266609746497 0 658.23266609746497 297.09878570954606 0 0 0 0 141.42401498852269 101.74792350236385 0 101.74792350236385 65.228152163836057 0 0 0 0 141.16808246911569 100.38808782546039 0 100.38808782546039 58.038456241978565 0 0 0 0 137.904416097801 93.638745561838732 0 93.638745561838732 70.005915970781643 0 0 0 0 137.25373110054898 90.989243621585047 0 90.989243621585047 59.689684561279137 0 0 0 0 -272.12024707852834 244.47578723928746 0 244.47578723928746 -134.58018767842441 0 0 0 0 26.873254970630782 24.114610198625428 0 24.114610198625428 13.034961187113083 0 0 0 0 -420.68571914608037 55.618761113684741 0 55.618761113684741 99.546034205821343 0 0 0 0 -343.60018449474228 -26.664789812581148 0 -26.664789812581148 124.08501996926498 0 0 0 0 -594.12038979993667 -48.657713104039431 0 -48.657713104039431 154.20215980050853 0 0 0 0 -17.563558139567789 -2.1447763028754139 0 -2.1447763028754139 -0.68943060214576235 0 0 0 0 -153.31117997421825 569.2848757366155 0 569.2848757366155 -540.7525489134714 0 0 0 0 -219.26132441289155 -261.32821393520862 0 -261.32821393520862 254.24119656581752 0 0 0 0 61.561132833172451 62.926425716650556 0 62.926425716650556 -101.17708698551905 0 0 0 0 -213.46953420061982 150.80713811592432 0 150.80713811592432 284.46037615893874 0 0 0 0 -209.67638534076104 270.92572760980693 0 270.92572760980693 -265.23894776745874 0 0 0 0 -422.4123957123702 288.92504262782313 0 288.92504262782313 355.33382111966785 0 0 0 0 -161.10473481449662 146.78762948223448 0 146.78762948223448 292.06418650169871 0 0 0 0 -261.61067047202687 264.30197186083933 0 264.30197186083933 165.83186710308655 0 0 0 0 -227.5779490825953 336.87071320027462 0 336.87071320027462 200.584148422211 0 0 0 0 -180.91490352081019 395.10205331948237 0 395.10205331948237 155.31432290849625 0 0 0 0 -186.46795207005198 411.66249252148555 0 411.66249252148555 106.74526154252817 0 0 0 0 -231.68419987267771 346.04649673254062 0 346.04649673254062 211.43128806553432 0 0 0 0 57.381875507811856 179.19310165977731 0 179.19310165977731 45.314436128421221 0 0 0 0 196.49247791549351 35.651886253450357 0 35.651886253450357 86.668692005303456 0 0 0 0 284.74112634230551 162.20671235449845 0 162.20671235449845 -38.754348830560048 0 0 0 0 -423.1502998885444 606.86382544216031 0 606.86382544216031 -71.303328079011408 0 0 0 0 71.299755934084132 111.15738902411267 0 111.15738902411267 102.13669742031709 0 0 0 0 -223.40589245510637 338.78068016566249 0 338.78068016566249 133.07163282239344 0 0 0 0 429.76170339629243 377.52183713121849 0 377.52183713121849 -54.020805787396966 0 0 0 0 73.528734350708277 121.32670668856348 0 121.32670668856348 139.81683377618293 0 0 0 0 515.85886814819241 32.896698579334043 0 32.896698579334043 -22.578904830297688 0 0 0 0 237.37555067653375 137.57713006972335 0 137.57713006972335 302.41632921657583 0 0 0 0 976.48371732658416 -346.32975785362942 0 -346.32975785362942 122.66815188378314 0 0 0 0 842.45696265792503 771.14655655504612 0 771.14655655504612 -256.52014813257847 0 0 0 0 -517.34888521049288 266.27401041270059 0 266.27401041270059 146.12518926008488 0 0 0 0 17.038352901188773 -596.57301959733013 0 -596.57301959733013 634.58714469973347 0 0 0 0 -320.67760777032527 -27.628121346708213 0 -27.628121346708213 -89.218416490533855 0 0 0 0 -927.0057345231653 941.44329153752915 0 941.44329153752915 476.6365039487282 0 0 0 0 -360.75904729622562 -754.1494987717233 0 -754.1494987717233 3032.1761365162092 0 0 0 0 1499.3305997052448 1244.3433837904377 0 1244.3433837904377 243.54880248158588 0 0 0 0 747.42201972848125 248.06926630246016 0 248.06926630246016 -305.43188047420699 0 0 0 0 -1352.6592359111019 546.80505472892037 0 546.80505472892037 562.56913042305678 0 0 0 0 2225.9365620780954 -94.040133492097084 0 -94.040133492097084 -425.75617379712639 0 0 0 0 6.9486444777087115 12.245998608729874 0 12.245998608729874 19.67523111473318 0 0 0 0 -115.69397585613842 357.32962470674829 0 357.32962470674829 17.212609253416304 0 0 0 0 -74.217260174133116 288.81983026469243 0 288.81983026469243 109.8081718616304 0 0 0 0 -158.40671508233936 352.22161572651385 0 352.22161572651385 81.703026759088971 0 0 0 0 -153.91136801564062 370.33584902221628 0 370.33584902221628 67.252650081471074 0 0 0 0 -148.33402342875343 352.16559683060041 0 352.16559683060041 126.44296220387332 0 0 0 0 -533.76381130909249 279.06190001642426 0 279.06190001642426 339.3284946501517 0 0 0 0 -156.76399728202523 337.9984240449412 0 337.9984240449412 102.65433636447415 0 0 0 0 -125.98890244152426 252.29562044263002 0 252.29562044263002 163.85764326179924 0 0 0 0 -35.777602833855781 240.93844634166453 0 240.93844634166453 104.16290637415659 0 0 0 0 75.522389595818211 146.51521520468626 0 146.51521520468626 165.00358638578842 0 0 0 0 -65.776081802752742 291.40659536745079 0 291.40659536745079 103.34644199459581 0 0 0 0 -66.68109191620897 186.35100308968686 0 186.35100308968686 228.5333545737376 0 0 0 0 -763.26144004620073 959.51636307935405 0 959.51636307935405 -239.76140267495066 0 0 0 0 -54.149395346672023 31.366312125493991 0 31.366312125493991 46.293462415693426 0 0 0 0 -227.55171673787117 79.143456560181221 0 79.143456560181221 -3.943944671387726 0 0 0 0 -82.368782779267349 147.90561465065548 0 147.90561465065548 -34.277637275692541 0 0 0 0 -23.436615264675119 142.73735585256685 0 142.73735585256685 85.235462603546353 0 0 0 0 22.21219899890389 122.36729807427182 0 122.36729807427182 5.3915480492015604 0 0 0 0 -31.299987190485631 137.36602660133417 0 137.36602660133417 66.00208181862439 0 0 0 0 -93.084703078060556 295.83649006212363 0 295.83649006212363 -75.867136619373923 0 0 0 0 -49.880721564099105 93.967757455820021 0 93.967757455820021 -19.583632240871125 0 0 0 0 -177.74836542156845 187.52310554666474 0 187.52310554666474 -13.695041402315837 0 0 0 0 -72.588728040948808 232.75717501636245 0 232.75717501636245 55.186146702850237 0 0 0 0 -177.30083792197547 210.4585922826991 0 210.4585922826991 -158.82562542607775 0 0 0 0 -244.00522394751897 504.2009516141261 0 504.2009516141261 -119.49491561431387 0 0 0 0 -52.059633872806046 85.605274849415565 0 85.605274849415565 -50.943059614550492 0 0 0 0 -296.75893492802425 393.52374656200118 0 393.52374656200118 270.48693064414692 0 0 0 0 -459.86298484280996 417.63645174476551 0 417.63645174476551 -33.503465483234322 0 0 0 0 -152.08500184903824 179.57440385704103 0 179.57440385704103 -448.79208101230324 0 0 0 0 -323.00354066117143 280.96487788152444 0 280.96487788152444 23.698045544762863 0 0 0 0 -189.49492679801187 403.48658969101962 0 403.48658969101962 -2.7127735451213084 0 0 0 0 -88.315252315078396 390.19522286039137 0 390.19522286039137 -9.4026267153676599 0 0 0 0 -205.50421180503326 414.5543131151353 0 414.5543131151353 205.32683106698096 0 0 0 0 -149.62902426633809 440.09271573650767 0 440.09271573650767 213.9191206915857 0 0 0 0 -228.77815133980403 305.8149316190611 0 305.8149316190611 381.40172180740046 0 0 0 0 -30.569248797080945 351.48444273226778 0 351.48444273226778 414.86175285240461 0 0 0 0 -185.43632592934046 364.29654961901542 0 364.29654961901542 422.11515223706374 0 0 0 0 -124.80640784416755 510.93789528112393 0 510.93789528112393 219.16091409108776 0 0 0 0 -52.345203046039387 144.66949320452113 0 144.66949320452113 138.85076256492175 0 0 0 0 -389.37831647383427 290.49453501161588 0 290.49453501161588 491.80187204875983 0 0 0 0 -709.683626413811 134.77273554186104 0 134.77273554186104 1461.2063373547862 0 0 0 0 -70.467761257576058 -275.75254693298484 0 -275.75254693298484 1386.8084254121641 0 0 0 0 -28.869498526233656 122.51546068697644 0 122.51546068697644 1458.6174934014416 0 0 0 0 -767.83910696932435 902.77637299080379 0 902.77637299080379 -1102.6433090577339 0 0 0 0 -4.7219424930403875 9.9677987713226059 0 9.9677987713226059 5.7731094745738005 0 0 0 0 -17.042952443334798 546.54415025989874 0 546.54415025989874 913.48347610820201 0 0 0 0 426.60512449285307 -21.102006086235633 0 -21.102006086235633 595.73599125230976 0 0 0 0 -12.906286879334118 3.9183744188284493 0 3.9183744188284493 6.3743081135268653 0 0 0 0 -133.81672592248651 -22.31559122382896 0 -22.31559122382896 481.30244977734401 0 0 0 0 -190.01692299908245 168.98736163996364 0 168.98736163996364 292.19637113796489 0 0 0 0 -242.64348359684664 370.88156815557159 0 370.88156815557159 556.32135710935108 0 0 0 0 -1158.0826026891773 513.94822273517275 0 513.94822273517275 35.592219210535404 0 0 0 0 -929.6833773426406 830.28955824281729 0 830.28955824281729 -473.86597118366626 0 0 0 0 -1110.4612772017208 453.24253002781916 0 453.24253002781916 -6.8801465938886395 0 0 0 0 -308.11320385971158 75.683662188459493 0 75.683662188459493 143.7417536797002 0 0 0 0 -1027.9964687536922 695.24057322361477 0 695.24057322361477 686.68874718526786 0 0 0 0 -1306.9921562920754 273.02660256054151 0 273.02660256054151 239.57133383062319 0 0 0 0 -1105.4476728346999 692.29948820199206 0 692.29948820199206 631.7506676581288 0 0 0 0 -813.08653926976694 375.95529868624726 0 375.95529868624726 -432.42971058936382 0 0 0 0 -635.2699011735167 36.943505710005411 0 36.943505710005411 207.27380749591975 0 0 0 0 -53.903192255732591 83.494188401147397 0 83.494188401147397 -45.136858871476534 0 0 0 0 -246.14046069874297 356.87997366166485 0 356.87997366166485 -55.54764414652891 0 0 0 0 -1052.5852611388655 622.26889501863661 0 622.26889501863661 276.39672244264511 0 0 0 0 -1829.2749541056619 775.85818234727412 0 775.85818234727412 256.29481029251474 0 0 0 0 -55.779173370200112 80.641901055934085 0 80.641901055934085 -43.815275885482137 0 0 0 0 -1485.0858096126685 599.00558050709151 0 599.00558050709151 630.36200507737522 0 0 0 0 -1142.3217849850989 -6.7420194172518677 0 -6.7420194172518677 196.67986762768851 0 0 0 0 -497.3512187690103 260.34199130080196 0 260.34199130080196 96.138214344944572 0 0 0 0 -1296.6012045139578 -69.687444452581985 0 -69.687444452581985 263.52905465204822 0 0 0 0 -7.0794471606468647 6.2121365467806982 0 6.2121365467806982 32.007387096565822 0 0 0 0 427.23790876018757 687.8565860748713 0 687.8565860748713 882.22711133255507 0 0 0 0 709.20231889863499 1194.6168618633674 0 1194.6168618633674 1247.090804553809 0 0 0 0 1242.971000673977 918.5109470641255 0 918.5109470641255 462.29487266630167 0 0 0 0 443.86830075792386 305.97721026864019 0 305.97721026864019 276.67675986829272 0 0 0 0 748.80107182125721 832.9566544932386 0 832.9566544932386 477.86156402342021 0 0 0 0 -181.93510703656648 -62.909674576629186 0 -62.909674576629186 466.55636321890779 0 0 0 0 -23.994237261990818 11.663190497555462 0 11.663190497555462 61.758048335652518 0 0 0 0 869.06370117083134 14.367959642520873 0 14.367959642520873 -27.817422867592541 0 0 0 0 -31.133049998283965 31.374991267772536 0 31.374991267772536 27.265020142390995 0 0 0 0 -70.281140120117925 59.455388384027174 0 59.455388384027174 373.29637819714844 0 0 0 0 786.6577173863916 536.00423796767427 0 536.00423796767427 295.67037169044488 0 0 0 0 -61.999822750485606 54.823522644901033 0 54.823522644901033 -12.36866711745644 0 0 0 0 440.26556341996184 175.05489963816945 0 175.05489963816945 -122.73371142799442 0 0 0 0 -315.24875771197549 405.61539261988946 0 405.61539261988946 -59.222463566111401 0 0 0 0 209.54420739308262 475.83983852417805 0 475.83983852417805 184.54856980033219 0 0 0 0 145.04652293724939 83.113410863224999 0 83.113410863224999 -535.36931477705366 0 0 0 0 189.80076426020241 961.45685109376791 0 961.45685109376791 -331.73057195558795 0 0 0 0 -30.596802378306165 592.03486802062253 0 592.03486802062253 -779.41106840704742 0 0 0 0 -25.893320040791878 1020.3267518372304 0 1020.3267518372304 -1728.0050646801683 0 0 0 0 -494.09777094042511 246.8669856681081 0 246.8669856681081 491.57332492140995 0 0 0 0 378.11012576158282 90.746774336425005 0 90.746774336425005 -465.34207093995064 0 0 0 0 -627.51344151863304 565.2032062135404 0 565.2032062135404 -639.32709080741188 0 0 0 0 -981.42518826219748 437.19552706823742 0 437.19552706823742 -231.83086144464323 0 0 0 0 -1011.440850280138 78.123440555253183 0 78.123440555253183 30.981574180454118 0 0 0 0 -378.68057055716781 70.88618376748127 0 70.88618376748127 -12.812190731870942 0 0 0 0 -1112.9656474842186 427.30207654211335 0 427.30207654211335 -508.00498362525832 0 0 0 0 -1085.5121575421726 286.10788852354744 0 286.10788852354744 -380.12661810871214 0 0 0 0 -1237.5575561082514 257.57027094501973 0 257.57027094501973 32.843575269493158 0 0 0 0 -1009.4554726262359 402.61216392042115 0 402.61216392042115 -5.7526073012559209 0 0 0 0 -1032.6927696451239 361.71931014877919 0 361.71931014877919 462.81434736622032 0 0 0 0 -656.88768884370074 220.62425814456947 0 220.62425814456947 424.60082499479904 0 0 0 0 -55.136850712089483 82.172647872004859 0 82.172647872004859 -40.65819514089462 0 0 0 0 256.23705307039199 959.12751449475763 0 959.12751449475763 -310.42067996878177 0 0 0 0 58.424322761115945 922.26730858134533 0 922.26730858134533 -50.857844218495302 0 0 0 0 195.49477630812908 1023.9153791398421 0 1023.9153791398421 153.86741601627728 0 0 0 0 356.39647418590903 691.32210861948261 0 691.32210861948261 503.41046865994576 0 0 0 0 226.18827856588177 525.96357555534632 0 525.96357555534632 336.7416064789868 0 0 0 0 309.283511708898 172.64394940715283 0 172.64394940715283 114.28197573319449 0 0 0 0 289.35203096605255 668.5439385711943 0 668.5439385711943 -205.36815140085673 0 0 0 0 55.666381373928743 681.0807508474245 0 681.0807508474245 94.400414656207431 0 0 0 0 309.28351170901442 172.64394940718194 0 172.64394940718194 114.28197573311627 0 0 0 0 79.047109871753491 152.35439674720692 0 152.35439674720692 938.14715840358986 0 0 0 0 184.86450956725457 617.48765461215226 0 617.48765461215226 1195.4840923737938 0 0 0 0 215.84521405896521 39.563778744170122 0 39.563778744170122 -423.76123346434906 0 0 0 0 53.161094382517945 16.248620966946476 0 16.248620966946476 -13.029866331508629 0 0 0 0 21.814422056049807 129.04752148204716 0 129.04752148204716 -144.03241809233441 0 0 0 0 518.45341111786547 612.19616934343503 0 612.19616934343503 766.40921876872017 0 0 0 0 394.19154465554129 513.02235377089983 0 513.02235377089983 688.99731005718058 0 0 0 0 361.51376734329097 774.2400051370787 0 774.2400051370787 351.8504157596908 0 0 0 0 490.85799738694914 940.91095074771147 0 940.91095074771147 565.82316015768811 0 0 0 0 715.76026788981653 848.56205955111727 0 848.56205955111727 407.54970115548349 0 0 0 0 816.7484065877361 1044.7745703750697 0 1044.7745703750697 849.40015907635825 0 0 0 0 729.00328838620044 943.08195014968078 0 943.08195014968078 748.51390511840873 0 0 0 0 666.70322245186253 1161.9969615242517 0 1161.9969615242517 1756.1728790922971 0 0 0 0 508.1591484626515 617.86088615490735 0 617.86088615490735 1208.4985422514874 0 0 0 0 755.42996242645313 707.63206687672209 0 707.63206687672209 1528.967813705618 0 0 0 0 659.69388039344631 727.96818836969032 0 727.96818836969032 831.6382157994376 0 0 0 0 871.34034735699242 1005.2873411405271 0 1005.2873411405271 701.27978030216764 0 0 0 0 499.44396879458873 953.92050343302435 0 953.92050343302435 994.53393213709933 0 0 0 0 21.712886129549588 299.1069087752403 0 299.1069087752403 494.24827546358756 0 0 0 0 62.637914420360175 509.95930196548215 0 509.95930196548215 -2528.5105585656711 0 0 0 0 -35.57760508371797 40.131005158875894 0 40.131005158875894 -23.318103763609614 0 0 0 0 350.07081219995598 256.45342252289265 0 256.45342252289265 -6450.6754057361504 0 0 0 0 845.18928029578819 894.67613742558024 0 894.67613742558024 659.54761191022408 0 0 0 0 841.43041719293797 901.51152786919738 0 901.51152786919738 762.92766114437836 0 0 0 0 572.38359569951717 806.62142328877235 0 806.62142328877235 1317.1245800738252 0 0 0 0 344.85374889848754 1174.2223021360624 0 1174.2223021360624 879.87521167962404 0 0 0 0 293.03802367403841 1409.3736418987683 0 1409.3736418987683 127.0961016259098 0 0 0 0 -303.19404816193855 2285.6436689520269 0 2285.6436689520269 2672.887527752966 0 0 0 0 -11.384306272565681 16.649848171382246 0 16.649848171382246 -10.498293550577927 0 0 0 0 389.27421862490883 2253.7160709326199 0 2253.7160709326199 -2567.5550009353192 0 0 0 0 -428.70268722429319 2905.4005147434 0 2905.4005147434 -177.49888039249345 0 0 0 0 201.5884813847224 1233.254551526421 0 1233.254551526421 -175.07801684565348 0 0 0 0 -167.09805830202095 1516.9464352702307 0 1516.9464352702307 -148.79501182006788 0 0 0 0 -40.333661918659345 546.36536906324363 0 546.36536906324363 -1179.9670075592585 0 0 0 0 381.17280490428675 533.60586730661453 0 533.60586730661453 -1867.5768601116315 0 0 0 0 -793.47511340467463 1252.9613839433005 0 1252.9613839433005 -1826.5537852079287 0 0 0 0 32.019732016997295 784.98375823899551 0 784.98375823899551 -2313.4748416970215 0 0 0 0 -337.89474465026069 2353.4515161097806 0 2353.4515161097806 -3474.346073991328 0 0 0 0 360.26835756537912 1096.6228664105365 0 1096.6228664105365 -2471.8107404318798 0 0 0 0 -240.0821852723966 923.82827066416212 0 923.82827066416212 -1275.0397653350083 0 0 0 0 -93.793105638134875 1549.0993855232118 0 1549.0993855232118 -1819.6124945204792 0 0 0 0 285.05151179400127 819.31764011109044 0 819.31764011109044 -2314.6047705773453 0 0 0 0 200.67330089927418 1252.9284550793236 0 1252.9284550793236 -2865.2165375760087 0 0 0 0 199.45986777849868 1138.8037732715839 0 1138.8037732715839 -1669.3510533284571 0 0 0 0 216.3002430907145 1827.9083897137971 0 1827.9083897137971 -2314.4543035092938 0 0 0 0 472.47497705671412 1798.6898798963957 0 1798.6898798963957 -2747.3534276423979 0 0 0 0 756.92037014845118 1388.9852421434625 0 1388.9852421434625 -2216.0285712394762 0 0 0 0 247.08439188975171 1513.6942367800948 0 1513.6942367800948 -1318.891129208685 0 0 0 0 388.70624967877666 978.84371346467378 0 978.84371346467378 -1070.5605728827941 0 0 0 0 207.12919648575917 843.99532181207178 0 843.99532181207178 2.2641932191618253 0 0 0 0 -41.843760255786037 1124.4497445765155 0 1124.4497445765155 110.17090150513104 0 0 0 0 -1650.269667389497 1437.94175905679 0 1437.94175905679 665.93174475833075 0 0 0 0 -15.364300380490022 1252.9590860554745 0 1252.9590860554745 590.29120863450225 0 0 0 0 323.8928189895596 1147.3593114609539 0 1147.3593114609539 85.370678152306937 0 0 0 0 232.06923717145401 1389.4939457425062 0 1389.4939457425062 36.909219619934447 0 0 0 0 621.89982717813109 1651.0663414787705 0 1651.0663414787705 749.95170211681398 0 0 0 0 786.04009512926859 1501.947847674106 0 1501.947847674106 -1057.9894215652748 0 0 0 0 624.5507405055032 1066.3447304415276 0 1066.3447304415276 -1576.2742864189495 0 0 0 0 891.72610781466938 946.10014668166696 0 946.10014668166696 -1286.3886035516189 0 0 0 0 513.52795016656819 801.71020207993934 0 801.71020207993934 -485.40874296695984 0 0 0 0 2577.4412014801055 1472.8888518756576 0 1472.8888518756576 -276.76433553515744 0 0 0 0 634.18822350556729 1975.6722567395773 0 1975.6722567395773 1722.6110705779865 0 0 0 0 1717.8590984490802 -640.24234447514755 0 -640.24234447514755 378.16561362454377 0 0 0 0 417.16317308913858 284.74511896969489 0 284.74511896969489 -232.02099632222962 0 0 0 0 620.87787247287633 -70.625884171298821 0 -70.625884171298821 -728.7453979482525 0 0 0 0 -1178.1793523619999 861.16996716722497 0 861.16996716722497 -1493.9732850932469 0 0 0 0 -922.08053199172718 515.01578904836788 0 515.01578904836788 -1557.9924881206298 0 0 0 0 -920.55489880107052 330.12458921204961 0 330.12458921204961 -905.05692523371545 0 0 0 0 -1161.5827803377397 811.51662673742339 0 811.51662673742339 -1215.5413335367339 0 0 0 0 -1026.5262184372477 132.00544037268264 0 132.00544037268264 -822.97086325772398 0 0 0 0 -404.6034654954201 182.47141211155395 0 182.47141211155395 -792.47536029806361 0 0 0 0 -9.5038307384093059 1016.1649057870018 0 1016.1649057870018 -1511.0661521565053 0 0 0 0 -280.9372007423226 979.41799133765744 0 979.41799133765744 -1500.8482032475658 0 0 0 0 -317.20924241164175 1712.0326572526246 0 1712.0326572526246 -2230.4509865624859 0 0 0 0 -1555.72150449943 1458.4439605082298 0 1458.4439605082298 -1654.6637178833189 0 0 0 0 -728.61270733887795 2260.7260484735016 0 2260.7260484735016 -2235.4477861882915 0 0 0 0 175.08094214863013 1787.3488708469886 0 1787.3488708469886 -2227.063695187855 0 0 0 0 -854.8765833410871 520.12786061979568 0 520.12786061979568 -2084.09038737433 0 0 0 0 -1730.0882258809943 1997.9092809726644 0 1997.9092809726644 -3192.4359039473638 0 0 0 0 -4535.572917285197 2622.3403608472163 0 2622.3403608472163 -1408.0129460328899 0 0 0 0 900.51665433244489 1058.8506159097888 0 1058.8506159097888 -2024.8376103227238 0 0 0 0 246.20993331988211 2119.7261454364416 0 2119.7261454364416 -2559.4190254292043 0 0 0 0 -440.18438332625374 133.20578285175725 0 133.20578285175725 523.50296207668725 0 0 0 0 2290.6567294952583 -507.58910610665043 0 -507.58910610665043 -618.76322501094546 0 0 0 0 -395.35773818371672 -11.961909867532086 0 -11.961909867532086 -277.89190210675588 0 0 0 0 0.14157422369665795 4.3041063165590145 0 4.3041063165590145 -26.537634128382592 0 0 0 0 -2948.5216483953045 1132.8816997332033 0 1132.8816997332033 -695.60641897271489 0 0 0 0 -1754.7985580812528 1849.6410424542337 0 1849.6410424542337 -2245.1509985360317 0 0 0 0 -1171.8698105345593 765.73696836737145 0 765.73696836737145 -1817.6387049668992 0 0 0 0 -973.39445120800519 584.40844688272773 0 584.40844688272773 -1339.1194941827853 0 0 0 0 -1097.3733981371115 1143.2418614779672 0 1143.2418614779672 -1547.0031188055182 0 0 0 0 -1346.4637201436999 1129.7015567542003 0 1129.7015567542003 -1099.5332460044738 0 0 0 0 -1344.6559494318572 1249.0484979370885 0 1249.0484979370885 -731.26999665792391 0 0 0 0 -1511.7504596512517 1507.4051660653349 0 1507.4051660653349 -1127.6696193452754 0 0 0 0 -1302.5913152718058 1460.2823033184104 0 1460.2823033184104 -628.6931955479522 0 0 0 0 -1299.9102151560746 1458.3293639021031 0 1458.3293639021031 -627.28621247969568 0 0 0 0 -1779.2209406361035 735.25697289265372 0 735.25697289265372 -223.18015065090731 0 0 0 0 -1468.0216643006643 1135.2981143178731 0 1135.2981143178731 -463.64031341334339 0 0 0 0 -1066.546293280735 391.41345331235789 0 391.41345331235789 -103.62760393208737 0 0 0 0 -981.54499605028832 1022.0792424499668 0 1022.0792424499668 -542.12682913163735 0 0 0 0 -1401.0486415341729 1114.6529813182569 0 1114.6529813182569 -575.49119369671098 0 0 0 0 -2013.7407327328219 1162.0394659547092 0 1162.0394659547092 -579.15491624758579 0 0 0 0 -1837.0763605841057 889.5397573343871 0 889.5397573343871 -642.70799956523115 0 0 0 0 7.0689388294604178 15.761245530738478 0 15.761245530738478 -66.081645205625762 0 0 0 0 -1942.057765750742 944.30058583738719 0 944.30058583738719 -451.06170279475919 0 0 0 0 1713.882437207114 288.38268883158526 0 288.38268883158526 -682.46785493462085 0 0 0 0 -947.98663411861344 1265.6120322993029 0 1265.6120322993029 -13.167954595322954 0 0 0 0 -171.46111301639758 783.33981772758307 0 783.33981772758307 -733.65694483718835 0 0 0 0 -2209.3691377242212 454.66153723897878 0 454.66153723897878 -412.11137145056273 0 0 0 0 -185.59605344345619 843.38468497012218 0 843.38468497012218 281.47760460187055 0 0 0 0 -553.80956858470836 -559.15106086337437 0 -559.15106086337437 -13.724929404095747 0 0 0 0 -10.111027550806767 -5.3435718937400623 0 -5.3435718937400623 1.7139833129542126 0 0 0 0 541.90134117895286 -66.182878716586856 0 -66.182878716586856 -753.95601370200166 0 0 0 0 -368.39897192915669 1109.1185166456489 0 1109.1185166456489 57.881212577168753 0 0 0 0 10.659559698370238 23.182305519529891 0 23.182305519529891 -74.39523350977521 0 0 0 0 -0.77404215588165926 2.0069796118988279 0 2.0069796118988279 5.5085731972715166 0 0 0 0 -23.925346377702226 -7.4876019175753754 0 -7.4876019175753754 20.631035307174898 0 0 0 0 -29.06124175451987 13.585643319753217 0 13.585643319753217 7.7863275507697836 0 0 0 0 -63.505333380773664 15.143485866632545 0 15.143485866632545 24.905251885735197 0 0 0 0 10.909170595841715 -17.757617929128173 0 -17.757617929128173 43.781458387122257 0 0 0 0 -48.825568661183752 16.262483259251894 0 16.262483259251894 15.198112344573019 0 0 0 0 -49.517820339675836 8.0054055895052443 0 8.0054055895052443 37.726764829392778 0 0 0 0 -29.762168264478532 20.911313869124569 0 20.911313869124569 26.012010784485028 0 0 0 0 -63.267247213138035 -8.5631718006479787 0 -8.5631718006479787 48.28163351668627 0 0 0 0 -107.03975610478665 23.877279599124449 0 23.877279599124449 42.788549063800019 0 0 0 0 1.5044525675519651 2.2485275014571755 0 2.2485275014571755 1.7168394735388688 0 0 0 0 13.434281358735461 -100.78042504419864 0 -100.78042504419864 242.58502382168081 0 0 0 0 -113.89089296686871 425.37103399807529 0 425.37103399807529 208.70798241773446 0 0 0 0 -306.89695758282323 142.51008317637024 0 142.51008317637024 -12.114950183080509 0 0 0 0 -47.263150957718608 -102.65776261441351 0 -102.65776261441351 -174.48491416815523 0 0 0 0 7.8787062386821702 22.764010921172314 0 22.764010921172314 -65.561276767388847 0 0 0 0 -609.0050637246386 473.61098910646979 0 473.61098910646979 -195.7004561081776 0 0 0 0 -446.46075513149844 483.10516163779175 0 483.10516163779175 -403.23323166824412 0 0 0 0 -475.13145235018419 954.30450348481463 0 954.30450348481463 -1014.2405752215709 0 0 0 0 -287.45445696207753 524.14116725162603 0 524.14116725162603 -473.8401193801401 0 0 0 0 -773.06304464760251 1336.769339298502 0 1336.769339298502 -755.43540040391963 0 0 0 0 -927.44942525100851 965.85413984427396 0 965.85413984427396 -483.69980338471942 0 0 0 0 -469.55781776644471 409.00651227860362 0 409.00651227860362 -414.3660737068858 0 0 0 0 -451.08165626123082 787.31293146790995 0 787.31293146790995 -725.79453055106569 0 0 0 0 1251.34471317719 1494.5283657093969 0 1494.5283657093969 2316.2741830637679 0 0 0 0 -236.96816880814004 21.486190177303797 0 21.486190177303797 1656.3840431140125 0 0 0 0 68.66294614051003 1272.4586792848713 0 1272.4586792848713 2272.2750623620595 0 0 0 0 9.5843106240087508 11.784096184846703 0 11.784096184846703 23.335031108054125 0 0 0 0 3276.2007785637907 430.6487588317068 0 430.6487588317068 12.997317236935487 0 0 0 0 813.77575113280909 163.95360992091446 0 163.95360992091446 -8.3260830263725438 0 0 0 0 176.64516944118077 -41.840638738394773 0 -41.840638738394773 -95.946699101477861 0 0 0 0 83.921987382294901 231.28931418049615 0 231.28931418049615 745.17552446147965 0 0 0 0 -225.97105450207891 754.59641234063747 0 754.59641234063747 1370.5032164149161 0 0 0 0 7.8837187919998541 682.51855432529555 0 682.51855432529555 516.56792890309589 0 0 0 0 60.140357579941337 22.99709734931821 0 22.99709734931821 184.67913155853785 0 0 0 0 346.29569569809246 972.33153943583602 0 972.33153943583602 586.2468244176448 0 0 0 0 1013.3199123253289 618.33904310349317 0 618.33904310349317 -13.968966664018808 0 0 0 0 -9.5625243430379214 0.078546021608786987 0 0.078546021608786987 5.87467872016515 0 0 0 0 -885.55570228639408 915.74167678406229 0 915.74167678406229 -974.83461335254833 0 0 0 0 -2.4421539074479028 0.40557484738304339 0 0.40557484738304339 -0.98531817204587924 0 0 0 0 -12.860911007516904 14.895801946010899 0 14.895801946010899 -10.97966808036233 0 0 0 0 -39.11717831279384 25.511746449541533 0 25.511746449541533 -6.0568580296821892 0 0 0 0 -37.775248587087844 3.7872302367068187 0 3.7872302367068187 -9.2434672001691069 0 0 0 0 -39.404767392918075 50.429835861426909 0 50.429835861426909 8.5134641898621339 0 0 0 0 -44.767590095245396 29.403794127007131 0 29.403794127007131 11.949703658610815 0 0 0 0 -61.295577315948321 33.076341716441675 0 33.076341716441675 13.943350779649336 0 0 0 0 -97.534126794162148 63.073544797160139 0 63.073544797160139 -1.9103477407479659 0 0 0 0 -73.910547603329178 33.843942969790078 0 33.843942969790078 22.388316824130015 0 0 0 0 8.304362323920941 77.574203065480106 0 77.574203065480106 -8.4083107475744328 0 0 0 0 -196.88609586704115 33.123513039361569 0 33.123513039361569 30.061290078388993 0 0 0 0 4.9543003991958336 8.9038896124648801 0 8.9038896124648801 2.2514934149249939 0 0 0 0 -73.679110949954293 59.846584250816022 0 59.846584250816022 5.9603080405504443 0 0 0 0 3.3890576967106654 35.536998948583403 0 35.536998948583403 16.211039177111957 0 0 0 0 -19.74681763769334 41.516611631261576 0 41.516611631261576 18.188709807963164 0 0 0 0 415.98450559140474 8.0816630039698794 0 8.0816630039698794 41.418522343577933 0 0 0 0 -13.036303460721683 57.401245419274346 0 57.401245419274346 20.804568250430748 0 0 0 0 -5.3830093405496058 38.443572222442853 0 38.443572222442853 -31.284903598083702 0 0 0 0 764.06411974439106 223.12315678517916 0 223.12315678517916 129.3337711164786 0 0 0 0 -1.0137803424004233 188.0662884197809 0 188.0662884197809 -93.802456426491744 0 0 0 0 8.6312323933994861 42.617755038262544 0 42.617755038262544 58.064522946065892 0 0 0 0 1131.0070285262191 322.92931827137363 0 322.92931827137363 -12.779846052260837 0 0 0 0 735.47584043637494 254.46161875821349 0 254.46161875821349 4.760907882679021 0 0 0 0 564.17055489587801 291.39892842706467 0 291.39892842706467 159.39177111379831 0 0 0 0 727.63307642452128 556.31476829470193 0 556.31476829470193 87.377273575388244 0 0 0 0 1206.255588944281 1047.1834546523096 0 1047.1834546523096 667.7972459335142 0 0 0 0 546.87828872971477 324.26686520491603 0 324.26686520491603 94.85367666039383 0 0 0 0 508.71673933690181 454.93841307153343 0 454.93841307153343 -20.040682848564757 0 0 0 0 -31.847389878268828 35.50999652868596 0 35.50999652868596 6.5874594296703322 0 0 0 0 452.40386418026173 233.0439637996933 0 233.0439637996933 15.7807681580598 0 0 0 0 -8.0275006175652379 27.220638470796985 0 27.220638470796985 0.61298320487185265 0 0 0 0 268.40770920366049 271.73635802711942 0 271.73635802711942 89.864203580729736 0 0 0 0 -68.221647199767176 43.104382849029207 0 43.104382849029207 19.689125480348594 0 0 0 0 -8.9918674825930793 38.952911253622005 0 38.952911253622005 -4.7577364521566778 0 0 0 0 5.1969253103379742 77.477377158065792 0 77.477377158065792 18.465698574087583 0 0 0 0 -33.673716451216023 43.098880325764185 0 43.098880325764185 26.813629047897848 0 0 0 0 -158.4499906140627 98.087461976239865 0 98.087461976239865 21.207002465248479 0 0 0 0 -0.041003257207687938 32.648314237464376 0 32.648314237464376 6.7675547108499359 0 0 0 0 -31.066299784302828 45.911853263671219 0 45.911853263671219 5.6849162860598881 0 0 0 0 -1.6443923088254024 9.8032590761062295 0 9.8032590761062295 22.864029300804418 0 0 0 0 -38.060309531349048 37.812138783010596 0 37.812138783010596 10.125620567741862 0 0 0 0 -16.694876452210703 36.966678579338058 0 36.966678579338058 2.1105370768621015 0 0 0 0 -8.9341637127799913 43.572558126465992 0 43.572558126465992 4.8635840360657312 0 0 0 0 -19.797481749520557 29.91294302884441 0 29.91294302884441 -4.9427170858170371 0 0 0 0 -15.193599554855609 72.117991218467068 0 72.117991218467068 23.523752220789902 0 0 0 0 73.938664071814856 80.441391630090948 0 80.441391630090948 1.2255598966148682 0 0 0 0 10.473527832800755 106.78663773264998 0 106.78663773264998 0.021817677756189369 0 0 0 0 -3.337167989608627 0.12699062431843089 0 0.12699062431843089 0.086278926161128311 0 0 0 0 -44.629052724383655 74.882222203814308 0 74.882222203814308 -0.018228296394227073 0 0 0 0 -122.41489108110181 44.916230412760342 0 44.916230412760342 40.774371072795475 0 0 0 0 -53.534171118633822 10.391566634410992 0 10.391566634410992 33.501735460682539 0 0 0 0 -35.455077357701356 29.864657310984938 0 29.864657310984938 -10.588112020405163 0 0 0 0 -22.336610668520734 50.523615780373802 0 50.523615780373802 -34.183458145023906 0 0 0 0 20.687625010745251 64.986295496339153 0 64.986295496339153 2.9538803555187769 0 0 0 0 -42.715347794687176 42.119788142706184 0 42.119788142706184 5.272494634763234 0 0 0 0 -31.561517847221694 67.931580031246995 0 67.931580031246995 22.65016907802783 0 0 0 0 -8.6118238397619109 27.409190065080736 0 27.409190065080736 -12.214648299068728 0 0 0 0 9.1742114178668999 71.723808652182925 0 71.723808652182925 0.019079432269791141 0 0 0 0 -14.064020196325146 50.36531618279696 0 50.36531618279696 5.5842560635574046 0 0 0 0 -62.064181055216267 28.174162697097046 0 28.174162697097046 -5.9518625502500129 0 0 0 0 -8.0739213708223474 -0.20644123620089516 0 -0.20644123620089516 1.2019054126745914 0 0 0 0 -88.313860071866657 -14.478838982613524 0 -14.478838982613524 157.23546754478593 0 0 0 0 334.29209066737531 408.22965674999432 0 408.22965674999432 332.67454574408475 0 0 0 0 201.51916103444091 577.05481880571097 0 577.05481880571097 550.02816966388491 0 0 0 0 -77.611779503844446 122.93280767978285 0 122.93280767978285 20.385698212136049 0 0 0 0 -20.566712838954118 29.440054193975811 0 29.440054193975811 -15.674685550930008 0 0 0 0 -135.38599679517938 62.040716729083215 0 62.040716729083215 19.678834999263927 0 0 0 0 -8.6300131930310613 39.793333583904939 0 39.793333583904939 -38.770240809293711 0 0 0 0 284.11540366646477 530.71349251122228 0 530.71349251122228 189.58901035258896 0 0 0 0 430.73193458883179 349.11519744453835 0 349.11519744453835 207.48257684415148 0 0 0 0 -15.083220729578173 29.359915196270634 0 29.359915196270634 -11.662055133804571 0 0 0 0 -249.88118177428623 15.880593382273219 0 15.880593382273219 -45.293238041514996 0 0 0 0 11.731882844997017 177.59070787582095 0 177.59070787582095 -786.55489577799744 0 0 0 0 -2.9352301692205032 35.235205338543125 0 35.235205338543125 -47.537866809226784 0 0 0 0 89.049890761893039 -114.96142733355373 0 -114.96142733355373 -174.32976837735623 0 0 0 0 -83.296817826776532 175.39729580462154 0 175.39729580462154 -445.7383705562188 0 0 0 0 -9.3575461981115673 26.097614360449953 0 26.097614360449953 -14.993312946708784 0 0 0 0 172.03932497386995 100.27704563282896 0 100.27704563282896 -10.39031841000542 0 0 0 0 -61.198060618426098 -183.58989165062667 0 -183.58989165062667 437.56412820145488 0 0 0 0 -91.837478035500681 357.21175764155487 0 357.21175764155487 -711.87770911847474 0 0 0 0 21.704688118286867 226.44031288072438 0 226.44031288072438 49.006846119998954 0 0 0 0 -56.75849596671469 114.98665811012324 0 114.98665811012324 100.03579216968501 0 0 0 0 -58.726976664038375 186.672273881195 0 186.672273881195 280.52340841052137 0 0 0 0 -143.50156886984041 49.472686324757888 0 49.472686324757888 43.582877476961585 0 0 0 0 -112.67329072179564 74.967483884858666 0 74.967483884858666 53.490590612956112 0 0 0 0 -97.459789754313533 21.935758084509871 0 21.935758084509871 179.15179596799135 0 0 0 0 -57.658068997523515 143.80622707773 0 143.80622707773 41.017248501302674 0 0 0 0 -95.937013910275709 98.621367249717878 0 98.621367249717878 0.99006167871266371 0 0 0 0 -105.8370997957536 134.73744469364465 0 134.73744469364465 -22.629126914820517 0 0 0 0 -0.79315042434362226 29.078346291666605 0 29.078346291666605 21.758880887110593 0 0 0 0 -42.10666362429626 57.707291911878741 0 57.707291911878741 -24.768335259238256 0 0 0 0 -79.1061356664286 75.668881440113182 0 75.668881440113182 30.892240926099475 0 0 0 0 13.640330440961407 112.47974447972956 0 112.47974447972956 -149.66459443308122 0 0 0 0 49.693550876676454 214.21026057199924 0 214.21026057199924 -52.618660936830565 0 0 0 0 -121.40496673394955 88.542712663889688 0 88.542712663889688 44.016334672312951 0 0 0 0 -14.26101443566645 11.168612724003026 0 11.168612724003026 5.2897481988968593 0 0 0 0 -86.26736156748666 62.568189633675502 0 62.568189633675502 -1.7611515412281733 0 0 0 0 8.9675065303017618 108.89917312640318 0 108.89917312640318 5.690293185194605 0 0 0 0 -40.450398101726023 92.757032113353489 0 92.757032113353489 99.851520254916977 0 0 0 0 -0.25573810504201333 15.947921633240981 0 15.947921633240981 -16.825485306588348 0 0 0 0 48.225215114129242 115.5331434791151 0 115.5331434791151 43.196644274663413 0 0 0 0 -84.272761250525946 51.381585639552213 0 51.381585639552213 53.263546138427046 0 0 0 0 -23.192201283156464 58.068602961353463 0 58.068602961353463 -8.5205616907333024 0 0 0 0 0.59536556816426289 -5.3614700850586701 0 -5.3614700850586701 0.90795646035962818 0 0 0 0 -95.677646529984486 101.92405956720177 0 101.92405956720177 -0.075372699400759302 0 0 0 0 -276.07619214354054 39.94405173476116 0 39.94405173476116 35.508283260394819 0 0 0 0 -18.968072848321754 366.70389446090849 0 366.70389446090849 -0.13235538387592349 0 0 0 0 0.31257739956090091 -1.8452587224286532 0 -1.8452587224286532 3.0238307313390465 0 0 0 0 -425.66753345760662 170.27314018740435 0 170.27314018740435 169.8371050413989 0 0 0 0 1603.2040375670094 458.98234487416994 0 458.98234487416994 -62.855705352296354 0 0 0 0 355.34010385520514 85.899437698705242 0 85.899437698705242 -164.48842435958795 0 0 0 0 12.737381835910128 206.10003821373357 0 206.10003821373357 -52.821316207293421 0 0 0 0 330.28258109917442 276.5820974460803 0 276.5820974460803 156.40584314311855 0 0 0 0 -3.0655710185956586 8.692444694183024 0 8.692444694183024 0.74739908089009077 0 0 0 0 -79.122149497539795 -277.36558835144388 0 -277.36558835144388 14.218572330835741 0 0 0 0 733.2164879327629 664.72327990848862 0 664.72327990848862 205.45670673759014 0 0 0 0 586.45428498568072 325.97431880327349 0 325.97431880327349 -30.513146049997886 0 0 0 0 891.33345582511538 786.2479811479061 0 786.2479811479061 0.004506639379542321 0 0 0 0 586.74707364493224 597.17398658722959 0 597.17398658722959 -100.53725307897548 0 0 0 0 565.28797507342097 738.20581044309802 0 738.20581044309802 202.55087055105832 0 0 0 0 -116.23070075009309 847.18471420254355 0 847.18471420254355 -0.11644180327130016 0 0 0 0 -223.24490210288059 724.76843241837196 0 724.76843241837196 366.00074278881948 0 0 0 0 -1338.037845649118 846.06062927801395 0 846.06062927801395 0.32506739476229995 0 0 0 0 -673.33131721157497 301.12920823048989 0 301.12920823048989 -1.099464517654269 0 0 0 0 -192.3389475217009 782.31858258250577 0 782.31858258250577 -263.05459908807097 0 0 0 0 -2398.8166032958898 1311.0181141009998 0 1311.0181141009998 -231.64082232545479 0 0 0 0 -1375.7979665469902 730.1175282557524 0 730.1175282557524 -1034.8903360799013 0 0 0 0 -2175.8045644517661 3101.3059284154588 0 3101.3059284154588 -583.08828583860304 0 0 0 0 -1428.5906816245124 774.27479323244552 0 774.27479323244552 423.27310602547368 0 0 0 0 -724.17417276511696 1004.8280936963711 0 1004.8280936963711 -59.966899475839455 0 0 0 0 -13.777994159740516 14.659160948084207 0 14.659160948084207 -5.6277322858950072 0 0 0 0 -2665.6935912747649 2651.7657190854807 0 2651.7657190854807 -4143.2766033380831 0 0 0 0 -1850.8834607495337 1709.4063634721388 0 1709.4063634721388 3206.7102589616115 0 0 0 0 -2259.6062980373486 4467.3535313944312 0 4467.3535313944312 208.13469910211279 0 0 0 0 -2235.8660647420365 2497.2233838012908 0 2497.2233838012908 1820.2203725631407 0 0 0 0 -1897.3819720303291 1920.8014688486001 0 1920.8014688486001 -3463.0526938427938 0 0 0 0 -1672.2545607643788 2349.4725243912108 0 2349.4725243912108 -2126.71801858244 0 0 0 0 780.44784174413144 1881.439727147801 0 1881.439727147801 -2324.8556403790135 0 0 0 0 -2.1252707790767715 7.0462021211772026 0 7.0462021211772026 4.9542202142137626 0 0 0 0 390.57254566781739 971.964454617515 0 971.964454617515 1180.5539551766124 0 0 0 0 891.86563335544633 610.19388777524728 0 610.19388777524728 334.63575960187154 0 0 0 0 -532.33933904015794 340.43193141670781 0 340.43193141670781 2133.9532497912005 0 0 0 0 -25.223385889252526 27.603811412780487 0 27.603811412780487 -11.147343761877636 0 0 0 0 -300.76894228214223 505.23151917583164 0 505.23151917583164 -711.67086848763938 0 0 0 0 -265.35558247700828 1056.6135739543388 0 1056.6135739543388 -994.01606931188144 0 0 0 0 -575.99754611724347 1874.6504696201191 0 1874.6504696201191 -2810.6450767927454 0 0 0 0 -1005.4300625859541 1653.843996634896 0 1653.843996634896 -1184.0535269345237 0 0 0 0 -1297.5447042831438 1718.1451930827461 0 1718.1451930827461 -594.03885832536616 0 0 0 0 -1539.0960427958416 1483.9247567900529 0 1483.9247567900529 30.532021184315454 0 0 0 0 -1321.3661950096721 1798.3934266424039 0 1798.3934266424039 -368.85987209236191 0 0 0 0 -1802.6738667285172 2576.7529997811362 0 2576.7529997811362 -1032.3940350143093 0 0 0 0 -1783.725817382588 2141.9004660498013 0 2141.9004660498013 62.578432738606352 0 0 0 0 43.666504690583679 374.29588651852828 0 374.29588651852828 -1527.3632129157777 0 0 0 0 -48.621434902354849 1139.7265329810771 0 1139.7265329810771 -4433.1456877457967 0 0 0 0 -1443.540972310584 3389.9032138705516 0 3389.9032138705516 -3106.950235276614 0 0 0 0 -3336.5669333067199 3861.0405998426868 0 3861.0405998426868 -1818.7984711450845 0 0 0 0 1217.5892232463775 2123.7306769527058 0 2123.7306769527058 -2843.4492514417434 0 0 0 0 -3165.5238615564158 1523.4964717321855 0 1523.4964717321855 988.24530340326601 0 0 0 0 -18.224184288311136 20.312192305770196 0 20.312192305770196 -18.556974902101672 0 0 0 0 -486.90197125880513 -245.5041099462469 0 -245.5041099462469 1146.5456405043806 0 0 0 0 -1927.2306469350697 1291.344750936998 0 1291.344750936998 292.09840069619531 0 0 0 0 1005.6968233289845 1689.6063415847275 0 1689.6063415847275 812.74394465840305 0 0 0 0 -153.34791481653883 813.67017311016389 0 813.67017311016389 -541.93130640936033 0 0 0 0 -1093.8113038558986 507.29063220088574 0 507.29063220088574 530.25168536520505 0 0 0 0 -118.01103528811109 351.87421062258591 0 351.87421062258591 -543.43131938643637 0 0 0 0 -1361.7031379949258 1093.7787775460311 0 1093.7787775460311 -473.19932235280794 0 0 0 0 -1273.5386217130035 1191.9514057352571 0 1191.9514057352571 -378.54884844797198 0 0 0 0 -1310.173019999791 1313.7137246528 0 1313.7137246528 -669.91014238781645 0 0 0 0 -1319.4328649079089 1533.3543143603656 0 1533.3543143603656 -469.02514142505242 0 0 0 0 -1435.5650782006705 1543.8499829298016 0 1543.8499829298016 -232.12979788178927 0 0 0 0 -1574.8968386996858 1684.1118186572421 0 1684.1118186572421 -363.14907028870948 0 0 0 0 -4663.8614930222211 -778.4256518443508 0 -778.4256518443508 549.98185564290907 0 0 0 0 -2105.3463804274943 -274.60140258073807 0 -274.60140258073807 -55.901031752946437 0 0 0 0 -3116.6610364869211 583.65917525682744 0 583.65917525682744 1402.8832877806271 0 0 0 0 -546.63875660235999 469.38279806966329 0 469.38279806966329 -223.27964825902018 0 0 0 0 -17.671196750310607 58.247298226571274 0 58.247298226571274 -57.896112956345235 0 0 0 0 -560.69610634992614 381.24198717871514 0 381.24198717871514 -90.744251921278192 0 0 0 0 -437.48960372081183 665.99941097687588 0 665.99941097687588 -517.59086403506808 0 0 0 0 -3783.9158056280776 2474.5298808961525 0 2474.5298808961525 939.96700849136687 0 0 0 0 -1247.6691452310552 763.10301547779818 0 763.10301547779818 -286.91121060449223 0 0 0 0 -1451.2599189767225 1478.7681038831215 0 1478.7681038831215 -384.47020244662417 0 0 0 0 -852.0686329578748 1667.1770137481508 0 1667.1770137481508 -641.15427773693227 0 0 0 0 -2273.9104410016189 1467.6407168849182 0 1467.6407168849182 1008.5576694307092 0 0 0 0 -20.820159626693922 20.06756901271342 0 20.06756901271342 -14.776044231698108 0 0 0 0 -3351.5736867059481 1373.6621492422692 0 1373.6621492422692 1200.5352205014497 0 0 0 0 1340.9232377530607 1896.9945588989212 0 1896.9945588989212 -1167.9080099619214 0 0 0 0 190.72293146167794 -94.307634074546513 0 -94.307634074546513 736.12929725171125 0 0 0 0 -38.993693259051852 40.930884821846178 0 40.930884821846178 -32.264954947386343 0 0 0 0 1116.8120140966257 2657.4040832112587 0 2657.4040832112587 412.33998004066234 0 0 0 0 -653.09279182176033 -628.77421176020289 0 -628.77421176020289 1846.7194657051659 0 0 0 0 -2113.4314523887897 1166.9858086174499 0 1166.9858086174499 185.71100088873936 0 0 0 0 -4161.3149331510213 1466.447435680042 0 1466.447435680042 500.3548072211488 0 0 0 0 803.88901885909547 -733.98936942018781 0 -733.98936942018781 655.76218587576295 0 0 0 0 -360.59443885309156 944.99630139098736 0 944.99630139098736 -1230.8845980600599 0 0 0 0 -545.53209295121633 441.46392657374963 0 441.46392657374963 -1540.7098530961666 0 0 0 0 -278.69697187021603 -49.369838414994319 0 -49.369838414994319 -2041.5264216756041 0 0 0 0 -3044.5592610264666 121.20062597577635 0 121.20062597577635 -937.26658667626907 0 0 0 0 -18.118298483654907 15.958883325185923 0 15.958883325185923 -23.119552536589595 0 0 0 0 130.60739947132436 58.042915613747027 0 58.042915613747027 -8.8743954057863448 0 0 0 0 391.74896762899425 805.82941683373065 0 805.82941683373065 -918.56064955895999 0 0 0 0 -1417.0383487904137 1825.1877355314427 0 1825.1877355314427 -1073.1373066759352 0 0 0 0 -555.4055161338697 827.08039345730504 0 827.08039345730504 -706.06203825687408 0 0 0 0 -903.11792180662337 1327.1334115572972 0 1327.1334115572972 -922.19350370467873 0 0 0 0 -1696.7117244985507 938.77995324305448 0 938.77995324305448 -672.36942922392336 0 0 0 0 -1247.8548897540968 719.41382150005666 0 719.41382150005666 -832.81915136282078 0 0 0 0 -1091.0049243314552 1267.183551544098 0 1267.183551544098 -672.74066185557956 0 0 0 0 -1216.1922395247566 983.04036837837884 0 983.04036837837884 -1254.6452032275847 0 0 0 0 -1164.011643290658 719.6032554370031 0 719.6032554370031 -1665.476780701676 0 0 0 0 -1159.3720660251729 652.81111342896475 0 652.81111342896475 -1181.6266513595183 0 0 0 0 -1321.2386179259538 1085.6855032358799 0 1085.6855032358799 -967.27535183020518 0 0 0 0 -1320.9898487161518 1121.9464269466989 0 1121.9464269466989 -1369.5498191646766 0 0 0 0 -1.7034901974014431 9.1746780198833449 0 9.1746780198833449 11.276960415585165 0 0 0 0 -1324.0573087538583 1003.8678405066748 0 1003.8678405066748 -769.89492196938954 0 0 0 0 -4.0081246505397807 3.8970920181057238 0 3.8970920181057238 6.2913193844647139 0 0 0 0 -809.89801947304522 1429.3994434136839 0 1429.3994434136839 -834.73302202795458 0 0 0 0 -1440.7003389005204 652.58461804402759 0 652.58461804402759 -352.94038020007974 0 0 0 0 -1540.1207938525558 625.82423936453051 0 625.82423936453051 -0.90253664062765893 0 0 0 0 -1217.0522036150933 1235.8905970823653 0 1235.8905970823653 -455.3670717861969 0 0 0 0 -1252.3084547856702 1505.2669254023313 0 1505.2669254023313 -1.9405715389439138 0 0 0 0 -1276.1224838328712 1328.612134099807 0 1328.612134099807 -454.61888037642177 0 0 0 0 -1267.7943904714307 1280.0297660515389 0 1280.0297660515389 -386.35038145937142 0 0 0 0 -1378.7267430581301 1175.186199587075 0 1175.186199587075 0.19584214080532547 0 0 0 0 -1209.3716715982366 1185.7833374902375 0 1185.7833374902375 -377.72532489473815 0 0 0 0 -1331.020432783389 1005.0761962899996 0 1005.0761962899996 -329.58039825448941 0 0 0 0 -1045.6778298142849 978.70684222396812 0 978.70684222396812 -373.15853565536963 0 0 0 0 -1502.0875797640711 959.68952713919862 0 959.68952713919862 -337.07592102771741 0 0 0 0 -1631.3874346143621 1024.693826644263 0 1024.693826644263 -0.77068536345905159 0 0 0 0 -1934.2928033051521 819.27882322201913 0 819.27882322201913 -140.05490696639754 0 0 0 0 7174.8042873928625 -2659.5189384797122 0 -2659.5189384797122 -1001.7410107600153 0 0 0 0 16.020621061490779 14.288707241783243 0 14.288707241783243 7.2328024354826539 0 0 0 0 5691.9040830005024 713.56020795618315 0 713.56020795618315 -1660.096089934028 0 0 0 0 10.705291359526143 1.558169007133273 0 1.558169007133273 -2.42419751675763 0 0 0 0 4060.1821236585765 430.47830848675949 0 430.47830848675949 -2773.8427544358274 0 0 0 0 3348.8642478237089 805.44504047771625 0 805.44504047771625 -432.83662950480903 0 0 0 0 -1369.2640533275428 834.25570588921073 0 834.25570588921073 -363.0178686377476 0 0 0 0 32.26542084450012 45.905925586660146 0 45.905925586660146 32.965799821514622 0 0 0 0 3742.1362694974191 575.59549610596105 0 575.59549610596105 -184.14780243276618 0 0 0 0 -1306.5142344892165 894.39825635122543 0 894.39825635122543 -322.10719888134918 0 0 0 0 3771.6168280084812 166.07853733921002 0 166.07853733921002 348.88219737849431 0 0 0 0 4303.1167282452843 881.03508854639949 0 881.03508854639949 -497.57976966974093 0 0 0 0 4225.2796942734349 841.208915475494 0 841.208915475494 -496.05363333929563 0 0 0 0 4603.3950986880081 646.66314173258434 0 646.66314173258434 -544.12394153876812 0 0 0 0 3942.9236492567579 615.00398720744124 0 615.00398720744124 -530.44642662088154 0 0 0 0 4242.6679588287225 2322.7350327008917 0 2322.7350327008917 343.61043968808372 0 0 0 0 784.51899199115542 469.91410672180064 0 469.91410672180064 215.30077597560012 0 0 0 0 1627.8124290927226 -893.35053162145778 0 -893.35053162145778 646.85480003543489 0 0 0 0 39.713278814626364 64.752260879124748 0 64.752260879124748 66.503410027627353 0 0 0 0 2477.090153091649 -1535.4837060617228 0 -1535.4837060617228 1120.6051815391984 0 0 0 0 4172.4621290280083 337.47200796272227 0 337.47200796272227 -493.0798870761646 0 0 0 0 -542.17736108022109 607.49547024761705 0 607.49547024761705 -355.55803780582937 0 0 0 0 -703.50044869662111 840.88022680499125 0 840.88022680499125 -448.49626692509628 0 0 0 0 -839.10239871950625 1025.340171282558 0 1025.340171282558 -616.94173711896292 0 0 0 0 -1130.2265442920848 1163.868558803726 0 1163.868558803726 -557.21655987438862 0 0 0 0 -1294.2047356789544 883.82296126407891 0 883.82296126407891 -361.36192025069613 0 0 0 0 -996.34311270950775 704.859423054324 0 704.859423054324 -258.82750363508967 0 0 0 0 69.944190297101159 14.972708328961744 0 14.972708328961744 57.345675210410263 0 0 0 0 114.36915553553263 34.931883781158831 0 34.931883781158831 -2.5747505779145285 0 0 0 0 72.182669578658533 12.168487089598784 0 12.168487089598784 30.033283573458903 0 0 0 0 96.412792965275003 25.572203547373647 0 25.572203547373647 -11.96510735413176 0 0 0 0 68.719747451919829 30.669641033222433 0 30.669641033222433 52.094050518062431 0 0 0 0 46.297491391190988 20.55855446896993 0 20.55855446896993 -14.131759263300694 0 0 0 0 78.519737855385756 32.246665275219129 0 32.246665275219129 39.589388748980127 0 0 0 0 68.798721922794357 54.402908938005567 0 54.402908938005567 17.364925148431212 0 0 0 0 67.229745750679285 32.631606541282963 0 32.631606541282963 53.94272153541533 0 0 0 0 98.34950220369501 -14.423261945514241 0 -14.423261945514241 110.14131105702836 0 0 0 0 81.057559489912819 17.888460527057759 0 17.888460527057759 49.783927699085325 0 0 0 0 64.549378243042156 58.923221825563814 0 58.923221825563814 73.236423344758805 0 0 0 0 162.62429444464942 1.1557196789071895 0 1.1557196789071895 -46.268988730807905 0 0 0 0 4.477621315283784 -4.6649542244654469 0 -4.6649542244654469 -7.9060343411264853 0 0 0 0 -11.182719480118976 343.60541448620097 0 343.60541448620097 -439.67268766765483 0 0 0 0 37.367274238036771 141.07034504585317 0 141.07034504585317 316.86001538363053 0 0 0 0 -827.45617752053295 207.160704079477 0 207.160704079477 -3.9417457421368454 0 0 0 0 -1351.8694207772933 641.22627958112571 0 641.22627958112571 -1.8787573979352601 0 0 0 0 5.095120159916334 10.831782787506711 0 10.831782787506711 0.38252880355693719 0 0 0 0 57.458220642930044 36.468417746152909 0 36.468417746152909 2.9298988776959902 0 0 0 0 76.365950221290404 40.843843358390586 0 40.843843358390586 32.715389490040252 0 0 0 0 100.39234610350832 46.335596192715457 0 46.335596192715457 26.566332732661976 0 0 0 0 -6.6424839473799722 13.984999144173599 0 13.984999144173599 12.236456277080663 0 0 0 0 -91.269201987561246 -18.99497688550764 0 -18.99497688550764 2.5614348065573722 0 0 0 0 -306.24167913265046 1853.505281616046 0 1853.505281616046 -1749.0935515149686 0 0 0 0 -645.18956579473752 741.66266590226951 0 741.66266590226951 -986.88699313471443 0 0 0 0 -399.36035870548221 1220.209411215139 0 1220.209411215139 -508.99939190143778 0 0 0 0 -481.42294536175154 473.75807472961878 0 473.75807472961878 39.61894510986167 0 0 0 0 1334.38862772641 1370.6431582254445 0 1370.6431582254445 4.3801094574253616 0 0 0 0 148.48595485090118 -1305.8771021988941 0 -1305.8771021988941 -1174.1901111177431 0 0 0 0 -1160.5201679378588 1782.7056722141278 0 1782.7056722141278 -390.63467767138718 0 0 0 0 596.9269117561962 685.65663172958011 0 685.65663172958011 942.9741867243938 0 0 0 0 -45.956145377760549 -159.89105887953338 0 -159.89105887953338 318.00024903577287 0 0 0 0 23.752277612689525 -6.5097655289390559 0 -6.5097655289390559 2.4982539491190607 0 0 0 0 -215.85238368459613 238.20599359122934 0 238.20599359122934 474.01970279229863 0 0 0 0 1070.7562253510005 -511.92794519869494 0 -511.92794519869494 -1047.9761218425992 0 0 0 0 -169.42609374628501 245.1163100869453 0 245.1163100869453 28.207260043505812 0 0 0 0 98.964247311228974 130.51956435047759 0 130.51956435047759 -258.9899275061689 0 0 0 0 -75.384574797353707 41.157471277947479 0 41.157471277947479 145.57039949682076 0 0 0 0 153.26269460388357 31.334168672989108 0 31.334168672989108 -17.526546035922365 0 0 0 0 -6.2631493745219675 49.04465965157469 0 49.04465965157469 12.413738517166166 0 0 0 0 -3.024966036697526 49.557060394592256 0 49.557060394592256 -6.2798855975646006 0 0 0 0 129.61883302267961 77.849222868731886 0 77.849222868731886 -30.726613060825912 0 0 0 0 -3.9888973482411529 170.06106116687079 0 170.06106116687079 -92.969388380122837 0 0 0 0 21.286391983201611 94.121130500861909 0 94.121130500861909 0.95237425540108234 0 0 0 0 99.050079624910722 11.574430418564589 0 11.574430418564589 -13.88712787289478 0 0 0 0 55.588684830532657 26.356880069175531 0 26.356880069175531 4.7030607169435825 0 0 0 0 70.182159711941495 68.059183048731938 0 68.059183048731938 -72.132734728103969 0 0 0 0 -43.193264892342995 132.98388077348864 0 132.98388077348864 -175.97500227265118 0 0 0 0 -111.36903687734593 127.47508737932367 0 127.47508737932367 115.85158987957402 0 0 0 0 3.596828563660921 7.5938285009064259 0 7.5938285009064259 -1.4649274511858152 0 0 0 0 8.4454533947208894 6.0687403009037268 0 6.0687403009037268 -2.9887582199553435 0 0 0 0 219.84189374952621 275.05115904928971 0 275.05115904928971 366.09336415060534 0 0 0 0 67.18614774108687 -10.138397783657382 0 -10.138397783657382 -1.2346777857400468 0 0 0 0 696.97717294209724 194.26872971996636 0 194.26872971996636 90.404360490960244 0 0 0 0 485.25869350937501 458.38448176128259 0 458.38448176128259 590.91432296452695 0 0 0 0 1574.8931528031571 821.56631785181526 0 821.56631785181526 328.41296063217305 0 0 0 0 1371.012377554609 614.13956120290823 0 614.13956120290823 180.09340770541166 0 0 0 0 1.5532710609946818 4.6474678165280352 0 4.6474678165280352 -10.92141107433298 0 0 0 0 1352.6250900253217 379.19649801140622 0 379.19649801140622 22.317388008523267 0 0 0 0 821.42301557286555 446.62494618644268 0 446.62494618644268 314.21380711600068 0 0 0 0 850.49693676111292 351.02385006613076 0 351.02385006613076 -0.002609378396300599 0 0 0 0 776.13358502634219 504.05347326385527 0 504.05347326385527 402.3238088256403 0 0 0 0 1012.4554676356784 524.18075852420588 0 524.18075852420588 152.06447753639077 0 0 0 0 718.12433293423965 831.50026064986014 0 831.50026064986014 -148.15598356968258 0 0 0 0 -1.3881944916568685 2.545645517956757 0 2.545645517956757 -0.56356169900237774 0 0 0 0 -316.5639159407292 394.93605589040089 0 394.93605589040089 -360.60906800726661 0 0 0 0 -668.90103622420884 254.41829272175528 0 254.41829272175528 1.5604135155299446 0 0 0 0 -302.06638681312324 164.01247983753274 0 164.01247983753274 19.074092104907322 0 0 0 0 486.08858272896032 116.07396108042121 0 116.07396108042121 76.293827727349708 0 0 0 0 -184.76950710020179 217.52636003364751 0 217.52636003364751 -293.78867861998151 0 0 0 0 45.959820680551204 74.962218264443834 0 74.962218264443834 88.767928409357978 0 0 0 0 -244.46871404489335 91.209507399602444 0 91.209507399602444 195.87644306779839 0 0 0 0 178.28616679400398 262.74930466305523 0 262.74930466305523 -658.92685259660357 0 0 0 0 -300.47607111041191 285.24441259704327 0 285.24441259704327 -183.26563664160494 0 0 0 0 -577.33623535909328 828.81689227886091 0 828.81689227886091 -660.1537368959215 0 0 0 0 -791.37598528270746 822.70842379779788 0 822.70842379779788 -385.74157179276517 0 0 0 0 1592.2810266073466 -441.97089521108865 0 -441.97089521108865 -33.851635766563049 0 0 0 0 2024.7172436705005 1320.0270929884718 0 1320.0270929884718 970.8637744550324 0 0 0 0 3.3816965521789584 2.8018664461852723 0 2.8018664461852723 -4.5988482539779056 0 0 0 0 3233.7697750237894 546.22529625046809 0 546.22529625046809 -358.17852565110661 0 0 0 0 2.7388312056961368 4.6596116403929102 0 4.6596116403929102 -10.952704960556616 0 0 0 0 1778.1573208263726 434.44781268617953 0 434.44781268617953 -14.219165438611526 0 0 0 0 1418.8470370587638 416.89821456897334 0 416.89821456897334 461.12148518127651 0 0 0 0 498.64634545358058 55.006189305648149 0 55.006189305648149 291.22818696133618 0 0 0 0 868.47001848057334 -210.44766899199021 0 -210.44766899199021 105.30300235451432 0 0 0 0 1109.8372944917937 261.67045822215732 0 261.67045822215732 183.37414845842432 0 0 0 0 1166.3729040011312 247.58081508250325 0 247.58081508250325 33.145201981213177 0 0 0 0 947.40223231268465 54.45727360714227 0 54.45727360714227 -11.846647868143918 0 0 0 0 1016.1642937173019 376.22218548979436 0 376.22218548979436 91.772618119437539 0 0 0 0 711.15216835129104 27.216271308359865 0 27.216271308359865 21.258274326450191 0 0 0 0 434.58018237505348 65.226017630001479 0 65.226017630001479 72.438233783279429 0 0 0 0 437.36239877252228 24.809772550273919 0 24.809772550273919 138.36869178664347 0 0 0 0 375.88150968735499 -173.4072054951539 0 -173.4072054951539 185.26560207011062 0 0 0 0 154.37850862436426 112.59834422481435 0 112.59834422481435 188.87788367457688 0 0 0 0 640.86021554239414 78.782323199651728 0 78.782323199651728 70.396483700191311 0 0 0 0 -341.05532926031469 70.097988412657287 0 70.097988412657287 472.52723872632487 0 0 0 0 36.461970741090575 82.55773391188697 0 82.55773391188697 109.7533884183693 0 0 0 0 159.13112359486058 283.5619703492921 0 283.5619703492921 161.5679557294734 0 0 0 0 21.048637535406733 13.502851668321021 0 13.502851668321021 7.3613183646979223 0 0 0 0 154.07915795277495 274.17944210304995 0 274.17944210304995 12.000581793734455 0 0 0 0 -9.3577823498517585 46.711337400324517 0 46.711337400324517 80.69011266618827 0 0 0 0 47.632980441177097 83.572022789518087 0 83.572022789518087 -11.517039244703483 0 0 0 0 -5.2223824549489422 55.602188214403554 0 55.602188214403554 46.323511284907624 0 0 0 0 42.026529781378201 73.919699278855276 0 73.919699278855276 -5.7225846833729861 0 0 0 0 441.67866589802361 159.86379619798754 0 159.86379619798754 12.358682247315301 0 0 0 0 291.85571132514815 37.333648899679247 0 37.333648899679247 120.66447218703979 0 0 0 0 15.115996363047088 263.80669102306274 0 263.80669102306274 -153.68515544419643 0 0 0 0 -21.673092168212527 46.276585592001936 0 46.276585592001936 29.234969346802359 0 0 0 0 332.65259891109963 156.74332107441296 0 156.74332107441296 54.386055071401643 0 0 0 0 583.9882970192848 148.36897859590681 0 148.36897859590681 -11.16530147283629 0 0 0 0 117.79748182498224 61.325584712965792 0 61.325584712965792 3.115832742958446 0 0 0 0 273.27358281196575 27.858461562544107 0 27.858461562544107 7.148000333487289 0 0 0 0 84.575088888348546 -8.369702637050068 0 -8.369702637050068 128.40655681691715 0 0 0 0 15.451404272249839 11.43296082854306 0 11.43296082854306 3.8052225004582851 0 0 0 0 42.269662551108169 44.843818259805914 0 44.843818259805914 -28.708970366109781 0 0 0 0 49.741795203840191 23.91911119130549 0 23.91911119130549 -2.3066661383448093 0 0 0 0 141.76614613568745 93.904934210208012 0 93.904934210208012 59.038002086468623 0 0 0 0 130.14426001543325 164.43999900929339 0 164.43999900929339 92.862434336653678 0 0 0 0 136.58518596160366 82.433991209827127 0 82.433991209827127 63.830497815768467 0 0 0 0 -194.96951425975021 432.12303694314323 0 432.12303694314323 123.58454961083771 0 0 0 0 50.57816848971833 22.788663442975633 0 22.788663442975633 -35.393389197616585 0 0 0 0 183.24722847799421 213.8893094615778 0 213.8893094615778 110.25936874291074 0 0 0 0 98.595043437711865 -21.779521059143008 0 -21.779521059143008 -101.13420074482565 0 0 0 0 88.633652385466121 163.539934070046 0 163.539934070046 127.58033731517207 0 0 0 0 -5.0354269367308007 93.959495958129992 0 93.959495958129992 0.13510406075511128 0 0 0 0 70.416864063932195 52.642952120389396 0 52.642952120389396 -111.80057537798245 0 0 0 0 18.913292175798972 57.393386050223143 0 57.393386050223143 1.0996907945207113 0 0 0 0 26.168588593176118 54.765483689582041 0 54.765483689582041 74.009926858667939 0 0 0 0 153.32466642731379 71.581250244293187 0 71.581250244293187 54.503525969746988 0 0 0 0 127.5475196920961 97.740129356563557 0 97.740129356563557 61.89551102527912 0 0 0 0 78.478654522346915 51.478609561636404 0 51.478609561636404 55.04567633041006 0 0 0 0 18.76307125748005 42.817771305423207 0 42.817771305423207 8.831451937493739 0 0 0 0 550.43066827066104 442.8675242522786 0 442.8675242522786 45.170708791163634 0 0 0 0 321.80182141753176 321.47287777128804 0 321.47287777128804 141.47742424672651 0 0 0 0 472.90138673492766 499.02470018545864 0 499.02470018545864 177.9368255754307 0 0 0 0 469.11921428366622 489.67316131050029 0 489.67316131050029 154.9034088505723 0 0 0 0 13.183593083288187 9.8637784388577643 0 9.8637784388577643 1.086917604626251 0 0 0 0 350.09559015648119 232.47055080524296 0 232.47055080524296 -114.45064630920615 0 0 0 0 546.37649725694064 439.17185371434607 0 439.17185371434607 212.71942525378836 0 0 0 0 489.45452396231121 311.18427487189183 0 311.18427487189183 171.74500574239573 0 0 0 0 671.05898026395153 405.30317050322628 0 405.30317050322628 56.769634121184936 0 0 0 0 910.85697713611444 280.73375800882786 0 280.73375800882786 -297.95576408709167 0 0 0 0 668.99046186481792 478.84455760672427 0 478.84455760672427 -194.35264619694499 0 0 0 0 630.08471205072419 235.52693655325129 0 235.52693655325129 -98.068223529309762 0 0 0 0 601.94246209619087 304.94578619702952 0 304.94578619702952 -78.731747580866795 0 0 0 0 733.31507633286583 165.73489740825335 0 165.73489740825335 -39.531431447801879 0 0 0 0 797.03531052059043 125.34742687944527 0 125.34742687944527 -70.385410792703624 0 0 0 0 1071.9695413253976 327.18404697289589 0 327.18404697289589 -610.75637078196451 0 0 0 0 914.10058419070992 192.09309250666411 0 192.09309250666411 -54.85427069063735 0 0 0 0 608.11866591859871 895.21266048265534 0 895.21266048265534 -50.914160887383332 0 0 0 0 711.34636616979697 839.68238876589021 0 839.68238876589021 -589.52355551264191 0 0 0 0 1.0227798687157801 2.2501349091682243 0 2.2501349091682243 -4.8088523370845451 0 0 0 0 535.39795740584668 579.27313564921496 0 579.27313564921496 -534.64002179458112 0 0 0 0 391.72243350539065 639.65263395008878 0 639.65263395008878 -79.662667358817998 0 0 0 0 574.89495710591291 783.61046294358675 0 783.61046294358675 -423.81922659608608 0 0 0 0 364.29432050288597 667.79350287976558 0 667.79350287976558 -575.95832012394385 0 0 0 0 338.48626117654931 629.38833724621145 0 629.38833724621145 -368.96366430667695 0 0 0 0 53.420951299427543 454.56784550773591 0 454.56784550773591 -360.15842232667637 0 0 0 0 486.46197143921017 878.35200481440552 0 878.35200481440552 -116.68392846242568 0 0 0 0 516.17015491732309 668.85275703862499 0 668.85275703862499 -131.78893152355158 0 0 0 0 542.1723013098599 707.83926123286074 0 707.83926123286074 -398.81105058362664 0 0 0 0 215.80497112389639 608.67350663839898 0 608.67350663839898 -118.54849710270355 0 0 0 0 557.33113382077318 594.19884887033186 0 594.19884887033186 -118.40510140414699 0 0 0 0 557.50625286467039 688.91100383412049 0 688.91100383412049 -134.0523257037712 0 0 0 0 456.15611907792481 697.85294530362444 0 697.85294530362444 217.92123308742885 0 0 0 0 692.11552318510621 603.82154107877068 0 603.82154107877068 156.7651068973064 0 0 0 0 620.15107163901121 853.07609311177657 0 853.07609311177657 289.93311344827089 0 0 0 0 440.75223157980508 703.05795614278759 0 703.05795614278759 121.81677983788541 0 0 0 0 501.83067301041592 690.91855917605426 0 690.91855917605426 79.557194911663828 0 0 0 0 710.68274730913072 575.68418128076519 0 575.68418128076519 -115.20434469240718 0 0 0 0 521.30897163479676 675.57524396774534 0 675.57524396774534 -80.370611280609864 0 0 0 0 509.3608637345169 652.22807147919957 0 652.22807147919957 235.72478965721893 0 0 0 0 441.24042647523311 737.36138462305826 0 737.36138462305826 215.8603036832792 0 0 0 0 445.57429317617061 544.34713952277525 0 544.34713952277525 213.5514593913831 0 0 0 0 364.83348173676495 598.75478827776533 0 598.75478827776533 342.52258463158068 0 0 0 0 294.86753972163569 405.47005899836222 0 405.47005899836222 652.52221730069141 0 0 0 0 324.2500043057953 699.80280439417402 0 699.80280439417402 815.08060274261516 0 0 0 0 364.30262181803846 603.42287121332629 0 603.42287121332629 531.51710501236084 0 0 0 0 301.85992309321955 447.85043310444598 0 447.85043310444598 767.5820934013318 0 0 0 0 83.629727141674863 23.373222122158097 0 23.373222122158097 -21.321835512179504 0 0 0 0 45.601287449593656 -284.98716859176056 0 -284.98716859176056 -1979.6047237500461 0 0 0 0 439.02542501043354 90.359613415334024 0 90.359613415334024 -2108.1084980930136 0 0 0 0 256.76094919008028 486.09997101898989 0 486.09997101898989 748.92674982167955 0 0 0 0 -147.75056543841856 230.90896352478603 0 230.90896352478603 -609.74488924664911 0 0 0 0 13.555291482551439 10.39024959652798 0 10.39024959652798 2.391636741481733 0 0 0 0 467.95970630477677 828.11816817695217 0 828.11816817695217 1293.6830827937956 0 0 0 0 454.00736895851151 674.46525100076542 0 674.46525100076542 638.6277653434081 0 0 0 0 470.55400676827412 783.512810346263 0 783.512810346263 489.63768130744575 0 0 0 0 581.22427621915267 850.66953421964718 0 850.66953421964718 748.74623017341946 0 0 0 0 356.6888443600692 827.96368116037775 0 827.96368116037775 1629.1542971412928 0 0 0 0 258.83978503011895 531.95715368950914 0 531.95715368950914 1376.9280045439955 0 0 0 0 658.0952265866581 661.94398290633399 0 661.94398290633399 1267.5576935573918 0 0 0 0 -337.85762774369505 -861.05981573471945 0 -861.05981573471945 -2256.1528592509858 0 0 0 0 1899.8880292622634 1023.7900602464142 0 1023.7900602464142 -2396.4004742032848 0 0 0 0 67.269536932866373 13.409155329774308 0 13.409155329774308 -11.24229921955839 0 0 0 0 1276.9689072874025 -848.91424449098122 0 -848.91424449098122 -3733.8218960442318 0 0 0 0 -197.12640836834908 311.01011445139738 0 311.01011445139738 1663.0975070798377 0 0 0 0 1624.0458867368143 1449.8966172165674 0 1449.8966172165674 2193.5053347852372 0 0 0 0 64.907024424122937 1179.5252909638657 0 1179.5252909638657 1017.8058046304795 0 0 0 0 635.80331908678636 1586.7307033017423 0 1586.7307033017423 2465.2508407922942 0 0 0 0 19.113952563442751 -0.29487776177617775 0 -0.29487776177617775 -0.074400515772445885 0 0 0 0 -656.10349123168271 -723.81624721151456 0 -723.81624721151456 -2096.6313617596679 0 0 0 0 1342.8216538364795 1743.7771383020226 0 1743.7771383020226 1974.438946031878 0 0 0 0 61.710830382973654 670.80970833131869 0 670.80970833131869 -540.08985477931856 0 0 0 0 -18.235250659839949 342.06426137445669 0 342.06426137445669 -215.34098036776413 0 0 0 0 147.20168696159089 502.63228903936397 0 502.63228903936397 -472.53539064110373 0 0 0 0 146.12649931471969 310.62421067079049 0 310.62421067079049 -1031.0198813261522 0 0 0 0 -160.66137204592405 -23.666104820298642 0 -23.666104820298642 -882.90741270975559 0 0 0 0 12.823763661639532 427.59769685113133 0 427.59769685113133 -459.35015065909829 0 0 0 0 -20.313528191371006 861.94498818983993 0 861.94498818983993 -1201.9603824466685 0 0 0 0 -731.43057567049254 -86.546459575161862 0 -86.546459575161862 -797.2228192963521 0 0 0 0 451.60874833498383 989.94395956619701 0 989.94395956619701 -483.59103733485972 0 0 0 0 -7.1913721810560673 246.36376836658201 0 246.36376836658201 -134.39040833245963 0 0 0 0 220.7938353784557 205.89199278791057 0 205.89199278791057 412.22705479435535 0 0 0 0 -10.810726282370524 966.3672272106669 0 966.3672272106669 934.07183280166646 0 0 0 0 -6.6229016034718029 -2.9297093965136582 0 -2.9297093965136582 20.585535999856461 0 0 0 0 -70.823965365212644 212.58377582918911 0 212.58377582918911 397.12940291725317 0 0 0 0 -67.772530604463867 63.585573295873559 0 63.585573295873559 -26.017370154191632 0 0 0 0 -212.42202251584968 19.063064173446037 0 19.063064173446037 344.5919241872034 0 0 0 0 450.76747436253208 645.49156632691665 0 645.49156632691665 -58.651386427693069 0 0 0 0 182.49938875608495 90.793476882827235 0 90.793476882827235 -119.48525686034736 0 0 0 0 -70.254492822306929 217.43974228091247 0 217.43974228091247 531.75829441507813 0 0 0 0 -22.276073637556692 321.29555062977306 0 321.29555062977306 -195.97074420518766 0 0 0 0 80.746195116254967 2.7211015112989116 0 2.7211015112989116 376.89787331700063 0 0 0 0 -71.629195184596824 63.075839013126071 0 63.075839013126071 -22.27908663231976 0 0 0 0 -185.63536003643821 -300.43905582095613 0 -300.43905582095613 1033.1715030351334 0 0 0 0 50.231106872124656 308.93435608159052 0 308.93435608159052 -215.1061115913617 0 0 0 0 -47.980063993078147 286.93507778307685 0 286.93507778307685 -95.286107152613113 0 0 0 0 -7.9112724392616656 483.24117113034299 0 483.24117113034299 -90.628185625829246 0 0 0 0 11.808919515358866 412.90291296672513 0 412.90291296672513 -360.03751901541546 0 0 0 0 139.80508060452121 289.47044644103153 0 289.47044644103153 -503.1444357590517 0 0 0 0 54.609787815948948 346.89164175151382 0 346.89164175151382 -363.24577675890032 0 0 0 0 86.76486609946005 362.84877075089025 0 362.84877075089025 -699.44239203227335 0 0 0 0 152.01829141718918 304.24877999108867 0 304.24877999108867 -646.4278386218939 0 0 0 0 67.383023240108741 425.89976742459112 0 425.89976742459112 -489.36991631481214 0 0 0 0 109.04306860852739 169.69487514602224 0 169.69487514602224 -794.68132074749155 0 0 0 0 65.577100817856262 294.59845690415386 0 294.59845690415386 -342.30988025627448 0 0 0 0 -23.329971897974687 49.941747731324995 0 49.941747731324995 -79.07508006632105 0 0 0 0 112.17904248183186 266.35612921148277 0 266.35612921148277 -325.30307803126925 0 0 0 0 147.90330699994956 820.83721898733347 0 820.83721898733347 1290.3144854408856 0 0 0 0 0.91310968649170832 12.540406396490482 0 12.540406396490482 -15.10853465753781 0 0 0 0 -19.567072659440598 12.480384857487905 0 12.480384857487905 15.163626178487192 0 0 0 0 788.34787180554667 1167.9405255591209 0 1167.9405255591209 1297.539972521583 0 0 0 0 41.637212803754664 1048.9181148960306 0 1048.9181148960306 836.32982682633155 0 0 0 0 462.06742773145379 1361.0238442446207 0 1361.0238442446207 829.10351164714575 0 0 0 0 -1244.0086933985503 -40.891390535936807 0 -40.891390535936807 1847.8190651211335 0 0 0 0 634.99059162648336 165.33438853417465 0 165.33438853417465 -158.52290230809012 0 0 0 0 1018.4640597157231 781.84186236599271 0 781.84186236599271 212.5378509543516 0 0 0 0 6.2461082447605492 7.7389645122946078 0 7.7389645122946078 8.0058084073296527 0 0 0 0 1266.4829562788655 203.03676769512458 0 203.03676769512458 -522.57026176109503 0 0 0 0 343.87769056913385 597.27490892625065 0 597.27490892625065 -570.0096379231245 0 0 0 0 -85.55224003042531 254.77549637874472 0 254.77549637874472 -66.438264408803661 0 0 0 0 186.82092239979829 -321.2680037424725 0 -321.2680037424725 1137.9915800527015 0 0 0 0 294.73883382097119 -24.596734977203596 0 -24.596734977203596 -326.75122125162306 0 0 0 0 333.75792001479567 -114.47114555259031 0 -114.47114555259031 -226.45955348468669 0 0 0 0 18.606220907696731 32.983285767986679 0 32.983285767986679 52.57012464122073 0 0 0 0 -709.94692724108609 573.18288575440238 0 573.18288575440238 -198.60472402175219 0 0 0 0 158.61474376269325 226.69886135342313 0 226.69886135342313 -227.69376766590722 0 0 0 0 146.927818144708 91.82216786135541 0 91.82216786135541 37.403676029469352 0 0 0 0 -90.109031574422261 343.2921617565662 0 343.2921617565662 -78.321541873097885 0 0 0 0 -1.4143117056025716 61.964731190868562 0 61.964731190868562 -70.061277433627794 0 0 0 0 234.47171664817142 254.58480910203434 0 254.58480910203434 -174.25682983612933 0 0 0 0 149.69470820292372 178.93031410305912 0 178.93031410305912 -21.368912076111883 0 0 0 0 226.88320208243749 40.170365806181508 0 40.170365806181508 -66.782404672441771 0 0 0 0 72.907869865386999 14.68660814471437 0 14.68660814471437 -64.117964161487123 0 0 0 0 110.61640110217559 123.86628355208086 0 123.86628355208086 -5.7715036299196072 0 0 0 0 381.60015196522727 435.94361560494144 0 435.94361560494144 354.42730023128388 0 0 0 0 291.24880966180899 365.48368110692172 0 365.48368110692172 310.66515348323446 0 0 0 0 87.884318838143372 41.26419169192377 0 41.26419169192377 -519.94319263925718 0 0 0 0 68.50112875869533 10.727741456170747 0 10.727741456170747 -44.10925286229039 0 0 0 0 181.00143212264811 -376.3135924514645 0 -376.3135924514645 -965.52206808829214 0 0 0 0 20.55839150986867 324.10264031768747 0 324.10264031768747 -630.8668760015571 0 0 0 0 304.82390308964386 222.21099050882549 0 222.21099050882549 -253.84626328980085 0 0 0 0 268.49526555926423 139.03988870665489 0 139.03988870665489 -441.95122902391449 0 0 0 0 69.859588849976717 34.378261194106017 0 34.378261194106017 -200.9999876684742 0 0 0 0 -15.349748331804804 39.356667975914476 0 39.356667975914476 -84.555454171822305 0 0 0 0 -328.18693876209727 232.00536277532228 0 232.00536277532228 95.023401167694828 0 0 0 0 -59.079402051848035 42.455506740042821 0 42.455506740042821 31.302580704311822 0 0 0 0 -44.124778793964651 81.878326021702378 0 81.878326021702378 115.07114933523553 0 0 0 0 132.96432083404943 -17.971533942982205 0 -17.971533942982205 -115.14786593909957 0 0 0 0 19.366365750890367 14.89011127470468 0 14.89011127470468 -6.0071991427220723 0 0 0 0 85.764145248678687 35.401272781418811 0 35.401272781418811 64.850336725401576 0 0 0 0 -14.020783791157584 21.372164328451902 0 21.372164328451902 18.79709918249489 0 0 0 0 194.55744000288541 -47.740395541273756 0 -47.740395541273756 -33.901794975070516 0 0 0 0 134.18687913436588 -5.0972718986013206 0 -5.0972718986013206 -33.684307070818022 0 0 0 0 6.7194948205847211 21.923230696131832 0 21.923230696131832 16.989044631367619 0 0 0 0 499.95665307960007 110.74244226823066 0 110.74244226823066 -124.95823234216368 0 0 0 0 215.03826382343868 208.15419863567149 0 208.15419863567149 104.43179884608253 0 0 0 0 82.791957553118579 87.970662427887234 0 87.970662427887234 30.599181636415608 0 0 0 0 143.64637488886365 124.69941801410459 0 124.69941801410459 -206.79689503964619 0 0 0 0 212.81190055195475 163.57740058349737 0 163.57740058349737 -220.00669807236409 0 0 0 0 83.337014497126347 276.0701985407768 0 276.0701985407768 -30.014085103015532 0 0 0 0 141.89487662129977 220.30246100013755 0 220.30246100013755 -601.98831566254376 0 0 0 0 -176.99638000343111 -129.60297545998037 0 -129.60297545998037 427.71712175788707 0 0 0 0 0.92976226175733245 -1.0667107693627145 0 -1.0667107693627145 6.3182747408146582 0 0 0 0 -113.90752623608569 189.25860591034871 0 189.25860591034871 412.93526982482581 0 0 0 0 -155.80825413070852 -44.135231407941319 0 -44.135231407941319 60.589601106003101 0 0 0 0 -296.32939446892124 162.7889424005989 0 162.7889424005989 414.00367739280773 0 0 0 0 -70.476216122588085 -58.698232514743722 0 -58.698232514743722 578.81449257057102 0 0 0 0 -4.756057528149654 10.094201586313446 0 10.094201586313446 1.8491630266856021 0 0 0 0 63.39083751841099 32.593636701945798 0 32.593636701945798 303.20017609503702 0 0 0 0 -138.99839842427173 -6.6984138448024169 0 -6.6984138448024169 301.8059579962428 0 0 0 0 -57.443777469656197 16.202383970317896 0 16.202383970317896 77.416059430790483 0 0 0 0 -32.757141250802363 27.85030708623097 0 27.85030708623097 -7.2379707210098161 0 0 0 0 -43.823561726072512 20.924503260499478 0 20.924503260499478 46.587172101571923 0 0 0 0 -50.793693348474335 28.400062940607313 0 28.400062940607313 50.385785499594931 0 0 0 0 -44.806649046932478 24.422708570692222 0 24.422708570692222 12.246664489431382 0 0 0 0 -40.960287235846408 48.763565512818332 0 48.763565512818332 29.945221539659542 0 0 0 0 -0.9642204247211339 34.969621197953529 0 34.969621197953529 34.117341974953888 0 0 0 0 -55.89402520943969 26.337491162776246 0 26.337491162776246 -4.1079478685643096 0 0 0 0 -81.578664912158274 71.934093561423651 0 71.934093561423651 74.868955616870153 0 0 0 0 -39.175161288832896 19.620828647115559 0 19.620828647115559 57.005828296896652 0 0 0 0 -13.12205078843914 22.436843164471178 0 22.436843164471178 37.571051522857289 0 0 0 0 -111.35369802986679 69.462883100837644 0 69.462883100837644 51.558630415191146 0 0 0 0 -36.239813242427772 35.648702569953457 0 35.648702569953457 31.844236431774334 0 0 0 0 -17.969668564161111 11.84490829428978 0 11.84490829428978 55.731872022879543 0 0 0 0 -9.3211282240026776 64.305911035944973 0 64.305911035944973 92.23849979264196 0 0 0 0 11.024528023815947 71.616448126747855 0 71.616448126747855 62.106136355883791 0 0 0 0 104.97230411769124 121.5089892239339 0 121.5089892239339 77.637014982401524 0 0 0 0 33.397707612199156 92.168999958990753 0 92.168999958990753 53.850650672480697 0 0 0 0 22.300147587782703 61.011983160387899 0 61.011983160387899 28.579235808967496 0 0 0 0 -23.382677853741768 22.346650243019923 0 22.346650243019923 8.6783014539494161 0 0 0 0 43.870475168252597 57.579777304737945 0 57.579777304737945 27.508582054550061 0 0 0 0 8.8829276001015387 81.669589721703232 0 81.669589721703232 28.816209580792929 0 0 0 0 -131.28134292030882 198.91890993413108 0 198.91890993413108 270.44409916650329 0 0 0 0 211.53879092232819 83.650942043645045 0 83.650942043645045 -125.14846527160262 0 0 0 0 30.481610222447941 56.561178761170574 0 56.561178761170574 48.829045450573261 0 0 0 0 1.4428408860549098 64.921341356930498 0 64.921341356930498 31.797918708100042 0 0 0 0 -16.55045822736065 86.884864777344774 0 86.884864777344774 54.666915375782992 0 0 0 0 29.591774400916663 46.631128895508994 0 46.631128895508994 41.702164600550532 0 0 0 0 -5.9849688007088844 71.592799670426757 0 71.592799670426757 3.2166587536339648 0 0 0 0 -6.6732253145164577 58.521396631345851 0 58.521396631345851 78.207277159992373 0 0 0 0 13.528965716277526 40.974771403427695 0 40.974771403427695 16.031400928871648 0 0 0 0 -3.5100545717141358 56.65399964232347 0 56.65399964232347 38.772658048597805 0 0 0 0 37.163738884461054 52.09230307249527 0 52.09230307249527 21.322382936006761 0 0 0 0 46.290474448096084 57.761741841064435 0 57.761741841064435 29.759968452971975 0 0 0 0 21.550221159821376 -32.134669730556197 0 -32.134669730556197 -51.004873629404756 0 0 0 0 23.755738885752237 49.900412120330657 0 49.900412120330657 29.502087902796177 0 0 0 0 78.100060351061984 271.360322113047 0 271.360322113047 10.151038506242912 0 0 0 0 -257.19097476721799 126.84622023784323 0 126.84622023784323 144.51557363482425 0 0 0 0 -1163.8016114460333 456.99656189893722 0 456.99656189893722 101.95825844416322 0 0 0 0 -440.20569395357961 648.71452250305811 0 648.71452250305811 -435.73153856405406 0 0 0 0 -414.9294012402388 846.89260898854991 0 846.89260898854991 -245.6965863435762 0 0 0 0 -83.887760136422003 229.9476882063318 0 229.9476882063318 -295.40717828713969 0 0 0 0 41.298610835357977 573.20771055227669 0 573.20771055227669 -1024.8639629718091 0 0 0 0 10.708237695980642 952.96294127753208 0 952.96294127753208 -539.04695429527783 0 0 0 0 -312.84643330697872 1042.2492988702616 0 1042.2492988702616 4.5263456768589094 0 0 0 0 -557.45166277774842 638.59985624058754 0 638.59985624058754 317.19989187578904 0 0 0 0 -301.68437188940879 339.12088304270583 0 339.12088304270583 57.511072244946263 0 0 0 0 -8.6837332562863594 815.64528969713865 0 815.64528969713865 632.02453433680057 0 0 0 0 -1118.1729317740355 578.84763033186027 0 578.84763033186027 -21.671921722707339 0 0 0 0 9.4071286734939967 27.900403846703139 0 27.900403846703139 15.138340723078954 0 0 0 0 -546.2936838607493 656.4314058950913 0 656.4314058950913 157.61293182565714 0 0 0 0 180.90317168163347 74.74026631911056 0 74.74026631911056 233.82546573039144 0 0 0 0 -756.82007958927716 440.20190114990692 0 440.20190114990692 57.321839908719994 0 0 0 0 -1066.6066776093539 582.51986944759847 0 582.51986944759847 215.62971437221859 0 0 0 0 -1073.5256127495377 507.27376280321187 0 507.27376280321187 -534.38756617938634 0 0 0 0 9.8542927660541721 7.3827317457185018 0 7.3827317457185018 3.2165051099230482 0 0 0 0 -766.28814509419317 942.05528090619191 0 942.05528090619191 -231.12783166064764 0 0 0 0 -1126.9397163062094 415.44798992322467 0 415.44798992322467 65.988186173381109 0 0 0 0 -576.96269477283931 516.19489656665246 0 516.19489656665246 -443.49017337855184 0 0 0 0 309.22089890058487 -515.99719693222505 0 -515.99719693222505 -3014.4429414024635 0 0 0 0 1312.5273704724896 126.85500775685796 0 126.85500775685796 -2800.9592094043473 0 0 0 0 50.720267798810198 1.4002848281692195 0 1.4002848281692195 -4.9551409525888559 0 0 0 0 -88.440861756735103 847.51328187057698 0 847.51328187057698 163.80122954249964 0 0 0 0 1220.401529236522 38.854052197457349 0 38.854052197457349 202.87749562885165 0 0 0 0 2269.6950609574706 1818.1074402320301 0 1818.1074402320301 1027.0923995152407 0 0 0 0 700.78911117617099 2046.9065570000821 0 2046.9065570000821 3422.9162674563122 0 0 0 0 -193.95995329837206 -1292.2817112740649 0 -1292.2817112740649 -3412.9276435325519 0 0 0 0 24.566154108061141 1.2171876760773728 0 1.2171876760773728 -2.0481557926270995 0 0 0 0 518.46450558770812 733.47988900012206 0 733.47988900012206 2364.0010724613239 0 0 0 0 1316.0334186880063 1154.3161029053517 0 1154.3161029053517 1006.2237791876396 0 0 0 0 701.55179508075889 711.64445635988523 0 711.64445635988523 593.48387150050257 0 0 0 0 881.49368129057621 434.63196676476582 0 434.63196676476582 975.21973750530742 0 0 0 0 864.62134712047009 234.85748102505204 0 234.85748102505204 227.62949770191335 0 0 0 0 77.476952894168789 306.80500612392643 0 306.80500612392643 282.1037731838951 0 0 0 0 908.97310641749209 813.8533622175637 0 813.8533622175637 477.49160674841551 0 0 0 0 568.06051469095837 672.283217184362 0 672.283217184362 860.71506059441163 0 0 0 0 -745.26285757560981 39.655241244312492 0 39.655241244312492 284.5055295799466 0 0 0 0 -765.86149286168802 139.77358614730474 0 139.77358614730474 -199.46066724977027 0 0 0 0 -927.74678179374314 556.90472356785904 0 556.90472356785904 -145.59582337056054 0 0 0 0 -1058.976368437463 645.20949303518864 0 645.20949303518864 38.410108038922772 0 0 0 0 -837.76319695489656 418.14359195478028 0 418.14359195478028 68.11900086060632 0 0 0 0 -825.94330945461843 492.24641585490463 0 492.24641585490463 407.45270861068275 0 0 0 0 191.31082900826732 -109.76326831191545 0 -109.76326831191545 452.3227387766965 0 0 0 0 -310.44453448922286 341.23811931912496 0 341.23811931912496 214.39638312903116 0 0 0 0 -624.58018665363488 -50.106945602994529 0 -50.106945602994529 357.08317764619278 0 0 0 0 -1447.503430227207 180.33068185151933 0 180.33068185151933 263.32591839216911 0 0 0 0 -782.37472945372065 306.87459696852602 0 306.87459696852602 -50.575537248878391 0 0 0 0 -814.10067983708723 -49.604468674653617 0 -49.604468674653617 -42.755674095460563 0 0 0 0 -534.35156427349648 122.63937452895334 0 122.63937452895334 -54.099234723384143 0 0 0 0 112.81224693738477 35.012931753699377 0 35.012931753699377 17.026805937464815 0 0 0 0 -456.44571482654646 -6.2144151714492182 0 -6.2144151714492182 90.066141300863819 0 0 0 0 -149.56239664533496 -86.064290333386452 0 -86.064290333386452 -34.164570160995936 0 0 0 0 -409.3226086963914 10.457158241013531 0 10.457158241013531 11.339507933007553 0 0 0 0 -414.21497986667964 -100.19463903235737 0 -100.19463903235737 -39.071674291481031 0 0 0 0 -671.19774554283504 -40.553957241405442 0 -40.553957241405442 -41.561424021536368 0 0 0 0 -434.16168890519293 -77.177188622317772 0 -77.177188622317772 -144.59133464624756 0 0 0 0 475.4915532853629 589.04957069632655 0 589.04957069632655 427.54920006451357 0 0 0 0 337.36602613537252 412.20459000128903 0 412.20459000128903 46.905078180650889 0 0 0 0 633.1025376990292 641.72590483524255 0 641.72590483524255 150.73640612086456 0 0 0 0 395.24810429227 172.38065369006836 0 172.38065369006836 75.517991871442064 0 0 0 0 -35.583206974253699 130.57345559980604 0 130.57345559980604 124.35947645695705 0 0 0 0 -90.293081188619908 216.28746521353332 0 216.28746521353332 -8.0851015057705808 0 0 0 0 -174.73239111126168 100.18191425834084 0 100.18191425834084 -7.589945253507608 0 0 0 0 -319.5400739295801 157.43318466654455 0 157.43318466654455 20.095163911697455 0 0 0 0 287.83703047183008 486.01916687402263 0 486.01916687402263 -57.32516113636666 0 0 0 0 -196.0401522900429 461.41186939785257 0 461.41186939785257 -55.926555114948769 0 0 0 0 307.01269703606158 552.37783636374297 0 552.37783636374297 -269.79914992807608 0 0 0 0 -129.9511575411816 562.8220937052829 0 562.8220937052829 -259.63087150287538 0 0 0 0 -648.55300919480214 208.62306039443502 0 208.62306039443502 56.573648047022289 0 0 0 0 -329.46746420190357 824.58291152797756 0 824.58291152797756 -581.57872141117696 0 0 0 0 -653.53401896396826 178.43969439463399 0 178.43969439463399 19.143512891412684 0 0 0 0 -1059.5525162817794 451.71566481917398 0 451.71566481917398 -86.325334515946452 0 0 0 0 -2002.6764635767395 708.12935291182657 0 708.12935291182657 51.755561671132455 0 0 0 0 -758.00665749811742 1483.3932613600628 0 1483.3932613600628 -1642.7517057903933 0 0 0 0 -39.884054356283741 562.43201134177798 0 562.43201134177798 -532.50443177323905 0 0 0 0 88.685744682232325 417.66029180814803 0 417.66029180814803 -1018.527156727665 0 0 0 0 -456.80857672312413 -130.8579829839 0 -130.8579829839 117.22458721624571 0 0 0 0 -518.05669935283368 -54.80483806997654 0 -54.80483806997654 140.92614111467628 0 0 0 0 -188.84383713341958 46.635537042442593 0 46.635537042442593 166.34091588154115 0 0 0 0 -322.04359756399208 -189.55961668798409 0 -189.55961668798409 -49.506198123941431 0 0 0 0 -423.84376113437611 -53.442924798713648 0 -53.442924798713648 -125.75287218767335 0 0 0 0 -416.20692839217372 -146.52361736623561 0 -146.52361736623561 33.568446401623078 0 0 0 0 -574.52255708091252 -112.18092848561355 0 -112.18092848561355 61.66788225826167 0 0 0 0 -457.67089268761629 -211.8774387799931 0 -211.8774387799931 142.2237262383569 0 0 0 0 -808.58933015480579 -66.900905017217156 0 -66.900905017217156 198.45733505999669 0 0 0 0 -1345.3391810234025 984.95578309890698 0 984.95578309890698 993.6691349376033 0 0 0 0 -983.49198476878519 13.08451407784014 0 13.08451407784014 614.79232917964691 0 0 0 0 -368.38123459151666 -259.16298624510364 0 -259.16298624510364 254.46810100314906 0 0 0 0 -911.80286436241295 -118.3855670470366 0 -118.3855670470366 223.78209335630527 0 0 0 0 -1056.8745085933188 305.03837687670602 0 305.03837687670602 -3.3737491978827165 0 0 0 0 -1301.9508946347487 194.51853760764061 0 194.51853760764061 -19.002913952077506 0 0 0 0 -1725.3849695628596 1825.1223541145591 0 1825.1223541145591 -776.71983400462341 0 0 0 0 -555.66106667632994 -300.67407804192044 0 -300.67407804192044 822.42375131399604 0 0 0 0 -304.16482006586739 -102.80452075191715 0 -102.80452075191715 700.16798961063614 0 0 0 0 -142.82197245424322 -90.388662942779774 0 -90.388662942779774 397.52964595006779 0 0 0 0 -380.25879271042822 -126.36152401941308 0 -126.36152401941308 451.18443099327851 0 0 0 0 -179.34608691179892 -284.6411191875668 0 -284.6411191875668 200.73027573623403 0 0 0 0 203.14967398949375 -192.13177940063179 0 -192.13177940063179 306.23964812993654 0 0 0 0 873.1213005057798 -456.18914031007444 0 -456.18914031007444 802.94684724252147 0 0 0 0 600.12249477666046 682.15018688849523 0 682.15018688849523 625.24929638186222 0 0 0 0 -39.740274979485548 801.8947049860144 0 801.8947049860144 911.38166163382994 0 0 0 0 -26.178379759581901 19.710624157621083 0 19.710624157621083 -5.8626303144401959 0 0 0 0 944.21954436347005 748.22901795664802 0 748.22901795664802 871.68829400162213 0 0 0 0 -867.1206588561181 865.92961300794559 0 865.92961300794559 865.07256917816267 0 0 0 0 -277.67702984390053 572.41871302985237 0 572.41871302985237 633.23125175599125 0 0 0 0 -374.65602508689335 422.13914693221159 0 422.13914693221159 459.25827722498798 0 0 0 0 -100.95141235680785 -34.040504367847461 0 -34.040504367847461 289.47386546145935 0 0 0 0 962.04923253487505 1123.9612870128913 0 1123.9612870128913 576.22528445097851 0 0 0 0 -653.62919995936682 696.45501380530186 0 696.45501380530186 1433.4671414007898 0 0 0 0 262.14327551553288 692.07793156715343 0 692.07793156715343 912.13253899470146 0 0 0 0 1515.314196199055 56.343930066948815 0 56.343930066948815 -62.998593355398043 0 0 0 0 1536.2302633201652 382.428654975276 0 382.428654975276 629.74085811266559 0 0 0 0 -1211.8655724683194 -3.9449805409967666 0 -3.9449805409967666 218.86638223947375 0 0 0 0 -1347.4652247034246 498.41221622641024 0 498.41221622641024 667.15540550291189 0 0 0 0 2.1201887474171812 6.4517827356221424 0 6.4517827356221424 6.2464490204181402 0 0 0 0 -914.10792632598896 306.74284689326305 0 306.74284689326305 438.60967284573417 0 0 0 0 -799.77627761942131 -135.9770206301182 0 -135.9770206301182 -177.80021853886137 0 0 0 0 -425.17132190458506 65.6727608250294 0 65.6727608250294 -74.815075320890173 0 0 0 0 -649.05745932984564 193.43452072099217 0 193.43452072099217 -388.68884264086955 0 0 0 0 358.34819301435346 21.287096258514794 0 21.287096258514794 -63.248748366512586 0 0 0 0 219.11726892381921 -95.276957315050822 0 -95.276957315050822 57.313729429122759 0 0 0 0 371.9276384270961 18.402303319577186 0 18.402303319577186 -165.72072702398873 0 0 0 0 -137.77202206791844 24.775654217490228 0 24.775654217490228 -128.58119437989808 0 0 0 0 6.2036418979550945 172.52768523013219 0 172.52768523013219 -16.610967486572918 0 0 0 0 749.99913708608801 -94.843964314677578 0 -94.843964314677578 -199.6992013750496 0 0 0 0 -1259.4645600423173 205.10036588383809 0 205.10036588383809 26.503465547357337 0 0 0 0 4.8007983327829749 15.313254922156073 0 15.313254922156073 14.19495603663114 0 0 0 0 -467.60818952484988 116.20200320989534 0 116.20200320989534 82.047171087935567 0 0 0 0 -65.557248033743235 242.89716401505029 0 242.89716401505029 107.29657514250721 0 0 0 0 -177.86711877815833 143.0868008970865 0 143.0868008970865 492.14347040720168 0 0 0 0 18.521852345080333 543.14551345909786 0 543.14551345909786 -296.53651888476452 0 0 0 0 97.705896748818418 102.91523315436621 0 102.91523315436621 66.862852817502414 0 0 0 0 -433.47119319958438 617.18298202590813 0 617.18298202590813 68.811751595356327 0 0 0 0 -384.07329679460963 520.80494556004123 0 520.80494556004123 -46.540357500867685 0 0 0 0 610.36513794051825 316.37686215297799 0 316.37686215297799 -420.86952357104747 0 0 0 0 -312.9134208638643 90.581688993770513 0 90.581688993770513 283.30926533786987 0 0 0 0 -390.54233450574975 573.39909352418908 0 573.39909352418908 14.184098290621478 0 0 0 0 -114.5471315770119 505.76980819427263 0 505.76980819427263 -147.88217310050459 0 0 0 0 100.89472970273306 114.31228554768168 0 114.31228554768168 89.702892163403078 0 0 0 0 -208.07015687968669 249.72879490455307 0 249.72879490455307 -130.66652997829078 0 0 0 0 227.43539553547453 -215.46920483297436 0 -215.46920483297436 -75.374340728099924 0 0 0 0 -489.09509537179838 -198.72739685307897 0 -198.72739685307897 139.88618172533461 0 0 0 0 -184.74275243291777 -189.99623750928731 0 -189.99623750928731 1088.0645943395157 0 0 0 0 5.6157149132548341 6.1071117335885106 0 6.1071117335885106 -3.5354767114095864 0 0 0 0 -571.63565361722794 694.42613060947042 0 694.42613060947042 259.0496608416579 0 0 0 0 292.19046035410429 -171.06177194193879 0 -171.06177194193879 -44.987266068899771 0 0 0 0 -120.82533907503239 53.427517355390592 0 53.427517355390592 297.60593323509238 0 0 0 0 178.72095368488408 -251.05826112429349 0 -251.05826112429349 -172.20718020095956 0 0 0 0 460.73701305363466 235.54363135842323 0 235.54363135842323 -45.611983496550238 0 0 0 0 -37.097864099544239 18.166214411978558 0 18.166214411978558 -2.4415758628302768 0 0 0 0 -66.041321700206026 92.328365950495936 0 92.328365950495936 259.19180971203605 0 0 0 0 19.9466082790168 98.453934810386272 0 98.453934810386272 227.19382994784246 0 0 0 0 -34.753608503146097 81.538519322464708 0 81.538519322464708 223.41308331077744 0 0 0 0 -26.10769729653839 35.946098650369095 0 35.946098650369095 192.79962941864505 0 0 0 0 -66.937317790245288 43.255094082021969 0 43.255094082021969 178.28528225392802 0 0 0 0 -103.95570824386959 42.629461057367735 0 42.629461057367735 187.19000030623283 0 0 0 0 -116.63706586507033 76.363588902138872 0 76.363588902138872 268.85612373726326 0 0 0 0 -40.598920706441987 26.988319039641112 0 26.988319039641112 39.117161942885474 0 0 0 0 -98.6352599844613 63.660416138445726 0 63.660416138445726 -58.878860291028104 0 0 0 0 -467.27543052472174 249.45244390613516 0 249.45244390613516 290.83422901492304 0 0 0 0 -13.572362858751148 -48.910777812372544 0 -48.910777812372544 192.58143733246834 0 0 0 0 -551.47135802077855 243.23155235935246 0 243.23155235935246 363.45196161410422 0 0 0 0 296.1048127047834 80.868029556731926 0 80.868029556731926 185.43516406443086 0 0 0 0 241.13915176324736 122.79113743905691 0 122.79113743905691 1038.5463031639811 0 0 0 0 -0.22514342201247928 -0.76239689269615951 0 -0.76239689269615951 6.5774213543193838 0 0 0 0 71.81223227177361 26.90733550141158 0 26.90733550141158 169.76574872317724 0 0 0 0 66.454265620122897 65.826899765932467 0 65.826899765932467 201.77162231423426 0 0 0 0 30.143023540469585 4.8758329241536558 0 4.8758329241536558 158.66006790971733 0 0 0 0 6.8457600801193621 43.488017527270131 0 43.488017527270131 125.80055357587116 0 0 0 0 -54.397980828240861 -42.024568478017272 0 -42.024568478017272 194.81579202919966 0 0 0 0 -58.002672064366834 36.680779103692203 0 36.680779103692203 150.48763448960381 0 0 0 0 -16.014256135516916 -27.280407371858018 0 -27.280407371858018 -9.6214474309817888 0 0 0 0 38.715946530748624 -21.667241851682775 0 -21.667241851682775 -186.19590895500733 0 0 0 0 -196.51800726079819 21.993705735934782 0 21.993705735934782 -12.100697415759896 0 0 0 0 -0.36958488274731849 2.768313629721689 0 2.768313629721689 1.6469167139411525 0 0 0 0 -356.96782145930047 214.04173206409905 0 214.04173206409905 -135.03835505319876 0 0 0 0 -150.29242840678489 245.75094148449716 0 245.75094148449716 -240.38595685657492 0 0 0 0 -3.1722096868761582 50.310200455547601 0 50.310200455547601 -192.82098724017851 0 0 0 0 -184.68745886948454 64.579643746023066 0 64.579643746023066 81.966208272584481 0 0 0 0 -20.632709283854638 18.813657624996267 0 18.813657624996267 85.316716731002089 0 0 0 0 -118.02889032152598 11.943186514952686 0 11.943186514952686 182.02288898715051 0 0 0 0 -134.81333076894407 70.258991542837975 0 70.258991542837975 187.94966272180318 0 0 0 0 -11.25751835104893 -53.570319301856216 0 -53.570319301856216 197.12417805500445 0 0 0 0 -17.377826215524692 -8.8490053835557774 0 -8.8490053835557774 2.9413376760785468 0 0 0 0 91.996660436874663 104.2572998497526 0 104.2572998497526 21.131118759542005 0 0 0 0 -168.58677417351282 140.56571857897507 0 140.56571857897507 25.440004597918232 0 0 0 0 -95.146944352833088 -26.111139788699802 0 -26.111139788699802 1.9519235152292822 0 0 0 0 -100.03421603857714 -166.23127991694491 0 -166.23127991694491 -6.6313614649698138 0 0 0 0 -98.203304017071787 138.3919329789569 0 138.3919329789569 201.38651647044753 0 0 0 0 -1.0080022135745708 2.0220605266341067 0 2.0220605266341067 0.8925744274911267 0 0 0 0 -8.9101272948319092 200.38540675794502 0 200.38540675794502 -115.95197708925116 0 0 0 0 -385.9126161393433 631.63041181200242 0 631.63041181200242 -610.59629868889897 0 0 0 0 -525.78465125593357 660.77873584599001 0 660.77873584599001 -616.01636969084939 0 0 0 0 -209.39047423049487 717.34952234101365 0 717.34952234101365 -780.81302208889974 0 0 0 0 -499.7008774841961 761.66005782000866 0 761.66005782000866 -486.87385036656633 0 0 0 0 -510.14187748532277 873.45458800240885 0 873.45458800240885 -698.14750055875629 0 0 0 0 -366.22685604080834 176.17281928630473 0 176.17281928630473 -242.46826374490047 0 0 0 0 -461.55142418150353 554.46893783689848 0 554.46893783689848 -465.68068316570134 0 0 0 0 -456.1947341904015 485.61473797399231 0 485.61473797399231 -457.26260091843142 0 0 0 0 -894.11181006273 828.22717259718138 0 828.22717259718138 -267.93828653730452 0 0 0 0 -838.12003091027145 539.76110308555508 0 539.76110308555508 -227.9687307850254 0 0 0 0 -631.64312112635525 870.27593717342825 0 870.27593717342825 -321.93076873228711 0 0 0 0 -1287.9644827755474 876.55243063400849 0 876.55243063400849 -459.50584354383318 0 0 0 0 -836.04627743232959 1078.5888030825245 0 1078.5888030825245 -1439.8875890916097 0 0 0 0 -832.05188938108222 1036.52585428979 0 1036.52585428979 -1020.0893701603927 0 0 0 0 -422.06100635889652 500.39684311660312 0 500.39684311660312 -944.23534661254962 0 0 0 0 -1027.1506024934788 290.84486987546552 0 290.84486987546552 -335.5412749612733 0 0 0 0 -262.90897552240494 488.8365522688182 0 488.8365522688182 -335.28597161959624 0 0 0 0 -460.99324966537824 604.83219400884991 0 604.83219400884991 -15.925546494312584 0 0 0 0 -398.43403001635306 255.46335764728428 0 255.46335764728428 -64.723863146064105 0 0 0 0 -271.65281104204769 452.89299212368496 0 452.89299212368496 170.02324765801313 0 0 0 0 -41.400773882969588 258.66391278362971 0 258.66391278362971 311.36731099482859 0 0 0 0 -60.386441354243289 436.01536112219128 0 436.01536112219128 29.036849469470326 0 0 0 0 8.3354663066129433 192.51351250249354 0 192.51351250249354 329.73112623400812 0 0 0 0 -20.657110591855599 66.650791429441597 0 66.650791429441597 -67.217744760368078 0 0 0 0 0.30281205953477297 1.161545930802788 0 1.161545930802788 0.52506553518713872 0 0 0 0 -126.79487427129061 283.78618126750371 0 283.78618126750371 -271.85302982633584 0 0 0 0 -246.05379361006635 273.77441337661003 0 273.77441337661003 26.631598160725844 0 0 0 0 -52.50961282789649 113.36198339746625 0 113.36198339746625 -95.13124241866899 0 0 0 0 -5.1835884840220388 145.66216135535069 0 145.66216135535069 -332.93137660357752 0 0 0 0 232.39783214491035 -22.175716513884254 0 -22.175716513884254 -399.22211224836065 0 0 0 0 737.86558740597684 -102.29693134906847 0 -102.29693134906847 -722.39897438259504 0 0 0 0 -0.7055738318354583 4.7001095067328293 0 4.7001095067328293 -13.279684766424566 0 0 0 0 -2067.6681865622527 1108.535795986593 0 1108.535795986593 -2259.1432995219366 0 0 0 0 368.02212228591088 405.84192688117037 0 405.84192688117037 -1419.0441681179727 0 0 0 0 327.93187297370605 257.22070026907022 0 257.22070026907022 -39.857432736214832 0 0 0 0 71.196722340682754 -55.748677564402897 0 -55.748677564402897 194.40549110787106 0 0 0 0 -917.56539712905214 168.88122959235625 0 168.88122959235625 426.38374137286974 0 0 0 0 -787.88886034160532 1170.1626691660931 0 1170.1626691660931 -504.95087143684214 0 0 0 0 -2094.7154777670949 1097.5761743277835 0 1097.5761743277835 372.88520952357794 0 0 0 0 -2697.2859496573219 2031.1730320415372 0 2031.1730320415372 -727.78835304346285 0 0 0 0 -12.926927407183882 7.7820941275555526 0 7.7820941275555526 -2.9452389836432644 0 0 0 0 -1167.0134562132953 2313.9901408953883 0 2313.9901408953883 -2581.6264981371933 0 0 0 0 -1032.8463859732656 240.72537763157743 0 240.72537763157743 1786.0183411001199 0 0 0 0 -28.219313706664252 927.12602842331398 0 927.12602842331398 -3183.0111450373297 0 0 0 0 -799.1621690805041 1582.7976297017594 0 1582.7976297017594 -1944.8930136712734 0 0 0 0 -187.36391829734202 973.48742022828083 0 973.48742022828083 -2194.7608914776647 0 0 0 0 -764.7641221123049 1373.4628132078142 0 1373.4628132078142 -1111.7251117676788 0 0 0 0 3.8216534435778158 84.820208198827459 0 84.820208198827459 -2106.9060342866251 0 0 0 0 30.498559204483172 -134.07235039611987 0 -134.07235039611987 -1334.7021454768837 0 0 0 0 -238.98992124921642 909.69062795728678 0 909.69062795728678 -1239.6825396322529 0 0 0 0 -171.32928559344873 830.65696822806058 0 830.65696822806058 -1155.9784408553969 0 0 0 0 -596.28856965643354 1059.7492683570163 0 1059.7492683570163 -697.66051294177305 0 0 0 0 -591.12431909295265 947.73596068646293 0 947.73596068646293 -753.3633049607015 0 0 0 0 -504.50600083828613 907.87264691632299 0 907.87264691632299 -512.95632510283031 0 0 0 0 -286.11354756329092 688.92607679178036 0 688.92607679178036 -282.11957592252293 0 0 0 0 -652.90518650859303 927.97846373089124 0 927.97846373089124 -464.51872414069658 0 0 0 0 -717.55862658388287 866.89754787184211 0 866.89754787184211 -85.790635278623085 0 0 0 0 -577.76712918552585 779.43140010170282 0 779.43140010170282 -204.33805207815021 0 0 0 0 -594.04971834408934 857.04476806618914 0 857.04476806618914 -468.33899461076362 0 0 0 0 -522.50236201038933 590.44419402170752 0 590.44419402170752 -497.64208905589112 0 0 0 0 116.30526745592942 380.17812214966398 0 380.17812214966398 -797.38166859913326 0 0 0 0 -354.97423440535204 241.890560299973 0 241.890560299973 -1146.7792643824941 0 0 0 0 -553.71770550936708 567.7156273491164 0 567.7156273491164 -184.42713348928373 0 0 0 0 953.66990869765868 127.18940030353406 0 127.18940030353406 -333.671214505026 0 0 0 0 110.08307584974682 378.81160410127632 0 378.81160410127632 -63.05045128101483 0 0 0 0 264.36994871514617 371.49787524408021 0 371.49787524408021 -161.35078600312409 0 0 0 0 -377.98390061870396 374.27172424795572 0 374.27172424795572 119.33761167613557 0 0 0 0 0.4373093822850499 6.8323035429177139 0 6.8323035429177139 -26.560421584646861 0 0 0 0 0.86513184779855345 5.1542519048750393 0 5.1542519048750393 -22.434482328202193 0 0 0 0 -40.426963342077215 193.26336233629263 0 193.26336233629263 -48.498746094453963 0 0 0 0 -152.7068171097053 248.59337965102168 0 248.59337965102168 -45.231014812961803 0 0 0 0 -177.55590080567345 250.98658820829587 0 250.98658820829587 -4.5466943316787365 0 0 0 0 -19.700235788077407 69.874196763215878 0 69.874196763215878 -37.780415024186368 0 0 0 0 44.350152513346984 19.609079716872657 0 19.609079716872657 -5.2276485292823054 0 0 0 0 -22.60893495498749 59.37566303028143 0 59.37566303028143 -35.140161653194809 0 0 0 0 76.038337130506989 101.37129941367311 0 101.37129941367311 -26.144988197513158 0 0 0 0 -19.472342384600779 53.381601569650229 0 53.381601569650229 -246.1248041272338 0 0 0 0 -6.0985002643574262 124.07081281529099 0 124.07081281529099 -110.81868234730791 0 0 0 0 -125.81546340690693 85.192788531741826 0 85.192788531741826 118.36339439958101 0 0 0 0 -106.8977235147031 51.308629668317735 0 51.308629668317735 47.531668899813667 0 0 0 0 -270.48429929064878 251.7922456930246 0 251.7922456930246 -145.07891663318151 0 0 0 0 64.796082800778095 36.498379204567755 0 36.498379204567755 -129.75681860552868 0 0 0 0 -213.87324782484939 250.51020588262327 0 250.51020588262327 1.3505442886889796 0 0 0 0 -35.299902634498721 128.3391061464572 0 128.3391061464572 -144.76672993085231 0 0 0 0 0.27624836458999669 1.1331219761976712 0 1.1331219761976712 -9.1341171170544158 0 0 0 0 -243.57367474991042 135.91440353883081 0 135.91440353883081 -42.268045114062261 0 0 0 0 -826.74493381666252 335.73314941982244 0 335.73314941982244 -64.423733500982053 0 0 0 0 -176.42548095440361 539.52503997901476 0 539.52503997901476 -600.39949883901863 0 0 0 0 305.86304587128689 41.196835533206468 0 41.196835533206468 -981.91056998574641 0 0 0 0 -239.71503213858523 -129.22603230932145 0 -129.22603230932145 346.78966412837326 0 0 0 0 -124.77609724165814 72.940176682634046 0 72.940176682634046 -80.276841236511245 0 0 0 0 -138.17395635708817 7.6082283171708696 0 7.6082283171708696 -76.821549234033228 0 0 0 0 791.79864174977411 -1088.5578931847704 0 -1088.5578931847704 -441.59567170307855 0 0 0 0 460.61400136434531 -4.5204752007266507 0 -4.5204752007266507 -362.78382041018631 0 0 0 0 304.38201346524875 329.74726751825074 0 329.74726751825074 115.99649933443288 0 0 0 0 -91.793880702742172 240.32296070715165 0 240.32296070715165 -471.35324388351 0 0 0 0 -14.790365079551663 17.307382587985103 0 17.307382587985103 -15.017203518786772 0 0 0 0 26.900336012835083 11.241855975846647 0 11.241855975846647 -7.2877480186860168 0 0 0 0 662.12034484903415 -116.09022643693606 0 -116.09022643693606 -306.38020895925001 0 0 0 0 -483.71465337160043 -385.1904780495388 0 -385.1904780495388 492.94148622728244 0 0 0 0 1054.4386578311169 -334.49956990622877 0 -334.49956990622877 -403.14582286364748 0 0 0 0 556.18219364715333 -380.46197927612229 0 -380.46197927612229 -110.13313364596979 0 0 0 0 -79.576759735587984 8.615633832909225 0 8.615633832909225 -170.35277032881277 0 0 0 0 -300.59419803885976 -360.56180369408685 0 -360.56180369408685 -746.14813241696447 0 0 0 0 -259.37245948790223 446.2224863912852 0 446.2224863912852 -757.13824812875828 0 0 0 0 -347.23038446051942 -730.29904542800432 0 -730.29904542800432 585.47458044695668 0 0 0 0 778.46889825440303 406.23828792788845 0 406.23828792788845 -416.71890072102542 0 0 0 0 973.63646816212713 821.84286257535859 0 821.84286257535859 757.55154567776481 0 0 0 0 723.77052114572507 1053.5695890959541 0 1053.5695890959541 1042.828956125828 0 0 0 0 610.17389408551389 1007.3128043031174 0 1007.3128043031174 673.91867872914008 0 0 0 0 778.80672509666329 693.70744962322351 0 693.70744962322351 240.94328962422151 0 0 0 0 598.29394256277737 909.57216710593639 0 909.57216710593639 -0.54074608645169064 0 0 0 0 676.72699586861927 555.36877436886425 0 555.36877436886425 0.5738349455059506 0 0 0 0 763.96117259255607 807.59109637887468 0 807.59109637887468 361.35529293952277 0 0 0 0 334.14491995930439 880.35906091854849 0 880.35906091854849 1563.5532345153333 0 0 0 0 595.54742394824279 556.59973637119401 0 556.59973637119401 568.03035254288989 0 0 0 0 468.52370549413172 644.45864924284979 0 644.45864924284979 648.56383452136652 0 0 0 0 141.18033056759123 231.66139610114988 0 231.66139610114988 -130.640526223302 0 0 0 0 214.58795582858875 293.91909954571747 0 293.91909954571747 897.0490762804111 0 0 0 0 347.43505680421367 408.4584292761283 0 408.4584292761283 436.45129654821358 0 0 0 0 282.2950719011933 280.0162393593273 0 280.0162393593273 434.26305215407046 0 0 0 0 359.40527361980639 450.63716790551553 0 450.63716790551553 353.30473209315096 0 0 0 0 404.36530201839014 436.25195297751634 0 436.25195297751634 291.35968197294278 0 0 0 0 395.18348155778949 465.8091180480842 0 465.8091180480842 355.79752895471756 0 0 0 0 293.09879026129784 325.25081063591642 0 325.25081063591642 316.48621425661986 0 0 0 0 285.43735741472483 162.44105970048986 0 162.44105970048986 0.30364035328966565 0 0 0 0 323.96801742867683 336.35952790916781 0 336.35952790916781 196.39200598024763 0 0 0 0 133.89954653571476 198.59358054638142 0 198.59358054638142 230.88983501808252 0 0 0 0 -6.1815926775280445 17.931267858050376 0 17.931267858050376 -8.6862416257653763 0 0 0 0 -12.880351905892894 162.94311731991183 0 162.94311731991183 338.33398874104023 0 0 0 0 36.812477542573802 9.6754683809892583 0 9.6754683809892583 -15.937184267895617 0 0 0 0 123.38106909077032 260.27863850955328 0 260.27863850955328 405.94651302800048 0 0 0 0 259.6804807856679 306.3422087826184 0 306.3422087826184 410.07995298612514 0 0 0 0 -129.53618344188726 110.56461534422124 0 110.56461534422124 201.80582588068501 0 0 0 0 -1.2900568766991967 -2.5430840950182017 0 -2.5430840950182017 -3.9346118525759266 0 0 0 0 228.41659465557314 -42.821489150112029 0 -42.821489150112029 85.998388239531778 0 0 0 0 85.529598313733004 -29.843509287864435 0 -29.843509287864435 300.20157500143978 0 0 0 0 291.84367720823502 323.31960181584873 0 323.31960181584873 327.80481465606135 0 0 0 0 39.734812432317995 141.38805924990447 0 141.38805924990447 82.597309194505215 0 0 0 0 -96.848980380804278 121.38471148337703 0 121.38471148337703 116.55193993146531 0 0 0 0 17.794062517525163 129.37847451656125 0 129.37847451656125 57.302644078095909 0 0 0 0 31.355611874951137 65.908661690216832 0 65.908661690216832 4.3467875540372916 0 0 0 0 129.11992452215054 7.0931411887286231 0 7.0931411887286231 34.325376416381914 0 0 0 0 147.92009405414865 20.630741376226069 0 20.630741376226069 38.373012625379488 0 0 0 0 104.33114022837253 107.36412829553592 0 107.36412829553592 24.535216916381614 0 0 0 0 193.1667763517471 76.614091632305644 0 76.614091632305644 33.599755637696944 0 0 0 0 -1107.9776155754371 608.70836609629623 0 608.70836609629623 453.6706530872616 0 0 0 0 -972.34710271890435 906.9821312059139 0 906.9821312059139 968.75837090620189 0 0 0 0 -1698.1734734915808 574.46604286854563 0 574.46604286854563 923.21075737248611 0 0 0 0 -1092.1046029925637 446.38168761918496 0 446.38168761918496 690.60855444640038 0 0 0 0 -906.00297327071894 -50.426911559115979 0 -50.426911559115979 215.16989620459208 0 0 0 0 -90.546039696091611 209.13286329286348 0 209.13286329286348 253.37963272625348 0 0 0 0 6.9489903655103262 449.77838017364047 0 449.77838017364047 118.28181473439327 0 0 0 0 -540.60871638479875 560.19248581359716 0 560.19248581359716 210.25002525511081 0 0 0 0 -507.23086709237032 650.59510378782215 0 650.59510378782215 437.06359543310828 0 0 0 0 -661.41617343547841 952.82868212842732 0 952.82868212842732 -144.31655799833243 0 0 0 0 -506.6657687027473 1575.5013653473143 0 1575.5013653473143 -685.85912269453911 0 0 0 0 -720.17143894390756 1169.9198847237058 0 1169.9198847237058 714.99337963623111 0 0 0 0 -781.08103258252959 910.27484107911005 0 910.27484107911005 338.9010383207642 0 0 0 0 -564.37159844387497 802.71026076645649 0 802.71026076645649 -1839.7367931409681 0 0 0 0 -211.93102755687141 -90.567052634978609 0 -90.567052634978609 -1775.734630322986 0 0 0 0 -6.9368135290791599 7.405483445456241 0 7.405483445456241 -6.2834305835089594 0 0 0 0 -709.93784600652725 1314.6154080083652 0 1314.6154080083652 -771.09804304386489 0 0 0 0 -323.80026363595243 159.71059378192876 0 159.71059378192876 -981.96939988189843 0 0 0 0 -597.13317332311271 1639.519300762302 0 1639.519300762302 3052.6935957147871 0 0 0 0 8.5552626493989692 4.3506774410982416 0 4.3506774410982416 -1.4127906961579981 0 0 0 0 -908.89192835401627 917.02575436363986 0 917.02575436363986 747.2779085616512 0 0 0 0 -251.45433223736472 1992.666974883643 0 1992.666974883643 1726.061844952812 0 0 0 0 -204.20189033805218 1229.8408739676961 0 1229.8408739676961 743.80059729047935 0 0 0 0 -1298.3467383747775 1222.3847434247291 0 1222.3847434247291 1139.4778265518689 0 0 0 0 -878.12223260258338 710.62384869094217 0 710.62384869094217 735.19522579369368 0 0 0 0 -889.1878725515503 1340.9902047705093 0 1340.9902047705093 904.96546627875068 0 0 0 0 -2277.3710017586272 1192.9041433891252 0 1192.9041433891252 634.65295461127243 0 0 0 0 440.95585020175349 386.97558744345588 0 386.97558744345588 2099.1039332070213 0 0 0 0 39.264701378066093 1231.2754621677595 0 1231.2754621677595 837.0707805804268 0 0 0 0 -254.89898918486142 737.2282966557832 0 737.2282966557832 1463.6609216984507 0 0 0 0 43.430657336968579 955.90807859622873 0 955.90807859622873 71.8309101035411 0 0 0 0 707.84910393849714 794.95315945834955 0 794.95315945834955 308.66637912669103 0 0 0 0 15.045312443195144 823.40974522032775 0 823.40974522032775 911.47809591266559 0 0 0 0 -419.39839723475234 484.21187986381847 0 484.21187986381847 332.05381107356516 0 0 0 0 -81.778231021700776 918.36023543789634 0 918.36023543789634 326.64540222368669 0 0 0 0 -3439.0555848631484 38.712186996344826 0 38.712186996344826 0.3553849433810683 0 0 0 0 -351.07451375633173 537.17039807861875 0 537.17039807861875 -520.02786951360758 0 0 0 0 -1345.5902268413483 1173.2509743178234 0 1173.2509743178234 -855.23483258055057 0 0 0 0 28.532333412865341 15.288922545960645 0 15.288922545960645 9.358384347296635 0 0 0 0 -1207.8828396185054 1104.1392686415056 0 1104.1392686415056 -740.4969277701457 0 0 0 0 6.8886736684412995 27.368820875915702 0 27.368820875915702 13.21605740161931 0 0 0 0 -3137.7744930349691 -1687.7989217091381 0 -1687.7989217091381 -741.54509061507997 0 0 0 0 -4230.6273412372102 778.02168310231355 0 778.02168310231355 481.48582458501915 0 0 0 0 -1090.9158213777191 -580.72924889358546 0 -580.72924889358546 -142.77725397032918 0 0 0 0 -1646.6059572519589 516.7065249743755 0 516.7065249743755 315.98803032912838 0 0 0 0 -2370.6132322660851 100.27342544711428 0 100.27342544711428 799.83633006544551 0 0 0 0 -1343.894376717275 299.96516364003764 0 299.96516364003764 678.95075150422053 0 0 0 0 127.04760993877454 29.357797560932909 0 29.357797560932909 -47.560462299551403 0 0 0 0 307.58444621772651 168.3398435901654 0 168.3398435901654 101.62168901036785 0 0 0 0 -948.42297159689042 -52.718348304377287 0 -52.718348304377287 236.03699196425441 0 0 0 0 -66.931164595669287 62.952732948694404 0 62.952732948694404 90.37200713226548 0 0 0 0 153.40553701617318 80.135966448084218 0 80.135966448084218 15.335932252914063 0 0 0 0 135.29580284523763 62.839062739330984 0 62.839062739330984 0.030679214381962083 0 0 0 0 156.54495022277115 75.70706329785753 0 75.70706329785753 -0.0034623884443366355 0 0 0 0 134.38070341427374 67.642723184799252 0 67.642723184799252 20.179477308469359 0 0 0 0 114.99855884620604 31.40444979383534 0 31.40444979383534 -48.446639808327831 0 0 0 0 133.31736174807156 109.88146366551518 0 109.88146366551518 43.644685954743181 0 0 0 0 219.31764631319675 323.97245166474022 0 323.97245166474022 93.073059964073764 0 0 0 0 143.53232584842772 128.21102545945905 0 128.21102545945905 178.64994344185106 0 0 0 0 161.69891191957868 109.05504762874625 0 109.05504762874625 -94.792452448164113 0 0 0 0 179.66321710764896 91.755119314846525 0 91.755119314846525 -78.167150146706263 0 0 0 0 164.46029811957851 -176.99978890898637 0 -176.99978890898637 -211.55854134523543 0 0 0 0 156.13639265098027 254.60441470175283 0 254.60441470175283 -190.6198701482208 0 0 0 0 117.44969299604418 265.87306185798661 0 265.87306185798661 -174.92023234345834 0 0 0 0 154.24752977886237 253.07190825736325 0 253.07190825736325 -14.94280917418655 0 0 0 0 245.41014994742 235.05344703596165 0 235.05344703596165 -37.537247297761496 0 0 0 0 117.94499897738569 231.56282158911199 0 231.56282158911199 -173.98806143196998 0 0 0 0 36.882196551334346 473.18290032827645 0 473.18290032827645 -118.74468939265353 0 0 0 0 56.579914184345398 404.09848810679978 0 404.09848810679978 107.71034602239524 0 0 0 0 36.623029636597494 318.69292093717377 0 318.69292093717377 210.53717205618159 0 0 0 0 357.99513639186625 309.15168916583934 0 309.15168916583934 25.78653534372279 0 0 0 0 -77.320263156959385 67.165800324507728 0 67.165800324507728 71.370084149246679 0 0 0 0 101.50490835336677 214.9899635799884 0 214.9899635799884 228.31168254924705 0 0 0 0 433.87276256637415 952.8374090811194 0 952.8374090811194 263.32964882119268 0 0 0 0 1001.6558354235021 456.88434272480663 0 456.88434272480663 263.62558507009203 0 0 0 0 -37.541886672261171 490.80766278289957 0 490.80766278289957 292.45231255702311 0 0 0 0 720.36940484961087 661.27728578919778 0 661.27728578919778 -973.29605003909091 0 0 0 0 181.69171587799792 -202.47327315693838 0 -202.47327315693838 -1070.4811112438783 0 0 0 0 -1.1974491928767179 23.130513148290277 0 23.130513148290277 10.253024206569506 0 0 0 0 71.324086613603868 237.63437419974071 0 237.63437419974071 -162.30938763960148 0 0 0 0 88.294868668308482 272.55011540875421 0 272.55011540875421 -539.89083811454475 0 0 0 0 24.584473992258495 -2.6514282225878247 0 -2.6514282225878247 -25.692478073315613 0 0 0 0 1558.3399726478701 3140.8147852475008 0 3140.8147852475008 1934.5797614128533 0 0 0 0 2127.6824326061032 -391.38863042814774 0 -391.38863042814774 -1013.6455800061958 0 0 0 0 -707.66888638203818 -1065.0546852961088 0 -1065.0546852961088 -1553.8427378367051 0 0 0 0 1194.4922925728606 2114.2839246489166 0 2114.2839246489166 2705.0836879455019 0 0 0 0 129.76093188338564 85.371647332962311 0 85.371647332962311 0.17097750154789537 0 0 0 0 92.902735627848983 71.379412335548892 0 71.379412335548892 40.482736086683587 0 0 0 0 120.59041490244999 87.503703662147018 0 87.503703662147018 0.01818044540414121 0 0 0 0 53.618742621227284 52.254768475831952 0 52.254768475831952 3.1271329507799237 0 0 0 0 40.856435238192716 89.160226792308094 0 89.160226792308094 -0.095516833534929901 0 0 0 0 4721.2378164270922 -2451.6248469672137 0 -2451.6248469672137 -1403.0337241074449 0 0 0 0 40.062480905980436 22.310701780674904 0 22.310701780674904 15.648480470031245 0 0 0 0 710.36667531734565 6210.8508405467001 0 6210.8508405467001 22.176252117453259 0 0 0 0 7175.9802197487952 2338.211157841768 0 2338.211157841768 -482.35889212724578 0 0 0 0 -796.63309786423633 517.99725817445142 0 517.99725817445142 -528.65782342367879 0 0 0 0 23.417811384630738 -2.4132227101234491 0 -2.4132227101234491 -1.568549650624476 0 0 0 0 3134.2575656771514 -2753.902228004823 0 -2753.902228004823 -2905.7871184633113 0 0 0 0 1334.3678960928373 1082.6327726457239 0 1082.6327726457239 437.73160939184891 0 0 0 0 759.59799220943387 823.21477630684967 0 823.21477630684967 974.28379639002378 0 0 0 0 532.33641666543554 432.03740773824393 0 432.03740773824393 336.402112056443 0 0 0 0 143.15389886688899 3376.3181190297 0 3376.3181190297 1753.3699665549502 0 0 0 0 977.49714449352177 682.92886247989372 0 682.92886247989372 0.99233632996038068 0 0 0 0 11.094050094584503 20.311232837541638 0 20.311232837541638 -13.418243190725661 0 0 0 0 3764.2427488591638 2422.9419472198351 0 2422.9419472198351 1524.2059361217689 0 0 0 0 1528.8968527440447 946.76374010760628 0 946.76374010760628 2144.5058575124585 0 0 0 0 -59.558584329601018 60.74812813293579 0 60.74812813293579 1.519424843011052 0 0 0 0 1125.8195976329444 1078.6396951309871 0 1078.6396951309871 1012.9378140539829 0 0 0 0 169.45238533538941 21.496720140166872 0 21.496720140166872 76.224269565369468 0 0 0 0 85.425244007055767 1.5042881588410637 0 1.5042881588410637 -24.018840688050858 0 0 0 0 473.74125079103396 342.17469344602432 0 342.17469344602432 -221.79875560705841 0 0 0 0 2787.7414755378486 3752.289632514563 0 3752.289632514563 2950.6808024233615 0 0 0 0 -57.670302050192447 54.379249874932384 0 54.379249874932384 -19.587637534143596 0 0 0 0 -375.3231965122468 79.876486458266299 0 79.876486458266299 166.27659393985232 0 0 0 0 27.191566465954622 1.6854759487058004 0 1.6854759487058004 -1.8491035067001462 0 0 0 0 3033.1269760603027 4695.5194175365323 0 4695.5194175365323 2930.9623015663065 0 0 0 0 1209.3486992792677 -912.94658763003099 0 -912.94658763003099 -1740.4416623752186 0 0 0 0 1361.8243154565425 960.62422759811307 0 960.62422759811307 250.73125690952293 0 0 0 0 1322.9899807479305 662.51382052643021 0 662.51382052643021 -42.453817046727636 0 0 0 0 53.259327744765244 1.8424250360796179 0 1.8424250360796179 -7.987592600522305 0 0 0 0 1597.2962287691626 1781.4245406355622 0 1781.4245406355622 -1213.7480053799518 0 0 0 0 1091.5111800749146 956.79767104760685 0 956.79767104760685 -392.31816410658212 0 0 0 0 1176.798028909172 587.7281510479188 0 587.7281510479188 -424.05931597039307 0 0 0 0 686.34136280619714 871.32683521912986 0 871.32683521912986 603.12478237012692 0 0 0 0 908.25429698741209 1138.9863224741166 0 1138.9863224741166 877.43635265727062 0 0 0 0 1068.1952138830966 1156.7017804985517 0 1156.7017804985517 391.54799434846063 0 0 0 0 2509.0301077491895 651.69694316424284 0 651.69694316424284 562.34450924186967 0 0 0 0 1910.8181294690439 1916.0589931092618 0 1916.0589931092618 875.77859796905977 0 0 0 0 1214.7774465341063 1738.2017618301034 0 1738.2017618301034 1766.4812766424729 0 0 0 0 300.94127352521173 617.65958739326743 0 617.65958739326743 2143.3705927844203 0 0 0 0 15.344159330400828 10.957727202929846 0 10.957727202929846 1.0527171523750098 0 0 0 0 -198.74710094976763 -96.055578641527973 0 -96.055578641527973 1195.4092949621991 0 0 0 0 692.26900772596855 251.62848346012834 0 251.62848346012834 430.09275896343752 0 0 0 0 1131.2159589892981 597.35758320008608 0 597.35758320008608 487.14554812043207 0 0 0 0 2796.8595987112785 392.99540735845949 0 392.99540735845949 -1066.5464695907285 0 0 0 0 963.01490999857197 601.34527607163182 0 601.34527607163182 129.03801933072191 0 0 0 0 1179.2254490141058 201.60235712047142 0 201.60235712047142 650.29873884715198 0 0 0 0 804.89425309067883 890.23397043559089 0 890.23397043559089 915.74324119040466 0 0 0 0 861.17998367534892 627.09012547918974 0 627.09012547918974 1900.6102238161111 0 0 0 0 789.19477521134104 799.87404253955538 0 799.87404253955538 585.21849534539797 0 0 0 0 952.32941467805358 1105.0624410780802 0 1105.0624410780802 746.62125513958017 0 0 0 0 963.01489564768963 1068.1018937125409 0 1068.1018937125409 236.80452136042004 0 0 0 0 1039.7108319006802 1553.8016459062819 0 1553.8016459062819 148.59743827269995 0 0 0 0 1808.4106605619163 1941.3664424870003 0 1941.3664424870003 270.78493553969747 0 0 0 0 -5.6174018816437865 25.950493713738496 0 25.950493713738496 -22.207460797149565 0 0 0 0 -229.16323465084133 -143.32318056262739 0 -143.32318056262739 212.05972181774268 0 0 0 0 1445.9614601366629 151.83835088453634 0 151.83835088453634 -166.50232754318858 0 0 0 0 67.921643030000268 154.62220569611236 0 154.62220569611236 50.713739544997225 0 0 0 0 867.46105007926235 1080.5687569675501 0 1080.5687569675501 296.79269704961189 0 0 0 0 -96.030102427728707 163.79486718071712 0 163.79486718071712 62.572721331325738 0 0 0 0 -93.743281154413125 38.501474300472182 0 38.501474300472182 63.269887401049345 0 0 0 0 -2.1578546709206421 61.730464644060703 0 61.730464644060703 67.126982240049983 0 0 0 0 9.0898442786085525 43.225824998813962 0 43.225824998813962 35.681069640295675 0 0 0 0 -28.27117254913901 82.676103102363413 0 82.676103102363413 39.921399594066315 0 0 0 0 13.394755294364586 68.47230724909241 0 68.47230724909241 47.769844693742925 0 0 0 0 -26.302936870793928 111.40543445719231 0 111.40543445719231 -18.235707928863121 0 0 0 0 1.6499501567467973 57.425147474971794 0 57.425147474971794 50.32978914526521 0 0 0 0 -29.670739526860416 68.866942869499326 0 68.866942869499326 44.348961483396124 0 0 0 0 -5.539209416927406 47.458493021391405 0 47.458493021391405 102.13150146024418 0 0 0 0 19.116209938324658 32.647061713789896 0 32.647061713789896 -1.8192447256868149 0 0 0 0 176.01153925140534 186.31947059076992 0 186.31947059076992 -62.871497149229981 0 0 0 0 67.709419717139099 101.60474713358417 0 101.60474713358417 52.033551766136952 0 0 0 0 285.16780686250422 240.0847173561051 0 240.0847173561051 -265.99010549970262 0 0 0 0 152.79012885876446 129.07987325506818 0 129.07987325506818 72.935196934335892 0 0 0 0 161.89716148054868 180.41812594640942 0 180.41812594640942 -2.5104985238649533 0 0 0 0 149.91326698324701 -68.547823177970713 0 -68.547823177970713 54.470536060922313 0 0 0 0 30.022807483495342 19.675388744564664 0 19.675388744564664 -12.12780052400251 0 0 0 0 57.752516512206057 77.642090155335609 0 77.642090155335609 18.081376989386627 0 0 0 0 683.20930879405933 -90.510671069176169 0 -90.510671069176169 1060.5713622546755 0 0 0 0 -53.068502427879139 50.204043632427783 0 50.204043632427783 47.531667316972744 0 0 0 0 -57.832870076863031 94.011852376387424 0 94.011852376387424 55.549490889033279 0 0 0 0 1037.8267836472733 -50.714812544378219 0 -50.714812544378219 -217.74865813551696 0 0 0 0 -0.96034029792251374 0.61708638698771523 0 0.61708638698771523 7.0367044778006402 0 0 0 0 101.36687331440407 -121.02749535937619 0 -121.02749535937619 691.30820729967672 0 0 0 0 6.0730454105942044 44.080894059501588 0 44.080894059501588 39.789426215997082 0 0 0 0 83.060913500317838 940.94865358878451 0 940.94865358878451 611.21025503155579 0 0 0 0 -4.0039001912809908 136.74430414823291 0 136.74430414823291 86.712571924304939 0 0 0 0 182.39249792898045 502.34448506648187 0 502.34448506648187 -305.3436169910492 0 0 0 0 182.87133819227893 514.59328384044056 0 514.59328384044056 -134.9338579850446 0 0 0 0 -81.567151458620785 70.455314172908658 0 70.455314172908658 57.919903633671311 0 0 0 0 452.26267927473964 258.53782818034233 0 258.53782818034233 43.640441103678313 0 0 0 0 448.5737654474724 339.8113039185846 0 339.8113039185846 -31.448768657661276 0 0 0 0 -6.1899999002780532 215.35499494446412 0 215.35499494446412 312.1903959242336 0 0 0 0 -5.1420929250889458 234.16262952969555 0 234.16262952969555 231.74709294256172 0 0 0 0 -103.4435483756115 292.51382075460606 0 292.51382075460606 252.22868350081262 0 0 0 0 -88.186123349267291 435.17537672772596 0 435.17537672772596 280.84604026630041 0 0 0 0 -103.49301852525605 302.98042869648998 0 302.98042869648998 572.40146986246691 0 0 0 0 -61.564627589978045 71.239444159407867 0 71.239444159407867 365.43761802434165 0 0 0 0 -60.253746033733478 95.236257188109448 0 95.236257188109448 301.46934407026856 0 0 0 0 -191.1251565151324 -164.24527986138128 0 -164.24527986138128 914.63322270964272 0 0 0 0 48.593717027295497 836.59479178623587 0 836.59479178623587 1304.6399592717644 0 0 0 0 731.43094445386669 1086.6681029724714 0 1086.6681029724714 1558.4596910364198 0 0 0 0 2.4804523259289795 -2.3569549794035254 0 -2.3569549794035254 4.8255346102559997 0 0 0 0 -155.84160018424154 -242.84100888777539 0 -242.84100888777539 218.05227760516573 0 0 0 0 -116.83787067586672 65.45602169236372 0 65.45602169236372 62.237893151934259 0 0 0 0 -6.264064905612031 79.667421052479767 0 79.667421052479767 -1.2207297096174443 0 0 0 0 3.1678715637640096 4.8978996682866409 0 4.8978996682866409 22.882047990176375 0 0 0 0 14.854480315872934 90.427899546790286 0 90.427899546790286 53.337338236757205 0 0 0 0 -24.139473514151177 47.742982554693299 0 47.742982554693299 151.48038107619504 0 0 0 0 -14.620312054277747 160.88392039021346 0 160.88392039021346 200.61321915342705 0 0 0 0 9.6276923862787953 -1.2935037468287192 0 -1.2935037468287192 191.09802350704558 0 0 0 0 1752.9081133697327 3173.102205986208 0 3173.102205986208 2216.2980399118424 0 0 0 0 10.075311595908715 2580.5953475654096 0 2580.5953475654096 3284.0555543522933 0 0 0 0 1764.0603819361713 3012.1437552040334 0 3012.1437552040334 3657.941118824514 0 0 0 0 -2.3031418009675235 10.77961060667792 0 10.77961060667792 3.3057367280156313 0 0 0 0 3362.2181841792772 3244.6081414638247 0 3244.6081414638247 2128.2917311791207 0 0 0 0 3.4768742395244772 1403.775644618825 0 1403.775644618825 1910.6034834288148 0 0 0 0 2930.3598579854079 4036.1979743857482 0 4036.1979743857482 -1.4434033329744125 0 0 0 0 -656.26980321017618 2035.6575791736141 0 2035.6575791736141 1493.8845378022233 0 0 0 0 -1.4464331752393775 9.8549823939898715 0 9.8549823939898715 2.2256253454130501 0 0 0 0 2081.3913800111768 1850.1489365415946 0 1850.1489365415946 1366.850086446022 0 0 0 0 1129.3100294160322 3141.7411056266683 0 3141.7411056266683 1894.3522734647995 0 0 0 0 1795.6488990905491 2970.6586601238159 0 2970.6586601238159 939.71727806828858 0 0 0 0 932.2992253726261 3526.8678448343417 0 3526.8678448343417 1.6838508214714238 0 0 0 0 2029.0291195574828 2506.2623767737023 0 2506.2623767737023 951.33430163626326 0 0 0 0 2371.3954066722617 2871.5662344917273 0 2871.5662344917273 -0.066033714872901328 0 0 0 0 1808.0993440878374 2612.9359708902921 0 2612.9359708902921 1761.8421784526436 0 0 0 0 1680.8481117855918 2880.2677973167647 0 2880.2677973167647 1703.709802194091 0 0 0 0 1417.3917084004788 2595.2233755893249 0 2595.2233755893249 2399.5103013087355 0 0 0 0 594.79808749147924 2694.501587744453 0 2694.501587744453 2996.823660968992 0 0 0 0 1809.4579019814773 2643.7951395807795 0 2643.7951395807795 2401.2105800874997 0 0 0 0 684.82873575668782 1488.3738430960002 0 1488.3738430960002 1679.9312269314905 0 0 0 0 717.94667011761339 -350.34212779111112 0 -350.34212779111112 -1958.6752945186017 0 0 0 0 21.131532591938139 3.003382086348779 0 3.003382086348779 -4.8097865862179674 0 0 0 0 26.262008163052087 378.7417505478661 0 378.7417505478661 -94.489178279603948 0 0 0 0 2129.6511184987467 1888.6471683818454 0 1888.6471683818454 1499.5961006882135 0 0 0 0 2809.5235035757505 2221.4137044903982 0 2221.4137044903982 1866.5826004185074 0 0 0 0 2623.3347082153923 3604.3857063208125 0 3604.3857063208125 3806.0803424581827 0 0 0 0 2819.5188736482523 2220.1247544417929 0 2220.1247544417929 775.1485070072813 0 0 0 0 2522.8366942228822 1795.9408157242215 0 1795.9408157242215 1.0890393904264783 0 0 0 0 2703.0947178655479 2458.3720635530863 0 2458.3720635530863 1225.1901713461702 0 0 0 0 1327.0349441212893 1368.3164528577399 0 1368.3164528577399 1596.2888685850048 0 0 0 0 2357.4574928017937 1967.8946287304898 0 1967.8946287304898 829.3967822388222 0 0 0 0 1284.918313627466 1133.1717743646841 0 1133.1717743646841 864.46870681471773 0 0 0 0 1873.3781831242522 1331.8923536599177 0 1331.8923536599177 0.39036511248721401 0 0 0 0 1227.7398193228728 1033.5716395360942 0 1033.5716395360942 824.34505526682551 0 0 0 0 101.39310172728437 -347.14004752511391 0 -347.14004752511391 -291.87538765843783 0 0 0 0 55.529563583241611 2.2210751547381165 0 2.2210751547381165 -14.716385232560555 0 0 0 0 1976.6454696441106 2332.1371558457204 0 2332.1371558457204 2295.8582631223981 0 0 0 0 319.13706123839074 645.96609558719501 0 645.96609558719501 -246.52359995707866 0 0 0 0 5867.6579079929652 1290.8613502631561 0 1290.8613502631561 1723.2777288302022 0 0 0 0 -49.235025692531394 53.367894684178282 0 53.367894684178282 -38.852160212757553 0 0 0 0 4015.4685225978501 2759.1007195655293 0 2759.1007195655293 608.70223946723854 0 0 0 0 1448.8590751504962 1452.4854910182548 0 1452.4854910182548 217.28668213963829 0 0 0 0 -43.275242312034152 53.163263922785688 0 53.163263922785688 -51.949105451574098 0 0 0 0 1754.3248835384402 2058.8759897165874 0 2058.8759897165874 285.688724697422 0 0 0 0 1854.3278206398245 1131.7159469667931 0 1131.7159469667931 -17.099459937249776 0 0 0 0 983.2520131602796 178.30826328267358 0 178.30826328267358 -1500.9528280976447 0 0 0 0 994.70820441424212 1655.20180495199 0 1655.20180495199 -287.89533705249778 0 0 0 0 2.7120738927167736 6.2253607327284328 0 6.2253607327284328 -5.9879077183155971 0 0 0 0 1597.5700992412312 2722.6551580805244 0 2722.6551580805244 2614.7809156084768 0 0 0 0 932.68090370960363 1185.8078522062683 0 1185.8078522062683 441.06162928744743 0 0 0 0 1000.425050795282 696.30521414796385 0 696.30521414796385 264.00813025184652 0 0 0 0 1363.1918407768317 1120.0588875629801 0 1120.0588875629801 93.137642181813135 0 0 0 0 1466.6201579428744 1608.5128377732581 0 1608.5128377732581 743.22363843565108 0 0 0 0 1503.5364446129679 1077.8577779062325 0 1077.8577779062325 637.37403569746584 0 0 0 0 -39.225967845956148 52.119969173339257 0 52.119969173339257 -55.876456404355395 0 0 0 0 1575.6371274025005 1193.78306141555 0 1193.78306141555 -55.492708949146618 0 0 0 0 884.36284474927743 963.77388438067646 0 963.77388438067646 -119.68703902288689 0 0 0 0 882.58659125778649 947.22826894051832 0 947.22826894051832 -267.57281974689977 0 0 0 0 2242.0210104373327 1059.4187745975069 0 1059.4187745975069 -687.47213918288617 0 0 0 0 1479.0046030055673 1920.6831259422106 0 1920.6831259422106 924.33194774722506 0 0 0 0 -3054.8605734559387 521.45449537414243 0 521.45449537414243 1704.4380247425433 0 0 0 0 465.00363867286069 962.72403640898847 0 962.72403640898847 -240.15838552050991 0 0 0 0 -1050.4568318001693 675.89738277305878 0 675.89738277305878 136.59191199638008 0 0 0 0 500.46195219791844 869.72456148921265 0 869.72456148921265 1.0246709354396444 0 0 0 0 952.45982733319397 1297.745450359871 0 1297.745450359871 -310.27021363717722 0 0 0 0 1274.1287920716495 848.15997636614884 0 848.15997636614884 301.77719921783137 0 0 0 0 1851.9842841113568 1614.5137354909239 0 1614.5137354909239 501.25775685147528 0 0 0 0 5.5170675810210241 7.4129546514052436 0 7.4129546514052436 10.674637680664119 0 0 0 0 1550.1733438023221 918.74396836668893 0 918.74396836668893 490.23346030000539 0 0 0 0 686.6670683296179 243.20948929243241 0 243.20948929243241 -165.14005498394545 0 0 0 0 -9.6147133011278783 23.189284648753471 0 23.189284648753471 47.777556442119476 0 0 0 0 8.5014124826557236 127.98711281955184 0 127.98711281955184 -159.1415437276155 0 0 0 0 546.26612600648514 607.08730758296224 0 607.08730758296224 566.42971560245496 0 0 0 0 0.76350761137373413 1340.7046315654045 0 1340.7046315654045 1690.5597623610665 0 0 0 0 1361.7109571269248 772.84144829227444 0 772.84144829227444 256.90505933643726 0 0 0 0 -0.64020992812584154 1342.0598396652058 0 1342.0598396652058 1690.34730936092 0 0 0 0 1902.3830372213706 1421.2751278319629 0 1421.2751278319629 1000.7559682059364 0 0 0 0 1876.360033242192 1297.5210065166611 0 1297.5210065166611 1166.6630990810445 0 0 0 0 -8.0794294696233777 20.533124557110909 0 20.533124557110909 38.497795754793685 0 0 0 0 -1.9935205676604681 10.099817627937227 0 10.099817627937227 16.404180216634018 0 0 0 0 5344.1475905407569 3999.2635939253269 0 3999.2635939253269 2410.4868544436758 0 0 0 0 1663.5359992866388 3008.8767408172962 0 3008.8767408172962 3144.2526183285372 0 0 0 0 -2.3860658662424044 12.408941379597422 0 12.408941379597422 14.37140146458114 0 0 0 0 5631.1525437052769 3204.7218313613848 0 3204.7218313613848 436.42570377819357 0 0 0 0 -2708.1202937018243 1237.0067678333144 0 1237.0067678333144 1395.4218198590534 0 0 0 0 2320.1493550517189 2058.0332372790581 0 2058.0332372790581 2025.5790289857541 0 0 0 0 2545.8471631803259 2000.6285075777196 0 2000.6285075777196 2032.7487708400877 0 0 0 0 2222.8762671495497 1271.8036244702162 0 1271.8036244702162 1397.0425478603138 0 0 0 0 -16.022756312859485 23.977942011120604 0 23.977942011120604 -10.725708910348317 0 0 0 0 3374.6249933740182 2352.7768037968835 0 2352.7768037968835 1347.7964785714721 0 0 0 0 3828.458127774451 1029.4927831141649 0 1029.4927831141649 465.22977404645644 0 0 0 0 -7.6095713288194275 21.659961123499812 0 21.659961123499812 34.559609230290732 0 0 0 0 -187.86046554686618 273.20516363498245 0 273.20516363498245 -216.85495352818543 0 0 0 0 -4.051610415437608 188.54773792733613 0 188.54773792733613 -431.9641144600173 0 0 0 0 1.0706518189579535 43.745753195846724 0 43.745753195846724 37.353921783447731 0 0 0 0 34.648265665367944 53.356955518691393 0 53.356955518691393 36.9839202550138 0 0 0 0 2.6247061163890066 5.3663367399152833 0 5.3663367399152833 12.590393819809918 0 0 0 0 0.96146422640595119 344.89033488510904 0 344.89033488510904 440.88880504418921 0 0 0 0 -8.9034514883630607 23.064014260275627 0 23.064014260275627 43.792650736865426 0 0 0 0 646.38472092452866 478.38775602975511 0 478.38775602975511 792.31406318095105 0 0 0 0 2060.6012924319075 1158.5279007675999 0 1158.5279007675999 1180.9072663777042 0 0 0 0 2444.5112580634595 1173.8500482803647 0 1173.8500482803647 -171.7387148883281 0 0 0 0 -27.201749802653751 38.089635692099193 0 38.089635692099193 -34.449116967100565 0 0 0 0 1758.0645602333252 1635.5081051225595 0 1635.5081051225595 1384.6221965981531 0 0 0 0 2268.9243801822449 1865.8626224115433 0 1865.8626224115433 808.60603596311012 0 0 0 0 1401.6065173467723 986.29038965539439 0 986.29038965539439 1028.9714628127404 0 0 0 0 -34.764471825293185 47.889241424366986 0 47.889241424366986 -50.173631465915605 0 0 0 0 1762.6795460977419 1573.8057939485248 0 1573.8057939485248 1350.8319486109685 0 0 0 0 23.265578603818142 13.864118877506456 0 13.864118877506456 -29.31767033055857 0 0 0 0 1444.6283872146887 1886.4585797491382 0 1886.4585797491382 1661.167367684935 0 0 0 0 1701.1326421799749 1540.7270915235586 0 1540.7270915235586 1355.289250150483 0 0 0 0 1668.9030167587334 1605.3520803471911 0 1605.3520803471911 1401.7555988393979 0 0 0 0 2260.5159438615447 2215.8361036446113 0 2215.8361036446113 2031.528135365108 0 0 0 0 2414.3878907411417 2190.2786059213904 0 2190.2786059213904 2035.20167664162 0 0 0 0 1426.6085324893284 1187.6582860257058 0 1187.6582860257058 688.11792201422213 0 0 0 0 21.819870118117592 13.330114341219627 0 13.330114341219627 -26.792704142339801 0 0 0 0 1514.1286178483424 1491.3376250098117 0 1491.3376250098117 1495.1661791534134 0 0 0 0 1447.7495395052101 1177.6240594387564 0 1177.6240594387564 508.59209147504589 0 0 0 0 2033.2543832944648 1806.791825290522 0 1806.791825290522 216.03663777485053 0 0 0 0 1976.6024439333705 1665.1144038838684 0 1665.1144038838684 -32.037638315545337 0 0 0 0 2121.3534260387823 2616.6147679760543 0 2616.6147679760543 916.66853722822998 0 0 0 0 5.8996540260323229 10.049204340885893 0 10.049204340885893 11.035611496013956 0 0 0 0 2106.6986698475175 2215.6972734256046 0 2215.6972734256046 -413.76020194555167 0 0 0 0 -626.44685556621698 1653.1066926002095 0 1653.1066926002095 2173.4016959227847 0 0 0 0 1828.5373048263937 2066.4338288524668 0 2066.4338288524668 1802.5937074921821 0 0 0 0 2039.7987388964102 1882.6042321638597 0 1882.6042321638597 1867.2697712415538 0 0 0 0 1467.114364498877 1719.8177308600862 0 1719.8177308600862 2869.3531817181138 0 0 0 0 1281.4856138110918 1200.3223115035726 0 1200.3223115035726 1116.375249518911 0 0 0 0 1316.1760868878264 1100.7512872747448 0 1100.7512872747448 980.81340331480897 0 0 0 0 1578.1021711412759 1495.2419909286109 0 1495.2419909286109 1070.6940926527604 0 0 0 0 978.60747121088207 1185.4890788184057 0 1185.4890788184057 1003.3096948257589 0 0 0 0 1759.3338239972363 1985.3158508485358 0 1985.3158508485358 1849.2978301332478 0 0 0 0 19.569897043204094 14.11319435902891 0 14.11319435902891 -27.777040833874366 0 0 0 0 1697.5102609821297 2096.8186484939579 0 2096.8186484939579 1870.2513477413449 0 0 0 0 249.52623312802461 115.54802249196291 0 115.54802249196291 1033.9282614511394 0 0 0 0 857.33140333235497 1110.4510554053777 0 1110.4510554053777 1683.1641703077294 0 0 0 0 11.246700110712538 13.320267512887824 0 13.320267512887824 -21.052496239992593 0 0 0 0 1765.3863147699594 2304.4132808456015 0 2304.4132808456015 2239.298773702656 0 0 0 0 1568.7113010958456 1132.8229763075269 0 1132.8229763075269 1644.314503513102 0 0 0 0 770.16839474956214 1136.8098289259469 0 1136.8098289259469 1792.1302265418926 0 0 0 0 1.3399468094809208 1.8475356623117349 0 1.8475356623117349 2.4982597675872285 0 0 0 0 183.1905177869121 -92.334733350202441 0 -92.334733350202441 -104.42939854936412 0 0 0 0 -1.4758048015637542 355.65537482943751 0 355.65537482943751 -502.07321660499292 0 0 0 0 -697.00792984411237 625.74634031292953 0 625.74634031292953 -346.69110499673843 0 0 0 0 7.3912589263728137 14.869387321700117 0 14.869387321700117 18.167481970077375 0 0 0 0 -2104.9790588113829 600.2163803659605 0 600.2163803659605 140.79340706385847 0 0 0 0 -1239.0379204363708 1301.4376461068932 0 1301.4376461068932 288.51680164120626 0 0 0 0 -189.60748168941791 102.62727564301895 0 102.62727564301895 -230.7854126530583 0 0 0 0 -649.08669568700861 -239.0603385390441 0 -239.0603385390441 -444.11672890843329 0 0 0 0 -366.62574608484283 588.29405864420551 0 588.29405864420551 -398.05616917081898 0 0 0 0 1.9104240368442618 5.0580950815802623 0 5.0580950815802623 6.4910324376805022 0 0 0 0 -1473.2923804507373 1259.7811525030047 0 1259.7811525030047 282.85714434814872 0 0 0 0 -654.30196144070942 1078.6182167972984 0 1078.6182167972984 -25.969337835820625 0 0 0 0 -1643.3521052287433 -77.95324384397918 0 -77.95324384397918 53.235807957666111 0 0 0 0 -1939.82653712311 847.96509562917345 0 847.96509562917345 144.71411690756213 0 0 0 0 -97.93795958274859 410.46300533934846 0 410.46300533934846 -1008.2660187509173 0 0 0 0 -1098.4716900007625 1485.0536513262632 0 1485.0536513262632 -328.6505597778887 0 0 0 0 -5.8079072332137684 15.126436962764359 0 15.126436962764359 1.7850718505201257 0 0 0 0 -774.88835363983526 -84.484129018215754 0 -84.484129018215754 -12.384614100141334 0 0 0 0 1357.6085122736404 1414.889973755704 0 1414.889973755704 530.31601706397487 0 0 0 0 -11.372039074420002 26.599330092014441 0 26.599330092014441 -0.65596304992753574 0 0 0 0 24.854303430533037 73.510574969754089 0 73.510574969754089 80.054302498407196 0 0 0 0 -4.4746391345397569 51.924736195898731 0 51.924736195898731 26.249801451842359 0 0 0 0 1151.3735715771036 -125.36997919705027 0 -125.36997919705027 -50.118794532176253 0 0 0 0 1193.4050261959201 771.86580212568515 0 771.86580212568515 -925.78898750018561 0 0 0 0 5.3151764275320943 15.999555171894599 0 15.999555171894599 12.692070480202858 0 0 0 0 28.10517762287418 -89.86245906068234 0 -89.86245906068234 193.4331244143832 0 0 0 0 2599.199977278593 334.6168029075925 0 334.6168029075925 93.789200747352879 0 0 0 0 2018.800559548763 1812.5985920033527 0 1812.5985920033527 56.302488264300337 0 0 0 0 -740.25429960610927 816.58416050063533 0 816.58416050063533 878.04748153535184 0 0 0 0 2287.9058213979879 1597.6975851847383 0 1597.6975851847383 -1001.0882461442452 0 0 0 0 -1017.7550190095972 400.27333743869394 0 400.27333743869394 -400.43490510257107 0 0 0 0 2078.6989250694751 1238.050640084628 0 1238.050640084628 -368.04270894880756 0 0 0 0 1990.3829400331306 1212.2194639068584 0 1212.2194639068584 440.6005774387886 0 0 0 0 1060.0648493151239 1015.3504524363088 0 1015.3504524363088 675.62101184180938 0 0 0 0 1543.3726773669623 765.05942667599811 0 765.05942667599811 66.852891634844127 0 0 0 0 1360.0688962052518 1161.2534816978332 0 1161.2534816978332 225.18957343032525 0 0 0 0 1666.5890178285918 1260.1237889825425 0 1260.1237889825425 -97.907116435004355 0 0 0 0 1710.340711113924 997.31804638296671 0 997.31804638296671 1065.2913407309534 0 0 0 0 2387.3672432110325 784.64387402851025 0 784.64387402851025 -100.14655364911596 0 0 0 0 1481.1775899659551 1485.272787425798 0 1485.272787425798 530.87786047898408 0 0 0 0 2355.2733333774013 1916.0895737282294 0 1916.0895737282294 689.62883844524913 0 0 0 0 1317.7261341855046 1481.7675476421864 0 1481.7675476421864 625.95592503582884 0 0 0 0 1324.8533059125766 1208.7092651493294 0 1208.7092651493294 505.46019993258233 0 0 0 0 1196.1015261694993 1608.5382007306507 0 1608.5382007306507 704.64172485462223 0 0 0 0 1537.8120645268427 1623.3990296228039 0 1623.3990296228039 693.74805776160792 0 0 0 0 1217.6500152753142 1955.4344630248161 0 1955.4344630248161 422.28174535968719 0 0 0 0 736.98408773267874 2058.26392825726 0 2058.26392825726 -169.8561280707363 0 0 0 0 970.62188322506699 1632.6447101419526 0 1632.6447101419526 604.92638819593412 0 0 0 0 679.99492590858426 1955.6383972212352 0 1955.6383972212352 805.04216952536808 0 0 0 0 694.10997571627377 1658.2235421694131 0 1658.2235421694131 757.0552610765983 0 0 0 0 248.92959238603362 2132.2171812406705 0 2132.2171812406705 -4.9663337689853506 0 0 0 0 334.48102341117919 1670.7315493850765 0 1670.7315493850765 756.90627418765473 0 0 0 0 917.87346242107742 1853.1778521640808 0 1853.1778521640808 -1943.9375587094983 0 0 0 0 5.5062240853208539 2717.7086353868449 0 2717.7086353868449 -292.28573324397439 0 0 0 0 4004.4925558486138 4656.4192349688019 0 4656.4192349688019 644.32439205868286 0 0 0 0 857.75223057976109 1448.7932813948646 0 1448.7932813948646 -12.180805822485127 0 0 0 0 1226.2056426207419 1540.5271856892141 0 1540.5271856892141 -841.49054046606761 0 0 0 0 10.887800591363089 7.1236694374264289 0 7.1236694374264289 -10.482066044532473 0 0 0 0 588.72253821828053 369.23354562901659 0 369.23354562901659 -172.08754588777447 0 0 0 0 842.70751840239973 112.85737469964079 0 112.85737469964079 -1767.1130183754594 0 0 0 0 3455.0735837855609 3390.4944557169219 0 3390.4944557169219 3723.8674000235551 0 0 0 0 634.59430867456831 2366.9474058249325 0 2366.9474058249325 3740.0323598747491 0 0 0 0 4.2596158458393685 3296.985138820683 0 3296.985138820683 2804.3534700032324 0 0 0 0 3528.9199174844543 3493.1241152521543 0 3493.1241152521543 2512.7843952589319 0 0 0 0 3768.5867741533439 4196.6521898128703 0 4196.6521898128703 2961.6929720202752 0 0 0 0 -2.3030398731912101 10.836717540436211 0 10.836717540436211 4.0979854087577507 0 0 0 0 220.30968364980072 636.80561506186496 0 636.80561506186496 27.238772881108162 0 0 0 0 468.88979028558242 449.60611506467103 0 449.60611506467103 82.323667756631039 0 0 0 0 344.2269210643135 219.77154539627372 0 219.77154539627372 569.01817748657777 0 0 0 0 599.56193649689521 773.99628196613048 0 773.99628196613048 437.91190905493568 0 0 0 0 124.60300427038965 -287.15069603629217 0 -287.15069603629217 322.96701076674799 0 0 0 0 -327.73648829426384 60.811251554638147 0 60.811251554638147 27.111796966510155 0 0 0 0 12.712332209935994 13.115324331134616 0 13.115324331134616 645.37851695367135 0 0 0 0 615.48204585589701 214.32378380766022 0 214.32378380766022 51.12862592138481 0 0 0 0 592.84374396613566 -150.22258335324295 0 -150.22258335324295 1605.3027404113382 0 0 0 0 596.42835266864859 99.533267041653744 0 99.533267041653744 618.80527911012177 0 0 0 0 43.472329259398975 -23.373241313936887 0 -23.373241313936887 1103.8381399297505 0 0 0 0 711.64867742729257 442.98353619228874 0 442.98353619228874 592.80850760875182 0 0 0 0 589.11027187193395 839.24290814474807 0 839.24290814474807 1752.1687255733486 0 0 0 0 -172.24811783678092 534.38452352796082 0 534.38452352796082 1375.1020114629646 0 0 0 0 1456.7773175292241 271.782424799414 0 271.782424799414 553.48270992503967 0 0 0 0 328.32289998598571 448.73514382286521 0 448.73514382286521 677.12519814529514 0 0 0 0 781.8248226090509 984.06515195878455 0 984.06515195878455 1266.5100920549885 0 0 0 0 131.46426423598314 461.30935222895641 0 461.30935222895641 1317.3255561188853 0 0 0 0 -20.812912417808548 241.17176770951482 0 241.17176770951482 999.27540562549257 0 0 0 0 84.443080781085882 398.89910467132722 0 398.89910467132722 672.69731262424102 0 0 0 0 194.12453051251941 349.56920259124308 0 349.56920259124308 462.66926598714781 0 0 0 0 186.94701523197 542.34686546130979 0 542.34686546130979 936.50025178826036 0 0 0 0 48.823480353486957 -73.386999771653791 0 -73.386999771653791 876.24095210703308 0 0 0 0 115.00839277757041 3.3928200066075078 0 3.3928200066075078 422.63575135046995 0 0 0 0 106.02115552657051 401.01162587932049 0 401.01162587932049 218.87287233420648 0 0 0 0 -74.295449174605892 25.687444596205751 0 25.687444596205751 510.20090128597803 0 0 0 0 -11.128150925826048 367.80768527746841 0 367.80768527746841 210.51123032686883 0 0 0 0 -47.663055485551013 275.95983792754123 0 275.95983792754123 -5.8492613614944275 0 0 0 0 238.34172591179959 470.45463472262782 0 470.45463472262782 -41.675067157790181 0 0 0 0 250.54644750105217 638.72684254702472 0 638.72684254702472 272.87546018701687 0 0 0 0 230.66257409416721 409.15797018667945 0 409.15797018667945 21.890310524184315 0 0 0 0 401.88928518543253 381.12468575675666 0 381.12468575675666 -358.13047254909179 0 0 0 0 436.9112310227647 456.58445374713483 0 456.58445374713483 -237.91012435185257 0 0 0 0 297.70193119317992 300.8310294317198 0 300.8310294317198 -370.87414077906578 0 0 0 0 74.136500467080623 463.61296680640953 0 463.61296680640953 -69.566202513062308 0 0 0 0 75.144232219114201 370.33720908303803 0 370.33720908303803 -102.82007657403301 0 0 0 0 295.54917571312399 374.9458098591349 0 374.9458098591349 -194.59396921003645 0 0 0 0 77.267681399578578 359.64831922090889 0 359.64831922090889 -147.14742942411976 0 0 0 0 121.13436572725986 123.19781734574687 0 123.19781734574687 87.716852222445027 0 0 0 0 75.141153963468241 330.05179628350925 0 330.05179628350925 -165.70684522224474 0 0 0 0 145.29977339622565 231.67645227186586 0 231.67645227186586 -35.497862634496414 0 0 0 0 242.4381364296496 200.18583040110025 0 200.18583040110025 -287.5264862372278 0 0 0 0 0.46148784136320842 -0.2423491003713707 0 -0.2423491003713707 -10.577318472449264 0 0 0 0 278.24231597453763 110.50373250305347 0 110.50373250305347 -64.409552848184831 0 0 0 0 289.84690674216836 720.4794938547202 0 720.4794938547202 -507.43271714771981 0 0 0 0 245.7560308483371 -114.8433155710336 0 -114.8433155710336 -720.95245798773249 0 0 0 0 483.67253265973704 486.73348721364164 0 486.73348721364164 -857.68457650911296 0 0 0 0 116.77782532946003 318.66862567122735 0 318.66862567122735 -787.01585549258743 0 0 0 0 212.90881686025386 -210.18850066428058 0 -210.18850066428058 -642.82094463834073 0 0 0 0 14.559441019977385 28.989582835893088 0 28.989582835893088 -39.398246778117027 0 0 0 0 -305.64492713226355 279.88163741595417 0 279.88163741595417 -77.666164928275975 0 0 0 0 206.95568164216093 22.338221451740537 0 22.338221451740537 -394.75547828266281 0 0 0 0 -705.71646186403814 204.11672126206759 0 204.11672126206759 267.81453230990633 0 0 0 0 -4.6076964722643652 5.0827573027567894 0 5.0827573027567894 -9.3648187321164755 0 0 0 0 -637.69311680005922 55.275865793890262 0 55.275865793890262 300.67433255582 0 0 0 0 -511.45891047205077 382.95878384417301 0 382.95878384417301 -262.3669603211456 0 0 0 0 97.531554410728859 290.44355662521411 0 290.44355662521411 -554.74262641091627 0 0 0 0 537.08929841509962 677.65667639729509 0 677.65667639729509 1357.210911665923 0 0 0 0 1196.3887825215206 1538.0138633492934 0 1538.0138633492934 1203.6800492604962 0 0 0 0 509.60352168205281 1104.1758484972725 0 1104.1758484972725 -162.20354927000153 0 0 0 0 -164.36061969761795 -412.03382874396266 0 -412.03382874396266 366.76211359153058 0 0 0 0 530.14828315145132 -20.268223603225124 0 -20.268223603225124 194.14417182968464 0 0 0 0 -59.299137541471282 -101.80256516380177 0 -101.80256516380177 285.34695073602779 0 0 0 0 4.8725820732336729 3.8700964498566002 0 3.8700964498566002 3.6231962776898854 0 0 0 0 -63.928756381545099 -103.62736675806445 0 -103.62736675806445 366.12072282373629 0 0 0 0 -36.119604478426481 -61.087327444711264 0 -61.087327444711264 18.930351641363814 0 0 0 0 -83.935478497543954 37.334864731285052 0 37.334864731285052 51.411851057971944 0 0 0 0 -566.62493742461083 -149.89833606888715 0 -149.89833606888715 481.72699811137863 0 0 0 0 -213.42442995785677 -138.41648215760506 0 -138.41648215760506 473.15712346894361 0 0 0 0 -239.97494506482326 -157.79798915297215 0 -157.79798915297215 588.45223826433357 0 0 0 0 26.801627262990223 119.9177962986505 0 119.9177962986505 589.37174360728386 0 0 0 0 190.36986264841107 -3.4871199671542854 0 -3.4871199671542854 -163.56536229263293 0 0 0 0 -69.061494815774495 210.66259088336665 0 210.66259088336665 607.60998128352094 0 0 0 0 392.29824780498166 233.6157548725896 0 233.6157548725896 90.174236427614233 0 0 0 0 -263.19771733150992 -35.40934776170252 0 -35.40934776170252 305.61303909003618 0 0 0 0 -290.3943956866724 181.38921861358835 0 181.38921861358835 163.03190289941995 0 0 0 0 -172.23854964408383 -129.88258186780877 0 -129.88258186780877 325.2739141857819 0 0 0 0 4.4743431334028401 3.330702092010128 0 3.330702092010128 1.9338310017366211 0 0 0 0 635.69478783782688 572.29887571649306 0 572.29887571649306 -227.44269249817535 0 0 0 0 190.6158205238753 579.66950514143537 0 579.66950514143537 754.91014970363176 0 0 0 0 -85.983060506987385 174.82401275046868 0 174.82401275046868 -199.31438721020822 0 0 0 0 48.870766711143006 -180.6595078539242 0 -180.6595078539242 -66.546858024790708 0 0 0 0 7.0023125085760398 5.6936131472375919 0 5.6936131472375919 4.1332067714396317 0 0 0 0 86.473854538307933 48.169514284203615 0 48.169514284203615 -237.63430525098374 0 0 0 0 86.685663047552225 49.593228663499758 0 49.593228663499758 -228.9046846860947 0 0 0 0 -324.56152086544898 316.53299185660944 0 316.53299185660944 336.72617613567127 0 0 0 0 -313.16554780129809 234.78197155839098 0 234.78197155839098 451.31761582616309 0 0 0 0 -232.39834715574762 -2.7495222699417354 0 -2.7495222699417354 817.18730936438078 0 0 0 0 -218.60141922964249 221.63920641712321 0 221.63920641712321 -205.31341406778665 0 0 0 0 -127.97485890320968 559.44859127081872 0 559.44859127081872 637.52226553521905 0 0 0 0 -662.65248291981698 132.99179274398921 0 132.99179274398921 422.15967401458329 0 0 0 0 107.09961008843675 615.68100111172316 0 615.68100111172316 748.53515224863077 0 0 0 0 6.8486766593040329 -2.8420250058158842 0 -2.8420250058158842 2.1552614780086827 0 0 0 0 322.83134853436786 903.14851404727233 0 903.14851404727233 1010.7603869259765 0 0 0 0 765.71144779323367 344.39163269082928 0 344.39163269082928 431.76229071830676 0 0 0 0 723.15178289138203 327.64751942356452 0 327.64751942356452 -178.93817602770287 0 0 0 0 631.36821417082683 -175.53874921541865 0 -175.53874921541865 -66.98736819451733 0 0 0 0 93.549803807458375 -174.82864523004537 0 -174.82864523004537 193.77990196947212 0 0 0 0 47.223260145663517 -33.060439432345447 0 -33.060439432345447 75.756455945534981 0 0 0 0 18.964966146108054 4.2329617046780186 0 4.2329617046780186 32.535636119078845 0 0 0 0 4.7040012688783577 9.7160382269838976 0 9.7160382269838976 -20.025975798865488 0 0 0 0 87.749064765841467 -10.795770838361932 0 -10.795770838361932 -7.2684731585613918 0 0 0 0 60.129907643487968 29.976364578786161 0 29.976364578786161 -2.3230019774346147 0 0 0 0 81.296132224437315 129.39137858491449 0 129.39137858491449 96.292297454725485 0 0 0 0 177.07899515668396 121.77893022403441 0 121.77893022403441 2.7644766872806485 0 0 0 0 146.91642599261104 30.938371586197718 0 30.938371586197718 -56.984166445443407 0 0 0 0 81.342241935752099 76.532586566536338 0 76.532586566536338 3.7685301101446385 0 0 0 0 86.095090830596746 53.484033913089661 0 53.484033913089661 -14.270990784516471 0 0 0 0 101.55843708491011 69.971735441795317 0 69.971735441795317 -6.3149637844471727 0 0 0 0 34.06290466472467 26.078698667830054 0 26.078698667830054 -17.904772448146389 0 0 0 0 20.411163480260427 -5.4860629614304344 0 -5.4860629614304344 2.7472395342381901 0 0 0 0 836.3456136599998 -13.348494522171677 0 -13.348494522171677 231.80694387978292 0 0 0 0 80.874185844819294 6.267491067359515 0 6.267491067359515 -39.437649696272274 0 0 0 0 399.2796223287296 577.68911880352243 0 577.68911880352243 485.10725972761065 0 0 0 0 5.7952572768037385 4.8161530115476126 0 4.8161530115476126 30.35311833299636 0 0 0 0 528.19313572473766 455.25822057663754 0 455.25822057663754 22.144179340815754 0 0 0 0 633.40095403980376 590.10256175147606 0 590.10256175147606 194.18747862579767 0 0 0 0 326.84464340496925 453.76257421243645 0 453.76257421243645 280.96647776510508 0 0 0 0 -13.249544847039942 90.078581362098703 0 90.078581362098703 -14.389445012042415 0 0 0 0 168.18651692701678 14.682351368872332 0 14.682351368872332 -114.86049115249989 0 0 0 0 33.071227392298169 -242.54993218013806 0 -242.54993218013806 -4.3670482383458875 0 0 0 0 0.53441706800788324 -0.61072121823875136 0 -0.61072121823875136 10.06420517942928 0 0 0 0 -169.26031188053139 -32.572221385716603 0 -32.572221385716603 1551.4190577820991 0 0 0 0 -35.455039739696076 -55.815288147598039 0 -55.815288147598039 1256.0310073094588 0 0 0 0 -3.0394675513524874 0.21128442203767861 0 0.21128442203767861 6.9008882356567369 0 0 0 0 444.48463079582143 551.08782894167871 0 551.08782894167871 755.99610979532008 0 0 0 0 1682.9104383804079 1022.8394393133203 0 1022.8394393133203 611.39132283211802 0 0 0 0 1053.9566928442218 334.68384273297124 0 334.68384273297124 45.293098916003146 0 0 0 0 -6.873859285376966 63.268092156562489 0 63.268092156562489 -28.193521830609825 0 0 0 0 -41.155291818315163 9.3132200984255178 0 9.3132200984255178 -17.243081071253982 0 0 0 0 16.352119968563784 109.09693556160346 0 109.09693556160346 417.74611235746852 0 0 0 0 -2.0456215354599863 3.2685313979874735 0 3.2685313979874735 3.5614872918357179 0 0 0 0 13.275213940389222 66.84463580159354 0 66.84463580159354 -121.91370235530485 0 0 0 0 -82.599777081341017 88.461724092288932 0 88.461724092288932 1375.5146998799755 0 0 0 0 -43.130379009686294 68.435037416855266 0 68.435037416855266 -19.180303874149104 0 0 0 0 -10.387361281795165 69.751220587757416 0 69.751220587757416 27.794576417581993 0 0 0 0 13.268042561685434 15.618910756122204 0 15.618910756122204 -29.353695369125489 0 0 0 0 7.0542954938439095 8.5792334636732761 0 8.5792334636732761 -0.74524387111640067 0 0 0 0 -70.008227556303609 139.03779516484065 0 139.03779516484065 28.239536905137356 0 0 0 0 52.11288497239002 64.593900309911987 0 64.593900309911987 22.946648170705885 0 0 0 0 -15.806547665640551 35.512046962625249 0 35.512046962625249 -10.907239645451241 0 0 0 0 -61.011096282552899 77.014944789994843 0 77.014944789994843 -26.806322899181396 0 0 0 0 27.378518566634739 -15.113443617112353 0 -15.113443617112353 10.853182771228603 0 0 0 0 -74.358788521945826 57.421582259819843 0 57.421582259819843 39.160818855641992 0 0 0 0 -175.14963805903972 55.407939550401352 0 55.407939550401352 46.327762269429513 0 0 0 0 13.415433602921155 8.7330633240320594 0 8.7330633240320594 4.2900681672219889 0 0 0 0 -36.88691861331526 27.358426183213808 0 27.358426183213808 38.520691865543398 0 0 0 0 88.050790652894648 95.217693425918696 0 95.217693425918696 24.231230566179875 0 0 0 0 40.501881590374978 70.937758479500189 0 70.937758479500189 32.331208156669163 0 0 0 0 32.042206184826284 53.226797502034152 0 53.226797502034152 27.737773617521185 0 0 0 0 59.517070202215109 93.629363346401078 0 93.629363346401078 43.019364308041986 0 0 0 0 -35.232551705217276 41.259737846020101 0 41.259737846020101 19.075101890652405 0 0 0 0 -58.847132441869007 48.860059219013607 0 48.860059219013607 -0.55440059485968618 0 0 0 0 -14.468126495004981 55.146189452809267 0 55.146189452809267 33.585786749164981 0 0 0 0 -169.47118672754732 94.177641062058683 0 94.177641062058683 74.456864788800885 0 0 0 0 -99.878788367959714 81.506847672797903 0 81.506847672797903 57.039721805100271 0 0 0 0 -93.503920703869881 208.08271867261374 0 208.08271867261374 53.759891090390738 0 0 0 0 -78.341008057646789 81.035996056363899 0 81.035996056363899 0.43429617790894781 0 0 0 0 -99.350661165816746 155.99385525361413 0 155.99385525361413 89.172439539819607 0 0 0 0 -401.07488550588459 6.5572458481619833 0 6.5572458481619833 127.99473481767927 0 0 0 0 -129.43029807526182 33.047575513621268 0 33.047575513621268 126.78570628084708 0 0 0 0 -290.25466129110282 115.73299502681402 0 115.73299502681402 150.24760914409126 0 0 0 0 -946.56866970345436 314.57147602426994 0 314.57147602426994 134.28667989371115 0 0 0 0 -321.57606776258035 168.75655173802807 0 168.75655173802807 115.45913602010114 0 0 0 0 -36.71892038002261 330.85862298056236 0 330.85862298056236 -56.782515876475372 0 0 0 0 88.550768742188666 118.49527767668224 0 118.49527767668224 28.447047611800372 0 0 0 0 -11.743231659434969 -82.135452161055582 0 -82.135452161055582 -125.2732521918042 0 0 0 0 -237.59874272706293 325.29697069758549 0 325.29697069758549 17.803182288975222 0 0 0 0 238.53141563628014 145.33997271674525 0 145.33997271674525 -14.26176939632569 0 0 0 0 -9.9817939327566307 2.1517382863504224 0 2.1517382863504224 -0.18074964457099441 0 0 0 0 -189.58985014476639 -629.19175663470014 0 -629.19175663470014 -1228.6159243313014 0 0 0 0 -80.208063835467328 94.869038866083429 0 94.869038866083429 -582.2649349951389 0 0 0 0 -979.21358150824381 -512.2367646167404 0 -512.2367646167404 -0.23353508563741343 0 0 0 0 -1452.2512220086719 22.953728147262154 0 22.953728147262154 803.55826759136107 0 0 0 0 -280.18968203527038 468.31711608252772 0 468.31711608252772 -442.013342307313 0 0 0 0 -80.738998848138635 45.416116121958723 0 45.416116121958723 -1.1863295763789807 0 0 0 0 -172.00939059018856 69.49952286810003 0 69.49952286810003 349.08522954227374 0 0 0 0 -47.989523391974217 9.8160729223927774 0 9.8160729223927774 -234.91128527960973 0 0 0 0 -79.559277560285409 168.45414362719566 0 168.45414362719566 890.54295964774792 0 0 0 0 1403.1667527775571 576.13128859805875 0 576.13128859805875 378.77199736377224 0 0 0 0 -10.828778480989058 19.426745405143372 0 19.426745405143372 -1.9240055727468786 0 0 0 0 -45.104128081322415 122.01907778908571 0 122.01907778908571 62.278980828268686 0 0 0 0 -15.420732457190752 71.570350159861846 0 71.570350159861846 43.587257143837633 0 0 0 0 -53.047470224017616 82.679771560790186 0 82.679771560790186 39.637431115118147 0 0 0 0 -61.108261480584531 104.8516722675206 0 104.8516722675206 36.192008683701346 0 0 0 0 -29.017649157216681 54.737147915939829 0 54.737147915939829 46.802262117508349 0 0 0 0 14.887253047985723 37.704484538553515 0 37.704484538553515 105.88951501209522 0 0 0 0 22.144813616730971 150.39356518181739 0 150.39356518181739 90.345910372921935 0 0 0 0 16.703592189869994 22.808949176492234 0 22.808949176492234 5.0316886477609302 0 0 0 0 0.25719088289770298 187.13941026187968 0 187.13941026187968 182.76402963690634 0 0 0 0 38.388636221643537 8.566834019482485 0 8.566834019482485 -45.945202042938035 0 0 0 0 55.192824588320946 417.75406785594714 0 417.75406785594714 136.95947408086795 0 0 0 0 108.14306560056139 308.78374505481042 0 308.78374505481042 320.91343563908595 0 0 0 0 201.99539115208609 553.34350504447457 0 553.34350504447457 -105.08883149539179 0 0 0 0 -75.695028661936192 79.056777140144931 0 79.056777140144931 11.670521759104446 0 0 0 0 123.92333022744424 155.24936367005284 0 155.24936367005284 -45.024931729753007 0 0 0 0 386.03407224532566 885.30328965438821 0 885.30328965438821 447.35812060729222 0 0 0 0 52.879076580626133 530.28447833641621 0 530.28447833641621 891.70042845948774 0 0 0 0 219.01017442182638 464.07414765177964 0 464.07414765177964 90.223765585426008 0 0 0 0 110.92370622513408 773.19387482438287 0 773.19387482438287 -266.77022166813549 0 0 0 0 382.39791438847897 283.14550194816547 0 283.14550194816547 -752.03992084206402 0 0 0 0 302.94398742013436 76.038905429086299 0 76.038905429086299 -143.97054278956057 0 0 0 0 394.95686323110567 157.47762272216823 0 157.47762272216823 -74.415931800424005 0 0 0 0 18.915399827568876 12.82606535571594 0 12.82606535571594 -1.1239306733333905 0 0 0 0 189.7298399504798 256.37971352477325 0 256.37971352477325 133.48457877287001 0 0 0 0 86.168264954314509 125.45594863327096 0 125.45594863327096 -231.5892489948892 0 0 0 0 44.808667037083069 -118.98276598587472 0 -118.98276598587472 -17.680722978817357 0 0 0 0 310.40007337169664 152.48886422674332 0 152.48886422674332 -48.44216300410335 0 0 0 0 -1.6682423255291781 2.6651269418065056 0 2.6651269418065056 -6.7293836167493453 0 0 0 0 100.45264775512624 -42.287405598595797 0 -42.287405598595797 69.451047102855227 0 0 0 0 155.14869731492945 130.80436061888759 0 130.80436061888759 -283.97172813495126 0 0 0 0 195.44771305395989 -23.72621241822344 0 -23.72621241822344 -119.35897215026489 0 0 0 0 173.16407181978138 35.437057437131443 0 35.437057437131443 -272.97933258851117 0 0 0 0 10.422134503125562 304.37962108485954 0 304.37962108485954 -157.45962680225784 0 0 0 0 359.97525489173859 53.336614111387462 0 53.336614111387462 -452.28104902106861 0 0 0 0 -51.435770617550588 120.97507576006319 0 120.97507576006319 -424.26676567101094 0 0 0 0 198.4839304570778 205.75005718156899 0 205.75005718156899 -525.6652207424122 0 0 0 0 231.87450888077728 72.476226514729206 0 72.476226514729206 -615.13191858733626 0 0 0 0 188.35714480168645 68.725261598261113 0 68.725261598261113 -498.75138782337308 0 0 0 0 174.50008864779375 151.04790486564161 0 151.04790486564161 -529.25672028039116 0 0 0 0 -586.25490846720641 602.46765848884388 0 602.46765848884388 -310.09581007937049 0 0 0 0 -5.9861027237566304 205.83588703798523 0 205.83588703798523 -564.39774802299507 0 0 0 0 -269.0469942161144 590.68992081828219 0 590.68992081828219 -679.41988645175297 0 0 0 0 -551.43344224127941 492.20761610363115 0 492.20761610363115 -581.19339812248654 0 0 0 0 -1007.7109891892324 283.51745658970322 0 283.51745658970322 -544.65428164991317 0 0 0 0 -936.01909469314705 533.3538638204318 0 533.3538638204318 -1785.8560605414677 0 0 0 0 -1393.0211731008058 820.04958107126185 0 820.04958107126185 -485.51880290688132 0 0 0 0 -655.31199003974325 870.72193223890645 0 870.72193223890645 -1118.3963045855999 0 0 0 0 -2437.0297960591852 1525.7926063729246 0 1525.7926063729246 -855.87387192802998 0 0 0 0 -1423.5129404432082 921.6826942461721 0 921.6826942461721 -526.18905745763914 0 0 0 0 -1700.1943407597137 511.35671503702179 0 511.35671503702179 -172.17505019858072 0 0 0 0 -1411.3488173171936 591.15613658554503 0 591.15613658554503 -217.8693312688556 0 0 0 0 -1963.6447557660867 891.98467808352143 0 891.98467808352143 -359.05548571895633 0 0 0 0 -1302.9534171784035 835.1367729456997 0 835.1367729456997 -487.67368597273889 0 0 0 0 -896.21971859002952 621.15175642053509 0 621.15175642053509 -483.79720002896283 0 0 0 0 -973.78871126531158 636.61671445451793 0 636.61671445451793 -472.67401538400736 0 0 0 0 -835.40854930030036 779.36364427817352 0 779.36364427817352 -529.83173678669846 0 0 0 0 -559.29401163989678 730.22555886664486 0 730.22555886664486 -691.9556076150111 0 0 0 0 -332.46154535119422 482.50414536509561 0 482.50414536509561 -545.94838529049593 0 0 0 0 -676.21819867349404 669.84528940681594 0 669.84528940681594 -440.03102049826703 0 0 0 0 -644.60427182432613 708.09148616190942 0 708.09148616190942 -601.81470437010285 0 0 0 0 -571.72974521786091 728.20788821575843 0 728.20788821575843 -854.17920119625342 0 0 0 0 -434.43807202656171 371.43901312072558 0 371.43901312072558 -785.69264149859919 0 0 0 0 -372.16726818820462 166.34947984535393 0 166.34947984535393 -427.96618817242779 0 0 0 0 -699.31185660159099 -14.064538730577624 0 -14.064538730577624 39.903642021934502 0 0 0 0 -714.34103909984697 535.20292908867123 0 535.20292908867123 -564.68708499558852 0 0 0 0 -552.61781835876172 646.99016581168689 0 646.99016581168689 -607.85718223349068 0 0 0 0 -1005.7600804088579 43.275702545237436 0 43.275702545237436 192.73073889015359 0 0 0 0 -1267.0309500384319 497.06160081704002 0 497.06160081704002 -177.11136281280778 0 0 0 0 -691.14261841232656 468.05694545425285 0 468.05694545425285 -373.54376091860468 0 0 0 0 -1025.0993175950134 393.95394844426482 0 393.95394844426482 -145.15141819015844 0 0 0 0 -1019.8392619837541 393.1954371384345 0 393.1954371384345 -176.8568940757832 0 0 0 0 -1023.1695258060354 259.79974256410787 0 259.79974256410787 -191.46561199200914 0 0 0 0 -1047.5200399416572 158.74279615608793 0 158.74279615608793 169.07984764224966 0 0 0 0 -1227.007458112319 114.83803103902028 0 114.83803103902028 172.80426210770383 0 0 0 0 -1258.2851172547671 171.24700799244602 0 171.24700799244602 300.77170503453817 0 0 0 0 -1230.9739633644349 232.01124079411966 0 232.01124079411966 233.11057609823183 0 0 0 0 -1420.4264560032461 409.65602083916019 0 409.65602083916019 733.45672740892041 0 0 0 0 -1243.5815672578356 253.11311650879907 0 253.11311650879907 -348.17579922507866 0 0 0 0 -951.09622491011396 666.17302018468035 0 666.17302018468035 -173.30242125989753 0 0 0 0 -776.64445300902298 1161.3415811198211 0 1161.3415811198211 861.71178882650565 0 0 0 0 -1218.4776556897559 385.5721312903479 0 385.5721312903479 -9.7156049702171003 0 0 0 0 -1212.3796200988581 332.48598474438768 0 332.48598474438768 391.27180622026208 0 0 0 0 -2306.3591685980791 1301.8027331555495 0 1301.8027331555495 2501.6929202836764 0 0 0 0 -78.92632825272085 -276.62396331398304 0 -276.62396331398304 429.40109909915191 0 0 0 0 1033.4595208892715 205.38939928692707 0 205.38939928692707 -315.74498223124101 0 0 0 0 302.79391224105893 -163.44691197157817 0 -163.44691197157817 -480.84618314928957 0 0 0 0 -437.84449828672223 426.49847219733056 0 426.49847219733056 -367.49973151242557 0 0 0 0 -708.12834639046923 790.69351810790977 0 790.69351810790977 -576.64543735946063 0 0 0 0 -614.16280879886472 517.69213749344635 0 517.69213749344635 -146.17697721549484 0 0 0 0 -302.86589721366181 416.80259462614049 0 416.80259462614049 -429.06287436329148 0 0 0 0 -483.5700413340528 619.08671243535355 0 619.08671243535355 -280.63699536192871 0 0 0 0 -320.95830430160277 1008.7646343380693 0 1008.7646343380693 -1761.0019444330246 0 0 0 0 -326.32755602922407 563.77946972073187 0 563.77946972073187 -1334.7935261017665 0 0 0 0 -40.393428730748553 3.4790328371361028 0 3.4790328371361028 2.4053417790523994 0 0 0 0 -911.8059210726642 1061.5466625118861 0 1061.5466625118861 -537.9825795408251 0 0 0 0 -1829.7332827962819 1657.9793799524195 0 1657.9793799524195 -662.83241414299118 0 0 0 0 1480.4059446054744 1187.8333160011534 0 1187.8333160011534 453.04891508764103 0 0 0 0 3085.9142269463046 -817.22001719668333 0 -817.22001719668333 -1666.0503237890662 0 0 0 0 -1763.202380292917 -182.1354780081781 0 -182.1354780081781 -25.304245383071247 0 0 0 0 -802.73627450384083 695.42347774100563 0 695.42347774100563 477.75715256138938 0 0 0 0 1121.342703965609 572.44933582283556 0 572.44933582283556 -155.27209244176629 0 0 0 0 1351.2333209363496 330.77523593258957 0 330.77523593258957 -233.37339979186072 0 0 0 0 1926.4319461768609 1370.4099964229099 0 1370.4099964229099 -438.08628284504994 0 0 0 0 -89.328173438174417 -38.265186649099633 0 -38.265186649099633 -27.057337778584042 0 0 0 0 -77.065088172093965 -100.76248576748549 0 -100.76248576748549 305.30663921645464 0 0 0 0 -0.97464007511007367 -64.283611696515436 0 -64.283611696515436 -26.754628562797734 0 0 0 0 -81.02332207679865 65.923779385098896 0 65.923779385098896 -41.904069624280964 0 0 0 0 -9.3724747446554773 4.2736805830649018 0 4.2736805830649018 0.89976091987577433 0 0 0 0 95.889329106837977 -58.569147226589848 0 -58.569147226589848 12.839260753204144 0 0 0 0 -295.96353102172725 1207.8768834056282 0 1207.8768834056282 4740.1742117320027 0 0 0 0 -74.243048280839105 23.486042610613978 0 23.486042610613978 -3.1471233738474211 0 0 0 0 -410.93622117670748 320.30807253537569 0 320.30807253537569 750.49293564337859 0 0 0 0 -2538.8969639887218 1558.9827955220971 0 1558.9827955220971 5105.0591659388265 0 0 0 0 610.05954733604449 136.66053218461093 0 136.66053218461093 -870.65413920088758 0 0 0 0 -800.62774778032326 -343.05773432455317 0 -343.05773432455317 409.29223252190786 0 0 0 0 -589.62778347643325 -50.010394709220009 0 -50.010394709220009 -20.535586472033174 0 0 0 0 -828.70939048129367 1359.2822187219895 0 1359.2822187219895 -1424.4816426474354 0 0 0 0 -106.03716642160725 617.07531273253699 0 617.07531273253699 -1995.8398158198834 0 0 0 0 -140.3469533224561 588.2326139740162 0 588.2326139740162 -1841.8650629070398 0 0 0 0 -136.65070662840571 532.90011368823036 0 532.90011368823036 -1013.5687665000914 0 0 0 0 -7.6704314844389501 6.5606093970913975 0 6.5606093970913975 3.9482027392735546 0 0 0 0 -2136.0453999592864 1368.0727108380597 0 1368.0727108380597 2621.1083477469147 0 0 0 0 -1220.2761321567814 52.601750287387404 0 52.601750287387404 204.0015823028225 0 0 0 0 -3334.2513589305308 2952.7801487418983 0 2952.7801487418983 1212.3817384000831 0 0 0 0 -93.922553081296087 30.470380642031955 0 30.470380642031955 -1.681755106744852 0 0 0 0 833.67940961700515 -668.85813379368483 0 -668.85813379368483 2510.595159681583 0 0 0 0 -29.368294926999454 4.4733628361998399 0 4.4733628361998399 1.9989262272025883 0 0 0 0 -430.10802696680184 1301.9085579680213 0 1301.9085579680213 -1870.8768076191227 0 0 0 0 -605.40112855489133 1207.2651272189723 0 1207.2651272189723 -1629.3043888754419 0 0 0 0 -1162.9024022889425 1628.5664576586041 0 1628.5664576586041 -1481.0440478933015 0 0 0 0 -2535.6115010586873 208.84461819146418 0 208.84461819146418 -100.32253848671098 0 0 0 0 -625.61581768575707 445.23052218684825 0 445.23052218684825 -540.95620655054881 0 0 0 0 -260.28911966730448 -366.46513677595703 0 -366.46513677595703 -491.85365037421434 0 0 0 0 -369.09750440568314 33.489379437418393 0 33.489379437418393 -1436.4462639981612 0 0 0 0 -346.94102648777698 323.70181702861555 0 323.70181702861555 280.96090645193181 0 0 0 0 -552.23147311303183 -151.43533744402703 0 -151.43533744402703 -252.80249620815903 0 0 0 0 -241.30197740482981 132.85988332445413 0 132.85988332445413 -25.576175116148079 0 0 0 0 -785.26026560147875 536.52647308830274 0 536.52647308830274 -643.18933992920574 0 0 0 0 -394.06315877579618 286.16293744069935 0 286.16293744069935 42.389013236475876 0 0 0 0 -429.84767401101999 40.308221196031809 0 40.308221196031809 -233.40531696705693 0 0 0 0 -9.6114260210379427 0.68440941472783834 0 0.68440941472783834 6.2575291356672835 0 0 0 0 20.026177191131865 -45.214228180873761 0 -45.214228180873761 -25.811462971620504 0 0 0 0 -657.01004173578986 620.61614047763396 0 620.61614047763396 -805.69380726582676 0 0 0 0 -742.61419668231974 172.37322855981802 0 172.37322855981802 -1122.1221083885139 0 0 0 0 -260.42988062335644 590.11790018983265 0 590.11790018983265 -807.47812512569544 0 0 0 0 -965.48967419865949 1111.1721261365346 0 1111.1721261365346 -1495.5635211504195 0 0 0 0 -564.77506286311109 738.30348155478805 0 738.30348155478805 -338.09948268925837 0 0 0 0 -450.9049501181471 399.25968338909706 0 399.25968338909706 165.73007509994204 0 0 0 0 -199.55307431722531 284.53236194139794 0 284.53236194139794 76.00772932307882 0 0 0 0 -274.13973914390954 630.99596753019432 0 630.99596753019432 -532.3318814804129 0 0 0 0 -398.49200183588255 666.51208821855198 0 666.51208821855198 -527.08376043312091 0 0 0 0 -63.752061997249257 495.57700644722354 0 495.57700644722354 -860.31975341554971 0 0 0 0 -211.72563753453142 808.47289492476557 0 808.47289492476557 -278.90660977996959 0 0 0 0 -123.70455242485332 699.69787367366007 0 699.69787367366007 -1082.3948447481416 0 0 0 0 -534.11715195242141 1007.7857840572706 0 1007.7857840572706 -932.30478324003707 0 0 0 0 -1.1001763487583958 101.95134350176522 0 101.95134350176522 -280.49835151957177 0 0 0 0 33.898226701113344 18.381828107854588 0 18.381828107854588 4.3385978063448079 0 0 0 0 20.009012765829539 173.71680926979934 0 173.71680926979934 -287.10976731991832 0 0 0 0 -869.01179093002656 579.9259944713915 0 579.9259944713915 -172.19188661247608 0 0 0 0 610.29172688744438 -169.22739185994033 0 -169.22739185994033 -56.880033331755385 0 0 0 0 -832.37483172857901 1320.046806794242 0 1320.046806794242 92.577989097559112 0 0 0 0 13.083931257616172 7.3231073331130716 0 7.3231073331130716 0.82419822467406334 0 0 0 0 975.20224668334413 770.58065298737711 0 770.58065298737711 -504.53749928686193 0 0 0 0 -878.25329452841834 400.66958530121883 0 400.66958530121883 -245.23049399873707 0 0 0 0 -191.90704927124898 1264.1727144318211 0 1264.1727144318211 791.44780478380198 0 0 0 0 -342.99588710334501 561.42600228286028 0 561.42600228286028 -149.80626625310833 0 0 0 0 -181.21560656648398 1329.1430966701482 0 1329.1430966701482 -573.52127665599255 0 0 0 0 3.0031247249332864 0.70810933565230982 0 0.70810933565230982 -2.5980387460949856 0 0 0 0 368.49705845519202 571.07539043771794 0 571.07539043771794 -461.93740238366081 0 0 0 0 -198.95845738814387 -361.10784323125154 0 -361.10784323125154 397.11225199357796 0 0 0 0 33.817489900520258 28.368628674321933 0 28.368628674321933 24.412086246419648 0 0 0 0 -96.946265474667598 647.4847104640703 0 647.4847104640703 -450.41719082245618 0 0 0 0 500.32802710481337 -725.52608048358525 0 -725.52608048358525 1426.4454399359092 0 0 0 0 -55.755815436597914 510.30185041337973 0 510.30185041337973 -196.34926720367366 0 0 0 0 -70.10004516490153 194.24654262504919 0 194.24654262504919 -132.62864706485288 0 0 0 0 51.527585966337938 193.13395693945131 0 193.13395693945131 -280.77487117416604 0 0 0 0 -79.292617797153071 251.20589508394187 0 251.20589508394187 -303.85611330113534 0 0 0 0 -122.35758534158231 49.990005193394609 0 49.990005193394609 -381.93174460307637 0 0 0 0 2.4583505635819165 114.07990343534402 0 114.07990343534402 -682.75699975027237 0 0 0 0 11.960816089690923 7.3782519359623429 0 7.3782519359623429 5.8428300183186934 0 0 0 0 -138.13370704077533 -1090.5158262495133 0 -1090.5158262495133 1953.156291118532 0 0 0 0 -377.67138619787875 98.881721813344484 0 98.881721813344484 -380.40987831560051 0 0 0 0 1277.2092573698901 -1311.7567918069035 0 -1311.7567918069035 -117.86448676837608 0 0 0 0 37.939120526465842 37.803396698123095 0 37.803396698123095 35.373840068535586 0 0 0 0 -240.90118710251409 1224.8167229298124 0 1224.8167229298124 -572.84715541477817 0 0 0 0 203.16961609234204 -316.8756297607124 0 -316.8756297607124 1720.5937020258789 0 0 0 0 -503.2849412636715 647.75470258510904 0 647.75470258510904 -660.90008318705804 0 0 0 0 -3.7344833269766013 2.8310482742209047 0 2.8310482742209047 2.0316901098735229 0 0 0 0 -113.27833588037174 69.874646272692189 0 69.874646272692189 791.92883431742666 0 0 0 0 -762.16620192702067 254.8637405142108 0 254.8637405142108 399.39204628621519 0 0 0 0 58.051321070102858 1137.0523025401417 0 1137.0523025401417 -268.40214089021902 0 0 0 0 -797.94907415569469 100.17983539960551 0 100.17983539960551 11.559408083732706 0 0 0 0 -531.00391640237649 58.538258867629338 0 58.538258867629338 -282.85474321990478 0 0 0 0 -717.82685455463798 -16.513422938987787 0 -16.513422938987787 125.09085431604763 0 0 0 0 -65.638996772642713 230.47848345817329 0 230.47848345817329 872.18388133610279 0 0 0 0 50.382119453710175 55.662921143448912 0 55.662921143448912 40.676346488791097 0 0 0 0 -107.54803646330583 253.06125888875431 0 253.06125888875431 51.011417377114412 0 0 0 0 -307.86185865398875 145.26269230465732 0 145.26269230465732 21.040275085630128 0 0 0 0 -443.25633966209716 -95.332968014903599 0 -95.332968014903599 -102.44300459270016 0 0 0 0 -249.57257474501966 -162.54054244363215 0 -162.54054244363215 166.33839145833917 0 0 0 0 -17.596603152305136 21.300008068848797 0 21.300008068848797 15.748051336084487 0 0 0 0 1111.3324172369685 -959.91251111609199 0 -959.91251111609199 248.01571482505824 0 0 0 0 -7.4137648614358795 34.998483455840486 0 34.998483455840486 11.050420382505962 0 0 0 0 -1135.3167629136151 244.70158307122256 0 244.70158307122256 2590.3340719078769 0 0 0 0 9.0783839140925977 54.52093109602945 0 54.52093109602945 32.250708205322212 0 0 0 0 -154.49828084453475 29.784820166983991 0 29.784820166983991 218.24779490584115 0 0 0 0 -29.123272781653213 54.319085088842257 0 54.319085088842257 56.209172937411495 0 0 0 0 -42.854286782192645 36.336407133188402 0 36.336407133188402 59.357051437594833 0 0 0 0 -114.08559905487346 62.881166540115373 0 62.881166540115373 55.113547427092271 0 0 0 0 -72.444955994999702 17.937404594057497 0 17.937404594057497 22.086712764554271 0 0 0 0 -16.293637322916979 5.4213206470082582 0 5.4213206470082582 8.2539388802069027 0 0 0 0 -255.67526120611001 675.48387399196508 0 675.48387399196508 159.65158272387316 0 0 0 0 -110.37638883449108 336.17324445555732 0 336.17324445555732 47.666663476629765 0 0 0 0 37.191239630919313 31.5457248266069 0 31.5457248266069 9.2386802977144526 0 0 0 0 -863.67614760974539 364.56762131635332 0 364.56762131635332 80.757835538068321 0 0 0 0 -181.11221280736208 221.66660313410466 0 221.66660313410466 -38.342192421754589 0 0 0 0 -86.870851439773105 31.635292774750269 0 31.635292774750269 11.358061484861537 0 0 0 0 -98.415044844477961 329.35059524910776 0 329.35059524910776 -311.88239529282873 0 0 0 0 19.071632868450251 258.3914252900795 0 258.3914252900795 -279.08611242071595 0 0 0 0 82.637945346126799 451.87726747747365 0 451.87726747747365 -618.55333453065396 0 0 0 0 23.502485420118319 232.11563299841509 0 232.11563299841509 -516.74637381731736 0 0 0 0 139.0966675968084 628.16403705289486 0 628.16403705289486 -85.98953055038146 0 0 0 0 225.27946122779394 332.68842990020494 0 332.68842990020494 -210.06990516520455 0 0 0 0 41.376275260408875 27.591336417084676 0 27.591336417084676 205.04989700621081 0 0 0 0 -0.77664682042086497 493.68358184376848 0 493.68358184376848 305.01394224449177 0 0 0 0 3.3025442485084113 -2.7783015790848395 0 -2.7783015790848395 -0.91040186232763887 0 0 0 0 -133.36865552529343 139.00666800389808 0 139.00666800389808 825.33656381157198 0 0 0 0 32.04253230674658 77.470293441074318 0 77.470293441074318 187.43734824403509 0 0 0 0 47.578392857714789 106.63839407574415 0 106.63839407574415 39.725565766362706 0 0 0 0 -15.576042221859097 141.06320725377736 0 141.06320725377736 123.88240263267653 0 0 0 0 -22.027532236650586 85.330329386426456 0 85.330329386426456 81.976882043389196 0 0 0 0 123.95032017718768 74.818280429273727 0 74.818280429273727 -81.152498817820884 0 0 0 0 53.239512254258443 135.31461644504179 0 135.31461644504179 142.15972496999893 0 0 0 0 32.231089913839241 115.85513003026426 0 115.85513003026426 -2.4976897816377459 0 0 0 0 0.74819052870299174 2.3937850454457248 0 2.3937850454457248 0.4703867475470247 0 0 0 0 16.461708685208578 -105.01754335642909 0 -105.01754335642909 -300.22799634912371 0 0 0 0 1.9248381370174046 1362.4867719240044 0 1362.4867719240044 2439.4061240994706 0 0 0 0 692.79422901675571 1293.2677660856316 0 1293.2677660856316 1967.8383710536109 0 0 0 0 -1.2247049192956183 1806.9209520872428 0 1806.9209520872428 1611.787155795173 0 0 0 0 745.29383925991169 1846.8508613897611 0 1846.8508613897611 2049.9996741996147 0 0 0 0 52.807016751379706 -29.356828668715025 0 -29.356828668715025 -81.455408692987689 0 0 0 0 9.1861155756540711 5.8182404839405422 0 5.8182404839405422 -7.174359860263948 0 0 0 0 0.29792747052124469 72.809455736229211 0 72.809455736229211 95.27322742092656 0 0 0 0 1050.9367221606954 1423.332509865093 0 1423.332509865093 1468.5959782837344 0 0 0 0 -24.94121234214893 20.972355740985279 0 20.972355740985279 18.093884578067588 0 0 0 0 24.983544987781215 7.4959136714651038 0 7.4959136714651038 -14.733559832300912 0 0 0 0 111.84718043425528 54.705209556908812 0 54.705209556908812 -4.8347116854711203 0 0 0 0 1239.9979738700713 1489.8633607510692 0 1489.8633607510692 1022.0242953726993 0 0 0 0 -21.316733451383385 14.787289010494277 0 14.787289010494277 29.028298701813725 0 0 0 0 22.820235306913673 41.73725746533637 0 41.73725746533637 29.299820413609268 0 0 0 0 7.1347685936198104 34.854999587550992 0 34.854999587550992 36.651375044017186 0 0 0 0 91.703590856690425 114.09055783826625 0 114.09055783826625 36.985587483821291 0 0 0 0 86.756941143641598 89.046328603300935 0 89.046328603300935 94.224667079688516 0 0 0 0 133.35040507970552 30.388991423929838 0 30.388991423929838 -18.529845932644093 0 0 0 0 97.036668099521194 35.219202393338492 0 35.219202393338492 96.984366514196154 0 0 0 0 175.42574128328124 92.409977853341843 0 92.409977853341843 25.366526080957556 0 0 0 0 122.27481875053491 163.90871000286643 0 163.90871000286643 250.52602458617184 0 0 0 0 -8.1213592131470023 8.6461553002925413 0 8.6461553002925413 11.55230502986123 0 0 0 0 7.6240519579105239 19.138006620536771 0 19.138006620536771 22.728375426915591 0 0 0 0 8.4385070039570564 30.331653097313392 0 30.331653097313392 19.192127427631931 0 0 0 0 -4.3310023888708997 12.411646185077871 0 12.411646185077871 13.468577308740322 0 0 0 0 36.667431233392563 79.204767032395466 0 79.204767032395466 72.743992715186323 0 0 0 0 197.42365959752351 94.745425967834308 0 94.745425967834308 6.2490848492889199 0 0 0 0 14.228736568780732 28.185477780079964 0 28.185477780079964 2.7298483136692084 0 0 0 0 15.07320418635004 24.425811093233097 0 24.425811093233097 16.889926749169177 0 0 0 0 12.989675255841576 12.017495132648037 0 12.017495132648037 20.549724366501323 0 0 0 0 16.177913612620046 19.496831730655078 0 19.496831730655078 7.9837785320941776 0 0 0 0 14.014707672584336 26.10415525863209 0 26.10415525863209 16.038145707731019 0 0 0 0 12.520831397283473 45.791027580471564 0 45.791027580471564 1.2221317325493146 0 0 0 0 12.782852267842827 53.750847413632073 0 53.750847413632073 28.241475629009074 0 0 0 0 12.607919115354889 47.866938679359009 0 47.866938679359009 -20.044268259718592 0 0 0 0 19.02755524229724 60.929464880900923 0 60.929464880900923 5.6969100242713466 0 0 0 0 -24.885824216799307 27.327067546696099 0 27.327067546696099 10.777688224232634 0 0 0 0 1.308466778188631 5.9624940349302733 0 5.9624940349302733 8.6627972393704304 0 0 0 0 2.0804744398446928 42.497187193576792 0 42.497187193576792 24.483261260058498 0 0 0 0 1.6863561888312688 42.542345820613264 0 42.542345820613264 25.004266754323908 0 0 0 0 0.91347529915219638 40.304617313326162 0 40.304617313326162 27.919065888338082 0 0 0 0 9.3865733116399497 29.297948919142073 0 29.297948919142073 17.266092555437353 0 0 0 0 6.1458376988011878 34.677750665850908 0 34.677750665850908 33.849922333822178 0 0 0 0 5.5719519636040786 49.189097405243956 0 49.189097405243956 31.051703164499486 0 0 0 0 2.6314689011924202 43.93323477665399 0 43.93323477665399 21.900023394991877 0 0 0 0 -2.2611813518363988 5.4380484480930704 0 5.4380484480930704 5.6932063935304029 0 0 0 0 0.89641781456157332 48.98976627166212 0 48.98976627166212 13.218305966409389 0 0 0 0 17.962016259078496 30.865783751004102 0 30.865783751004102 30.352439495458015 0 0 0 0 -5.5906538347699097 56.707988596950599 0 56.707988596950599 17.518036264642433 0 0 0 0 -6.3322339643636951 40.56618776810501 0 40.56618776810501 24.427059239860682 0 0 0 0 -11.420981659139215 54.305187062293953 0 54.305187062293953 25.262400438972691 0 0 0 0 15.765657530244965 29.955368985759577 0 29.955368985759577 30.100653057880749 0 0 0 0 -812.74459667863266 905.81465893002314 0 905.81465893002314 72.916057649254071 0 0 0 0 -1332.793797070728 1344.3934012363752 0 1344.3934012363752 -286.91781733344396 0 0 0 0 -1820.5444469820504 808.79485422716243 0 808.79485422716243 -52.31063713058029 0 0 0 0 -151.59331168892095 456.99198500096099 0 456.99198500096099 -1092.8014741070365 0 0 0 0 -2819.9649642213481 488.01226271460473 0 488.01226271460473 -33.739788647566456 0 0 0 0 -3.3727808914667037 11.713854624830986 0 11.713854624830986 2.3987813439615024 0 0 0 0 -1749.2338390556033 340.18664161262132 0 340.18664161262132 -90.119820011721458 0 0 0 0 -4.3560875881609604 7.543675609968318 0 7.543675609968318 5.6646490662755014 0 0 0 0 -1017.9481824987743 -790.5393181762629 0 -790.5393181762629 -209.39635014830856 0 0 0 0 61.484436449129134 74.883350663287274 0 74.883350663287274 55.647718105959939 0 0 0 0 -2180.9031495110248 323.53450281197729 0 323.53450281197729 1.1974994775810046 0 0 0 0 -27.111800739668894 22.871526211610899 0 22.871526211610899 5.154703226483548 0 0 0 0 9.3081335776514607 55.121869324771978 0 55.121869324771978 25.2581159342717 0 0 0 0 61.975508465133771 87.825004289832577 0 87.825004289832577 61.838449618662708 0 0 0 0 49.414736262151564 93.612491471323665 0 93.612491471323665 47.673137122961634 0 0 0 0 44.932442429970251 83.493019353831187 0 83.493019353831187 65.141113517121994 0 0 0 0 39.022375124142854 75.37108602711487 0 75.37108602711487 59.082798203467974 0 0 0 0 34.769242492038757 82.374104587790498 0 82.374104587790498 44.804328777725459 0 0 0 0 48.307427152001765 76.201614464909653 0 76.201614464909653 47.295420658410876 0 0 0 0 -8.717625268044344 15.767856926806616 0 15.767856926806616 3.7991564004208271 0 0 0 0 -1281.0812027835418 -69.237057676176846 0 -69.237057676176846 690.7784245423245 0 0 0 0 41.988834093848709 71.502445837279083 0 71.502445837279083 50.371792946374626 0 0 0 0 -1608.2289535313757 110.57277285913733 0 110.57277285913733 407.96660897682887 0 0 0 0 -27.539161251375504 11.545882478640095 0 11.545882478640095 15.007475290078361 0 0 0 0 -1442.4283212822193 70.840895802513842 0 70.840895802513842 259.20576722167607 0 0 0 0 44.928271729731932 68.051301626343047 0 68.051301626343047 53.599108031892683 0 0 0 0 55.481139553390676 69.382309259963222 0 69.382309259963222 52.31175548745523 0 0 0 0 -202.00283418176696 -132.19034511605423 0 -132.19034511605423 -199.85103775870812 0 0 0 0 -10.170483318041079 50.749517141244723 0 50.749517141244723 -0.77505791181465611 0 0 0 0 -2.211166973502884 49.217461923358897 0 49.217461923358897 -6.048593516499821 0 0 0 0 -19.09395773911092 58.083363540616119 0 58.083363540616119 15.884649728046497 0 0 0 0 -35.405517763028868 68.722758338113465 0 68.722758338113465 -4.9973883797274254 0 0 0 0 965.09768511063885 706.72534918510064 0 706.72534918510064 745.57193831914446 0 0 0 0 1160.152055739949 208.08936775758775 0 208.08936775758775 441.88323403116874 0 0 0 0 725.05851202143822 -97.519028553200769 0 -97.519028553200769 428.77210723626195 0 0 0 0 546.35537298044073 431.90233122868813 0 431.90233122868813 830.88318438027636 0 0 0 0 1733.5441632426518 1070.1273407912013 0 1070.1273407912013 681.38608073490013 0 0 0 0 1574.8812725803582 538.49816784409632 0 538.49816784409632 496.91540270731639 0 0 0 0 -8.8677804707508585 44.829466221530595 0 44.829466221530595 -13.682546575495291 0 0 0 0 31.039535993339086 87.878357045218763 0 87.878357045218763 51.297977864029235 0 0 0 0 37.986327138780325 71.862420062587262 0 71.862420062587262 -13.309911610471318 0 0 0 0 5.4410021284566028 69.927992396218542 0 69.927992396218542 8.070961523335427 0 0 0 0 -7.7433807909255847 27.539523508545244 0 27.539523508545244 35.686713402748865 0 0 0 0 3.3161804324341801 41.031381809111991 0 41.031381809111991 11.935205987608732 0 0 0 0 -6.8160350987725735 46.195486059924349 0 46.195486059924349 44.701707053928459 0 0 0 0 24.872909467865782 45.569652315975915 0 45.569652315975915 6.9977445660380582 0 0 0 0 38.11473054412636 103.32900301730115 0 103.32900301730115 66.179341825873053 0 0 0 0 73.957239469047636 95.815836975518323 0 95.815836975518323 -26.939955200927216 0 0 0 0 19.294368149985644 54.994982773104418 0 54.994982773104418 -18.39226379329601 0 0 0 0 7.6515792857753695 80.8912989379387 0 80.8912989379387 -2.3256803313743148 0 0 0 0 -32.298982319602715 38.785647167045198 0 38.785647167045198 -9.013017167803298 0 0 0 0 -53.382139359159311 59.877246561421714 0 59.877246561421714 -2.2775320090342746 0 0 0 0 1061.0953169878085 320.8806043242048 0 320.8806043242048 -509.49793118383241 0 0 0 0 770.79050277828355 121.38028007233515 0 121.38028007233515 264.90551873635923 0 0 0 0 842.83802955556894 132.5244060042096 0 132.5244060042096 -595.92796541479038 0 0 0 0 592.76943807407588 428.09997884138556 0 428.09997884138556 -151.39185136833839 0 0 0 0 5.7994338314674678 -137.90942538086983 0 -137.90942538086983 47.242864796971844 0 0 0 0 71.358739495575719 36.63949928951115 0 36.63949928951115 0.18379281400393666 0 0 0 0 -27.250811422237646 69.927915037970621 0 69.927915037970621 -25.457572594079963 0 0 0 0 1.8570554448670009 89.091572922932755 0 89.091572922932755 -24.986815573112835 0 0 0 0 457.60621479142719 24.716043763221933 0 24.716043763221933 -91.272395274381779 0 0 0 0 -1.2047744044102728 70.632425716754369 0 70.632425716754369 -14.109584872406231 0 0 0 0 -38.892172815540107 93.333025336381979 0 93.333025336381979 -11.141924563249631 0 0 0 0 16.523149691530364 50.344729514202598 0 50.344729514202598 -0.21202997892365261 0 0 0 0 -16.905209290838684 86.994148487134225 0 86.994148487134225 -19.625316130568535 0 0 0 0 7.0678751611143866 49.587131206730959 0 49.587131206730959 3.2881930694247785 0 0 0 0 9.6475951553002233 76.917524440385932 0 76.917524440385932 -13.052675461643958 0 0 0 0 6.1569899188471027 63.639286529385572 0 63.639286529385572 -7.9731360211007996 0 0 0 0 339.91912324554869 146.70076198772585 0 146.70076198772585 -6.8946558364696102 0 0 0 0 118.88425145107612 132.05871964073231 0 132.05871964073231 -1.0889431719988352 0 0 0 0 -18.248875908281605 34.488218620052862 0 34.488218620052862 -35.304935758254913 0 0 0 0 27.245481900812592 160.64027301883107 0 160.64027301883107 107.28233113930764 0 0 0 0 -46.313739457516931 191.49534573950223 0 191.49534573950223 397.60936290326936 0 0 0 0 281.32607536786236 281.46186410286464 0 281.46186410286464 164.5600223618676 0 0 0 0 -355.28185909264721 81.183029675623402 0 81.183029675623402 443.57382046549174 0 0 0 0 -79.089525323302951 -21.667732515204989 0 -21.667732515204989 88.10458799279877 0 0 0 0 -2.3599666545633227 -311.48894330898474 0 -311.48894330898474 -1.5213008004648145 0 0 0 0 68.081041663943324 -27.515776163156261 0 -27.515776163156261 -442.89279077063838 0 0 0 0 -114.16224727756344 -717.4842964584459 0 -717.4842964584459 -1143.2289041396871 0 0 0 0 165.15545815235237 222.91898028531432 0 222.91898028531432 -1077.9218253172294 0 0 0 0 86.238175251724897 115.49496116412774 0 115.49496116412774 -301.75422699612682 0 0 0 0 27.861048008606303 -272.08680661763356 0 -272.08680661763356 -779.04595302525013 0 0 0 0 -79.078226646990515 325.88299993453984 0 325.88299993453984 -436.70760181835794 0 0 0 0 -1632.4245179222198 -900.84346613723028 0 -900.84346613723028 1567.455165108855 0 0 0 0 1456.4041902090248 989.60100111757492 0 989.60100111757492 -1290.0952092788502 0 0 0 0 568.88026504896698 222.90618487718893 0 222.90618487718893 4.8664247495980817 0 0 0 0 525.69147995454841 571.92517653387767 0 571.92517653387767 299.90929806182976 0 0 0 0 -12.540612051565091 16.661421860723408 0 16.661421860723408 3.4093532497991816 0 0 0 0 -10.716941945021972 650.16261616268821 0 650.16261616268821 984.20483624664485 0 0 0 0 -48.631279360008193 162.76027798706855 0 162.76027798706855 44.645288680942031 0 0 0 0 -40.717890315813719 54.294515085923223 0 54.294515085923223 -36.792304790614935 0 0 0 0 54.489385107997805 82.028863068881037 0 82.028863068881037 -15.927400432112336 0 0 0 0 20.635459329805656 35.002726395663515 0 35.002726395663515 0.68271801761870066 0 0 0 0 8.5941019956371747 37.388188120479754 0 37.388188120479754 13.043094877695694 0 0 0 0 10.558949822680006 89.339061189109088 0 89.339061189109088 -14.108052398572909 0 0 0 0 57.110329069721047 95.152274430955003 0 95.152274430955003 -20.883091666140899 0 0 0 0 12.703249197424157 61.583682109427173 0 61.583682109427173 97.789381364680594 0 0 0 0 -1.6181852710017779 29.695973503337825 0 29.695973503337825 34.862571009147459 0 0 0 0 4.3036460908479057 76.066758130149537 0 76.066758130149537 93.25320852920413 0 0 0 0 15.482042159186676 58.451977359305602 0 58.451977359305602 149.98774493312521 0 0 0 0 18.046792374251368 59.902639541726671 0 59.902639541726671 29.915651562581822 0 0 0 0 18.919354248626064 20.097257487803219 0 20.097257487803219 7.2903745391770123 0 0 0 0 3.2782926532090642 55.956140746682649 0 55.956140746682649 141.38994631893001 0 0 0 0 108.37570233095903 93.10942362579226 0 93.10942362579226 11.717339081551472 0 0 0 0 84.639817541821685 276.72795457180928 0 276.72795457180928 -346.66514040004404 0 0 0 0 173.20339750495623 -56.416009148653757 0 -56.416009148653757 -58.65369830749114 0 0 0 0 13.165215274319053 78.003349749138579 0 78.003349749138579 -16.17630158981774 0 0 0 0 1.7561222454597782 10.39897983353319 0 10.39897983353319 -3.3463456902672704 0 0 0 0 49.56120712379925 -14.137098183389753 0 -14.137098183389753 71.190299445413984 0 0 0 0 1.9149832560299274 7.6041424532092208 0 7.6041424532092208 0.45377718889990604 0 0 0 0 -46.961155210912693 -6.2076772982545663 0 -6.2076772982545663 145.53920209895296 0 0 0 0 0.85133798935567029 77.749699772146414 0 77.749699772146414 -80.633066275313467 0 0 0 0 36.797925356193446 177.33780096545524 0 177.33780096545524 -140.87157722661505 0 0 0 0 3.1999297106522135 23.619230341617367 0 23.619230341617367 32.969787789719703 0 0 0 0 8.5482196703025579 17.22840015253378 0 17.22840015253378 -0.87496141401182825 0 0 0 0 2.3320399892108981 1.9098627920266154 0 1.9098627920266154 -57.124325498458347 0 0 0 0 3.2906793177134546 -0.027616612532106899 0 -0.027616612532106899 -4.9128287727676465 0 0 0 0 -77.178439684736077 7.9021672929593478 0 7.9021672929593478 -228.23796929765376 0 0 0 0 -1.4083607288775966 7.7776775071106385 0 7.7776775071106385 2.1189038713710033 0 0 0 0 0.8082458090483442 8.6399286752982931 0 8.6399286752982931 -0.13364082503844443 0 0 0 0 5.9534099942728744 16.576985969129154 0 16.576985969129154 -1.8033806982154985 0 0 0 0 0.61759687913581729 122.02032600016537 0 122.02032600016537 -404.61814169112768 0 0 0 0 -81.572078270604834 208.91460518533131 0 208.91460518533131 -255.98535673214064 0 0 0 0 35.416941128016333 43.356132758917738 0 43.356132758917738 -227.43295391484571 0 0 0 0 -71.075830226262042 167.98498461386589 0 167.98498461386589 -170.49266733309923 0 0 0 0 -9.4234880453441292 111.07363852039271 0 111.07363852039271 -132.83599958378909 0 0 0 0 -64.668418356799521 179.78329384116842 0 179.78329384116842 -233.48616872934508 0 0 0 0 -248.16175589137129 267.12003940846625 0 267.12003940846625 -113.67360724935133 0 0 0 0 -145.03059905522969 140.69469426947035 0 140.69469426947035 36.401922815377475 0 0 0 0 -128.6731957152515 169.34128901810072 0 169.34128901810072 -65.964923531078966 0 0 0 0 -51.238383302727016 100.25238981838629 0 100.25238981838629 -5.7740802559856093 0 0 0 0 4.4252181238261983 53.334759732846578 0 53.334759732846578 -64.322070640431775 0 0 0 0 -47.615768100920832 123.49383826649864 0 123.49383826649864 -14.6496252973011 0 0 0 0 0.050858708302257583 87.015074461292897 0 87.015074461292897 -101.04595495735703 0 0 0 0 35.923609399003908 72.985787442623405 0 72.985787442623405 -161.32686699355327 0 0 0 0 74.839972636211314 25.371783592234351 0 25.371783592234351 -119.54790038753708 0 0 0 0 -68.496913543640403 -19.49769555756211 0 -19.49769555756211 32.696812718801084 0 0 0 0 4.2747693692799658 49.560006365216395 0 49.560006365216395 -105.33742670913853 0 0 0 0 117.94825017050607 131.18653764800001 0 131.18653764800001 19.127482198688085 0 0 0 0 -23.879303678942961 96.721521502673568 0 96.721521502673568 14.525889516167808 0 0 0 0 26.892565167305293 165.15927420283697 0 165.15927420283697 82.641786970483736 0 0 0 0 -39.903256621269975 138.92769448136096 0 138.92769448136096 48.507183276844444 0 0 0 0 -8.7774125291180098 95.542203388577036 0 95.542203388577036 38.134432381935767 0 0 0 0 65.366208405292127 167.2643851500543 0 167.2643851500543 37.922647929193715 0 0 0 0 -101.43217572282447 62.432733381748221 0 62.432733381748221 -4.6871291789211682 0 0 0 0 -74.103491791553097 123.88658492707327 0 123.88658492707327 56.198563660291256 0 0 0 0 -140.11760523397243 111.42729868913011 0 111.42729868913011 22.590154756508127 0 0 0 0 -56.956123863361427 90.516754702714024 0 90.516754702714024 26.051471998718625 0 0 0 0 -148.32800684389076 121.11102528757328 0 121.11102528757328 21.390722049658507 0 0 0 0 -211.55904052635015 57.550822904855522 0 57.550822904855522 118.97431365755619 0 0 0 0 2.2306044505100573 5.2440939790841412 0 5.2440939790841412 8.4433312597774659 0 0 0 0 -142.37718090394628 -61.658577635256734 0 -61.658577635256734 181.58327029192878 0 0 0 0 -174.28808187021059 5.7711648857075488 0 5.7711648857075488 41.808209207272739 0 0 0 0 4.3753493455966748 10.218755850161784 0 10.218755850161784 27.01063258511391 0 0 0 0 -48.79589564393973 88.491344974148888 0 88.491344974148888 22.186319527078012 0 0 0 0 -199.30270949495025 94.479675549155218 0 94.479675549155218 50.451197016340302 0 0 0 0 15.470395573007409 25.963771664188243 0 25.963771664188243 29.171476319132125 0 0 0 0 0.13369305565720424 32.896908634138526 0 32.896908634138526 42.047851546811216 0 0 0 0 194.36429891714943 68.730805095845426 0 68.730805095845426 -14.887040016747051 0 0 0 0 363.48451029490388 177.65483194179978 0 177.65483194179978 51.95936504243582 0 0 0 0 -0.061885567527497187 177.1486293658636 0 177.1486293658636 189.35811374129844 0 0 0 0 192.62441924722225 353.13138509576675 0 353.13138509576675 321.63270378094603 0 0 0 0 -282.25287750191637 -59.723435459309258 0 -59.723435459309258 455.15580000097725 0 0 0 0 -298.41441873059375 10.596600364675396 0 10.596600364675396 423.41225404622674 0 0 0 0 -284.06292472110363 116.22325918609567 0 116.22325918609567 74.544116993354692 0 0 0 0 -317.25639762578066 183.4390096358984 0 183.4390096358984 156.78783705020032 0 0 0 0 -304.06621645019914 314.28294493379872 0 314.28294493379872 -193.76790260494454 0 0 0 0 35.011527353548445 694.18547853986092 0 694.18547853986092 63.03530181851238 0 0 0 0 -368.86363815533696 320.16863691748586 0 320.16863691748586 514.56261932103371 0 0 0 0 322.59288471203763 197.96694087298965 0 197.96694087298965 -1499.852541831744 0 0 0 0 -49.412596706592012 45.236535194457247 0 45.236535194457247 47.684955319549772 0 0 0 0 -6.2465379405192607 1.0274832880499929 0 1.0274832880499929 1.0861320380359523 0 0 0 0 -626.6293245384004 207.37133425149659 0 207.37133425149659 -1004.9154535767739 0 0 0 0 -211.20621472902712 464.18783282230288 0 464.18783282230288 -754.28625523092342 0 0 0 0 -153.86146279549575 181.15127778001624 0 181.15127778001624 -1044.7135408575559 0 0 0 0 -528.62575680896407 288.80391827933636 0 288.80391827933636 -193.8279005238922 0 0 0 0 -3.3256326224715167 3.2567958856417931 0 3.2567958856417931 3.2480469094483055 0 0 0 0 107.39443984394893 -179.99284023499058 0 -179.99284023499058 -755.39073713829362 0 0 0 0 21.445824919617735 11.963952775477082 0 11.963952775477082 -6.4690818720846437 0 0 0 0 -5.453952467204374 14.285887429045431 0 14.285887429045431 10.574124732391368 0 0 0 0 5.8747153820324911 2.2039111693202997 0 2.2039111693202997 1.5334029134938021 0 0 0 0 0.14533738847413186 122.70010891979257 0 122.70010891979257 -747.35017503537529 0 0 0 0 -155.26827008707915 215.14245120029955 0 215.14245120029955 -224.95508031079589 0 0 0 0 579.7947204469092 783.83072338053898 0 783.83072338053898 -1135.7263083500366 0 0 0 0 -0.067083947651553899 75.283606894728109 0 75.283606894728109 9.3538220737391384 0 0 0 0 -74.429045976045018 -65.654908882418113 0 -65.654908882418113 -251.81467166810398 0 0 0 0 -158.75475063872727 87.821931095469154 0 87.821931095469154 266.39777204742131 0 0 0 0 35.564716718712589 213.90281522950499 0 213.90281522950499 202.12471265764179 0 0 0 0 371.9483135992632 170.5687270265953 0 170.5687270265953 -253.45284194920532 0 0 0 0 -15.309661383660398 31.733331742351012 0 31.733331742351012 -6.7320460722621647 0 0 0 0 -0.31628447105578061 5.2742468587195219 0 5.2742468587195219 2.9349894981757814 0 0 0 0 46.276362095188233 -63.080572210614264 0 -63.080572210614264 -245.48727776867662 0 0 0 0 -15.724596592379839 93.315991678551427 0 93.315991678551427 -108.94934642967928 0 0 0 0 -0.025260183727368712 24.073001119497349 0 24.073001119497349 -11.708513841746026 0 0 0 0 -6.6374729755916633 46.563302146674687 0 46.563302146674687 49.437019197168411 0 0 0 0 -14.994490671466338 17.371080469601111 0 17.371080469601111 25.710531083095702 0 0 0 0 11.545003321865806 60.748367482909089 0 60.748367482909089 56.478860943543623 0 0 0 0 14.35840798355639 1.6505237614037469 0 1.6505237614037469 103.55094019196986 0 0 0 0 -133.06119204891729 -36.544229800403627 0 -36.544229800403627 121.25994664249811 0 0 0 0 124.13941252956283 105.95885370104952 0 105.95885370104952 -27.857964547467418 0 0 0 0 -2.8041910909309991 20.589258121947495 0 20.589258121947495 39.795842066221894 0 0 0 0 11.786045569591806 -2.3307025650192372 0 -2.3307025650192372 1.6708711578503426 0 0 0 0 -2.2001739712499102 3.98815575364182 0 3.98815575364182 -1.7906269498796661 0 0 0 0 30.33187934952366 13.72961343309305 0 13.72961343309305 14.08872548439831 0 0 0 0 -11.882582841091789 -4.3985358053978416 0 -4.3985358053978416 0.77224491999368183 0 0 0 0 33.566120873700129 45.256942401190827 0 45.256942401190827 40.64262736470846 0 0 0 0 -25.188958028106811 39.724098609672893 0 39.724098609672893 -37.386638630900151 0 0 0 0 4.32834128018294 77.624021492954853 0 77.624021492954853 -11.460744113888353 0 0 0 0 22.591081894177478 59.155934341782995 0 59.155934341782995 -11.152373080347502 0 0 0 0 -153.07433871977264 48.155615415485954 0 48.155615415485954 8.0519218897170504 0 0 0 0 -15.037477161948601 8.190445085274348 0 8.190445085274348 -3.4368290627057831 0 0 0 0 -6.3313015095243941 54.885203010790036 0 54.885203010790036 22.456545826265192 0 0 0 0 -31.108141801756574 46.713959077365871 0 46.713959077365871 7.1550211800131365 0 0 0 0 -61.809172744531679 127.48255531923223 0 127.48255531923223 46.407180576337851 0 0 0 0 -28.507660760714202 32.552063498399662 0 32.552063498399662 -40.13159047161723 0 0 0 0 19.525445084960666 68.074900868644363 0 68.074900868644363 -7.7410559362724598 0 0 0 0 6.2555958958691917 62.817318965947379 0 62.817318965947379 -9.7553165159733908 0 0 0 0 9.5713034843283822 65.674654274541808 0 65.674654274541808 -13.773930544906761 0 0 0 0 4.4157786793948617 68.268792233999193 0 68.268792233999193 -27.724551045444969 0 0 0 0 -17.426842943139491 60.154748656087577 0 60.154748656087577 -21.803594140219502 0 0 0 0 -12.94632641717908 64.470924463352276 0 64.470924463352276 -13.154299230491233 0 0 0 0 26.8045281750274 31.419473928796975 0 31.419473928796975 2.5309597371136476 0 0 0 0 5.7980710292686126 104.5344998799801 0 104.5344998799801 -71.088469188587624 0 0 0 0 -24.376486470340751 100.69226981517568 0 100.69226981517568 -51.891698441875633 0 0 0 0 -0.66154268196260091 83.387249079960384 0 83.387249079960384 -31.667777219692653 0 0 0 0 -43.806267563137226 92.181358325586189 0 92.181358325586189 -21.758423232322457 0 0 0 0 -95.000116409311886 114.6869018961379 0 114.6869018961379 50.651986496548489 0 0 0 0 -9.7285265425452963 94.698200291453759 0 94.698200291453759 -70.102894292106839 0 0 0 0 30.240336296800677 38.142206220549099 0 38.142206220549099 2.4917041022813606 0 0 0 0 -2.1732635774387745 72.616451884050548 0 72.616451884050548 -22.369030650721584 0 0 0 0 -0.91843018497456796 67.988145675013584 0 67.988145675013584 -13.976786638140766 0 0 0 0 9.5029415496683214 72.079764446969421 0 72.079764446969421 -18.773169343398877 0 0 0 0 72.480957178615427 87.645074537884227 0 87.645074537884227 17.358553927286266 0 0 0 0 -23.20237482622781 43.994839276876291 0 43.994839276876291 -15.250501023068438 0 0 0 0 42.169812006872007 30.477823921051474 0 30.477823921051474 -59.445657278960759 0 0 0 0 -3.1081098216142209 22.577642695644329 0 22.577642695644329 -16.075044941199593 0 0 0 0 61.275637695332989 67.472380299631823 0 67.472380299631823 27.899563939403379 0 0 0 0 37.276950885723863 30.921829252233639 0 30.921829252233639 -38.495753965154847 0 0 0 0 72.425868784165175 97.586798843725873 0 97.586798843725873 7.6368042743961269 0 0 0 0 74.349684125016211 81.091978596232366 0 81.091978596232366 -63.918916908258325 0 0 0 0 62.421437193042948 70.582375552380654 0 70.582375552380654 4.5345810123435513 0 0 0 0 -28.654525739832707 38.291326758380109 0 38.291326758380109 -24.674663486545796 0 0 0 0 3.964472088468483 60.278340249790347 0 60.278340249790347 -11.205103124895686 0 0 0 0 20.287379625136964 57.94718916284728 0 57.94718916284728 -19.141666981480739 0 0 0 0 17.431853197209421 61.902017899968996 0 61.902017899968996 -16.20796376693761 0 0 0 0 28.86915933804994 74.844115756176507 0 74.844115756176507 -18.105211882459116 0 0 0 0 -3.5220642495415291 46.488811482669945 0 46.488811482669945 -27.873179792427834 0 0 0 0 17.457750819434295 61.255043854888754 0 61.255043854888754 -14.389627699762059 0 0 0 0 25.127488046098733 65.817235784447803 0 65.817235784447803 -12.322872539509262 0 0 0 0 36.855081045330735 78.888335324479158 0 78.888335324479158 -17.000671805298225 0 0 0 0 65.653868237845018 71.780499038809467 0 71.780499038809467 -21.053679379584537 0 0 0 0 40.205019687063526 62.667291388462758 0 62.667291388462758 -13.248443796238014 0 0 0 0 107.08337675010625 10.482460333903873 0 10.482460333903873 -13.013746335271207 0 0 0 0 7.3936150006227592 9.9319552264585838 0 9.9319552264585838 3.0629754581033595 0 0 0 0 -233.88416644704557 63.515124909594761 0 63.515124909594761 41.642130133981482 0 0 0 0 -9.8974886221039924 152.91014105640443 0 152.91014105640443 33.367753355886634 0 0 0 0 76.262216864201037 68.819490350846024 0 68.819490350846024 -20.340514325422191 0 0 0 0 52.356944045417819 49.339671702954178 0 49.339671702954178 1.0282707308892149 0 0 0 0 12.713334987936321 32.330762681345362 0 32.330762681345362 -37.291735137394532 0 0 0 0 72.982439107974642 81.830936941881419 0 81.830936941881419 1.1224309624494708 0 0 0 0 51.360293841862585 51.737702534406708 0 51.737702534406708 3.6586082184632573 0 0 0 0 71.829238283491577 48.497054500850027 0 48.497054500850027 -32.991486686951248 0 0 0 0 122.41994512977544 112.43458978677518 0 112.43458978677518 24.372534076118427 0 0 0 0 72.82654126682894 42.505357909586323 0 42.505357909586323 -20.10460766018608 0 0 0 0 148.99312594499497 79.245247977975851 0 79.245247977975851 -4.1377065311353363 0 0 0 0 114.6749423931069 97.420563562502139 0 97.420563562502139 4.7112648629590694 0 0 0 0 122.0051423151308 112.01424837159539 0 112.01424837159539 -41.596117843704633 0 0 0 0 86.406322494189226 67.439458205246865 0 67.439458205246865 -50.203777754213661 0 0 0 0 116.86658781553706 107.49403712855019 0 107.49403712855019 -44.514542262451869 0 0 0 0 92.740459074280807 90.927072448275794 0 90.927072448275794 8.8189792633856996 0 0 0 0 114.57293934854533 110.03910208535217 0 110.03910208535217 -40.562545272310672 0 0 0 0 138.08523775555659 121.63412171356686 0 121.63412171356686 -46.367955501342294 0 0 0 0 106.78229841701977 136.33183271854068 0 136.33183271854068 -5.042494386438193 0 0 0 0 142.33424642690807 185.02880307566375 0 185.02880307566375 31.562268676427266 0 0 0 0 12.460992767315474 172.30999090680598 0 172.30999090680598 93.880533686300623 0 0 0 0 -60.362257618893636 203.28206014269927 0 203.28206014269927 234.98375442986435 0 0 0 0 -14.646859089734448 4.5507083214182416 0 4.5507083214182416 -2.9138912265519181 0 0 0 0 -112.67380227465765 267.24178485403354 0 267.24178485403354 166.88751997466898 0 0 0 0 242.57474009105499 99.262159147050625 0 99.262159147050625 -64.558025527621794 0 0 0 0 -3.4609110097517259 537.67256840443224 0 537.67256840443224 -37.245670533760858 0 0 0 0 359.83141411266115 256.33772000271892 0 256.33772000271892 -16.31187424156451 0 0 0 0 152.04691394753172 137.58355678313637 0 137.58355678313637 -29.326761210391851 0 0 0 0 154.56247527494452 90.110131044031846 0 90.110131044031846 -57.461264296347508 0 0 0 0 142.53964042132623 159.84547868198834 0 159.84547868198834 -56.700918249378446 0 0 0 0 121.91243109439893 67.84196438995923 0 67.84196438995923 -37.579790085197601 0 0 0 0 84.013598433055449 71.757057370723487 0 71.757057370723487 -35.033803985557824 0 0 0 0 -20.025081120227696 9.1687679496208148 0 9.1687679496208148 -49.315273064450594 0 0 0 0 121.22906556003727 71.664372273015033 0 71.664372273015033 -58.763624663297378 0 0 0 0 -145.20393542584497 420.71096382465475 0 420.71096382465475 -275.95684251673993 0 0 0 0 230.42664319544565 115.64181149891374 0 115.64181149891374 -61.433059068437501 0 0 0 0 181.69556801704312 45.679410301861935 0 45.679410301861935 -68.489004813272913 0 0 0 0 28.068486759695418 20.531142589923434 0 20.531142589923434 16.217054806046022 0 0 0 0 78.965525595849613 249.44909386349173 0 249.44909386349173 -280.52051894045871 0 0 0 0 -223.47775615108549 256.47390511629419 0 256.47390511629419 -250.68470349232666 0 0 0 0 7.0577486091060564 182.10673342541122 0 182.10673342541122 -285.13730055730412 0 0 0 0 47.352047572494484 207.48363004401108 0 207.48363004401108 -289.81385725977452 0 0 0 0 -35.622556368053665 155.90135310276719 0 155.90135310276719 -41.27480794062285 0 0 0 0 33.198483916606449 44.008277598463565 0 44.008277598463565 8.5000152175641261 0 0 0 0 76.575018353265477 42.951970580379566 0 42.951970580379566 -57.295351228764048 0 0 0 0 79.219280549821633 79.736885603486371 0 79.736885603486371 -47.351957420854887 0 0 0 0 -86.475819465063978 104.13544636879124 0 104.13544636879124 -73.20755905952683 0 0 0 0 -6.8831121617342887 12.047226006457379 0 12.047226006457379 -11.743570373543974 0 0 0 0 -44.22213096456835 36.594276900745172 0 36.594276900745172 -52.217969465662463 0 0 0 0 47.739419941382948 37.744432020308523 0 37.744432020308523 -9.7488116861750314 0 0 0 0 2.308479654728643 34.232982376590428 0 34.232982376590428 -35.121060606484143 0 0 0 0 -24.1334413584201 78.835566482593123 0 78.835566482593123 -56.940785522093833 0 0 0 0 82.147253562288824 78.831200242870182 0 78.831200242870182 -49.686500523494942 0 0 0 0 111.58790281531401 97.888308047953615 0 97.888308047953615 -45.36734299732052 0 0 0 0 93.879239732195856 68.134181950916172 0 68.134181950916172 -76.339760168255452 0 0 0 0 29.431937425171782 58.705346082160759 0 58.705346082160759 -40.471781267326151 0 0 0 0 42.561589363249368 33.702905408324114 0 33.702905408324114 -80.462073030088504 0 0 0 0 56.284372737834929 88.000984610652267 0 88.000984610652267 23.003713618967822 0 0 0 0 4.3905498162397407 37.28298758608689 0 37.28298758608689 -42.067024109707383 0 0 0 0 -16.990715782263919 43.296634630001137 0 43.296634630001137 3.7841945100952135 0 0 0 0 -5.822808379809203 40.527354874821967 0 40.527354874821967 -18.219990506965384 0 0 0 0 7.5576658381178277 69.79500480207048 0 69.79500480207048 -17.761821579229945 0 0 0 0 11.879160651774498 22.410849133032968 0 22.410849133032968 -40.787136499298626 0 0 0 0 1.6127005726302741 51.271031215845824 0 51.271031215845824 -46.644097031370165 0 0 0 0 -25.266374052230162 35.607809721400258 0 35.607809721400258 -12.857785197398334 0 0 0 0 1.3106603030785777 43.643767991046445 0 43.643767991046445 -26.799512184943573 0 0 0 0 2.4411485300806817 50.584046349136315 0 50.584046349136315 -50.457760856868617 0 0 0 0 -11.639988756985986 64.239845010450153 0 64.239845010450153 -16.817913269316705 0 0 0 0 -31.79743428749498 7.4973768010222557 0 7.4973768010222557 170.59787384264519 0 0 0 0 -19.254339361941675 33.990904320837217 0 33.990904320837217 -24.756928545277333 0 0 0 0 -85.670549323578598 33.601255026043873 0 33.601255026043873 -31.021008909585362 0 0 0 0 2.1297348699755503 2.7803359696775232 0 2.7803359696775232 -5.1209882650513414 0 0 0 0 -17.373855710269709 68.562835654283617 0 68.562835654283617 -68.713775552025254 0 0 0 0 22.294960335095539 13.52388624247078 0 13.52388624247078 -34.061128659413008 0 0 0 0 -48.797958714349079 23.929102990181946 0 23.929102990181946 -71.88236075704117 0 0 0 0 -16.151390672981506 70.964826602604262 0 70.964826602604262 -159.23371390148986 0 0 0 0 1.5685582156584132 48.72502578709873 0 48.72502578709873 -47.914242371220325 0 0 0 0 1.1757791805721354 47.06636441025239 0 47.06636441025239 -51.619169245039643 0 0 0 0 10.255991112201627 32.252032446151645 0 32.252032446151645 -48.813137347844844 0 0 0 0 43.630615127258352 38.115901638493597 0 38.115901638493597 -30.888732316518144 0 0 0 0 2.8454963834040257 41.751826832405669 0 41.751826832405669 -42.411892519608728 0 0 0 0 43.888058832933893 49.328313930926015 0 49.328313930926015 -49.115097047197196 0 0 0 0 -4.3287197834840754 59.984916788809187 0 59.984916788809187 -68.579331409055541 0 0 0 0 55.431815087398718 231.7152564110861 0 231.7152564110861 -272.5739639900421 0 0 0 0 0.72411843175558488 30.423110847438977 0 30.423110847438977 -91.592390397381791 0 0 0 0 -54.279193038884841 -61.539554227014833 0 -61.539554227014833 -177.63402314204086 0 0 0 0 249.65474131974042 -20.160201601499921 0 -20.160201601499921 -392.71083469255063 0 0 0 0 27.920609665728989 148.13262937080799 0 148.13262937080799 -224.07037834137009 0 0 0 0 27.226532720022078 220.62327182015724 0 220.62327182015724 -240.75480555494869 0 0 0 0 -326.17666712129721 76.612108767896643 0 76.612108767896643 -0.84997050396395935 0 0 0 0 12.455338138477828 30.365329092622666 0 30.365329092622666 -43.882510770927183 0 0 0 0 12.902011088852305 64.842978196345712 0 64.842978196345712 -69.801666843250416 0 0 0 0 -12.89659166876811 33.577135916062645 0 33.577135916062645 -46.002109519130187 0 0 0 0 13.353095120430226 46.600744368827918 0 46.600744368827918 -9.4627290176936185 0 0 0 0 26.273833219267544 52.419815644266009 0 52.419815644266009 -10.28583470102285 0 0 0 0 -148.61340259178542 -735.30526836387799 0 -735.30526836387799 -553.07649180981616 0 0 0 0 -10.411583465968874 14.169060671573305 0 14.169060671573305 -23.099409961578335 0 0 0 0 18.827993752332986 29.267529096109229 0 29.267529096109229 11.11915835611785 0 0 0 0 0.0035341504262760282 47.962519034971592 0 47.962519034971592 -7.1893212284794572 0 0 0 0 19.199105515210249 42.79731649543919 0 42.79731649543919 -33.095984266034066 0 0 0 0 28.229400675336365 62.32377119841658 0 62.32377119841658 -39.664818617491164 0 0 0 0 0.049997027905192226 75.685483045967885 0 75.685483045967885 -22.624898229672908 0 0 0 0 33.699965701438487 52.01759798663079 0 52.01759798663079 -68.533295225453003 0 0 0 0 32.872976342157926 55.856250861430453 0 55.856250861430453 -84.24433359644172 0 0 0 0 9.1704778444691328 126.7668253459442 0 126.7668253459442 5.1430623285523325 0 0 0 0 102.49594022764359 45.46040438109776 0 45.46040438109776 -46.542246092601999 0 0 0 0 116.00631440061261 121.53669616521256 0 121.53669616521256 -60.931988463366906 0 0 0 0 3.8622402897697157 4.8731545261032352 0 4.8731545261032352 -6.4274526952426356 0 0 0 0 100.21573768774397 26.771045984822194 0 26.771045984822194 -158.54021087262845 0 0 0 0 226.64857734483667 307.60559872009799 0 307.60559872009799 141.05642348434048 0 0 0 0 -0.37379068662266945 87.492356041057064 0 87.492356041057064 -8.2693027067834919 0 0 0 0 18.346078235713435 12.922166761043343 0 12.922166761043343 8.7240869423779621 0 0 0 0 -137.89972033466984 22.570987659639286 0 22.570987659639286 1055.9981031745501 0 0 0 0 -291.5602017842466 1634.016822745469 0 1634.016822745469 -1290.3332483887955 0 0 0 0 369.34113947878359 -691.89318118470419 0 -691.89318118470419 -1194.5063884381193 0 0 0 0 -325.7731786085933 407.14214213227115 0 407.14214213227115 -698.78305919958257 0 0 0 0 -38.580636512262572 644.73019826082782 0 644.73019826082782 -1354.4392456574788 0 0 0 0 36.651643242015098 14.400547270241788 0 14.400547270241788 -0.12098793268191699 0 0 0 0 55.49245081670233 139.41285835976305 0 139.41285835976305 -1045.067606107863 0 0 0 0 51.003860514852363 45.660581754024136 0 45.660581754024136 35.97276413001304 0 0 0 0 18.277558047521552 3.813225648062172 0 3.813225648062172 -4.5441768296738978 0 0 0 0 -39.859354178035574 763.12637802935956 0 763.12637802935956 -2109.4064223430096 0 0 0 0 -737.48134231352014 -1030.5324895211525 0 -1030.5324895211525 -3139.5320724543235 0 0 0 0 -610.33852994124754 335.45776193988058 0 335.45776193988058 -209.33229500624293 0 0 0 0 -812.32007311179768 971.56190681706721 0 971.56190681706721 -675.24157173115964 0 0 0 0 -716.46644743977231 584.29507322596328 0 584.29507322596328 -433.1679340021492 0 0 0 0 -586.64120378493681 375.5960732117228 0 375.5960732117228 -205.76165245316588 0 0 0 0 -1006.7654625061259 687.7645245583517 0 687.7645245583517 57.572943156370457 0 0 0 0 -1373.4508677590929 249.69411229341495 0 249.69411229341495 104.49578363042212 0 0 0 0 -1016.4101682813489 38.852679440308748 0 38.852679440308748 -101.13555436823845 0 0 0 0 -1099.6937921116187 526.06677221427981 0 526.06677221427981 46.112332986504043 0 0 0 0 -924.10237609282194 382.58767318989339 0 382.58767318989339 112.88942209015295 0 0 0 0 -902.56040419799683 356.17431298872361 0 356.17431298872361 -154.8847917502062 0 0 0 0 -454.50945236365078 371.44597852861443 0 371.44597852861443 -201.68466476316735 0 0 0 0 -586.53895791921241 186.3975944114336 0 186.3975944114336 -119.84174294047989 0 0 0 0 -77.404201397759607 116.71776966525249 0 116.71776966525249 -44.275237768344596 0 0 0 0 -357.46797774220613 736.30851474100427 0 736.30851474100427 524.83238597858144 0 0 0 0 -493.05208262871383 345.86195510832226 0 345.86195510832226 -492.60190048874028 0 0 0 0 -1479.998514082894 118.75639191156188 0 118.75639191156188 753.62727003131658 0 0 0 0 -14.086172331328271 1012.4510459685425 0 1012.4510459685425 -224.01786742134618 0 0 0 0 -420.25566199127934 1175.4833911343158 0 1175.4833911343158 120.14277593342922 0 0 0 0 -599.08067792903603 1107.9325371042805 0 1107.9325371042805 565.44349351607161 0 0 0 0 202.2573670129641 1023.4676893278247 0 1023.4676893278247 -7.2830896995637886 0 0 0 0 -326.773356692167 943.20011463105038 0 943.20011463105038 1348.2417661808595 0 0 0 0 -230.76895489692106 759.48406206693289 0 759.48406206693289 389.43378462304827 0 0 0 0 1271.8516150738869 815.67539357976966 0 815.67539357976966 211.77195137052877 0 0 0 0 -158.24185298878001 -352.90446986892948 0 -352.90446986892948 684.31080807486433 0 0 0 0 -348.79037248907662 1663.0723049010107 0 1663.0723049010107 1855.1278027246008 0 0 0 0 -159.01240406268334 399.63147323378234 0 399.63147323378234 93.147610950287344 0 0 0 0 -593.19596915322472 72.810145763585751 0 72.810145763585751 915.25275108509777 0 0 0 0 -487.2093651995383 562.14176586294434 0 562.14176586294434 553.91237524236021 0 0 0 0 -306.33637716888188 457.8731071569091 0 457.8731071569091 170.55343135134899 0 0 0 0 -170.13272355287336 857.81295715227543 0 857.81295715227543 1018.1731708929638 0 0 0 0 -693.29644375566568 453.23786552662114 0 453.23786552662114 1351.2620622487589 0 0 0 0 114.7298059851164 261.10761653222835 0 261.10761653222835 -895.24110723135254 0 0 0 0 15.117034543337581 4.7785410394969858 0 4.7785410394969858 -0.0010792800912398093 0 0 0 0 -689.78975662874291 453.22403610187303 0 453.22403610187303 1263.3175560632872 0 0 0 0 -229.6621355463285 84.954061184234888 0 84.954061184234888 124.88697529160652 0 0 0 0 -478.50264368814533 -407.33814176844407 0 -407.33814176844407 42.343845391975265 0 0 0 0 470.02230173345015 72.855211021255855 0 72.855211021255855 35.685709493351169 0 0 0 0 -295.57219914866437 -44.010265183717365 0 -44.010265183717365 673.10719458480071 0 0 0 0 -118.39660688018193 519.56151598277484 0 519.56151598277484 425.30988431631113 0 0 0 0 -83.914985592076846 319.09627205470838 0 319.09627205470838 -331.10438406335743 0 0 0 0 3.1875869581346308 19.78603126483668 0 19.78603126483668 5.8373693340579695 0 0 0 0 160.24135326434043 572.85795666095419 0 572.85795666095419 623.10652700636365 0 0 0 0 812.34433851374342 469.46756405611018 0 469.46756405611018 -1849.2040698074079 0 0 0 0 -7.2845530569675816 -6.3610610882075349 0 -6.3610610882075349 3.3417037169671033 0 0 0 0 218.21854382920719 132.62719009922603 0 132.62719009922603 -5.9427061542041884 0 0 0 0 206.07929401980073 130.98324825245845 0 130.98324825245845 -3.7750441397984105 0 0 0 0 97.091448056991794 152.95675183087405 0 152.95675183087405 59.129199106871056 0 0 0 0 197.61506852672028 220.49181907081538 0 220.49181907081538 97.100427495168333 0 0 0 0 86.811808752130048 88.738230395839167 0 88.738230395839167 31.440664293623691 0 0 0 0 -113.75555774761597 611.7418280983843 0 611.7418280983843 -1034.5936007952384 0 0 0 0 -178.75167839656933 1075.5006419436495 0 1075.5006419436495 -1084.2909374601531 0 0 0 0 33.380894696184498 15.706875246888814 0 15.706875246888814 3.5305770902635434 0 0 0 0 -260.66220490128762 497.83636676045717 0 497.83636676045717 -475.39072851233186 0 0 0 0 53.6278007398505 234.82947229523575 0 234.82947229523575 -886.94200890824743 0 0 0 0 307.92775873408391 563.63325958221526 0 563.63325958221526 -505.05579347848379 0 0 0 0 -8.1080319929023972 135.66936802121745 0 135.66936802121745 -64.337460935725176 0 0 0 0 249.2690692711767 104.74900430243179 0 104.74900430243179 -244.92995627946675 0 0 0 0 19.874022150284873 191.91371670223216 0 191.91371670223216 -611.73798665553659 0 0 0 0 -152.60735110625683 272.02968431579393 0 272.02968431579393 -411.04967975237014 0 0 0 0 -99.123989872081438 176.58668249548191 0 176.58668249548191 -807.31087488984303 0 0 0 0 5.2138160883187084 -44.123594020510609 0 -44.123594020510609 -340.65329587802034 0 0 0 0 13.244876984550501 53.473612824835982 0 53.473612824835982 -72.599757706653691 0 0 0 0 83.978378446630813 -51.924897899751841 0 -51.924897899751841 -119.32535540335448 0 0 0 0 59.562553041701904 0.96193437082092714 0 0.96193437082092714 83.613861766119953 0 0 0 0 -18.175073189217073 12.557884260450919 0 12.557884260450919 148.42461269060368 0 0 0 0 40.919041175555321 -43.56105929557998 0 -43.56105929557998 -22.432531703349014 0 0 0 0 203.8424448611695 105.97775140899284 0 105.97775140899284 -48.965226776925192 0 0 0 0 212.39311697726953 13.989860683213919 0 13.989860683213919 -45.26094923834313 0 0 0 0 98.625417384711909 -51.13769343486274 0 -51.13769343486274 47.906217816884237 0 0 0 0 187.34453955363279 45.266630205264846 0 45.266630205264846 -30.366115385400917 0 0 0 0 96.697439100738848 116.72071444072799 0 116.72071444072799 -27.86030998303977 0 0 0 0 75.106575873462134 130.91201025942519 0 130.91201025942519 -20.524449436215946 0 0 0 0 76.29234205835985 76.606853558851128 0 76.606853558851128 22.097697632668321 0 0 0 0 5.9583114578272216 104.71785862323304 0 104.71785862323304 50.584744896535994 0 0 0 0 70.625781546807616 69.013163445740162 0 69.013163445740162 6.551784279569091 0 0 0 0 154.03821669060562 -35.399240974624263 0 -35.399240974624263 51.227646873150661 0 0 0 0 -16.74962693262205 150.06807393470399 0 150.06807393470399 60.576325302368787 0 0 0 0 39.969857313602915 -72.434370500801151 0 -72.434370500801151 29.64832678638777 0 0 0 0 -30.646525141202119 31.592602601432361 0 31.592602601432361 -2.5168553132103355 0 0 0 0 36.004371117698611 146.00877303918605 0 146.00877303918605 50.299336999676598 0 0 0 0 78.952489765244536 90.825130513065233 0 90.825130513065233 49.716629360003935 0 0 0 0 48.7742493730766 105.47092217162844 0 105.47092217162844 183.86698864532082 0 0 0 0 20.753438675408347 -11.169943513223082 0 -11.169943513223082 6.6585209422188854 0 0 0 0 511.1065715465229 733.82038075353194 0 733.82038075353194 581.00421972804361 0 0 0 0 45.450793294361802 -5.0226401228859565 0 -5.0226401228859565 9.4614122032286474 0 0 0 0 114.91630404366879 17.049869721722644 0 17.049869721722644 87.041761899816265 0 0 0 0 7.3049469080324911 13.893361146206018 0 13.893361146206018 17.072304356430834 0 0 0 0 1489.5740115509543 671.14907586266781 0 671.14907586266781 282.17964755870344 0 0 0 0 1578.9205452942115 896.74456121952244 0 896.74456121952244 630.39430390413327 0 0 0 0 396.44904780732759 -66.411303068280176 0 -66.411303068280176 -75.958921931520308 0 0 0 0 13.213825663435273 30.578786377722281 0 30.578786377722281 473.2378190116433 0 0 0 0 506.75356152220047 913.12613544447595 0 913.12613544447595 823.95281018609239 0 0 0 0 695.07943275520665 964.02600269171899 0 964.02600269171899 783.58001328038154 0 0 0 0 605.97820081479949 1120.0196302447648 0 1120.0196302447648 1069.1452880737706 0 0 0 0 514.29462689504726 784.85124967142838 0 784.85124967142838 1119.5889696819904 0 0 0 0 380.59663516287401 827.91372073255479 0 827.91372073255479 909.75866782816411 0 0 0 0 339.93179868042353 923.12031652792575 0 923.12031652792575 1135.8845166721949 0 0 0 0 322.69588698778534 721.14862461083612 0 721.14862461083612 784.26843705928786 0 0 0 0 286.27452275055475 448.53813100359457 0 448.53813100359457 648.73535035237001 0 0 0 0 725.26303763110809 488.52524790809548 0 488.52524790809548 1083.1960524735769 0 0 0 0 73.277451810456114 679.93002525304291 0 679.93002525304291 1068.6416465039183 0 0 0 0 601.94718903693138 1083.3594401349201 0 1083.3594401349201 1397.1576311011268 0 0 0 0 511.17796196961717 724.73018908677113 0 724.73018908677113 979.40797476993066 0 0 0 0 30.692690169147681 -8.7086653074520655 0 -8.7086653074520655 217.6886393220575 0 0 0 0 5.807457096127564 -4.048010931653053 0 -4.048010931653053 4.2342478216453436 0 0 0 0 50.141292110769427 -5.4600436790979074 0 -5.4600436790979074 -111.7498522159658 0 0 0 0 -133.07175978287705 249.86367810455522 0 249.86367810455522 1135.0445652622939 0 0 0 0 76.189589731453452 797.82057722366881 0 797.82057722366881 813.43196327442638 0 0 0 0 -412.47304639477807 489.48947077723233 0 489.48947077723233 -452.81439030058027 0 0 0 0 554.13211345244235 -12.46694877423738 0 -12.46694877423738 -337.84852955929455 0 0 0 0 661.41469363819851 788.61028046783554 0 788.61028046783554 -375.62443756319772 0 0 0 0 -87.681431499877363 283.23763020279966 0 283.23763020279966 -466.62285432837234 0 0 0 0 -106.16435498396459 96.205053780365233 0 96.205053780365233 -159.44717274664436 0 0 0 0 69.253555402130587 42.012027101394779 0 42.012027101394779 -669.10295572433188 0 0 0 0 -384.40917813645501 3331.8988159210421 0 3331.8988159210421 -1586.4438533500797 0 0 0 0 65.324316217864236 70.916717593199607 0 70.916717593199607 64.092308198884723 0 0 0 0 -982.79928897618083 1220.9538810394279 0 1220.9538810394279 -525.43341660902661 0 0 0 0 -918.39979613391915 2055.7287844394396 0 2055.7287844394396 -1196.7539505159584 0 0 0 0 -176.69216097015305 1478.9851318637629 0 1478.9851318637629 -1551.7938731875429 0 0 0 0 -1780.1795675879112 2981.6375525985641 0 2981.6375525985641 2605.5099006523087 0 0 0 0 6.7644465523189865 633.33926334205171 0 633.33926334205171 -627.47846914161346 0 0 0 0 -42.517061507154722 1060.0621899975258 0 1060.0621899975258 -921.19751775271652 0 0 0 0 105.3122232358437 839.8073218412701 0 839.8073218412701 -470.22747545804668 0 0 0 0 -959.04765398688141 1451.0864752910427 0 1451.0864752910427 -1003.3628387614735 0 0 0 0 507.00002584987669 450.25481445564947 0 450.25481445564947 -664.82713763564698 0 0 0 0 32.832306025069556 300.25498197453271 0 300.25498197453271 691.47262124462941 0 0 0 0 -229.46157057632809 53.834096173724902 0 53.834096173724902 1957.296181795853 0 0 0 0 -76.1770212505362 331.74996703925535 0 331.74996703925535 688.08727085702139 0 0 0 0 1240.6716835948755 -134.65042883436217 0 -134.65042883436217 -135.84916311697452 0 0 0 0 1182.9106994224694 1270.6596215562504 0 1270.6596215562504 -2809.1564252330318 0 0 0 0 -217.95672110904707 1334.4287113013715 0 1334.4287113013715 213.32980042928466 0 0 0 0 -251.02742117717571 977.94732305117213 0 977.94732305117213 1755.9798162176248 0 0 0 0 67.428648480443371 745.71391617837662 0 745.71391617837662 506.30055122391786 0 0 0 0 32.848042816360248 427.35036576361927 0 427.35036576361927 669.64908423523957 0 0 0 0 157.26668763539055 546.3786759961331 0 546.3786759961331 607.16869296127788 0 0 0 0 110.7083549355084 445.62662531169008 0 445.62662531169008 120.36228654825754 0 0 0 0 -116.0813457655313 283.09468404155268 0 283.09468404155268 113.38508964491984 0 0 0 0 -260.42338791886868 532.39709094220143 0 532.39709094220143 -200.33638433845772 0 0 0 0 -787.39636540555512 350.54964420211763 0 350.54964420211763 -151.33192323352341 0 0 0 0 -414.54801223745744 251.30992205598341 0 251.30992205598341 -614.52273356042133 0 0 0 0 -1899.8293501652661 1363.8213770899686 0 1363.8213770899686 1126.3767248810595 0 0 0 0 -573.39504764547019 697.90451350431931 0 697.90451350431931 -496.40713446719747 0 0 0 0 49.03193551495724 55.097159226943447 0 55.097159226943447 50.467682444022337 0 0 0 0 -295.54657879938895 -63.338014854756238 0 -63.338014854756238 664.01872028655271 0 0 0 0 565.30436932839802 -20.013148052400993 0 -20.013148052400993 -310.96718009100846 0 0 0 0 -675.60103904968128 -1719.7563504178338 0 -1719.7563504178338 3262.7589558047584 0 0 0 0 -161.4414612711771 1258.5316331680096 0 1258.5316331680096 -920.47907572032636 0 0 0 0 14.047457310170728 18.274979631408968 0 18.274979631408968 20.583004536118263 0 0 0 0 1094.4317885168566 -1003.8098881816028 0 -1003.8098881816028 1124.5788039902513 0 0 0 0 1270.461931099795 -65.741090522065406 0 -65.741090522065406 2011.8564357586474 0 0 0 0 3304.717351139785 1554.5262474457177 0 1554.5262474457177 -3731.5043170117642 0 0 0 0 -3254.7374846119783 55.301163657280313 0 55.301163657280313 3608.7362464203256 0 0 0 0 626.71247708170267 1537.9921396757204 0 1537.9921396757204 -1092.4111434990555 0 0 0 0 -1302.7693358486213 -1403.6457953135218 0 -1403.6457953135218 2770.1578603317093 0 0 0 0 558.33938608321478 406.82538079089409 0 406.82538079089409 -1440.764524239376 0 0 0 0 17.077386137006698 23.35902844009 0 23.35902844009 27.932751543224093 0 0 0 0 1594.8350357293239 698.62154411997517 0 698.62154411997517 -247.72076190255666 0 0 0 0 491.71459600130402 1311.9226451243646 0 1311.9226451243646 249.37577733149465 0 0 0 0 1430.1726704202883 462.60109082490453 0 462.60109082490453 -580.55043281191502 0 0 0 0 1858.6938921771834 -37.384587138002871 0 -37.384587138002871 -73.467924219266024 0 0 0 0 1495.5009359861288 671.84877097222125 0 671.84877097222125 -892.4555132241494 0 0 0 0 625.6399759649712 620.58314515982204 0 620.58314515982204 -726.94169905262788 0 0 0 0 717.0473187276948 845.49130586599676 0 845.49130586599676 -384.5380688987043 0 0 0 0 605.03013911326252 359.26448392788137 0 359.26448392788137 -166.11907718770453 0 0 0 0 1824.1435472484309 431.71482831998895 0 431.71482831998895 -227.76876706268922 0 0 0 0 1819.4727116531139 298.12020941395895 0 298.12020941395895 -516.1270206250465 0 0 0 0 -1618.9559740368859 2442.7947855601906 0 2442.7947855601906 574.45412734231559 0 0 0 0 -2691.288955103053 756.48723142523704 0 756.48723142523704 3480.6596309267225 0 0 0 0 -1129.0739026230585 556.01545414264456 0 556.01545414264456 -474.02120448398819 0 0 0 0 -1022.3599009592144 1598.5601907714408 0 1598.5601907714408 -984.5909635491189 0 0 0 0 48.427584598886256 62.394173492182986 0 62.394173492182986 64.477887273000363 0 0 0 0 413.51554604544071 536.5526758690994 0 536.5526758690994 -304.1798739494825 0 0 0 0 -560.63263293837372 726.28399823475775 0 726.28399823475775 -182.23719602160236 0 0 0 0 -341.92190849446342 778.49109376966044 0 778.49109376966044 -1074.4231007910139 0 0 0 0 -687.27410758603946 748.93178885705129 0 748.93178885705129 -234.37351936814571 0 0 0 0 -1239.3802332660271 867.60445453348893 0 867.60445453348893 -228.86572909713868 0 0 0 0 -820.21168139633664 849.24488379530521 0 849.24488379530521 253.83046174042101 0 0 0 0 -884.68057898624102 667.21152550047555 0 667.21152550047555 -134.65974956055379 0 0 0 0 -1026.589941622231 838.37880556134496 0 838.37880556134496 -93.4492070430897 0 0 0 0 -805.49329198204941 493.10716759598836 0 493.10716759598836 344.4765791755126 0 0 0 0 -370.37543030537199 494.68070344237094 0 494.68070344237094 17.991233834529339 0 0 0 0 -1370.1436722982241 518.94390771104997 0 518.94390771104997 262.42605997635474 0 0 0 0 -968.36853873818472 683.41629540526992 0 683.41629540526992 202.01843821498187 0 0 0 0 -376.1484230292117 521.87460534056936 0 521.87460534056936 969.28541656942798 0 0 0 0 381.80993773494265 471.12947602272288 0 471.12947602272288 219.74723361864835 0 0 0 0 -454.02523392728472 488.57193794682007 0 488.57193794682007 192.51639188088666 0 0 0 0 -504.1980508837587 896.20588820420835 0 896.20588820420835 -116.63235116673241 0 0 0 0 94.705953454875271 830.64040018986543 0 830.64040018986543 301.08830924204085 0 0 0 0 893.68785635834502 881.96842174312678 0 881.96842174312678 -199.8661167548089 0 0 0 0 984.40459379362073 340.09542407325694 0 340.09542407325694 -145.75671945408249 0 0 0 0 1818.7200978874025 324.71473246927599 0 324.71473246927599 -306.74435798796731 0 0 0 0 2018.6272718458931 709.02350187350567 0 709.02350187350567 -126.58822123563186 0 0 0 0 1887.963452389944 155.46336969070967 0 155.46336969070967 -43.206426867327536 0 0 0 0 2958.3703831688617 421.69041856273634 0 421.69041856273634 22.964691889239475 0 0 0 0 2221.1144474605971 459.3378462257424 0 459.3378462257424 938.85310988840138 0 0 0 0 2449.9781524060236 1071.7646670928625 0 1071.7646670928625 651.90932694633375 0 0 0 0 874.94327113891632 1104.1517722814133 0 1104.1517722814133 910.57039610755601 0 0 0 0 1161.9332930216624 457.40603291725711 0 457.40603291725711 395.015114877624 0 0 0 0 1092.6887630287674 1214.2141048903595 0 1214.2141048903595 1852.8848439402718 0 0 0 0 666.50349406484747 453.63642871587581 0 453.63642871587581 553.63951774834095 0 0 0 0 -128.88468297547661 -384.47568655432769 0 -384.47568655432769 85.033506315194245 0 0 0 0 217.39909121308301 251.89916602714311 0 251.89916602714311 1672.2897214219083 0 0 0 0 6.2127543440067825 4.3100644181963759 0 4.3100644181963759 5.3247296109087827 0 0 0 0 21.840176796700689 3.9083408489314024 0 3.9083408489314024 1465.2092207195237 0 0 0 0 841.82406206606538 303.83775944303488 0 303.83775944303488 401.7519202389667 0 0 0 0 3432.6118095030579 -738.31987638560167 0 -738.31987638560167 1800.2570648567853 0 0 0 0 4061.3543659181159 1460.2218945055579 0 1460.2218945055579 1473.7401713882064 0 0 0 0 2677.6769154055801 1231.3841574815997 0 1231.3841574815997 3242.8063672426215 0 0 0 0 1380.0377670517628 2255.2282600755461 0 2255.2282600755461 1758.3504906446215 0 0 0 0 -84.486743887158809 1101.751681178006 0 1101.751681178006 991.52954559152022 0 0 0 0 5855.8844832106442 -981.07855081938305 0 -981.07855081938305 81.89637533944915 0 0 0 0 16.510318708371756 13.615933428980526 0 13.615933428980526 9.1375619081406825 0 0 0 0 5217.4777472474561 1674.3903051044813 0 1674.3903051044813 1149.4639781911537 0 0 0 0 4049.0945999627875 375.67521187786861 0 375.67521187786861 -126.01957545903133 0 0 0 0 2810.0454310853384 -1312.7979438637994 0 -1312.7979438637994 290.29929160579559 0 0 0 0 2618.964706112165 -722.94194162320855 0 -722.94194162320855 495.11076667907764 0 0 0 0 1883.7191488225653 -1149.9449970163541 0 -1149.9449970163541 309.37302371946862 0 0 0 0 1945.7081005770015 423.86349824319768 0 423.86349824319768 -38.041441586479777 0 0 0 0 13.590894030872732 -23.304488647976541 0 -23.304488647976541 -209.68557709849119 0 0 0 0 38.199162835779134 -71.062592312067864 0 -71.062592312067864 -117.51839854086211 0 0 0 0 -37.491836450602023 -481.53832553283092 0 -481.53832553283092 -251.27381037084706 0 0 0 0 89.655485139024677 -153.92587364436258 0 -153.92587364436258 -588.13485889965887 0 0 0 0 1236.0577273711642 399.46644222396299 0 399.46644222396299 158.3078454547649 0 0 0 0 -13.200430683718878 150.57416353430199 0 150.57416353430199 -350.35683944343145 0 0 0 0 36.2754749570217 37.393361480380406 0 37.393361480380406 24.948170597689185 0 0 0 0 -10.306179864855949 119.11180098300974 0 119.11180098300974 -15.562157399141142 0 0 0 0 8.2256530925287166 18.5151420425357 0 18.5151420425357 11.205809069978216 0 0 0 0 -79.009408366327989 -57.019298962660287 0 -57.019298962660287 150.03686168078639 0 0 0 0 20.139813342508205 13.166007055470345 0 13.166007055470345 -9.496110502313968 0 0 0 0 -7.3129664466183897 10.194146111689065 0 10.194146111689065 -4.721138687336456 0 0 0 0 -1418.0965881455113 -401.36221234109564 0 -401.36221234109564 92.137934507562022 0 0 0 0 -23.354692074208288 196.30169300728903 0 196.30169300728903 -109.39225467470351 0 0 0 0 -841.76358363864711 784.94146013548561 0 784.94146013548561 106.59004047848794 0 0 0 0 24.819069105748213 -102.86813769933224 0 -102.86813769933224 160.65692926147676 0 0 0 0 -617.92877749721083 348.64773870262434 0 348.64773870262434 -703.21395089285215 0 0 0 0 -984.86427027263562 782.72628779378465 0 782.72628779378465 -256.7340608470322 0 0 0 0 -677.19161392786191 446.34656692075805 0 446.34656692075805 -158.85403669077004 0 0 0 0 -547.3955764331622 947.24740879121691 0 947.24740879121691 -999.96881162521822 0 0 0 0 -778.14086846014834 641.63407494356943 0 641.63407494356943 -43.58093898505831 0 0 0 0 -361.30095957221056 427.78471445449941 0 427.78471445449941 -585.62366972494056 0 0 0 0 -709.14557638521364 -401.06133128339206 0 -401.06133128339206 1082.60380792256 0 0 0 0 525.97785161260981 198.45777986063422 0 198.45777986063422 6.1252756969915936 0 0 0 0 -14.275510087137832 2.5287464232855257 0 2.5287464232855257 2.7524289894773091 0 0 0 0 -4.5616792235036314 0.65083775702571955 0 0.65083775702571955 0.34860830392066333 0 0 0 0 -578.63945947607863 -416.65962231652884 0 -416.65962231652884 2495.0926986396771 0 0 0 0 -532.35325776442187 863.82865919904907 0 863.82865919904907 455.65123198356741 0 0 0 0 -269.74835346889449 2281.890359096813 0 2281.890359096813 -2134.977769841822 0 0 0 0 1242.7602154306369 121.84226615319858 0 121.84226615319858 97.296681448817253 0 0 0 0 1547.4644526687625 1312.3287792978517 0 1312.3287792978517 -225.29098722437448 0 0 0 0 2757.3838135619881 150.07882968254125 0 150.07882968254125 514.12244361412741 0 0 0 0 1540.807136336829 781.82524195195219 0 781.82524195195219 40.534164228462032 0 0 0 0 1781.9483037144382 1396.2673846737007 0 1396.2673846737007 1605.2501448916519 0 0 0 0 1174.7013218601496 -54.960699067038149 0 -54.960699067038149 1739.8123062410687 0 0 0 0 1160.1807386926666 141.23904222413876 0 141.23904222413876 499.79630021604316 0 0 0 0 2510.337492227176 475.32596169662429 0 475.32596169662429 790.45797333933297 0 0 0 0 -323.91274800112296 164.19318058046701 0 164.19318058046701 1169.0953100211445 0 0 0 0 -437.72059409135545 951.31073083039155 0 951.31073083039155 -67.884542204175887 0 0 0 0 108.41258056820516 129.4961363592484 0 129.4961363592484 263.60823312126377 0 0 0 0 91.379869891228736 -168.86614011235997 0 -168.86614011235997 857.11818394620968 0 0 0 0 1433.0220154168273 185.29575683744952 0 185.29575683744952 43.706935937538219 0 0 0 0 2694.4450535528304 178.24395778986218 0 178.24395778986218 673.61015516245243 0 0 0 0 1885.702622693585 -354.61502356220808 0 -354.61502356220808 651.73918814306296 0 0 0 0 1609.7259071384324 -153.73414901385877 0 -153.73414901385877 -41.041659114623826 0 0 0 0 269.68436561491399 -9.5312667418720594 0 -9.5312667418720594 -78.766510210991328 0 0 0 0 420.05628468074428 492.7205086342201 0 492.7205086342201 -262.57188598161883 0 0 0 0 -206.91462228915771 28.836656595545719 0 28.836656595545719 321.23632661838928 0 0 0 0 -454.29717906747828 318.39450109119389 0 318.39450109119389 0.73671917523097363 0 0 0 0 -454.32133555246401 290.01450723675771 0 290.01450723675771 368.71563044519962 0 0 0 0 -453.68721526164154 261.20737986518907 0 261.20737986518907 237.44117234416626 0 0 0 0 -719.80976751679555 353.39302057164787 0 353.39302057164787 353.39420684898141 0 0 0 0 -726.76273113356001 611.07913656254027 0 611.07913656254027 102.00233552559803 0 0 0 0 -664.78922013597912 217.8603923769133 0 217.8603923769133 559.46957114336146 0 0 0 0 -600.64810229012801 428.56603965887462 0 428.56603965887462 128.12699668532514 0 0 0 0 -622.40018332292675 480.50120912905186 0 480.50120912905186 16.986907374946895 0 0 0 0 -740.60855820896359 520.11642281515856 0 520.11642281515856 175.16224568804319 0 0 0 0 -669.23965745783062 403.40297973053748 0 403.40297973053748 233.20648209411866 0 0 0 0 -673.30933923317207 418.68180809052956 0 418.68180809052956 175.86513407115126 0 0 0 0 -721.16864718380384 442.12446508736684 0 442.12446508736684 164.47197037188744 0 0 0 0 -625.2186905064882 412.27577346719772 0 412.27577346719772 171.3098830796298 0 0 0 0 -515.82705938784056 305.57013636346528 0 305.57013636346528 155.59139561419806 0 0 0 0 -607.62816262785054 442.01444584118872 0 442.01444584118872 -45.541706107884238 0 0 0 0 -653.9069061367627 390.55005048799558 0 390.55005048799558 93.160451737159747 0 0 0 0 -722.95256320823682 491.91769231554645 0 491.91769231554645 -51.108035231149529 0 0 0 0 -561.39086043881252 441.07569563660127 0 441.07569563660127 -332.21557966328328 0 0 0 0 -749.5900490633212 462.2837798589826 0 462.2837798589826 -52.458292175133806 0 0 0 0 -675.75367185223149 432.96056459175452 0 432.96056459175452 -305.91471366551559 0 0 0 0 -487.69043779092317 254.70796866934324 0 254.70796866934324 -495.58855637889428 0 0 0 0 -275.84993759315694 208.81720218300507 0 208.81720218300507 -267.64014565988379 0 0 0 0 -515.74855578059214 325.51690599181893 0 325.51690599181893 -54.884196157218526 0 0 0 0 -386.90557023807196 357.33902097503687 0 357.33902097503687 -267.71917113497148 0 0 0 0 -218.84844419235014 160.52951397695324 0 160.52951397695324 -39.057184049791431 0 0 0 0 -75.901684694268624 217.95541694805161 0 217.95541694805161 -288.60652476155337 0 0 0 0 -99.229067390937416 255.64226533129295 0 255.64226533129295 -269.28546637423278 0 0 0 0 -160.079495872189 296.2415720671961 0 296.2415720671961 -328.49418422753843 0 0 0 0 -206.06948282540543 162.50346475168681 0 162.50346475168681 -273.8160209781413 0 0 0 0 -252.02691946775303 271.55452761382639 0 271.55452761382639 -354.63126313444263 0 0 0 0 -479.51251868061445 296.43149434089105 0 296.43149434089105 -418.78108069819427 0 0 0 0 -434.28440075242543 350.86875908584352 0 350.86875908584352 -363.15801317916703 0 0 0 0 -454.55260054967948 179.49662616587466 0 179.49662616587466 -336.21958036306569 0 0 0 0 3643.8556617546201 8.3762396582933434 0 8.3762396582933434 -712.65962476939421 0 0 0 0 4.7068413022541407 7.5284264394837805 0 7.5284264394837805 -0.024501274996588052 0 0 0 0 -429.20601386972703 531.78364677645823 0 531.78364677645823 -218.8566814043495 0 0 0 0 -42.546505138172506 277.2690499762632 0 277.2690499762632 -214.50802956038115 0 0 0 0 -53.217231823582551 119.54730665771876 0 119.54730665771876 -166.62408595327793 0 0 0 0 7.7363880502502838 17.46766176558458 0 17.46766176558458 7.2423719862655034 0 0 0 0 1997.6708626271065 415.20650158605076 0 415.20650158605076 -102.06099328742926 0 0 0 0 52.189716118706201 162.19608267011222 0 162.19608267011222 -159.58229930598463 0 0 0 0 199.59077323120437 -31.023020571893994 0 -31.023020571893994 -75.342312402541211 0 0 0 0 5.6788870880625382 19.864995852121098 0 19.864995852121098 20.080992307269049 0 0 0 0 -28.719597886272823 -20.775619340991852 0 -20.775619340991852 30.019640610445094 0 0 0 0 1275.6268750097829 215.40806044736297 0 215.40806044736297 -147.91759178544226 0 0 0 0 2484.895129418499 -688.44725645345306 0 -688.44725645345306 386.6420756823959 0 0 0 0 -417.99055354077427 297.2471217622865 0 297.2471217622865 -307.04460844958521 0 0 0 0 -278.06891650775651 115.82471350918058 0 115.82471350918058 -297.32740726291922 0 0 0 0 -234.87198282216559 190.64104072969076 0 190.64104072969076 -168.86992409268532 0 0 0 0 -52.686999563151062 207.24860626321498 0 207.24860626321498 -307.1356335409273 0 0 0 0 -85.225025300620473 123.60012489478436 0 123.60012489478436 -83.214067933755359 0 0 0 0 -112.05997375465813 61.497132732497903 0 61.497132732497903 -210.15248010235223 0 0 0 0 -292.07194557229377 170.7660406314094 0 170.7660406314094 -121.23332662892517 0 0 0 0 -308.18452158064611 120.39372874939772 0 120.39372874939772 -240.54826734285234 0 0 0 0 -429.44291670490202 367.33209558602766 0 367.33209558602766 -312.89536936460627 0 0 0 0 -545.87366471996938 290.27316894390196 0 290.27316894390196 -329.88729603829563 0 0 0 0 -868.33305861052941 430.61323122857902 0 430.61323122857902 -323.44147445956514 0 0 0 0 -569.42621964396676 452.41945646985914 0 452.41945646985914 -382.97353229372538 0 0 0 0 -567.44571766327135 204.68088174723107 0 204.68088174723107 -315.67692353755774 0 0 0 0 -681.34990754647879 576.38299302946143 0 576.38299302946143 -434.29886755285042 0 0 0 0 -993.81163408355496 761.92629808031097 0 761.92629808031097 -459.21388148776441 0 0 0 0 -552.49445213977015 580.39101344605615 0 580.39101344605615 -691.26367552018837 0 0 0 0 -652.21445193114414 580.78374464231308 0 580.78374464231308 -410.65461853746183 0 0 0 0 -472.18834367702948 310.84848577525918 0 310.84848577525918 -412.35479178778405 0 0 0 0 -876.42684096707671 378.29070450367749 0 378.29070450367749 -442.51209221472982 0 0 0 0 1200.4791342476383 19.833293631278138 0 19.833293631278138 730.66035356520297 0 0 0 0 8.6624921828698405 8.3974538729667074 0 8.3974538729667074 2.7428597453838108 0 0 0 0 1739.044115205179 -227.34681942431325 0 -227.34681942431325 -331.01752505752665 0 0 0 0 1447.0092700509158 930.03934835024575 0 930.03934835024575 732.98012687467417 0 0 0 0 562.20960465339886 116.89229033253559 0 116.89229033253559 135.32953615619499 0 0 0 0 350.75528202408168 -385.79059007689375 0 -385.79059007689375 56.743879308703981 0 0 0 0 337.98832586866047 27.399648496577356 0 27.399648496577356 -151.08632130396654 0 0 0 0 924.10147017560666 68.674721954535926 0 68.674721954535926 -152.6439249884188 0 0 0 0 191.80709786410443 -136.8199065728702 0 -136.8199065728702 26.056260161643877 0 0 0 0 19.413918143765272 17.957056327726519 0 17.957056327726519 7.1717289808678935 0 0 0 0 308.32477570062656 -124.01993625016394 0 -124.01993625016394 21.867104131340966 0 0 0 0 181.70380450222001 12.943199309656393 0 12.943199309656393 -64.688963215732656 0 0 0 0 181.07870891079074 137.02082761523707 0 137.02082761523707 -230.17765799993322 0 0 0 0 358.89478433194745 54.091198987870484 0 54.091198987870484 -219.32043405843069 0 0 0 0 174.32574539119378 147.46238476405597 0 147.46238476405597 -177.10429520986054 0 0 0 0 145.99617115361309 112.48935291034114 0 112.48935291034114 74.66253373857451 0 0 0 0 102.01096062920988 162.97388718190632 0 162.97388718190632 -86.066719849971378 0 0 0 0 119.63732970734418 262.51490232116066 0 262.51490232116066 -219.63509918627085 0 0 0 0 282.8581756005442 56.901955916329825 0 56.901955916329825 -145.33545305611733 0 0 0 0 166.56018883547222 18.677314473865408 0 18.677314473865408 -18.279763959468482 0 0 0 0 115.58999291411601 75.846343826344309 0 75.846343826344309 -5.6668667577307588 0 0 0 0 -691.26855502548278 718.00866387125052 0 718.00866387125052 -672.84032097153977 0 0 0 0 -1086.719050020969 -577.83072179136798 0 -577.83072179136798 156.84535409431555 0 0 0 0 -321.35638719353301 22.567191131756772 0 22.567191131756772 -74.440396174391935 0 0 0 0 -1220.0942327543453 307.59463674878134 0 307.59463674878134 126.14929509540525 0 0 0 0 -1058.7734335816931 346.04504714266295 0 346.04504714266295 33.345786902442342 0 0 0 0 -1020.6886467121658 194.39073461782755 0 194.39073461782755 35.410301491559949 0 0 0 0 -1565.2713819553828 95.041350670197517 0 95.041350670197517 145.90126899023016 0 0 0 0 -1537.1333032757393 656.5993555238847 0 656.5993555238847 -168.26717289866065 0 0 0 0 -1061.5457222609548 566.54772626421254 0 566.54772626421254 -424.76872848640414 0 0 0 0 -1946.187729930738 338.33490498405445 0 338.33490498405445 3.6483200732800469 0 0 0 0 -2792.9334433793556 -321.09203549895028 0 -321.09203549895028 173.43428773798223 0 0 0 0 -2200.3056610964704 -593.55734883078549 0 -593.55734883078549 290.96732928815618 0 0 0 0 -758.89176647333079 508.70189142839808 0 508.70189142839808 -259.470693887175 0 0 0 0 -1033.6519127048086 575.44663974113791 0 575.44663974113791 -159.03932600305416 0 0 0 0 -980.67460495390696 470.52442947338568 0 470.52442947338568 22.767511590493086 0 0 0 0 -1021.0868384646601 479.99676330609509 0 479.99676330609509 -249.89101844310426 0 0 0 0 -925.68101240840042 614.06879891430799 0 614.06879891430799 -319.92751085721829 0 0 0 0 -688.29784791081329 376.6333340907986 0 376.6333340907986 -558.07889718290608 0 0 0 0 -1097.1471970955899 264.96324315082347 0 264.96324315082347 -483.40497496724265 0 0 0 0 -973.76808059663745 560.97900035083148 0 560.97900035083148 -563.67082489201857 0 0 0 0 -1052.2767044082866 253.07243509971704 0 253.07243509971704 -698.52804658300374 0 0 0 0 4.6775431107423628 4.0258976239109643 0 4.0258976239109643 -0.0036156393145603261 0 0 0 0 -1894.8080076909973 998.1262299014852 0 998.1262299014852 -646.85041463488233 0 0 0 0 -2920.5230044763302 304.41798717682832 0 304.41798717682832 86.417960624865373 0 0 0 0 -958.18526491045486 484.63564894830779 0 484.63564894830779 -1054.5775362619152 0 0 0 0 -1018.8062538296799 354.5939797211413 0 354.5939797211413 -342.10427241849357 0 0 0 0 -756.94914078980219 281.4278077460458 0 281.4278077460458 -356.67845140375903 0 0 0 0 -727.16847259784117 396.76112790905245 0 396.76112790905245 -457.0139707805738 0 0 0 0 -670.50500628555892 297.74952003811268 0 297.74952003811268 -296.93714842453664 0 0 0 0 -648.71265346793007 422.77289292541411 0 422.77289292541411 -356.16934777041388 0 0 0 0 21.081525919548028 23.624446252682475 0 23.624446252682475 6.9039291490898336 0 0 0 0 -1126.5299070318179 628.27462998452791 0 628.27462998452791 -401.51515752106116 0 0 0 0 -904.43486817186931 649.7574989000625 0 649.7574989000625 -431.67780421975658 0 0 0 0 105.7253395719199 73.740732559566823 0 73.740732559566823 30.161459790353547 0 0 0 0 141.88826641542619 159.03771971309652 0 159.03771971309652 -16.146155506929063 0 0 0 0 198.23300429717528 27.611808225897562 0 27.611808225897562 136.71101203010767 0 0 0 0 157.8968714536459 127.5886349274359 0 127.5886349274359 84.210484100895741 0 0 0 0 -218.79735003627138 338.42546860843413 0 338.42546860843413 273.72520986922177 0 0 0 0 68.439117421417905 -37.815696854049747 0 -37.815696854049747 -4.3013536599391955 0 0 0 0 212.57830065036205 71.519418068924722 0 71.519418068924722 -2.4481672203764901 0 0 0 0 146.74766008985631 123.66019601203695 0 123.66019601203695 95.200688347239378 0 0 0 0 214.37291257767356 148.14335282456159 0 148.14335282456159 80.695619961716147 0 0 0 0 -336.84978651946585 722.68156095494851 0 722.68156095494851 30.223989293863411 0 0 0 0 -266.22383182124759 168.35389033407318 0 168.35389033407318 144.2158881197447 0 0 0 0 -206.97640861298714 125.88289049612831 0 125.88289049612831 807.95763429407634 0 0 0 0 167.84384032413072 -86.436542340125015 0 -86.436542340125015 676.22157578312181 0 0 0 0 141.85143108843477 463.23486405404765 0 463.23486405404765 2008.917645805298 0 0 0 0 4.6462145579579897 4.4802217890396276 0 4.4802217890396276 1.3135967606301935 0 0 0 0 27.868113364558667 547.29957458150784 0 547.29957458150784 587.49405206405231 0 0 0 0 673.64910694774881 396.79575030863089 0 396.79575030863089 -36.87855441944339 0 0 0 0 264.48542364668538 408.23240179107188 0 408.23240179107188 -494.10584703132736 0 0 0 0 177.32578292416292 333.38916672956839 0 333.38916672956839 -33.398950759009495 0 0 0 0 -127.8035768972768 313.27053067776797 0 313.27053067776797 -182.56714207784626 0 0 0 0 147.65438553575075 119.53040397605649 0 119.53040397605649 83.730681684380954 0 0 0 0 -20.555553757905727 707.49371515351891 0 707.49371515351891 -388.78079012360467 0 0 0 0 472.19070496101631 326.11997971926712 0 326.11997971926712 -304.26933045922851 0 0 0 0 124.89928321238403 384.64878638962364 0 384.64878638962364 -120.58624377303204 0 0 0 0 -656.76295673700224 -21.385836877627298 0 -21.385836877627298 -27.119652583185598 0 0 0 0 -9.7593214832668309 623.61979142769997 0 623.61979142769997 -169.84087775053285 0 0 0 0 468.35660422757792 305.28324647995578 0 305.28324647995578 -149.60568005448204 0 0 0 0 -2.6599394648620347 3.4177635300929694 0 3.4177635300929694 -2.9990781518159082 0 0 0 0 153.32628460350679 328.17633620670313 0 328.17633620670313 -137.8862517095622 0 0 0 0 -310.43744435571716 192.04734850358727 0 192.04734850358727 146.09506663673528 0 0 0 0 58.574410001812794 80.82940995691024 0 80.82940995691024 -58.197746831196127 0 0 0 0 192.29896844257019 327.91105900310959 0 327.91105900310959 -141.00194093698519 0 0 0 0 292.58180909674047 191.29355917058638 0 191.29355917058638 27.671803310769974 0 0 0 0 263.9505143807437 118.76187346634288 0 118.76187346634288 -156.05536740990647 0 0 0 0 437.47836850050589 80.694569157099977 0 80.694569157099977 -102.46300838226307 0 0 0 0 284.11070089156419 166.76728157413891 0 166.76728157413891 -117.22432944628963 0 0 0 0 232.96890146160149 -39.953812889820256 0 -39.953812889820256 -426.34605841165467 0 0 0 0 139.11666724605539 266.01771132491342 0 266.01771132491342 398.97644082866464 0 0 0 0 396.61723073065878 238.37006256710993 0 238.37006256710993 58.675550988788018 0 0 0 0 -29.259663522248957 490.47126209831913 0 490.47126209831913 -64.115496109938249 0 0 0 0 405.6604792029305 560.83451489553545 0 560.83451489553545 277.14374217676959 0 0 0 0 -7.3382467449216762 8.7047788710003715 0 8.7047788710003715 -6.7355308027507306 0 0 0 0 169.63231994732996 319.41955259071801 0 319.41955259071801 392.84179470722302 0 0 0 0 11.477780628039909 56.359634073807683 0 56.359634073807683 203.28697553203074 0 0 0 0 -27.424156375116581 106.4071994704409 0 106.4071994704409 210.4616998972997 0 0 0 0 330.48114874372914 125.78469722024965 0 125.78469722024965 -36.935000430421496 0 0 0 0 31.018112641943276 355.7050621953565 0 355.7050621953565 -129.34847423759493 0 0 0 0 -42.52293555945289 32.869641944034811 0 32.869641944034811 431.03895304249454 0 0 0 0 73.444363936425361 185.28299996332862 0 185.28299996332862 384.79359817120167 0 0 0 0 209.06802169536604 76.389298209165645 0 76.389298209165645 7.9925752525014104 0 0 0 0 501.24904863964548 247.6225883075349 0 247.6225883075349 -142.81599595255557 0 0 0 0 122.59842821811799 -68.798422007620502 0 -68.798422007620502 -97.271406290325103 0 0 0 0 -457.01861951031242 -332.55832692340482 0 -332.55832692340482 -61.371499227439926 0 0 0 0 45.139753708079297 16.957656726570349 0 16.957656726570349 173.96302616454341 0 0 0 0 -24.578260006077471 32.540599048519653 0 32.540599048519653 170.50523201448232 0 0 0 0 210.81409209550475 154.10841581940622 0 154.10841581940622 204.16875096058357 0 0 0 0 -178.31160059649847 225.03951118215628 0 225.03951118215628 435.82271095020769 0 0 0 0 -694.4746361105681 490.33191170058853 0 490.33191170058853 123.3974413424985 0 0 0 0 397.24619424228149 83.118118026563025 0 83.118118026563025 142.86587178691479 0 0 0 0 379.84431317347389 512.02514717382041 0 512.02514717382041 380.40463406255003 0 0 0 0 313.76238803946035 747.13081771296856 0 747.13081771296856 409.82478419011022 0 0 0 0 191.17977816289749 428.59913140996287 0 428.59913140996287 463.38811061638989 0 0 0 0 -7.4812930576061092 9.3102895843216658 0 9.3102895843216658 -6.8800933025758297 0 0 0 0 66.389332141981868 229.07165630778491 0 229.07165630778491 51.283507080745039 0 0 0 0 58.795698774949415 57.811424071236615 0 57.811424071236615 43.934747995164116 0 0 0 0 -91.170381062816887 39.048544717596087 0 39.048544717596087 78.214194703963585 0 0 0 0 5.1926961186889855 46.307052497283792 0 46.307052497283792 20.192984002974185 0 0 0 0 60.140310846551131 75.134067430901581 0 75.134067430901581 47.172314941986883 0 0 0 0 -344.74880105655757 253.69423311925857 0 253.69423311925857 85.356638584094981 0 0 0 0 -453.60329451614234 431.28746465645236 0 431.28746465645236 -113.05372507628636 0 0 0 0 -644.62136654093047 422.68403197785301 0 422.68403197785301 129.12087351202581 0 0 0 0 -559.16495707261492 338.40944297289752 0 338.40944297289752 169.4462801639238 0 0 0 0 -358.76912313498906 299.77891821789308 0 299.77891821789308 70.237937423657058 0 0 0 0 -582.34118096643942 271.46340261045043 0 271.46340261045043 191.72788818353001 0 0 0 0 -389.64067587022146 169.3326407526165 0 169.3326407526165 124.22899040172706 0 0 0 0 -593.50837756539113 296.58974293776919 0 296.58974293776919 184.28512195136136 0 0 0 0 -704.82793599559227 338.80569221769838 0 338.80569221769838 171.05101411402575 0 0 0 0 -713.90139882487711 373.50834156638302 0 373.50834156638302 170.47332879449095 0 0 0 0 -698.06700235081371 380.17007011918759 0 380.17007011918759 166.36780821241678 0 0 0 0 -640.38682039169362 276.59411220917536 0 276.59411220917536 202.22707949798496 0 0 0 0 -773.04752347565955 428.10143718531617 0 428.10143718531617 129.18223584911902 0 0 0 0 -744.77836895312794 309.37182345969495 0 309.37182345969495 153.7446837632815 0 0 0 0 -803.49038582353387 430.58789863434868 0 430.58789863434868 12.166475220972643 0 0 0 0 -919.74469118230627 375.36870854883637 0 375.36870854883637 136.5494971103908 0 0 0 0 -805.02784107625484 399.82598463567774 0 399.82598463567774 109.43091452492808 0 0 0 0 -633.95425271497515 139.87650389715873 0 139.87650389715873 169.28699353004777 0 0 0 0 -761.87326913839206 203.82315312089759 0 203.82315312089759 149.64623971190667 0 0 0 0 -781.36447159742238 178.93244697137925 0 178.93244697137925 124.69802272745983 0 0 0 0 -400.4940667780611 189.61705471901496 0 189.61705471901496 107.25558790370997 0 0 0 0 -29.144411972109026 22.633321844621889 0 22.633321844621889 8.8676914604922175 0 0 0 0 -492.35725119164272 68.175052327150297 0 68.175052327150297 228.7595818001646 0 0 0 0 112.49436345769209 126.20907801978319 0 126.20907801978319 15.648523565906544 0 0 0 0 141.08116846904886 97.819865583652245 0 97.819865583652245 8.2767004501620249 0 0 0 0 121.57263501780541 112.15045997043714 0 112.15045997043714 70.061900668437573 0 0 0 0 -1.8457793768283608 10.419021734142426 0 10.419021734142426 -0.16212262328757276 0 0 0 0 -146.61963419861422 104.88506422710998 0 104.88506422710998 479.51201574084371 0 0 0 0 185.43330505755148 40.382110083628504 0 40.382110083628504 -45.81950216605037 0 0 0 0 -172.66744777010899 318.35523486866077 0 318.35523486866077 410.57602713850792 0 0 0 0 -131.18773396754477 392.84414567782369 0 392.84414567782369 190.54977958308882 0 0 0 0 15.685771165466576 95.412429518355566 0 95.412429518355566 -1.8819750457878399 0 0 0 0 72.597998660217854 10.970678986290295 0 10.970678986290295 -49.062735249663092 0 0 0 0 53.414295570825928 103.79915552066129 0 103.79915552066129 39.385595025430831 0 0 0 0 89.944107575043745 146.34798727873203 0 146.34798727873203 52.213233994480106 0 0 0 0 -16.083962955205664 38.608412171936678 0 38.608412171936678 -38.679682983628396 0 0 0 0 143.2905286745663 184.57927156772348 0 184.57927156772348 11.938987777684815 0 0 0 0 146.52698309301559 -4.3859568721200048 0 -4.3859568721200048 -11.410375200872295 0 0 0 0 150.31941863920656 17.328139444969565 0 17.328139444969565 32.715277152883573 0 0 0 0 133.76326324560068 141.94193279911997 0 141.94193279911997 42.536401068951818 0 0 0 0 209.67451004287432 161.09526476043538 0 161.09526476043538 39.546124371767291 0 0 0 0 1.0748436817376898 46.336238998808369 0 46.336238998808369 -26.608059346108774 0 0 0 0 184.0077445533243 231.61182567782816 0 231.61182567782816 73.995841744235804 0 0 0 0 125.40861399779806 191.96122214908621 0 191.96122214908621 78.554402295048931 0 0 0 0 151.62746844191861 205.48219134813553 0 205.48219134813553 100.37527686914837 0 0 0 0 165.41059750138083 161.07651687304315 0 161.07651687304315 28.035987591574667 0 0 0 0 174.83919363383757 201.80220053805169 0 201.80220053805169 50.387506054976257 0 0 0 0 61.572500032259455 94.105632799299713 0 94.105632799299713 50.253591927468477 0 0 0 0 193.5839207834662 128.95216267113116 0 128.95216267113116 41.227740815580646 0 0 0 0 150.77225891224953 170.17805364549713 0 170.17805364549713 89.668022740865126 0 0 0 0 -53.477357386873337 260.79014685861057 0 260.79014685861057 -97.37778866449662 0 0 0 0 -395.66212089672626 -61.298259686631354 0 -61.298259686631354 327.95554497445846 0 0 0 0 -270.70511733210878 281.97100128982856 0 281.97100128982856 -81.101828261435003 0 0 0 0 -35.917186732577534 25.435962072468527 0 25.435962072468527 27.521845779844192 0 0 0 0 -300.53585115884198 250.73905553802251 0 250.73905553802251 -102.88876591087137 0 0 0 0 -294.69179839883873 960.33140031097901 0 960.33140031097901 126.45814991575116 0 0 0 0 110.79699010304927 128.64991176560346 0 128.64991176560346 115.18004902496227 0 0 0 0 124.54015597533044 167.42972366861272 0 167.42972366861272 40.392443758857553 0 0 0 0 58.88135970204894 165.07780154981447 0 165.07780154981447 67.409120690994314 0 0 0 0 113.5192643630653 149.06503314169822 0 149.06503314169822 31.373256369719456 0 0 0 0 70.910606306075351 162.17378210576862 0 162.17378210576862 44.402698270205292 0 0 0 0 117.68750436699338 162.73004626925558 0 162.73004626925558 48.247978953964775 0 0 0 0 145.17163483580225 134.34340106092714 0 134.34340106092714 39.982518858258118 0 0 0 0 157.50766043522162 136.09591474863555 0 136.09591474863555 60.130061541065515 0 0 0 0 202.76115773320635 221.57319531810208 0 221.57319531810208 102.78102396486611 0 0 0 0 155.93400221630873 196.69065514288377 0 196.69065514288377 115.18809752485686 0 0 0 0 145.5903655153943 154.19817913992983 0 154.19817913992983 92.833868852074374 0 0 0 0 -22.045275782127511 30.446364190602367 0 30.446364190602367 -43.905959601646117 0 0 0 0 200.36737329276457 178.7668094243196 0 178.7668094243196 78.735345746725216 0 0 0 0 180.84801474029882 178.59559183371312 0 178.59559183371312 61.387815057736589 0 0 0 0 147.93957491609035 140.75816106500861 0 140.75816106500861 79.30308987470562 0 0 0 0 -18.05855920065062 19.276659545592338 0 19.276659545592338 -30.671547665432797 0 0 0 0 152.23849364742637 110.27284258021609 0 110.27284258021609 39.408808982771006 0 0 0 0 172.57420224059751 128.10986774803314 0 128.10986774803314 -3.489426412677858 0 0 0 0 172.69363657465965 130.01022672346653 0 130.01022672346653 26.193716844369192 0 0 0 0 -7.5659872586749088 13.105958391829915 0 13.105958391829915 -17.913198944773768 0 0 0 0 153.78103844269776 130.18689834640008 0 130.18689834640008 22.0898291774065 0 0 0 0 95.258197875184123 90.109919318201719 0 90.109919318201719 33.462979173540589 0 0 0 0 181.46635092356155 100.25461991343036 0 100.25461991343036 -129.41078464165912 0 0 0 0 184.15468365859488 140.09468405280859 0 140.09468405280859 -22.004861265406362 0 0 0 0 186.32960003786866 129.84785905171884 0 129.84785905171884 -3.2698365511641896 0 0 0 0 157.36645290734305 144.18535150462412 0 144.18535150462412 13.282811047731229 0 0 0 0 189.81071202081512 154.69697401581652 0 154.69697401581652 15.622272530074042 0 0 0 0 171.64123138377909 176.76282592113421 0 176.76282592113421 36.790417413023533 0 0 0 0 169.40768379942756 155.78637086937488 0 155.78637086937488 28.119718654386816 0 0 0 0 150.05008089443436 164.2814579467813 0 164.2814579467813 31.515828934570891 0 0 0 0 119.51735196918889 168.13203447769047 0 168.13203447769047 52.905689767168951 0 0 0 0 116.18942853543649 191.37750170421805 0 191.37750170421805 48.000310023009661 0 0 0 0 115.863875757801 167.23055698538519 0 167.23055698538519 31.299837676327115 0 0 0 0 61.284418391740473 164.85076926025795 0 164.85076926025795 43.396379049183452 0 0 0 0 113.74590582182282 164.05405429582424 0 164.05405429582424 37.01921506812505 0 0 0 0 109.14132768701347 150.00664569499986 0 150.00664569499986 31.918946755569777 0 0 0 0 111.58353106611685 158.12267088035242 0 158.12267088035242 31.91213738002989 0 0 0 0 156.62831030371308 148.86554491544302 0 148.86554491544302 31.278730915713822 0 0 0 0 157.41090536486445 145.81384799400985 0 145.81384799400985 27.976686985086417 0 0 0 0 188.93855516342774 67.941266933308725 0 67.941266933308725 -68.789690769968729 0 0 0 0 -2219.1429408526164 1851.4863646818267 0 1851.4863646818267 -1918.3580192184891 0 0 0 0 2481.6649987374767 -561.85610707470187 0 -561.85610707470187 -2530.0023343319845 0 0 0 0 -47.727310495640268 67.546477816413244 0 67.546477816413244 -77.802002288241056 0 0 0 0 231.78769380666199 120.7865875403877 0 120.7865875403877 -99.469143772879761 0 0 0 0 401.39072577792103 61.027795171200523 0 61.027795171200523 -336.47462816172629 0 0 0 0 149.8990600284742 290.49487204421166 0 290.49487204421166 -30.194633256825909 0 0 0 0 -8.9338006870155624 7.2783646645257249 0 7.2783646645257249 -6.7843192238537995 0 0 0 0 189.82462879889772 214.61707718638445 0 214.61707718638445 -688.04956703969947 0 0 0 0 -20.270302820644247 -270.45100722399297 0 -270.45100722399297 -493.65612854757637 0 0 0 0 -233.08553753418164 -261.22595644012836 0 -261.22595644012836 -59.346017616677273 0 0 0 0 -566.77181285144616 -307.54396835302396 0 -307.54396835302396 691.49025777041948 0 0 0 0 209.7926919272868 -908.66892889248265 0 -908.66892889248265 736.27829401749796 0 0 0 0 441.34508027975608 326.72888832326134 0 326.72888832326134 152.90136386837185 0 0 0 0 313.17379417896882 -134.20324630592222 0 -134.20324630592222 -619.30596787615286 0 0 0 0 -608.33343276298524 557.09120992830481 0 557.09120992830481 109.64232166661532 0 0 0 0 204.24463401112985 262.32655062770323 0 262.32655062770323 154.05626805439533 0 0 0 0 200.08500681156147 203.56197371399685 0 203.56197371399685 120.86149488326191 0 0 0 0 -20.817661598161799 29.437972257880489 0 29.437972257880489 -37.006959474776465 0 0 0 0 126.75544915807404 164.65416765293776 0 164.65416765293776 138.88051332673422 0 0 0 0 117.43603673281223 226.66387067287769 0 226.66387067287769 182.04667571879691 0 0 0 0 56.769307235351334 8.9303261012391886 0 8.9303261012391886 -113.45214124189806 0 0 0 0 -121.52018722490902 116.66322706037317 0 116.66322706037317 298.63498787019489 0 0 0 0 -17.388971977864145 23.1629260326946 0 23.1629260326946 -26.845900141543865 0 0 0 0 346.92017064360334 333.92091290917961 0 333.92091290917961 148.09925968930474 0 0 0 0 228.41176271862787 95.925541159413115 0 95.925541159413115 76.525338518524222 0 0 0 0 76.402981511968392 780.99542877579006 0 780.99542877579006 -1128.9319759036298 0 0 0 0 246.52896220784169 487.87691370727407 0 487.87691370727407 -192.57930963571926 0 0 0 0 -268.79440904451258 168.4966067329151 0 168.4966067329151 228.11090760129446 0 0 0 0 -735.87913804869459 217.56290963570791 0 217.56290963570791 327.77773648000948 0 0 0 0 -539.53004662390595 -7.279131508374121 0 -7.279131508374121 345.6051564722402 0 0 0 0 -891.17140526679577 597.06778676168324 0 597.06778676168324 20.490382961841533 0 0 0 0 -1273.2498369994282 -71.542317357947468 0 -71.542317357947468 349.90709009639613 0 0 0 0 -12.36942761958673 14.332521688248164 0 14.332521688248164 -16.245899791545511 0 0 0 0 -6.7469144888646753 7.3957368246553443 0 7.3957368246553443 -19.149767467839695 0 0 0 0 -1967.7563185222753 280.81336436688434 0 280.81336436688434 178.08720745739993 0 0 0 0 -1198.1971300202276 537.94828589815006 0 537.94828589815006 12.799578114416363 0 0 0 0 -856.47636650309141 1464.817595669032 0 1464.817595669032 -1626.8745570729043 0 0 0 0 -1829.0603167305853 1141.449453241612 0 1141.449453241612 -505.51615326406318 0 0 0 0 146.74218099308234 -393.61400840697945 0 -393.61400840697945 -834.82216037878243 0 0 0 0 79.672655546979513 396.67068863846544 0 396.67068863846544 -1061.3340971024882 0 0 0 0 -723.83158006362646 908.12615136044042 0 908.12615136044042 -313.19762606927543 0 0 0 0 -1521.7006671861927 259.1425219157536 0 259.1425219157536 375.83433477678045 0 0 0 0 -8.4981235796029466 9.6145089174409151 0 9.6145089174409151 -9.8396408791384147 0 0 0 0 612.48586362075366 232.8086521053483 0 232.8086521053483 -930.29180158454255 0 0 0 0 128.1528633967755 208.26771687035944 0 208.26771687035944 -870.24141757376492 0 0 0 0 -896.00981039681938 508.76279719824015 0 508.76279719824015 -105.5775631892684 0 0 0 0 248.21466754395078 280.89687592478003 0 280.89687592478003 -272.11627063662309 0 0 0 0 -102.96542777753712 403.01614081685329 0 403.01614081685329 -304.04079553911288 0 0 0 0 -1.9186882532225695 3.8398260308238434 0 3.8398260308238434 -6.956834508880263 0 0 0 0 294.64714487694437 265.54766556491813 0 265.54766556491813 -746.40335927932028 0 0 0 0 78.272895851499925 -134.84952567598521 0 -134.84952567598521 -527.54901713605796 0 0 0 0 197.89080609332814 274.95925127340161 0 274.95925127340161 -223.53344216296682 0 0 0 0 218.85673085230519 144.94357844843762 0 144.94357844843762 -410.76704838022124 0 0 0 0 262.96647646634665 416.61213375327497 0 416.61213375327497 -317.20485549793375 0 0 0 0 184.12717077278649 593.63617899968813 0 593.63617899968813 -42.81026004839805 0 0 0 0 173.09560294209223 493.13119670324522 0 493.13119670324522 78.400916180704371 0 0 0 0 329.19856748406892 755.39944706414826 0 755.39944706414826 236.15424878259364 0 0 0 0 59.940492921876285 637.5193993641351 0 637.5193993641351 523.51242140111572 0 0 0 0 82.583950566906424 588.5644851811976 0 588.5644851811976 534.46221693995176 0 0 0 0 -41.976181085283315 496.0501675894302 0 496.0501675894302 706.70279167732224 0 0 0 0 -203.34144617839775 284.18546905464609 0 284.18546905464609 892.50737630254298 0 0 0 0 -175.12839853119294 622.60838520209836 0 622.60838520209836 1478.4833157336689 0 0 0 0 579.11824744242767 932.82839687175874 0 932.82839687175874 702.07610337143342 0 0 0 0 831.26228981102031 471.88704396152207 0 471.88704396152207 399.16940016539593 0 0 0 0 172.04777204208222 349.11533674776729 0 349.11533674776729 1440.847141807375 0 0 0 0 258.53415190576925 656.76790066768444 0 656.76790066768444 -82.819969315965864 0 0 0 0 298.53051176821191 387.67273467728819 0 387.67273467728819 387.88443656118761 0 0 0 0 -147.15993346283358 231.38521442775345 0 231.38521442775345 490.35717269494489 0 0 0 0 63.324958487646654 170.7834531456283 0 170.7834531456283 10.304709262883989 0 0 0 0 235.89259349420172 448.56869763280338 0 448.56869763280338 423.7276910731307 0 0 0 0 13.331952241213003 535.93085869050265 0 535.93085869050265 970.9732371585269 0 0 0 0 172.97912506462853 316.37456580198159 0 316.37456580198159 266.95661134705006 0 0 0 0 56.164719838285237 252.71393012622866 0 252.71393012622866 257.43724343306712 0 0 0 0 89.390389093037811 -37.549464559779153 0 -37.549464559779153 148.12035455275327 0 0 0 0 -169.84246847826944 -125.30345188009778 0 -125.30345188009778 202.26176515524276 0 0 0 0 -114.13101363460009 -70.865820258517488 0 -70.865820258517488 233.31681947305333 0 0 0 0 -252.84675691260782 -190.75830496310664 0 -190.75830496310664 145.67388297744037 0 0 0 0 -49.259128921266893 -168.28879449593114 0 -168.28879449593114 27.61550703147077 0 0 0 0 -633.41695589258597 -449.7867879710102 0 -449.7867879710102 -78.46081062965095 0 0 0 0 -393.65892723037541 221.27523709629895 0 221.27523709629895 394.05852759193294 0 0 0 0 148.78352084232029 230.88466272629012 0 230.88466272629012 217.79805338477308 0 0 0 0 174.73179765505483 203.2661496240944 0 203.2661496240944 124.68502781895222 0 0 0 0 166.60119757740176 251.05193203148519 0 251.05193203148519 83.719074165768689 0 0 0 0 148.92035261962155 227.36194980766595 0 227.36194980766595 139.47751040715957 0 0 0 0 130.70371926421649 275.13474960481835 0 275.13474960481835 218.62283658940578 0 0 0 0 118.51323909957136 270.09166915556125 0 270.09166915556125 227.29841914697317 0 0 0 0 145.0618543648452 229.11263856543519 0 229.11263856543519 298.98569945874624 0 0 0 0 145.69547302467981 239.08760486413667 0 239.08760486413667 214.07454425415199 0 0 0 0 119.01732991251629 262.86162627488375 0 262.86162627488375 291.75728133323719 0 0 0 0 234.08872806004365 222.93360526640026 0 222.93360526640026 314.94594346905069 0 0 0 0 164.85436121787643 248.8042489370564 0 248.8042489370564 309.20876067763311 0 0 0 0 175.69028079256532 207.569592832544 0 207.569592832544 267.44530412761378 0 0 0 0 186.17440814262955 210.71047949974309 0 210.71047949974309 215.76497843922698 0 0 0 0 170.4919662043103 243.84517846128438 0 243.84517846128438 254.10316522762878 0 0 0 0 302.50189510258497 325.85594317771029 0 325.85594317771029 320.57164072882733 0 0 0 0 271.58129091645242 305.12989091919735 0 305.12989091919735 331.46710283267021 0 0 0 0 210.00624015441281 241.48833918961463 0 241.48833918961463 283.7909240249428 0 0 0 0 200.64796984143322 253.63105633607483 0 253.63105633607483 269.15209594400949 0 0 0 0 201.85282718765666 292.40922405419406 0 292.40922405419406 302.29235516293556 0 0 0 0 201.50331067573279 318.55426262647961 0 318.55426262647961 367.83375751240237 0 0 0 0 165.91834711995034 253.02172745115786 0 253.02172745115786 222.32816101703793 0 0 0 0 105.55154832516564 248.64706530513649 0 248.64706530513649 305.48635018481582 0 0 0 0 152.3315527452578 203.2636915429739 0 203.2636915429739 242.20418809776311 0 0 0 0 111.63849084955291 200.6331542328553 0 200.6331542328553 187.64031707480899 0 0 0 0 156.37575143609138 202.53590453746438 0 202.53590453746438 221.68362716570118 0 0 0 0 174.99747145595029 228.04253501151106 0 228.04253501151106 167.80343144720246 0 0 0 0 127.36128210100287 207.81930727214785 0 207.81930727214785 115.82818972149107 0 0 0 0 151.49321188166505 182.40734788887494 0 182.40734788887494 131.09274433754035 0 0 0 0 131.15073507527995 232.12116787343621 0 232.12116787343621 153.97233180043986 0 0 0 0 136.20961985358008 208.84813338966342 0 208.84813338966342 76.564667046477553 0 0 0 0 169.04502766345104 176.69950118756242 0 176.69950118756242 61.776857456672587 0 0 0 0 144.1042728881439 183.31356861832319 0 183.31356861832319 60.332448425149778 0 0 0 0 157.13776363275247 193.46210880173021 0 193.46210880173021 127.17442546320672 0 0 0 0 183.50334488651424 195.54227878282472 0 195.54227878282472 68.787782762068673 0 0 0 0 184.30954973887856 190.05359678031891 0 190.05359678031891 44.368456322874408 0 0 0 0 195.54193042654151 194.46290776434216 0 194.46290776434216 -26.572846355978982 0 0 0 0 197.36535977460153 218.08835259823536 0 218.08835259823536 13.34344957973326 0 0 0 0 228.06696646125056 199.78190217947122 0 199.78190217947122 -107.21706657090544 0 0 0 0 197.00890288725896 209.10918910735381 0 209.10918910735381 -76.060965500058956 0 0 0 0 196.81483195108012 313.34545280330349 0 313.34545280330349 -108.234777216152 0 0 0 0 194.43005280997022 413.65841123031714 0 413.65841123031714 33.975014087467571 0 0 0 0 125.743539457515 372.50695006330352 0 372.50695006330352 137.24332518228039 0 0 0 0 192.02119335191674 403.2548402728753 0 403.2548402728753 -10.281833486471442 0 0 0 0 166.91555321354826 266.65024730710138 0 266.65024730710138 134.33169268620259 0 0 0 0 195.32856786056436 320.35064599442603 0 320.35064599442603 103.9649154538638 0 0 0 0 176.52013023842301 270.61196069078869 0 270.61196069078869 9.4517791436855987 0 0 0 0 115.63834609936748 353.23578308649303 0 353.23578308649303 100.64301556399641 0 0 0 0 114.58662045731762 336.09897562192782 0 336.09897562192782 225.25017970061162 0 0 0 0 129.60092649258149 285.32560842850944 0 285.32560842850944 125.76822956877004 0 0 0 0 35.998255119106034 361.60411171298256 0 361.60411171298256 280.13514147356909 0 0 0 0 87.470680166545208 319.08547396134236 0 319.08547396134236 248.39285110298806 0 0 0 0 39.672659476360423 381.78347676797421 0 381.78347676797421 344.67823317115835 0 0 0 0 -9.1000192979408894 353.68864562058297 0 353.68864562058297 346.23962297284834 0 0 0 0 64.230175589123974 322.25268369776313 0 322.25268369776313 331.58237896970604 0 0 0 0 189.12861359261024 582.75965894593264 0 582.75965894593264 59.507383871867205 0 0 0 0 99.527219957206398 508.99145170694828 0 508.99145170694828 296.38935468759155 0 0 0 0 89.225093285203911 478.08379347565642 0 478.08379347565642 210.37916474699159 0 0 0 0 28.597201477612543 408.33688217867893 0 408.33688217867893 281.01835553893761 0 0 0 0 38.080748229956953 483.65930927837326 0 483.65930927837326 413.40828326896008 0 0 0 0 34.794841416776762 515.62267429872009 0 515.62267429872009 296.00382939620522 0 0 0 0 -96.815399396902649 438.71727981861477 0 438.71727981861477 647.08394557651627 0 0 0 0 -70.86075153832644 421.5466224033953 0 421.5466224033953 525.95074843913608 0 0 0 0 -50.090459628932877 394.18055651590112 0 394.18055651590112 458.70942073003243 0 0 0 0 -111.02095273919531 327.66059515436518 0 327.66059515436518 605.44108395710646 0 0 0 0 -108.9606383099208 281.57960705904679 0 281.57960705904679 425.58283834360191 0 0 0 0 -206.25333063931612 178.14386465241114 0 178.14386465241114 536.9846115244145 0 0 0 0 6.1032494858554855 320.04596299217519 0 320.04596299217519 333.4366682942491 0 0 0 0 11.734763739754271 334.29136991710766 0 334.29136991710766 359.71110859600594 0 0 0 0 -36.682686821586685 313.5788565340481 0 313.5788565340481 439.52243879809248 0 0 0 0 -21.525188975530909 372.18973868629473 0 372.18973868629473 401.77108481925097 0 0 0 0 -24.983532686310355 309.87907378465752 0 309.87907378465752 345.01011494359409 0 0 0 0 -46.54354505694937 264.65551120166492 0 264.65551120166492 428.48978503167746 0 0 0 0 -0.036746018835401628 228.27200803575215 0 228.27200803575215 261.98186111156247 0 0 0 0 -25.492480450247967 259.00919106458969 0 259.00919106458969 381.68080075763282 0 0 0 0 -56.031351211774393 57.053609782076279 0 57.053609782076279 -30.332621026477483 0 0 0 0 33.62870889151236 36.017753190608346 0 36.017753190608346 -309.75615162757458 0 0 0 0 4.7275635195442192 6.7164932691061949 0 6.7164932691061949 -7.8493368323848074 0 0 0 0 -134.90518459625309 48.632963418378495 0 48.632963418378495 -288.76815419684863 0 0 0 0 236.75451517225883 4.429199931662879 0 4.429199931662879 -306.4837962941383 0 0 0 0 -19.228291806168357 -0.35151422109095165 0 -0.35151422109095165 27.25784949396305 0 0 0 0 100.04583519160224 336.4172886215274 0 336.4172886215274 337.17097696033306 0 0 0 0 99.729686922117253 339.8045254006538 0 339.8045254006538 318.50268064561533 0 0 0 0 78.31219769983727 305.02226119700936 0 305.02226119700936 291.12485349225244 0 0 0 0 65.650570999656338 322.72627109126915 0 322.72627109126915 323.3100965032645 0 0 0 0 99.277828019927256 311.11775225300516 0 311.11775225300516 317.99814883461659 0 0 0 0 99.463893876061775 306.38528985037192 0 306.38528985037192 356.6966017978848 0 0 0 0 114.66467796515099 274.17591094609452 0 274.17591094609452 355.77384240558604 0 0 0 0 112.90404707635025 286.19997083524868 0 286.19997083524868 283.28081262655905 0 0 0 0 97.831125936994795 285.65055269584991 0 285.65055269584991 308.52894018900406 0 0 0 0 83.438993776027928 310.29168884841783 0 310.29168884841783 275.06932384977699 0 0 0 0 336.55619857006241 159.37337183984346 0 159.37337183984346 -177.45534623778076 0 0 0 0 130.14322532864753 308.59797642067133 0 308.59797642067133 361.64904810814187 0 0 0 0 402.35424606982269 415.83224870916456 0 415.83224870916456 324.99367392784916 0 0 0 0 247.95573104484356 228.72976571497566 0 228.72976571497566 401.4560710316 0 0 0 0 316.12768707335636 200.26741857290472 0 200.26741857290472 376.24104955032817 0 0 0 0 475.26309362152824 308.43885079989559 0 308.43885079989559 311.90461118680832 0 0 0 0 257.84223242770531 316.05153514415724 0 316.05153514415724 339.19982244027779 0 0 0 0 139.49548433205928 270.73681472163298 0 270.73681472163298 351.23422479943838 0 0 0 0 169.73246345939697 253.51577815196651 0 253.51577815196651 367.78799548128154 0 0 0 0 169.72031193738803 252.5166878789023 0 252.5166878789023 291.85004704281528 0 0 0 0 249.81502126180567 254.58209555587382 0 254.58209555587382 362.01270151260542 0 0 0 0 138.12038577900967 275.55554851531633 0 275.55554851531633 391.82460319902748 0 0 0 0 168.71485318819032 264.04269559272143 0 264.04269559272143 396.94573620625306 0 0 0 0 135.01793690113118 313.83190821268363 0 313.83190821268363 349.06606290307627 0 0 0 0 861.8091670342983 849.50316506018135 0 849.50316506018135 1470.8290671585128 0 0 0 0 1357.1901173842416 1316.666070023799 0 1316.666070023799 1189.7692415044585 0 0 0 0 1210.7823655554093 1028.3584399040847 0 1028.3584399040847 638.33024126675446 0 0 0 0 -41.531868304200515 32.655614264805934 0 32.655614264805934 -16.219210570061705 0 0 0 0 1184.5606839132088 872.55046415093238 0 872.55046415093238 754.24511595079093 0 0 0 0 1812.7132488570642 1629.7723722288792 0 1629.7723722288792 510.28609296301875 0 0 0 0 1.6997639618856795 16.36876322108742 0 16.36876322108742 -20.261356858400887 0 0 0 0 738.28780954969261 1248.9454231694217 0 1248.9454231694217 1490.0598400613235 0 0 0 0 808.21583710091363 1422.539531709961 0 1422.539531709961 1900.4460678369214 0 0 0 0 222.61294166343578 1157.6896627840542 0 1157.6896627840542 2087.3592918907234 0 0 0 0 99.440388573152632 375.46820289511197 0 375.46820289511197 1321.9159344794025 0 0 0 0 944.46846478868974 1048.1370225222054 0 1048.1370225222054 954.85381746221537 0 0 0 0 648.05284870350442 1073.1538331877964 0 1073.1538331877964 1849.1395817861194 0 0 0 0 929.31287595594767 1335.5055742724799 0 1335.5055742724799 1478.2566765577649 0 0 0 0 747.25573904839985 375.91725676079659 0 375.91725676079659 60.700961601965901 0 0 0 0 -64.612942056257452 166.27721574251336 0 166.27721574251336 551.11756973830052 0 0 0 0 1286.9977332056733 902.65889812349633 0 902.65889812349633 541.68738523819775 0 0 0 0 782.61915961478371 998.37635520693038 0 998.37635520693038 1145.7841351355892 0 0 0 0 962.71314843745859 1489.6807299845059 0 1489.6807299845059 1374.2816223727132 0 0 0 0 1366.2217099917325 2247.1691032180388 0 2247.1691032180388 1673.5249139932978 0 0 0 0 1864.3980184349639 1778.0073462259825 0 1778.0073462259825 658.99166864293147 0 0 0 0 -2.2563620778745985 5.3240012692428991 0 5.3240012692428991 -1.5842247418197815 0 0 0 0 869.86273854867613 2210.605130513999 0 2210.605130513999 2371.6245971684766 0 0 0 0 -273.96495241350203 150.70353753108066 0 150.70353753108066 371.35041766341601 0 0 0 0 628.58423815888818 1144.5505953635002 0 1144.5505953635002 2593.0816516624909 0 0 0 0 811.95638147735735 1547.467947149562 0 1547.467947149562 1679.0966220425908 0 0 0 0 837.35740486433497 1343.257021202764 0 1343.257021202764 1663.7276086243219 0 0 0 0 280.33981256246625 503.41696950566256 0 503.41696950566256 458.91863295479561 0 0 0 0 268.40834981758962 441.8058092909414 0 441.8058092909414 444.23118727863766 0 0 0 0 71.357762454019394 533.74228976116865 0 533.74228976116865 615.25466123898514 0 0 0 0 -25.213922674955114 24.09279877199566 0 24.09279877199566 -20.731241943329081 0 0 0 0 92.939593800430885 643.84420384491386 0 643.84420384491386 -1131.1582189481705 0 0 0 0 114.51335798157379 417.71317435253877 0 417.71317435253877 465.24555836932268 0 0 0 0 206.72063807508675 378.66660271916771 0 378.66660271916771 387.31599955132697 0 0 0 0 43.771102831698954 406.59231719622039 0 406.59231719622039 510.3400117456913 0 0 0 0 7.9287371173850261 380.12147825592547 0 380.12147825592547 491.86213627347024 0 0 0 0 27.379828172255657 370.53041493273122 0 370.53041493273122 473.47819133097073 0 0 0 0 27.397567174661162 371.13199801824703 0 371.13199801824703 491.56465967779513 0 0 0 0 -21.038176862464752 307.45114536394249 0 307.45114536394249 443.4232869624102 0 0 0 0 116.89042701444123 348.89340532905771 0 348.89340532905771 406.528730283404 0 0 0 0 118.13733585207956 345.5455457870994 0 345.5455457870994 389.54931136657251 0 0 0 0 119.95817005398567 282.35528440057533 0 282.35528440057533 289.32417905173497 0 0 0 0 28.449186192767229 277.79850845708279 0 277.79850845708279 375.18081365611579 0 0 0 0 34.910310508574184 311.24316841222389 0 311.24316841222389 407.64730502018938 0 0 0 0 -25.57489145337604 231.95615734916646 0 231.95615734916646 330.30632091785083 0 0 0 0 -57.864227096491959 203.54542359925108 0 203.54542359925108 236.22983377659693 0 0 0 0 41.145039931534029 266.78628554107672 0 266.78628554107672 275.23719112068648 0 0 0 0 40.043086534850772 217.60107800477545 0 217.60107800477545 256.99236975592794 0 0 0 0 80.477821927721379 255.63738948994433 0 255.63738948994433 211.17652766512765 0 0 0 0 -562.5385564333119 213.82029012250132 0 213.82029012250132 308.29277145368542 0 0 0 0 -282.48502342391293 180.11858421409852 0 180.11858421409852 293.66971826304507 0 0 0 0 -62.105917523207609 291.31567037117202 0 291.31567037117202 235.42203889467783 0 0 0 0 -70.504398774588481 196.7169632181467 0 196.7169632181467 266.61410882257042 0 0 0 0 -40.49430739672971 286.01821872187429 0 286.01821872187429 403.59937430586433 0 0 0 0 -90.65814119920833 256.11017483528121 0 256.11017483528121 438.7716608979681 0 0 0 0 -163.97951781292795 298.57864054178935 0 298.57864054178935 723.17590193456272 0 0 0 0 -233.69957791059278 -350.79036370577523 0 -350.79036370577523 1049.4016253948503 0 0 0 0 -187.58085839170963 101.41875061692554 0 101.41875061692554 388.07713842554949 0 0 0 0 -168.84590104047675 288.0503502292413 0 288.0503502292413 346.23748594836798 0 0 0 0 -508.92175947449869 384.01791442959802 0 384.01791442959802 281.04788042529253 0 0 0 0 -262.52267714127083 230.2801809975208 0 230.2801809975208 275.87794782751007 0 0 0 0 -292.58364269515732 410.35459606809309 0 410.35459606809309 883.47018674452556 0 0 0 0 -58.570821777859237 441.6865110367944 0 441.6865110367944 619.05691681342432 0 0 0 0 13.064781780412886 401.08046864927746 0 401.08046864927746 510.70111062563956 0 0 0 0 -43.584356526203919 345.41602525502822 0 345.41602525502822 563.9031649234239 0 0 0 0 2527.1218410579459 2133.9349548915779 0 2133.9349548915779 225.18929031728476 0 0 0 0 1770.9667821080657 1183.5925668320269 0 1183.5925668320269 2981.0619698312948 0 0 0 0 1032.0537096783955 2340.0586429552422 0 2340.0586429552422 1263.9227999026771 0 0 0 0 -669.69593616228667 267.09810112883861 0 267.09810112883861 374.53084178411518 0 0 0 0 -385.64097935040627 143.11708506745708 0 143.11708506745708 216.16130192636047 0 0 0 0 -297.87626510038172 -94.333538388293164 0 -94.333538388293164 43.795820584913599 0 0 0 0 2503.0839786132856 315.62734021963843 0 315.62734021963843 2637.9876839685967 0 0 0 0 2111.4907479788235 981.27818910547649 0 981.27818910547649 1024.7573017814429 0 0 0 0 -467.40258352414821 -109.16322348490394 0 -109.16322348490394 158.87846776995866 0 0 0 0 1162.2068680252632 1461.2763172764971 0 1461.2763172764971 1309.4207430575916 0 0 0 0 -7.2255873182026562 11.283176617385408 0 11.283176617385408 -7.1988174251849841 0 0 0 0 -3.7377730118412273 3.9911937944037561 0 3.9911937944037561 -2.553841894241998 0 0 0 0 -104.62071988086973 -28.53229684982216 0 -28.53229684982216 -32.725387443555519 0 0 0 0 2.4780826212081593 33.210249531213776 0 33.210249531213776 -9.2949042876207386 0 0 0 0 -172.81062039612152 153.72277467078675 0 153.72277467078675 136.48994747351389 0 0 0 0 -282.26364322952577 49.70941939696786 0 49.70941939696786 110.10684188824962 0 0 0 0 -112.44936866342323 75.388849724258762 0 75.388849724258762 55.532618826342514 0 0 0 0 -159.53121599710721 111.12643276703602 0 111.12643276703602 94.625532398029463 0 0 0 0 -84.172308159555541 204.91346391892876 0 204.91346391892876 123.38166229595299 0 0 0 0 -77.893126405731891 162.17111535057484 0 162.17111535057484 81.894405309663853 0 0 0 0 47.380164836999029 191.50938589658472 0 191.50938589658472 76.733924177024164 0 0 0 0 46.898819007197744 187.57368907415366 0 187.57368907415366 68.023711140122032 0 0 0 0 28.526320344935812 248.16530139637689 0 248.16530139637689 154.4770579552569 0 0 0 0 65.709074668906396 183.16203897797095 0 183.16203897797095 118.27999972479302 0 0 0 0 58.314991924940841 214.85331559550832 0 214.85331559550832 148.3897676137276 0 0 0 0 -241.23094410466729 193.42602183797862 0 193.42602183797862 220.9609634829103 0 0 0 0 -33.528168003293104 184.63358856154809 0 184.63358856154809 113.26493290881626 0 0 0 0 -230.23575713371974 176.76316620630678 0 176.76316620630678 218.68048010382336 0 0 0 0 -213.46475772227859 131.25501055360655 0 131.25501055360655 132.61748822309892 0 0 0 0 -131.7348739655572 241.78886330031673 0 241.78886330031673 187.73777750783483 0 0 0 0 702.36690383560199 876.02373240810994 0 876.02373240810994 891.64129684433283 0 0 0 0 670.11356290950789 776.31721035955707 0 776.31721035955707 740.41882505707326 0 0 0 0 1535.4836090054887 856.51790648425231 0 856.51790648425231 657.86660368371668 0 0 0 0 867.44012290699175 433.25365933658759 0 433.25365933658759 655.16720524197444 0 0 0 0 553.89526996944915 386.27899670891202 0 386.27899670891202 777.06594713313098 0 0 0 0 1201.1766558490108 746.22471502007977 0 746.22471502007977 690.33717614671332 0 0 0 0 1193.0565306632689 258.48106340248671 0 258.48106340248671 610.92952337375027 0 0 0 0 1897.0920689773629 491.26330008168588 0 491.26330008168588 561.06316943175625 0 0 0 0 1928.8015344377491 1245.5269820743561 0 1245.5269820743561 636.18483695812756 0 0 0 0 1077.6234222497587 1377.3711912199069 0 1377.3711912199069 517.53921555506531 0 0 0 0 2063.0297097889706 1267.8033960446191 0 1267.8033960446191 515.4742552882235 0 0 0 0 658.99787710793316 2132.0162992524856 0 2132.0162992524856 1290.6886555198471 0 0 0 0 1844.811845009157 1371.1760362933128 0 1371.1760362933128 617.241338728345 0 0 0 0 1886.1331651065266 1945.6506907422445 0 1945.6506907422445 262.03239990294969 0 0 0 0 1731.9185349182226 1757.4477273403609 0 1757.4477273403609 65.684475783113157 0 0 0 0 -678.46119176060893 1492.3646724237478 0 1492.3646724237478 1402.0213179807397 0 0 0 0 3188.7285323940305 -247.75789284451457 0 -247.75789284451457 2989.7601021850646 0 0 0 0 721.73060249966511 2568.053985046703 0 2568.053985046703 1554.3216683384671 0 0 0 0 248.5931836629461 1456.7665543897747 0 1456.7665543897747 1181.5014251074499 0 0 0 0 1419.1858929129958 1806.3722639961634 0 1806.3722639961634 986.6156117816281 0 0 0 0 1022.8282962118392 2361.5494710705825 0 2361.5494710705825 273.71043210374046 0 0 0 0 -308.0199408856206 417.83500154325884 0 417.83500154325884 2092.5896822824261 0 0 0 0 377.09643599583069 1920.9836226229745 0 1920.9836226229745 2388.0249248748441 0 0 0 0 8.94306428421757 12.763294282193861 0 12.763294282193861 19.187956265337732 0 0 0 0 -71.503824459548923 -168.87569016523048 0 -168.87569016523048 620.10572354907345 0 0 0 0 344.98073107696837 625.19734091358259 0 625.19734091358259 1211.8123539139633 0 0 0 0 197.62239689284252 191.71078697243865 0 191.71078697243865 768.66675805125851 0 0 0 0 136.45192008111917 198.47083582552295 0 198.47083582552295 -238.75505078471906 0 0 0 0 353.05209187678702 -29.127853229183529 0 -29.127853229183529 -152.84024925187987 0 0 0 0 2850.0674279433233 628.2160782678402 0 628.2160782678402 69.671464827595628 0 0 0 0 434.88035500499245 -208.54677644067851 0 -208.54677644067851 -94.397197030484676 0 0 0 0 -251.69169404362037 87.652759310396505 0 87.652759310396505 231.464225136202 0 0 0 0 147.81017630739916 -210.36514229154091 0 -210.36514229154091 -131.6228060439098 0 0 0 0 66.253217528335568 14.823561392641921 0 14.823561392641921 7.6795054381384844 0 0 0 0 -36.715027517697308 240.71086181431019 0 240.71086181431019 -175.32001431538447 0 0 0 0 34.179312175436337 35.505349519813024 0 35.505349519813024 40.081268027064567 0 0 0 0 61.043409026038717 100.51646625644207 0 100.51646625644207 -76.507855279138312 0 0 0 0 42.061476923963596 44.805304585357362 0 44.805304585357362 7.8664648984164671 0 0 0 0 -2.9380799861537525 46.567461310201907 0 46.567461310201907 17.438627123628976 0 0 0 0 10.581324201378237 22.751527575777857 0 22.751527575777857 -13.427242699798484 0 0 0 0 -13.778396812274877 20.283874940432725 0 20.283874940432725 29.864843913368532 0 0 0 0 0.67309853900702876 2.8388394228163634 0 2.8388394228163634 3.5368422519723879 0 0 0 0 46.975599335404695 52.27902204846032 0 52.27902204846032 12.643386467141681 0 0 0 0 -21.149983823735965 47.6890868570772 0 47.6890868570772 24.194880174727587 0 0 0 0 -32.859196275952854 83.964511585581931 0 83.964511585581931 10.328836621440132 0 0 0 0 76.920812853626558 132.09165595263767 0 132.09165595263767 -42.197097652591765 0 0 0 0 -1.5619827142171232 12.191642340456099 0 12.191642340456099 -3.5635204882577511 0 0 0 0 43.060448952935985 63.609395922638214 0 63.609395922638214 -144.53530867823429 0 0 0 0 81.177662500078441 -147.37493617749351 0 -147.37493617749351 -13.154278749192599 0 0 0 0 257.12409077462507 -104.07941859161656 0 -104.07941859161656 -27.749295248097042 0 0 0 0 2.7420704556493263 19.678091092488259 0 19.678091092488259 35.201033736346261 0 0 0 0 -85.106912472518161 44.927632834434917 0 44.927632834434917 57.409555726742838 0 0 0 0 -94.070053012064818 54.241566807234449 0 54.241566807234449 52.954064898542129 0 0 0 0 -76.625397149509809 -7.2785494970157743 0 -7.2785494970157743 34.974131322611356 0 0 0 0 47.128941513161408 32.762895073974505 0 32.762895073974505 -81.451575678802328 0 0 0 0 21.126852596222307 164.51090626407677 0 164.51090626407677 22.252970608904434 0 0 0 0 -47.364989405235974 32.94167468950036 0 32.94167468950036 -55.30008607561831 0 0 0 0 69.605878677110013 147.23811140901125 0 147.23811140901125 149.44601845268335 0 0 0 0 43.706600837736914 54.376172113283246 0 54.376172113283246 58.426522848196328 0 0 0 0 0.5703854560968864 -0.27007517462774899 0 -0.27007517462774899 -5.8113538262408255 0 0 0 0 1.4045294782523996 18.948213722887203 0 18.948213722887203 -32.442287254317932 0 0 0 0 49.133839954447467 52.802789769792071 0 52.802789769792071 -30.733097676726175 0 0 0 0 170.06580728074914 22.357399876407726 0 22.357399876407726 -23.513665256847162 0 0 0 0 2.9908606402408395 3.3894698951256288 0 3.3894698951256288 -5.5779614670074693 0 0 0 0 -49.845690380512679 -30.629611906217178 0 -30.629611906217178 24.504649721202441 0 0 0 0 92.124386895011412 11.376789545465726 0 11.376789545465726 3.4817288885151356 0 0 0 0 -97.507942921954964 -244.36181174890589 0 -244.36181174890589 -73.80533106745861 0 0 0 0 -33.796647361945361 139.31085892334522 0 139.31085892334522 103.91365178159322 0 0 0 0 -2.0352657405660182 0.87431005469878187 0 0.87431005469878187 -2.7751580454181806 0 0 0 0 -108.55137620902678 -74.658823788071459 0 -74.658823788071459 79.303875234843872 0 0 0 0 58.102026893240691 95.917053839817527 0 95.917053839817527 122.11282492906321 0 0 0 0 -1.0055725924900543 4.4169377675665658 0 4.4169377675665658 1.6118718956920759 0 0 0 0 -169.74087833169324 125.12769464409939 0 125.12769464409939 112.55099127703943 0 0 0 0 134.13347973211785 -125.09952560058446 0 -125.09952560058446 31.746449143938662 0 0 0 0 301.58501193422126 333.26772924033867 0 333.26772924033867 -5.1768872956308769 0 0 0 0 -126.78872441810381 487.90606310123258 0 487.90606310123258 369.67548444023123 0 0 0 0 -122.50456966056663 392.28085676988121 0 392.28085676988121 174.5595749114691 0 0 0 0 -60.93780698098999 305.39354796549742 0 305.39354796549742 94.100602216334664 0 0 0 0 254.52191071728976 -11.244636833120694 0 -11.244636833120694 -292.3849144110427 0 0 0 0 -1.9329467305173011 2.4099218781401248 0 2.4099218781401248 -1.9415334285901906 0 0 0 0 111.80731508991448 231.9082308760153 0 231.9082308760153 -82.037204709849902 0 0 0 0 123.06747046201417 -56.324311011176178 0 -56.324311011176178 429.09137513980386 0 0 0 0 181.80563159513986 9.6091895419704088 0 9.6091895419704088 357.36687374429312 0 0 0 0 375.31414584699087 146.63099263095501 0 146.63099263095501 493.87453344163259 0 0 0 0 169.03607227904286 6.8739329982199706 0 6.8739329982199706 605.00465025569429 0 0 0 0 168.41424329718575 49.166201797626854 0 49.166201797626854 2.9218579565695109 0 0 0 0 108.51646052359138 -19.6302908288053 0 -19.6302908288053 534.03667912556557 0 0 0 0 -60.221705669428047 68.106966217124864 0 68.106966217124864 513.62041292311915 0 0 0 0 73.152178258475033 124.688216477065 0 124.688216477065 -108.00202633851404 0 0 0 0 -66.388145577599062 102.30775215064932 0 102.30775215064932 351.72340442183486 0 0 0 0 -70.177849598476314 200.09825453188387 0 200.09825453188387 337.9488257416815 0 0 0 0 -97.219702426868025 288.88260632539459 0 288.88260632539459 591.05605302056938 0 0 0 0 35.459847088452079 332.25088040857372 0 332.25088040857372 557.4892360666563 0 0 0 0 -64.856295706371384 153.35605032029525 0 153.35605032029525 696.23255058818904 0 0 0 0 134.61160093932995 201.82080843969015 0 201.82080843969015 480.02711846010061 0 0 0 0 132.63620411329703 227.67936660696978 0 227.67936660696978 711.98166699561989 0 0 0 0 548.88915903517045 74.676830426345987 0 74.676830426345987 654.86429814326402 0 0 0 0 47.339004337569349 201.08918943872413 0 201.08918943872413 880.67435855511576 0 0 0 0 -239.59857988198928 306.7163187205806 0 306.7163187205806 954.19414679676993 0 0 0 0 780.6276697487192 38.733886760432142 0 38.733886760432142 687.69747183810978 0 0 0 0 1128.964496116736 -24.980489340377972 0 -24.980489340377972 184.91157656178984 0 0 0 0 -217.48384165549487 820.62594332618824 0 820.62594332618824 64.572677768359426 0 0 0 0 -108.64013854607765 311.82869115337235 0 311.82869115337235 -23.199824865812843 0 0 0 0 -179.41688108500966 508.38012263181008 0 508.38012263181008 403.47331681199285 0 0 0 0 -158.66834492527414 374.96555735721631 0 374.96555735721631 711.62953010029014 0 0 0 0 96.944733856114908 165.01699231289513 0 165.01699231289513 78.816343224229058 0 0 0 0 96.733049608228612 181.91009681802461 0 181.91009681802461 -582.73473290641778 0 0 0 0 32.53760413909913 83.210595834643755 0 83.210595834643755 -24.620171008238685 0 0 0 0 527.40371521799534 -116.72178950175294 0 -116.72178950175294 751.62516239873366 0 0 0 0 3224.2212659338547 1868.0015207367105 0 1868.0015207367105 -395.22323588323161 0 0 0 0 394.34284849609185 1785.3747306550838 0 1785.3747306550838 2512.2282297645288 0 0 0 0 -10.475360127202492 9.6688543777677296 0 9.6688543777677296 -7.8566668641785782 0 0 0 0 -134.53764401863009 105.94403784015958 0 105.94403784015958 825.02818637649852 0 0 0 0 753.13195209912374 1064.7351853276268 0 1064.7351853276268 497.37304896320711 0 0 0 0 1151.5694080911489 400.36649699287955 0 400.36649699287955 -367.43157399156189 0 0 0 0 -112.21407371244641 18.173480935586667 0 18.173480935586667 2109.4349084064888 0 0 0 0 381.87610668540583 849.95205548458762 0 849.95205548458762 761.42840082486509 0 0 0 0 -105.62205605450436 265.6000758587179 0 265.6000758587179 569.34239593990787 0 0 0 0 -112.20397104282893 41.451198260983801 0 41.451198260983801 118.85955177770666 0 0 0 0 29.291738662502212 116.37793560213777 0 116.37793560213777 -57.946650112498901 0 0 0 0 1158.457450922695 -97.27954042138299 0 -97.27954042138299 -297.30754599181819 0 0 0 0 7.5074259172013171 7.7235306235103849 0 7.7235306235103849 10.201071061358107 0 0 0 0 -230.69513353834918 -317.26261780358618 0 -317.26261780358618 -153.5530601313294 0 0 0 0 -525.72986099340778 1073.5990154842148 0 1073.5990154842148 -157.76528858023312 0 0 0 0 473.06963016426016 648.84677074369756 0 648.84677074369756 -117.78999879054027 0 0 0 0 50.76921291849817 53.9824325703512 0 53.9824325703512 33.881710942224352 0 0 0 0 -229.89174048631685 238.14628198397259 0 238.14628198397259 113.81257711884246 0 0 0 0 -8.6180001291868393 693.75997494158219 0 693.75997494158219 -1061.6259755916617 0 0 0 0 -110.50370888016187 273.72550319236325 0 273.72550319236325 -36.420165337811341 0 0 0 0 15.937681618400518 12.939895222043482 0 12.939895222043482 11.063289966955011 0 0 0 0 615.21121067329568 -1221.923155203674 0 -1221.923155203674 1540.2972861861927 0 0 0 0 256.74730251973961 213.2734757894068 0 213.2734757894068 2763.9621403609926 0 0 0 0 78.378207585054042 930.44435295854419 0 930.44435295854419 -500.47020207534661 0 0 0 0 -9.592964490671875 141.35735655607277 0 141.35735655607277 -39.877062086379738 0 0 0 0 13.803469485586902 33.20081247330554 0 33.20081247330554 23.847272386381206 0 0 0 0 28.505918904327075 66.940654440877864 0 66.940654440877864 15.349263357078627 0 0 0 0 -2030.8425731836469 -3592.1800707154325 0 -3592.1800707154325 2299.8532434894878 0 0 0 0 -0.18241439564735629 66.049208685129088 0 66.049208685129088 51.244975776811771 0 0 0 0 19.600218812949606 88.230703174747759 0 88.230703174747759 -8.4904520893768165 0 0 0 0 -24.368234962967108 48.089522609661799 0 48.089522609661799 -6.586092793251737 0 0 0 0 -22.11102593020297 40.033522218314488 0 40.033522218314488 12.596918352229352 0 0 0 0 -49.705843592586461 186.4110734167989 0 186.4110734167989 -68.201625389232504 0 0 0 0 -839.76846390106948 315.43410916283028 0 315.43410916283028 -92.228131754536207 0 0 0 0 -162.00725942631834 138.56752705482359 0 138.56752705482359 224.98909673125308 0 0 0 0 -7.9817020755400563 7.5358125703839249 0 7.5358125703839249 -0.19486591048920587 0 0 0 0 -72.226030463571078 -42.696866005254378 0 -42.696866005254378 225.83635211944784 0 0 0 0 1096.5576646205591 -254.87384935868613 0 -254.87384935868613 -2362.5190710106617 0 0 0 0 2728.2009336119609 3858.3018703997077 0 3858.3018703997077 2189.1212866496207 0 0 0 0 0.96258205728855728 1.5747668083597262 0 1.5747668083597262 0.76805747486818632 0 0 0 0 -153.6902333573089 -1352.7534245214629 0 -1352.7534245214629 -2122.5372774879907 0 0 0 0 3236.0481750313338 1917.3570804694755 0 1917.3570804694755 -20.930758237440386 0 0 0 0 908.89406047589728 209.55675684746166 0 209.55675684746166 4.8955812133062864 0 0 0 0 909.49419372572447 284.45643949326404 0 284.45643949326404 -425.38823469696945 0 0 0 0 -13.632334837176558 41.304089156250171 0 41.304089156250171 -24.485415038164547 0 0 0 0 -8.9801255181664601 113.79013496259722 0 113.79013496259722 -22.020503342313077 0 0 0 0 845.07103630321581 -286.19671147912777 0 -286.19671147912777 -57.075707119518484 0 0 0 0 12.759014043004129 38.805721719838786 0 38.805721719838786 25.198952218546452 0 0 0 0 654.67158168679453 79.36990889023582 0 79.36990889023582 -30.36294193748472 0 0 0 0 32.727143356294391 44.331781648074895 0 44.331781648074895 -5.8573122011317622 0 0 0 0 -4.7076855876948684 60.780851655345032 0 60.780851655345032 -2.1437900158525736 0 0 0 0 2241.9526709669444 -930.51059187098872 0 -930.51059187098872 203.37480433070596 0 0 0 0 -0.7838285175182591 5.6452518911199654 0 5.6452518911199654 5.7978166303743564 0 0 0 0 2020.4748488614478 325.47767781155972 0 325.47767781155972 -36.40861294559727 0 0 0 0 1513.872708700248 -65.514140060760838 0 -65.514140060760838 -225.66927544288774 0 0 0 0 1461.0091078571199 766.86520201870997 0 766.86520201870997 -861.85970172822999 0 0 0 0 2197.6906265332073 12.860438178835466 0 12.860438178835466 -821.89257749235549 0 0 0 0 141.60144236619817 824.92594943618315 0 824.92594943618315 -332.38038438534932 0 0 0 0 310.30985431231966 124.64299052019851 0 124.64299052019851 -1170.6928393062517 0 0 0 0 1006.7857053459452 1019.0501064535777 0 1019.0501064535777 -672.8281095788625 0 0 0 0 107.21196549391243 -49.91609342873744 0 -49.91609342873744 -653.95072672292008 0 0 0 0 411.82981304686109 363.51820368222798 0 363.51820368222798 -637.44641830023465 0 0 0 0 163.77598291223512 1105.8080196423775 0 1105.8080196423775 844.93639607759542 0 0 0 0 538.9505338248855 348.61991716369812 0 348.61991716369812 -641.79746362051083 0 0 0 0 53.245058272557799 192.43317069904697 0 192.43317069904697 20.235038302504108 0 0 0 0 -1114.456524353649 1068.9711223396516 0 1068.9711223396516 325.30069447378992 0 0 0 0 119.43156439679862 107.15127642980926 0 107.15127642980926 91.294436738415982 0 0 0 0 26.711412887460028 156.06103221233207 0 156.06103221233207 45.911321112660517 0 0 0 0 64.748787655626074 147.77816472332051 0 147.77816472332051 19.807861764013069 0 0 0 0 100.01920237841475 85.277535182318687 0 85.277535182318687 64.60670781573495 0 0 0 0 26.355326338609302 152.20535076674969 0 152.20535076674969 10.470429313500063 0 0 0 0 -211.97788136040617 936.64455814746543 0 936.64455814746543 -655.52945204215996 0 0 0 0 11.647293908587017 115.77265204115247 0 115.77265204115247 40.531921953050187 0 0 0 0 -6.4571591494313907 116.92183415334148 0 116.92183415334148 58.933219335565809 0 0 0 0 60.467101067653857 155.3063013575229 0 155.3063013575229 35.885157282747969 0 0 0 0 0.30976793989248108 150.32298255641217 0 150.32298255641217 56.056788617526763 0 0 0 0 53.157817686951603 170.25279832899832 0 170.25279832899832 56.451265330892056 0 0 0 0 52.85014245811908 175.59015253361576 0 175.59015253361576 51.933723918016767 0 0 0 0 -34.848132754281323 181.01065536175452 0 181.01065536175452 75.775681704006274 0 0 0 0 -43.844472461845726 101.00069871987216 0 101.00069871987216 59.516133223336965 0 0 0 0 5.3176392405803199 142.63876673077175 0 142.63876673077175 60.651441777183209 0 0 0 0 -32.69071968406206 135.15681627101731 0 135.15681627101731 73.229299947735853 0 0 0 0 -106.99351890129037 130.55402067862451 0 130.55402067862451 100.01128699832771 0 0 0 0 -36.00146318039674 134.73741454702792 0 134.73741454702792 73.714359546604101 0 0 0 0 -70.656232783716405 93.778203732596012 0 93.778203732596012 62.793641595773806 0 0 0 0 -87.808128897770075 62.912578276442218 0 62.912578276442218 52.263694963767193 0 0 0 0 -11.893396323648631 85.1273867241689 0 85.1273867241689 56.657511686265934 0 0 0 0 29.368555827997625 76.89696968694625 0 76.89696968694625 16.148620204738108 0 0 0 0 -1.8605591604440406 16.53929738678849 0 16.53929738678849 3.6164139642738462 0 0 0 0 19.41799634367635 90.372167945810361 0 90.372167945810361 32.721930610074196 0 0 0 0 1689.5084222668811 1936.274076442518 0 1936.274076442518 1287.6218560486159 0 0 0 0 -11.937614228195343 81.272859429892833 0 81.272859429892833 35.876383945898851 0 0 0 0 2390.0111374311091 952.41374676644045 0 952.41374676644045 732.88661544208298 0 0 0 0 1856.6546354783059 1407.0529853581393 0 1407.0529853581393 1951.7420547507063 0 0 0 0 2564.8061346680915 1593.0354432173044 0 1593.0354432173044 659.65732131751429 0 0 0 0 2526.2290287340147 1167.8279701872161 0 1167.8279701872161 970.76168087561382 0 0 0 0 2209.3886620259727 579.27006985704793 0 579.27006985704793 1660.4312652249064 0 0 0 0 3415.8959623961709 664.51773647233495 0 664.51773647233495 1229.4691981802025 0 0 0 0 1744.036980733872 149.3463167602531 0 149.3463167602531 541.12476034834981 0 0 0 0 928.77636419114424 462.21753477954189 0 462.21753477954189 909.84754249437538 0 0 0 0 2031.0467591153865 932.49994826792681 0 932.49994826792681 976.21999778834288 0 0 0 0 2187.3528472182225 1205.3848628272972 0 1205.3848628272972 1336.8154567541496 0 0 0 0 1947.5848191111145 1309.6362523544885 0 1309.6362523544885 2441.4365616735595 0 0 0 0 4254.1223904547514 2123.972726569802 0 2123.972726569802 1513.3088235499308 0 0 0 0 2552.2465328385442 3193.8301693850954 0 3193.8301693850954 3891.1180902624619 0 0 0 0 8.2370971107367552 0.97711300118262301 0 0.97711300118262301 -3.3726005369263703 0 0 0 0 2658.2159238633467 276.70120126818074 0 276.70120126818074 1828.8949514285778 0 0 0 0 30.487716706047877 0.61054223032317623 0 0.61054223032317623 -5.1330236992530445 0 0 0 0 93.355930560021079 69.658296554633125 0 69.658296554633125 -629.41115428556077 0 0 0 0 2866.5808408917947 2658.5117284759981 0 2658.5117284759981 1453.3372132797149 0 0 0 0 93.780582710083195 113.85523555672225 0 113.85523555672225 -656.46611094212858 0 0 0 0 16.460621918995457 85.654773227208352 0 85.654773227208352 34.8396393479361 0 0 0 0 19.690773511792941 93.09133983906213 0 93.09133983906213 40.244991621384543 0 0 0 0 78.534106240574658 58.984784269473117 0 58.984784269473117 33.154702333807876 0 0 0 0 
</DataArray>
<DataArray type="Float64" Name="cross_section_updated" format="ascii">
1 1 1 0.0092196008903354318 1 1 1 1 1 1 1 1 1 1 0.0090420200845512805 1 1 1 1 0.008262468696851627 1 1 1 1 1 1 0.0085894705079999564 1 1 1 1 1 1 1 1 1 1 1 1 1 1 1 1 0.0061835753870258421 1 1 1 1 1 0.001557930113188756 1 0.0053743547261629419 1 1 1 1 1 1 1 1 1 1 1 1 1 1 1 1 1 1 1 1 1 1 1 1 1 1 1 1 1 1 0.0064035005055685691 1 1 0.0086693666238399775 1 1 1 1 1 1 1 1 1 1 0.0094464005739719609 1 0.0086990538513413498 1 1 1 1 1 1 1 1 1 1 0.0088488458527415659 1 1 1 1 1 1 1 1 1 1 1 1 1 1 0.0086492621729072003 1 0.0070570965300515778 1 1 1 1 1 1 0.0069973048651443201 1 1 1 1 1 1 1 1 1 1 1 1 1 1 0.015830734632398979 1 0.012243365995915058 1 1 1 1 1 1 1 1 1 1 1 0.0052458622482867007 1 1 1 1 0.0095983412006860475 1 1 1 1 1 1 1 1 1 1 1 1 1 1 1 1 -2.9705335413687806e-11 1 1 1 1 1 1 1 1 1 1 1 1 1 0.0088743719975614005 1 1 1 1 1 1 1 1 1 1 1 1 1 1 1 1 1 1 1 1 1 1 1 1 1 1 0.0067047486724464075 1 0.0010099841763005352 1 1 1 0.011831713298418936 1 1 1 1 0.0044438796218249782 1 1 1 1 1 1 1 1 1 1 1 1 1 1 1 0.010708146460735549 1 1 1 1 1 1 1 1 1 1 1 1 1 1 1 1 1 1 1 1 1 1 1 1 1 1 1 1 1 1 1 1 1 1 1 1 1 1 1 1 1 1 1 1 1 1 1 1 1 1 1 1 1 1 1 1 1 1 1 1 1 0.0090478713828123572 1 1 1 1 0.010349511319905816 1 1 0.011757287187852843 1 1 1 1 1 1 1 1 1 1 0.0076461873124747393 1 1 1 1 1 1 1 1 1 1 1 1 1 1 1 1 1 1 1 1 1 1 1 1 1 1 1 1 1 1 1 1 1 1 0.0095387977502464846 1 1 1 1 1 1 1 1 1 1 1 1 1 1 1 1 1 1 1 1 1 1 1 1 1 1 1 1 1 1 1 1 1 1 1 1 1 1 1 1 1 1 1 1 1 1 1 0.0070984887224892837 1 1 1 1 1 1 1 1 1 1 1 1 1 1 1 1 1 1 1 1 1 1 1 1 1 1 1 1 1 1 1 1 1 1 1 1 1 1 1 1 1 1 1 1 1 1 1 1 1 1 1 1 1 1 1 1 1 1 1 1 1 1 1 1 1 1 1 1 1 1 1 1 1 1 1 1 1 1 1 1 1 1 1 1 1 1 0.0072130653310022285 1 1 1 0.010463366558791244 1 1 1 1 1 1 1 1 1 1 1 0.010121159332908289 1 1 1 1 1 1 1 1 1 1 1 1 1 1 1 1 1 1 1 1 0.01033182323845367 1 1 1 0.010211184574900126 1 1 1 1 1 1 1 1 1 0.012232299435221472 1 1 0.012330103216812806 1 1 1 1 1 1 1 1 1 1 0.01220949099229432 1 1 1 1 1 1 1 1 1 1 1 1 1 0.011017780293881917 1 1 1 7.3033507872846334e-05 1 0.013173058358219462 1 1 1 0.013152406026582991 1 1 1 1 1 1 1 1 1 1 1 1 1 1 1 1 1 1 5.4990098759255535e-09 1 1 1 1 1 1 1 1 1 -8.665563940024601e-09 0.00038948548618836579 1 1 1 1 1 1 0.0019081892258737271 1 1 1 1 0.012388449442266136 1 1 1 1 1 1 1 1 1 1 1 1 1 1 1 0.0099268095116036154 1 1 1 0.0097111396618523305 1 1 1 1 1 1 1 1 1 1 1 1 0.011323401604358976 1 1 1 1 1 1 1 1 1 1 1 1 1 1 1 1 1 1 1 1 1 1 1 1 1 0.0078579815693298888 1 1 1 1 0.010394977515719481 1 1 1 1 1 0.0041855587714099626 0.014472623700612017 0.010151467309296336 1 1 1 1 0.016533939807214335 1 1 0.0016652759548974397 1 1 1 1 1 1 1 1 0.011333427807519995 1 1 1 1 1 1 1 1 0.0063835101551300774 1 1 1 1 1 1 1 0.015339129173795416 1 1 1 1 1 1 0.012911205038540235 1 1 1 1 1 1 1 1 0.0089632951742479507 1 1 1 1 1 1 1 1 0.010241413598873865 1 1 1 1 1 1 1 1 1 1 1 1 1 1 1 1 1 1 1 1 1 1 1 1 1 1 1 0.012821113298746724 1 1 1 1 1 1 1 1 1 1 1 1 1 0.015314228451025348 1 1 1 1 1 1 1 1 1 1 1 1 1 1 1 1 1 1 0.01374284712387016 1 1 1 1 0.0071767289969503056 1 0.010285501073135694 1 1 1 1 1 1 1 1 1 1 1 0.0078168295507579227 1 1 0.018407382643689046 1 1 0.0031627652591820054 1 1 0.017850942171695548 0.013186069456934901 1 1 1 1 1 1 1 1 1 1 1 1 1 1 1 1 1 1 1 1 1 1 1 1 1 1 1 1 1 1 1 1 0.0099034532347757401 1 1 1 1 1 1 1 1 1 1 1 1 1 1 1 1 1 1 1 1 1 1 1 1 1 1 1 1 1 1 1 1 1 1 1 1 1 1 1 1 1 1 1 1 1 1 1 1 1 1 1 1 1 1 1 1 1 1 1 1 1 1 1 1 1 1 1 1 1 1 1 1 1 1 1 1 1 1 1 1 1 1 1 1 1 1 1 1 1 1 1 1 1 1 1 1 1 1 1 1 1 1 1 1 1 1 1 1 1 1 1 1 1 1 1 1 1 1 1 1 1 1 1 1 1 1 1 1 1 1 1 1 1 1 0.009597431295989417 1 1 1 1 1 1 1 1 0.0094669050181727735 1 1 1 1 1 1 1 1 1 1 0.011545281788782058 1 1 1 0.0098694737221833653 1 1 1 1 1 1 1 1 1 1 1 1 1 1 1 1 1 1 1 1 1 1 1 1 1 1 1 1 1 1 -1.5562852881401135e-09 1 1 1 1 1 0.0091588374825781783 1 1 1 1 1 0.0033633245513243022 1 1 0.0011201669515865306 1 1 1 1 1 1 1 1 1 1 1 0.0058450956539505411 1 1 1 0.0084956550231042021 1 1 1 1 1 1 1 1 1 1 1 1 1 1 1 1 1 0.010465010394712607 1 0.012307571995528808 0.010232659417564315 1 1 0.0092220678332791614 1 1 1 1 1 0.0085105092575933072 0.010522948159633658 1 1 1 1 1 -2.6463236914298083e-09 1 1 1 1 0.0037396105080446766 1 1 1 1 1 1 1 1 1 1 1 0.013695872660366815 1 1 1 1 0.016072627026468785 1 1 -1.1591055806142725e-09 0.0091578588931847532 1 1 0.0099937803493412945 1 1 1 1 1 1 1 1 1 1 1 1 1 1 1 1 1 0.011288275940033746 1 1 1 1 1 1 1 1 1 1 1 1 1 0.028740695497914755 1 1 0.0098723919120386749 1 1 1 0.012022587215039751 0.011235355891529603 1 1 1 0.0023043282901661528 1 1 0.014394551023938426 0.0014512659313237067 0.0099985295548298686 0.011509110114741337 1 1 1 0.0068289572039979428 1 0.0043245293942893916 1 0.0041841792638937902 0.0043728798588070165 1 0.012893908261176146 1 1 1 1 0.0010261238142310111 0.010833755452993525 1 1 1 0.0031184659536173717 0.010680965742062738 1 1 0.018637830564391611 1 1 1 1 1 1 0.0098536134992884879 1 0.010711448391467671 1 0.0099955631052246717 0.0095167120668356343 1 1 1 1 0.018465944181416824 1 1 1 0.009613930628018864 1 0.019705854241835789 1 1 1 2.0253514698698183e-09 1 1 1 1 1 1 0.0071361530078599099 1 1 1 0.0044539427397859294 1 1 1 0.013004832531007636 1 0.0048546122935527215 0.010211382564152643 1 1 1 1 1 1 1 1 1 1 1 0.010678046333391892 1 1 1 1 1 1 1 1 1 1 1 1 1 1 0.0074337467832049572 1 1 1 1 1 1 1 0.011536683382473989 1 1 1 1 1 1 1 1 0.011198597288807295 1 1 1 1 1 1 1 1 1 1 1 1 1 1 1 1 1 1 1 1 1 1 1 1 1 1 1 1 1 1 1 1 1 1 1 1 1 1 1 1 1 1 1 1 1 1 1 1 1 1 1 1 1 1 1 1 1 1 1 1 1 1 1 1 1 1 0.0158695989583452 1 0.016455681556252738 1 1 1 1 1 1 1 1 0.013631982501838934 1 1 1 1 1 1 1 0.021783531179009732 0.027534136223880078 1 1 1 1 1 1 1 1 1 1 1 1 1 1 1 1 1 1 1 1 1 1 1 0.02901938676061367 1 1 1 1 1 1 1 1 1 1 1 1 1 1 1 1 1 1 0.023282582848318505 1 1 1 1 1 1 1 1 1 1 0.010155064796590707 1 1 1 1 0.010124001253127249 1 1 1 1 1 1 1 1 0.010027454487902994 1 1 1 1 1 1 1 1 1 0.010314118350283319 1 1 1 0.008129645735597546 0.010601407413166685 1 1 1 1 1 0.008395059310786334 1 1 1 0.0092627245173090428 1 1 1 1 0.02981253029042201 1 1 1 0.0098144538570305515 1 1 1 1 0.0094677834217770269 1 1 1 1 1 1 1 1 1 1 1 1 1 1 1 1 1 1 1 1 0.010588632718853588 1 1 1 1 1 1 1 1 1 1 1 1 1 0.010382238250860425 0.0045252836772828892 1 1 1 1 0.0082211359551757936 1 1 1 1 1 1 1 1 1 1 1 1 1 1 1 1 1 1 1 0.0053826556897459497 1 0.0043864202350580479 1 1 1 0.010111253892242579 1 1 1 1 1 1 1 1 1 1 1 1 0.007627187887701406 1 1 1 0.0018822901296494249 1 1 1 1 1 0.0082804442759245259 1 1 1 1 1 0.011887444399284158 1 1 1 1 1 1 1 1 1 1 1 1 1 1 1 1 1 1 1 1 1 1 0.0038202267568385462 1 0.014647149602654931 1 1 0.010082757338124436 1 1 1 1 1 1 1 1 1 1 0.011490429292660066 1 1 1 1 0.0078251508896275447 1 1 1 1 1 0.010423264218311457 1 1 0.0096060646671554881 1 1 1 1 1 0.004279277417652742 1 1 0.0080754707473949024 1 1 1 1 1 1 1 1 1 1 1 1 1 1 1 1 1 1 1 1 1 1 1 1 1 1 1.8232068188517303e-08 1 1 1 1 0.010217221433092494 1 1 1 -1.5018561130841768e-08 1 1 0.010624211418028795 0.0080075255739431514 1 1 1 0.010236093730730061 1 1 0.0028390498449092829 1 0.0091077305660820229 1 1 1 0.011017531579671704 1 1 1 1 0.0095695353522741722 1 0.0099322269173395539 1 1 0.010094899461644526 1 1 1 1 1 1 1 1 1 1 1 1 1 1 1 1 1 1 1 0.0032993331458647107 1 1 1 1 1 1 0.005370192182820574 1 1 1 1 1 1 1 1 1 1 1 1 1 1 1 0.0085734450690298086 1 1 1 1 1 1 1 0.0056196645292542393 0.010082281639191948 1 1 1 1 1 1 1 0.0038883232305321931 0.0035332070380694018 1 1 1 1 1 1 1 1 1 1 0.003173080014898317 1 1 1 1 1 0.0096212961705254528 1 1 0.0099428419865283113 1 1 1 1 1 0.0018666641833076127 1 1 1 1 1 1 0.0033474994616126512 1 1 0.015084903679973526 1 0.0029038943901485235 0.014024455910812916 1 1 1 1 1 0.009829047605525533 1 0.0040670398145304706 1 1 1 1 1 0.0098100075850709317 0.002260208113120275 0.0042604416490366302 1 0.0019097396597492818 1 0.0079190643533932625 1 1 1 1 1 1 1 1 1 1 1 1 0.010239479974270722 1 1 1 0.0062520899505974625 1 1 1 1 1 0.0050128557878977159 1 0.021469351565097841 1 1 5.6994020093681375e-10 1 1 1 1 1 0.0099128844402640824 1 1 1 1 1 0.0081609557671543514 1 1 1 1 1 0.0019889834330831507 1 1 1 1 1 1 1 1 1 1 1 1 1 1 1 1 1 1 1 1 1 1 1 1 1 1 1 1 1 1 1 1 1 1 1 1 1 1 1 1 1 1 1 1 1 1 1 1 0.0090878051928914277 1 1 1 1 1 1 1 1 1 1 1 1 0.0082579920824885997 1 1 1 1 1 1 1 1 1 1 1 1 1 1 1 1 1 1 1 1 1 1 1 1 1 1 1 1 1 1 1 1 1 1 1 1 1 1 1 1 1 1 1 1 1 1 1 1 1 1 1 1 1 1 1 1 1 1 1 1 1 1 1 1 0.0077259834052164286 1 1 -8.5197987675228459e-09 1 1 0.0030264775332561455 1 1 1 1 0.0093195265926741266 1 1 0.0027757294948240994 0.0021081632457835477 1 1 1 1 1 1 1 1 1 1 1 1 1 1 1 1 1 0.010149569261381355 1 1 1 1 1 1 1 1 1 1 1 1 0.0056282483478811221 0.006880684596002197 1 1 1 1 0.010184313211062808 1 1 1 1 1 1 1 0.0063491856266372545 1 0.0061737883789312002 1 1 1 1 1 1 1 1 1 1 1 1 1 1 1 1 1 1 0.0016832997594059228 1 1 1 1 1 1 0.0050146209302250472 1.8519364392705073e-09 1 1 0.00095942086471693597 1 1 1 1 1 0.010455589967999668 1 1 1 1 1 1 1 0.0077814003468198549 1 1 1 1 1 1 1 1 1 1 1 1 1 1 1 1 1 1 1 1 0.0038819143892209924 1 1 1 1 1 1 1 1 1 1 1 1 1 0.0098686771253798308 1 1 1 1 1 1 1 1 1 1 1 1 1 1 1 1 1 1 1 1 1 1 1 1 1 1 1 1 1 1 1 1 1 1 1 1 0.0046429930702090345 1 1 1 1 0.0081169031315424991 1 0.0096142806476632731 1 1 1 1 1 1 1 1 1 1 1 1 1 1 1 1 0.0097761017084059959 1 1 1 1 0.011148689708534512 1 1 1 1 1 1 1 1 1 1 1 1 0.0063686459998156305 1 0.0066029359499610776 1 1 1 1 1 1 1 1 1 0.0077352154697756838 1 1 1 1 1 1 -3.5180729952496992e-09 1 1 1 1 1 1 3.687899274157358e-09 1 1 1 -4.8038169067621261e-09 1 1 1 0.0041382935501589214 1 1 1 1 1 1 0.0040767859673241057 1 1 1 1 1 1 1 1 1 1 1 1 1 1 1 1 1 1 1 1 1 1 1 1 1 1 1 1 1 1 0.0075274411602395692 1 0.004406167569161977 1 1 1 1 1 1 1 1 1 1 0.0068366597656700015 1 1 1 1 1 1 1 0.012553319232749834 1 0.00023512372161448025 0.0086178226711713032 1 1 1 1 1 1 1 1 0.0088595198470067249 1 1 1 0.0068691485759886269 1 0.0091050862911805711 1 1 1 1 1 1 0.0043965897362281958 1 1 1 1 1 1 1 1 1 1 0.00031496695137160982 1 1 1 1 1 1 0.01032537462015664 1 0.010113948977811996 1 1 1 2.5456106077237362e-09 1 1 1 1 0.010986059850543767 1 1 1 1 1 1 1 1 1 1 1 1 1 1 1 1 1 1 1 1 1 1 1 1 1 1 1 1 1 1 1 1 1 1 1 1 1 1 1 1 1 1 1 0.0031277935844051877 1 1 1 1 1 1 1 1 1 1 0.0048176953152878812 1 1 1 0.011154844123346427 1 1 0.010004326650290697 1 0.0084861334612442857 1 1 1 1 1 0.010371763018878037 1 1 1 1 1 1 1 1 1 1 0.0096154130303552424 1 1 1 1 1 0.011719135792295624 1 1 1 1 0.010656240778486079 1 0.0099967037938033729 1 1 1 1 1 1 1 1 1 1 1 1 1 1 1 1 0.010069109139214792 0.010345139678566151 1 1 0.0025948761759443766 1 1 1 1 1 1 1 1 1 1 1 1 1 1 1 1 1 1 1 1 1 1 1 0.009263432428114813 1 1 1 0.0090201891230383274 1 1 1 1 1 1 1 1 1 0.0081204026403182712 1 1 1 0.0076006552003025779 1 1 0.0092191255899580493 1 1 0.0085804660772642524 1 1 1 1 1 1 1 1 1 1 0.0094796101508663952 1 1 0.0088241366978832267 1 1 1 1 1 1 1 1 1 1 1 1 1 1 0.012818141049382718 1 1 1 1 1 1 1 1 1 1 1 0.0005614845883708322 1 1 1 0.0022112606180820712 1 1 1 1 1 1 1 1 1 1 1 0.016898189808519405 1 1 1 1 1 1 0.0097188457079898753 1 1 1 1 0.0068369771921875308 0.017815482323108221 1 1 1 1 1 0.010395370924788198 1 1 1 1 1 1 1 1 1 1 1 1 1 1 1 1 1 1 1 1 1 1 1 0.0092489074891810436 1 1 1 0.0017951196120673529 1 1 0.0097611517555423813 1 1 0.009925668176692104 1 1 1 1 1 1 1 1 1 1 1 1 1 1 1 1 1 1 1 1 0.0098428264523840667 1 1 1 0.0098430367776652233 1 1 1 1 1 1 1 1 1 1 1 1 0.010831675368506051 1 1 1 1 1 1 1 0.012456035246605927 1 1 1 1 1 1 1 1 1 1 1 1 0.0099919812414007783 1 1 1 0.011034786879858198 1 1 1 0.010019894671286653 1 0.012207775275843519 1 1 1 1 1 1 1 1 1 1 1 0.0053768163367303376 1 1 1 1 1 0.017185879116070182 1 1 1 1 1 1 1 1 1 1 1 1 1 1 1 1 1 1 1 1 1 1 1 1 1 1 1 0.0056510816655696954 1 0.0082595048814170704 1 0.0040517318639263266 1 1 1 1 1 1 1 1 1 1 1 1 1 1 1 1 1 1 1 1 1 1 0.0083697332214896433 1 1 1 1 0.0099412404966315662 1 0.010003122322287943 1 1 1 1 1 1 1 1 1 0.010156056986934196 1 1 1 1 0.0072911192369087691 0.010400302323731229 1 1 0.0093890639040637783 1 1 1 1 1 1 1 0.0078262838885223805 1 1 1 0.010771957890533717 0.012279118292671316 1 0.0087696184211356644 0.010519337475925504 1 1 1 1 0.010542237715149299 0.0098948832263770908 0.0085395164551748115 1 1 1 1 1 1 1 0.013686469399948276 1 1 1 1 1 1 1 1 1 0.010410925187903 1 1 1 1 1 1 1 1 0.010232174825040984 1 1 1 0.012467039575944595 1 1 1 1 1 1 1 1 1 1 1 1 1 1 1 0.0088891312325868957 1 1 1 1 1 1 0.0083568060318086543 1 1 1 0.010411999826454608 0.010020702478748138 1 0.0025867724354459772 1 1 1 1 1 1 1 1 1 1 1 1 1 1 1 1 1 1 1 1 1 1 1 0.010373218640689366 1 0.0077354648409047808 0.0093762709154312784 1 1 1 1 1 1 1 0.013258603208621635 1 1 1 0.015183279129353175 1 1 0.012716239553408604 1 1 1 1 1 0.0087647975065415357 1 1 1 1 1 1 1 1 1 1 1 1 0.006343603581292441 1 1 1 1 1 0.0027239119407317519 1 1 1 1 0.012342041761565108 1 0.016818970912166761 1 1 1 1 1 1 0.0081965202148457442 1 1 0.013597178320730006 1 0.0049051608422342949 1 1 1 1 0.012120957044445844 1 1 1 1 0.013936292059687251 1 0.011904558234569339 1 1 1 1 1 0.010725472231325049 1 1 1 1 1 1 1 1 1 1 1 1 1 1 1 1 1 1 1 1 1 1 1 1 1 1 1 1 1 1 1 1 1 1 1 1 1 1 0.012333323941464415 1 1 0.012404818245073328 1 1 1 1 1 1 1 1 1 1 1 1 1 1 1 1 1 1 0.014854857315216607 1 1 0.018026217224886475 1 1 1 1 1 1 1 1 1 1 1 1 1 1 1 1 1 1 1 1 1 1 1 1 1 1 1 1 1 1 1 1 1 1 1 1 1 1 1 1 1 1 1 1 1 1 1 1 1 1 1 0.0071498486739128841 1 1 1 1 1 1 1 0.0091204929479230742 1 1 1 1 1 1 1 1 1 1 1 1 1 1 1 1 1 1 1 0.01459592882697526 1 0.012636583206708343 1 1 1 1 1 1 1 1 1 1 0.011906608395396685 0.003914308556103599 1 1 1 1 1 1 1 1 1 1 1 1 1 1 1 1 1 1 1 1 1 0.0089862260727244306 1 1 1 1 1 1 0.0096753392204848559 1 1 1 1 1 1 1 1 1 1 1 1 1 1 1 1 0.011959345620266921 1 1 0.0097319729502035046 1 1 1 0.0090428598024430654 1 1 1 0.008716407776310043 1 1 1 1 1 0.005753897104419467 1 1 1 1 1 1 1 0.020548670734044684 1 1 1 1 1 1 1 0.0033964423467663461 0.00763462710446184 1 0.0075995761238819935 0.013581591064416507 1 1 0.0057706099990687109 1 0.0067721930125052565 1 1 1 0.0024401473455886863 1 0.0099911720747616565 1 0.018327679873838258 1 1 0.016247874499782867 1 1 1 1 1 0.0082058765803734723 1 1 0.018545832508396306 1 0.010290821619277227 1 1 1 1 0.0017198937257186034 1 1 1 1 1 0.0042009229653006269 1 1 0.0042365894303092065 1 1 1 1 0.013823962146818414 1 1 1 4.0240796441576299e-09 1 1 0.0026791815153017215 1 1 0.0070804690505110492 1 1 1 1 1 1 1 1 1 1 1 0.0071517790401655068 1 1 1 2.4885887309200605e-09 1 0.0079292880459670232 1 1 1 1 1 1 1 1 1 1 1 1 1 1 0.024675206931482133 1 1 0.0037313896293503998 1 1 1 1 1 1 0.010016826543791178 1 0.01007260433990588 1 1 1 1 1 1 1 1 0.0099483038314070321 1 0.0028497327404200835 1 0.011470894683506476 0.008971608342833625 1 1 0.018081078893384769 1 1 1 1 1 1 1 1 1 1 1 1 1 1 1 1 1 1 1 1 1 1 1 1 1 1 1 0.010837460623531928 1 1 1 1 1 1 1 1 0.011516412807505705 1 1 1 1 1 0.010200328990964166 1 1 1 1 1 1 1 1 1 1 1 1 1 1 0.015437528801539299 1 1 1 1 1 1 0.009124781506403272 0.010260390484606294 1 1 1 0.025559154513950931 1 1 1 0.016975660162863011 1 0.013248510130262757 0.011080050083962961 1 1 1 1 1 1 0.013906321381715528 1 1 1 1 1 0.018781366246664433 1 1 1 1 1 1 0.0098912794995841199 1 1 1 1 1 1 1 1 0.011878501692299171 1 0.010685215819898593 0.011571663033110082 1 1 1 0.01724915104870961 1 1 1 1 1 0.0095986765287933568 1 1 1 1 0.012163290967872345 1 1 1 1 1 0.016759076353505396 1 1 1 0.0089103380116059561 1 1 1 1 0.0096166753449991801 1 1 1 1 1 1 0.011214771893271044 1 1 1 0.0068963284319921297 1 1 1 1 1 1 1 1 1 1 1 0.011956159446434113 1 0.015787112547180314 1 1 1 0.00057287878311289286 0.019278442699132238 1 1 0.0023765880688961447 1 1 1 1 1 1 1 1 1 1 1 1 1 1 0.0075857665139404534 1 1 0.010050788511972563 1 1 1 1 0.0091985519630434845 1 1 1 1 1 1 1 1 1 1 0.016349032753000432 1 1 0.012238753996797587 1 1 1 1 1 1 1 1 1 1 1 0.014473193137917235 1 1 1 1 0.012309902170044885 1 1 1 1 0.010301114446879386 1 1 1 1 1 1 1 1 1 1 1 1 1 1 1 1 1 1 1 1 1 0.0035372147407429846 1 1 1 1 1 1 0.0073843015498476772 1 1 1 1 1 1 1 1 1 0.016957995395914867 1 1 1 1 1 1 0.0088026075317674812 1 1 0.0098966116844044025 1 1 1 1 1 1 1 1 1 1 1 1 1 1 1 1 1 1 1 1 1 1 0.020821314943799352 1 1 1 1 0.019806243624740712 1 0.011566883755058599 1 0.0098084956467911558 1 1 1 1 1 1 1 1 1 1 1 1 1 1 1 1 1 1 0.02575306010052679 1 1 1 1 1 0.0101580147539843 1 1 0.0028933054988240572 1 1 0.014578248375369508 1 1 1 0.0044650805994556134 1 1 1 1 0.0099960406091833404 1 1 1 1 1 1 1 1 1 1 1 0.010049022119276392 1 1 1 0.0046577389195571264 1 1 1 1 -3.3169937421750895e-09 1 1 0.010378202648072335 1 1 1 1 1 1 1 1 1 1 1 1 1 1 1 0.0096470661119900519 0.011674356160249148 1 1 0.011897759297139654 0.010255590845332167 1 1 1 1 1 1 0.0098294785466918472 1 0.02577312288538916 0.005382315648716926 1 1 1 1 0.012760675379545783 1 1 1 1 1 1 1 0.0096822833542380311 1 1 1 1 1 1 1 0.014358681668381036 1 1 1 1 1 1 1 1 1 1 1 1 1 1 0.010414096998858225 1 1 1 1 1 1 1 1 1 1 1 0.012670103576077375 0.015357615494293639 1 1 1 1 1 1 1 1 1 0.010062162043202448 1 1 1 1 0.017614110240600021 1 1 1 0.010159245443067226 0.01352666729882647 1 1 0.013057544889214791 1 1 1 1 1 1 0.010895070555274403 1 1 1 1 0.014716153942053486 0.0077862716057327808 1 1 1 1 1 0.0075911602514936311 1 1 1 1 1 1 1 1 1 0.0045933646326510105 1 1 0.014640780845780355 1 1 5.6941244566677263e-09 1 1 1 0.010005825401213017 1 1 1 0.0148220928854774 0.0075039589340529789 1 0.014414114476674155 1 0.0095680985289509426 1 1 1 1 1 1 1 1 1 0.009177651812818266 1 1 1 1 1 1 1 1 1 1 1 1 1 0.010123647253015122 1 1 1 1 1 1 1 1 1 1 1 1 0.012285928146048349 1 1 1 1 1 1 1 0.0093556415521140468 1 1 1 0.00051183264385433469 1 1 1 1 1 1 0.0083926546755527416 1 1 1 0.0072750756743795719 1 1 1 1 1 1 1 1 1 0.0092150028627344949 1 1 1 1 1 1 1 0.0016145588605685907 1 1 1 1 1 1 1 1 1 1 1 1 1 0.013758382834596867 1 1 0.010046249099931952 1 0.011402789432233849 1 1 1 1 1 1 1 1 1 1 1 1 1 1 1 1 1 1 1 1 1 -2.7958639431391319e-09 1 1 1 1 -3.622239327927268e-09 1 1 1 1 0.016380925924886415 1 0.016680157651402849 1 0.0078369367366767154 1 1 1 1 0.0078598005229968751 1 1 1 1 1 1 1 1 1 0.0099138499125734567 0.0038676607511624328 1 0.0045901597257803906 1 1 1 1 0.011759236605645214 1 0.014564136714236946 1 1 1 1 1 1 1 1 1 1 1 1 1 1 1 1 1 1 1 1 1 1 1 1 0.0082483384477076149 1 1 1 1 1 1 1 1 1 1 1 1 1 1 1 1 1 1 1 1 1 1 0.0050962969827317503 1 1 1 1 0.0091670670137663918 0.0073170910657111149 1 1 1 1 1 1 1 1 1 1 1 0.0091468762488596811 1 1 1 1 1 1 1 1 1 1 1 1 1 1 1 1 1 1 1 1 1 1 1 1 1 1 1 0.013526141003536291 1 1 1 1 1 0.0092969564368517166 1 1 1 1 1 1 1 0.010850216775920546 0.010434995579062606 1 1 1 1 1 0.0097333663216179617 1 1 1 5.5700729306717989e-09 1 1 0.0015578630080897923 1 1 1 1 1 0.0090818580897146159 1 1 0.019582959933938937 1 1 1 1 0.007238225160982395 1 1 0.0068525510028492401 1 1 1 -6.4914203873334131e-10 1 1 1 1 0.0098855287678714654 0.014896151637331977 0.0074798998694698207 0.0094330814966575929 1 1 1 0.014022595744188808 1 1 1 1 1 1 1 1 1 1 1 1 0.0090079808879775253 1 1 0.0073861811079112142 1 1 1 0.0093446798988734633 1 1 1 1 1 0.0089911650325280174 1 1 1 1 1 1 0.0078459991187849638 1 1 1 1 1 1 1 1 1 0.010062860899323102 1 1 6.6167215803658586e-09 1 1 1 1 1 1 1 1 1 1 1 1 1 0.012060177195797845 1 1 1 1 1 1 0.010436409884766226 1 1 1 0.010415221196857956 1 1 1 0.0081808127718273338 1 1 1 1 1 1 1 1 1 1 1 1 1 1 1 1 1 1 1 1 1 0.016930974344744561 1 1 1 1 0.0010633629974702782 1 1 0.022554632669016438 0.012974199672097987 1 1 0.010363671292329818 0.0099187484127618956 1 1 1 0.019187100439994796 1 1 1 1 0.026649545184764204 0.0098178629420012167 0.0093954135102642528 0.0078326186077470935 1 1 1 1 1 1 1 1 1 1 1 1 0.0094518676910304144 1 1 1 1 1 1 1 1 1 1 1 1 1 0.0091916466093010449 1 1 0.009941078571215782 0.018152204255724808 1 1 0.018666063946158495 1 1 1 1 1 1 0.0071906561852471407 1 1 1 1 0.0082797391500007839 0.016670618480781812 0.015202377608880813 1 1 1 1 1 1 0.0090540884034119758 1 1 1 1 0.0091026176186469274 1 1 1 0.013118842122365089 0.015580447213657977 0.012660716358527776 1 1 1 1 1 0.0090112590031067481 1 1 1 0.023683398614597458 1 1 1 1 0.0099928244602303894 1 1 1 0.01485728600958444 1 1 1 1 1 1 1 1 1 1 1 1 0.0095948453769260679 1 1 1 1 1 1 1 1 1 0.0097585372492031072 1 1 1 1 0.010000931171583911 1 1 1 1 1 1 0.008841706863320295 1 1 1 1 0.012526833548629386 1 1 0.013821876464404796 1 1 1 1 1 1 1 1 1 1 1 1 1 1 1 1 0.012919222043001492 1 1 1 0.01271711889191144 1 1 1 0.012192027904755938 1 0.012175855405136368 1 1 1 1 1 1 1 1 1 0.0087086619168321618 1 1 0.010077259313193983 1 1 1 1 1 1 1 1 1 1 1 1 1 0.014357910275122565 1 1 1 1 0.0094594116234815798 1 1 1 0.0071548006342699744 1 1 0.0097803913036351789 1 1 1 1 1 1 1 1 1 1 1 1 1 0.0094157031062276093 1 0.0088294635385056993 1 1 1 1 1 0.0089361932027115024 0.01566691685883579 1 1 0.011147518082839387 1 1 1 0.0099980220047758972 1 1 1 1 1 0.0072463895323143027 0.011744818794909323 1 1 1 0.012229170836633056 1 1 1 1 0.0093263846839896705 1 1 1 1 1 1 0.0089677670724975164 1 0.010002071461328227 1 1 1 1 1 1 1 1 1 1 1 0.009226075803541128 1 1 1 1 1 1 1 0.0098209495752594293 1 1 1 1 0.0097274310652043644 1 1 1 1 1 0.00025261626524657188 1 1 0.013419126270550917 1 0.0095955038447778571 0.016909607878345459 1 1 1 1 1 1 0.0087425593127575772 1 1 1 1 1 1 1 1 1 1 1 1 1 1 0.0012678051880718882 1 0.0029730589671118635 1 1 1 0.010002102857073973 1 1 1 1 1 1 1 1 1 1 1 1 1 1 0.010016822171888094 1 1 1 1 1 1 1 1 1 1 1 1 1 1 1 1 1 1 1 1 0.013185679873091997 1 0.0067460198642974693 1 1 1 0.010050048963195418 1 1 1 1 1 1 1 1 1 1 1 1 0.0070404116096574737 1 0.010134171700703937 1 1 0.007194613493964927 1 1 1 1 0.010387548222049375 1 1 1 1 1 1 1 1 1 1 1 1 1 1 1 1 0.008172467273972063 1 1 1 1 0.0069653627229550735 0.013176484147401829 1 1 0.0075421617526134389 1 1 1 1 0.0055480108547023219 1 0.0052288144924813266 1 0.0096828855352934576 1 1 1 1 1 1 1 0.0082278816399358416 1 1 1 1 1 1 1 1 1 0.0080192035814584881 1 1 1 1 1 1 1 1 1 1 0.010014661852604849 1 1 0.010063201737540231 1 1 1 1 0.0048899988781906031 1 1 0.0087440231673781496 1 0.0078938103546688301 1 1 1 1 1 1 1 1 1 1 1 1 1 1 1 1 1 1 1 1 1 1 1 1 1 1 1 1 1 0.015950496236477936 0.010176476976212564 1 1 1 0.010000288708607986 1 1 0.02351066317666884 1 1 0.01002053489290884 1 1 1 1 1 1 1 1 1 0.012965026314562186 1 1 1 1 1 0.0086136924341459527 1 0.0085750662830308549 1 1 1 0.0085758021804405674 1 0.031104596330437734 1 1 1 0.022403914354971178 1 1 1 1 1 4.0728509280441028e-09 1 1 1 1 0.0099242955717265251 1 1 0.0095231914779605933 1 1 1 1 1 1 1 1 1 1 1 1 1 1 1 1 1 1 1 1 1 1 1 1 1 1 1 0.023146096615182583 1 1 1 1 1 1 1 1 1 1 0.010488426679353631 1 1 1 1 1 1 1 1 1 1 0.0094631190139117614 1 1 1 1 1 1 1 1 1 1 1 1 1 1 1 1 1 1 1 1 1 1 1 1 1 1 0.0084860509417495622 1 1 1 1 1 1 1 1 1 1 0.0096343704611808849 1 1 0.0047689406505051837 1 1 1 1 1 0.0081660906128268717 1 1 1 1 1 1 1 1 1 1 1 1 1 1 1 1 1 1 1 1 1 1 1 1 0.010630962593469191 1 1 1 1 1 0.0099251868085257419 1 1 1 1 1 1 1 0.0091362521784572742 1 0.0017888502440647058 1 1 1 1 1 1 1 1 1 1 1 1 1 1 1 1 1 1 1 1 1 0.018712141592587789 1 0.02032609494047978 0.0086883898411686603 1 0.0062948825303684678 1 1 0.002304751876936198 1 0.0028144774091068666 1 0.010742783714620384 0.015676871510551256 0.01457661161424955 0.013333535607656729 1 1 0.01763751828439681 0.016880448783310402 1 0.013630890278848444 1 1 1 0.022960132777813724 1 1 0.011629304775067795 1 1 0.009568521843873452 1 1 1 1 1 1 0.0087236262481866431 1 1 1 0.009899069904565648 1 1 1 1 1 1 1 1 1 1 1 1 1 1 1 1 1 0.03198652143301263 1 1 1 1 1 0.030841515944982575 1 1 1 1 1 1 1 1 0.026980627253227696 0.01549690640789507 1 0.0095768733265795564 1 0.00322138466803484 1 1 1 1 0.0098557261784678208 1 1 1 1 1 1 0.0043535461328596588 1 1 1 1 1 1 1 1 1 1 1 1 1 1 1 1 0.0061646808709449295 1 1 1 1 1 1 1 1 1 1 1 1 1 1 1 1 1 0.0075974695839032234 1 1 1 0.0059171344400563881 1 1 1 1 1 1 1 1 1 1 1 0.0088528332946954322 1 1 1 1 0.020528141051982775 1 1 1 1 1 0.021640488774380601 1 1 1 1 1 1 1 1 1 1 0.0099691688341963791 1 0.010009462534954836 1 1 1 0.021759751078108583 1 2.5998820791840044e-05 1 1 0.011760114714722306 1 1 1 1 0.011094193269840206 1 1 1 1 1 1 0.024284131910883501 1 1 1 1 1 0.0098907088052548019 1 1 1 1 1 1 1 1 1 1 1 0.0028903565928935469 1 1 1 1 1 1.8715387031797981e-08 1 1 1 1 1 1 1 1 1 1 1 0.010014655447304401 1 1 1 1 1 1 0.010000608770767755 1 1 1 1 1 1 1 1 1 1 1 1 1 1 1 1 1 1 0.010080604799045661 1 1 1 1 0.010274708890362812 1 1 1 1 1 1 1 1 1 1 0.024739182967913675 1 1 1 0.021076731388297344 0.0099996214813753946 1 1 1 1 0.022692953661392068 1 1 1 1 1 1 1 1 1 0.021217878280399782 1 1 1 1 0.010029697770847928 1 1 0.014908237806308745 0.012384889283277575 1 1 0.014991903451641139 0.013378548117486077 1 1 1 0.0087898000806830631 1 1 0.01179692324264787 0.0054601280460007413 1 0.013219764097716693 0.0087723587579528681 1 1 1 0.014199690435690625 1 0.012985868469503019 1 1 0.010452315725537223 1 0.0062858592158639044 1 0.010018324414484039 0.010041315894138023 1 1 1 1 1 1 0.0081761538343316439 0.011034877304338688 1 1 0.015760283595967591 0.013881663499039625 1 1 1 1 0.011019158689296545 1 1 0.0065176503425342786 1 1 1 1 0.01574840643804783 0.010547240724100871 1 0.021159176896746061 1 1 0.0090396009956471117 1 1 1 1 1 1 1 1 1 1 1 1 1 0.0082062099356277635 0.011179510763688165 1 1 1 1 1 1 1 0.0037445132300287353 1 1 1 1 1 1 1 1 0.01924307017144225 1 1 1 1 1 0.0098408459378311903 1 0.017672572762444029 1 1 0.020761170909176348 1 0.010290025244322513 1 1 1 1 1 0.0005475297038796817 1 1 0.0077106366543395659 0.022274196145489714 0.013535407664877049 1 1 1 0.0099922709980030666 1 1 1 1 1 0.011058076218599052 1 1 1 1 1 1 0.018480417676937758 1 1 1 1 1 0.020738463862607484 1 1 1 1 1 1 1 1 1 1 1 0.0067661961032934436 1 1 0.020267292650354332 1 1 0.0030392457489711103 1 0.020434323849839887 1 1 0.00098329554652548321 1 1 1 1 1 0.0081813195538998733 2.1263855988495894e-09 1 1 1 1 0.0099942471371766393 1 1 1 1 1 1 1 1 1 1 1 1 1 1 1 6.7030618295521593e-10 1 1 1 1 1 0.0020339532341233308 1 1 0.01521508648391507 1 1 1 1 1 1 0.0099668815627743032 1 1 1 1 1 1 1 1 0.0093426387526266055 1 3.6753521684418367e-09 1 1 1 0.023155593822780225 0.037114666417669494 1 0.0051594098164038787 1 1 1 1 0.00396306039085648 0.004669436596436244 1 1 0.01008811590536254 1 1 1 1 0.0089762244839421135 1 1 1 0.0066578680457883115 1 1 1 1 1 1 1 1 1 1 1 1 1 1 1 1 0.0033291697879529666 1 1 1 1 0.010211881648697659 1 1 1 0.0090818436888295568 1 1 1 1 1 0.002402696703634747 1 1 1 1 1 1 1 1 1 1 1 0.0096843064455797261 1 0.0022410477921974217 1 1 1 1 0.007674525207357492 1 1 1 1 1 1 1 1 0.0098688576810111485 1 1 1 1 1 0.0088467436556182513 1 1 0.01840242127314283 1 0.013973421180871515 1 1 1 1 1 1 0.019372651432329541 1 0.0082048677430840537 0.017889999362202348 1 1 1 1 0.017019365989694685 1 0.020178274607646929 0.014916084470429483 1 1 1 1 1 1 1 1 1 1 1 1 1 0.010569180853780832 1 0.011529191687177368 1 1 1 1 1 1 1 0.0093726614543123438 1 1 1 1 0.0099954908972520601 1 1 0.012319331089232151 1 1 1 1 1 1 1 1 1 1 1 1 1 1 1 1 1 1 0.0090741234311357555 0.0093043483225844631 1 1 0.0093172617584035052 1 1 1 0.021274010156911188 1 1 1 1 1 1 1 1 1 1 1 1 1 1 1 1 1 1 1 1 1 1 1 1 1 1 1 1 1 1 1 1 1 1 1 1 1 1 1 0.009541016944519698 1 1 1 1 1 1 0.006097029974361564 1 1 1 1 1 1 1 1 1 1 1 0.024398222791318591 1 1 1 1 1 1 1 1 1 1 1 0.027006391852399211 1 1 1 0.0033262795447613763 1 1 1 1 1 1 1 0.0099023797637188236 1 1 1 1 1 1 1 1 1 1 1 1 0.0014824230536613315 1 1 1 0.0084573324314715318 1 1 1 1 1 1 1 1 1 0.0094596918527518597 1 1 1 1 1 1 1 0.0084871678618005757 1 0.010907234983333149 1 1 0.013226112362038023 1 1 1 1 0.0052732923479450865 1 0.015621758943638427 1 1 0.010823605742760093 1 1 1 1 1 1 0.010370377612282204 1 1 1 1 1 1 1 1 1 0.0084091789689541528 0.0058907645762179359 1 1 1 1 0.012343503146350744 0.0027435737624409186 1 0.0059841439736517954 0.0058351149939305444 1 1 1 1 1 0.0084445198519458899 1 1 1 1 1 1 1 0.0053300557443901088 1 1 1 1 1 1 1 0.0086008256556643608 1 1 1 1 1 1 1 1 1 1 1 1 1 1 1 1 1 1 0.010116335021259533 0.0053834252177059408 1 0.010863502349732056 1 1 1 1 0.002886474236903103 0.0075160280732610302 1 1 1 1 1 1 1 1 1 1 1 1 1 1 1 1 1 1 1 1 1 1 1 1 1 1 1 1 1 1 1 1 1 1 1 1 1 1 1 1 1 1 1 1 1 1 1 1 1 1 1 1 1 1 1 1 1 1 1 1 1 1 1 1 1 1 1 1 1 1 1 1 1 1 1 1 1 1 1 1 -2.2045807263060269e-09 1 1 0.0094004507604401322 1 1 1 1 1 1 1 1 1 1 1 1 1 1 1 1 1 1 1 1 1 1 1 1 0.0082452751643620568 1 1 1 1 1 1 1 1 1 1 1 1 1 1 1 1 1 1 0.0096313570069403356 0.0033785070335794892 1 1 1 1 1 0.0053216097818193642 1 0.0024554915234056875 1 0.010106461350293729 1 1 1 1 0.010095858180198546 1 1 1 0.012642962576173991 1 1 1 1 1 1 1 1 1 1 1 1 1 1 0.0010223932227060306 1 1 1 1 1 1 1 1 1 1 1 1 0.0074189644837685999 1 0.0038283633228564408 1 1 1 1 1 1 0.010955029053340207 1 1 1 1 1 1 0.010558798602833656 1 1 1 0.0069629010736183064 1 1 1 1 1 1 1 1 1 1 1 1 1 1 1 0.010309181905184518 0.0021441582131488286 1 1 1 1 1 1 1 1 1 1 1 1 1 1 1 1 1 1 1 1 0.0087593931494949623 1 1 1 1 0.0096484701054908271 1 1 1 1 1 1 1 1.8687486107171747e-09 1 0.0059951291977228816 1 0.0055733325580697782 1 1 1 0.0092276476743068311 1 1 1 0.012499015765773603 1 0.0185576155516309 1 1 1 0.017423291353497926 1 0.015581655535361477 1 1 0.0099638043051234228 1 1 1 0.013820062689192163 1 0.010009805206663181 1 1 1 -5.6613529836324616e-11 1 0.018073514050218096 1 0.0029462859994553621 1 1 1 1 1 1 0.0092606280554899424 0.015223164036258365 1 1 1 1 1 1 1 1 1 1 0.020584471524604686 0.01012475843150995 0.012607754526348124 1 0.019559421939973381 1 1 1 0.020977002927895391 1 1 1 1 1 1 1 1 1 1 1 1 0.0029736049227994943 1 0.0086701312998262569 1 1 1 1 1 1 1 1 1 1 1 1 1 1 1 1 1 1 1 1 1 1 1 1 1 0.0095045867548881249 1 1 1 1 1 1 1 1 1 1 1 1 0.030098787233764312 1 1 1 1 1 1 1 1 1 1 1 1 1 1 1 1 1 1 1 1 1 1 1 0.035036533528609984 1 0.032663427553129301 1 1 1 1 1 1 1 1 1 1 0.010834367270127016 1 1 0.010874673243543631 1 1 1 1 0.011635180426395983 1 1 1 1 0.010802057521284096 1 1 1 1 1 1 1 1 1 0.010450088351994666 1 1 1 1 1 0.011912120519845311 1 1 1 1 1 1 1 1 1 1 1 1 1 1 1 1 1 1 1 0.013548720595643576 1 1 1 1 1 1 1 1 0.014071800536172942 1 0.010143092350044909 1 1 1 1 1 1 1 1 1 1 1 1 1 1 1 1 0.012095341157333364 1 1 1 0.011220667913789742 1 1 1 0.0011800238449381183 1 1 1 1 0.0001573757370222674 1 1 1 1 0.0094386029972379701 1 1 1 1 1 1 1 0.0029054475803148849 1 1 1 1 1 1 1 1 1 1 1 1 0.00077202340488514293 1 1 1 1 1 1 1 1 1 1 1 1 0.010644232753969682 1 1 0.012927165856718451 1 1 1 1 1 1 1 1 1 1 1 1 1 1 1 1 1 1 0.01038431682434688 1 1 1 0.01088545722827166 1 0.010942053748338426 1 1 1 1 1 1 1 1 1 1 1 1 1 0.009545143069790242 1 1 1 1 1 1 1 1 1 1 1 1 1 1 1 1 1 1 1 1 1 1 0.012051639474011619 1 1 1 0.01594640123201679 1 1 1 1 1 1 0.0091223613759453537 0.0093145260925477699 1 1 1 1 1 1 1 1 1 0.0072457763487970075 1 1 1 1 1 1 1 1 1 1 1 1 1 1 1 0.0096970386911176699 1 1 0.001327538177277968 1 1 1 1 1 1 1 1 1 1 1 1 1 0.0092116207964752766 1 1 0.0035500614264565647 1 1 1 0.0085328722365773189 1 1 1 1 1 1 1 0.0042223034289507414 1 1 0.0020820896836122784 1 1 1 1 1 1 1 1 1 1 1 1 1 1 1 1 1 1 1 1 1 1 1 1 1 0.01620418282696074 1 1 1 1 1 1 1 1 1 1 1 1 1 1 1 1 1 0.019232457146504331 1 1 7.2800026423847086e-11 1 1 1 1 1 1 1 1 1 1 1 1 1 1 1 1 1 1 1 1 1 1 1 1 1 1 1 1 0.010503177119444445 1 1 1 1 0.011571557858825701 1 1 0.00057010164096750124 1 1 0.0099665824094205512 1 1 1 0.014121448959314782 1 1 1 1 0.0088489311412036677 1 1 0.0054061626019556025 1 1 1 1 1 1 1 1 1 1 1 0.0089050979150504979 0.0097519598162024504 1 1 1 0.01582921656746434 1 1 1 1 1 1 1 1 1 1 1 1 1 1 1 1 1 1 1 1 6.8078761274181776e-09 1 1 1 1 0.0038550232037310485 1 1 1 0.0092660483711543562 1 0.0063398428325284334 1 1 1 0.0072451891038666297 1 1 1 1 1 1 1 1 1 0.0085507645015986625 1 0.011947373882046468 1 1 0.0089213489739929392 1 1 1 1 1 1 1 1 1 1 0.010463124871957958 1 1 1 1 0.0078226326253872727 1 1 1 1 1 1 0.0083561377075747519 1 1 1 1 1 1 1 1 1 1 1 1 1 1 0.0061350002812831303 1 1 1 1 1 1 1 1 1 0.0060403425691516119 1 1 0.0036207857663706905 1 1 0.0041528827542677178 1 1 1 1 1 1 1 1 1 1 1 1 1 1 1 1 1 1 1 1 1 0.013290536031292301 1 1 1 1 0.010577869434805681 1 1 1 1 1 1 1 1 1 1 0.016991566564513456 1 1 1 1 0.0204021040410962 1 2.451537629150069e-09 1 1 1.1622950102374574e-09 1 1 1 1 1 1 1 1 0.0093273072646567409 1 1 0.011488747017054143 1 0.0092679416475751793 1 1 0.0092465258445739214 1 1 1 1 0.012608438153191098 1 1 1 0.0098033342906112958 1 1 1 0.010764124483048802 1 1 1 1 1 1 0.014705141646804525 1 1 1 1 0.019531257257535864 1 1 1 0.0075804431972190736 1 1 1 1 1 1 1 1 1 0.011267080423992631 1 1 1 1 1 0.0098475222164949028 1 1 1 0.0082581756475807247 1 1 1 1 1 1 1 1 1 1 1 1 0.0063882356387736997 1 1 1 1 1 1 0.0040036685527661334 1 1 0.0099850929669485153 1 0.012160001625036963 0.01119569675737711 1 1 1 1 1 1 0.010244700946341903 1 1 1 1 1 1 1 0.012486665060050577 1 1 0.013957492726797048 1 1 1 1 0.015693299190404984 1 1 0.0032322588146108285 1 1 1 1 1 1 1 1 1 1 1 1 1 1 1 1 1 0.0074214173417291411 1 1 1 1 1 0.0072665838673131155 1 1 1 1 1 1 1 1 0.010188807235203524 1 1 1 1 1 1 1 0.0056472999569241386 1 1 1 1 1 1 1 1 1 1 1 1 1 1 1 1 1 1 1 0.010832379978548169 1 1 1 0.0044755618576688416 1 1 1 0.0065417192555826606 1 0.0086148404196287279 1 1 1 1 1 1 1 1 0.00067610672514003406 1 0.018561208960702485 0.0088094711874528789 1 1 1 1 1 1 1 0.010380562208024309 1 1 0.0061289439340811071 0.013625404363573027 0.0097150569985918825 1 1 0.013254232524459515 0.008149515931852383 1 0.016414839370425732 1 1 1 0.0035638518800131455 1 1 0.010060884359424968 1 1 0.012567637950818132 1 1 1 1 0.016112420410108637 0.0088901316068671493 1 1 1 1 1 1 1 1 1 1 1 1 1 1 1 1 1 1 1 1 1 1 1 1 1 1 1 1 1 1 1 1 1 0.0099947525491250744 1 1 0.010362908700327259 1 1 1 1 -4.2065511612204842e-09 1 1 1 1 1 1 1 1 1 1 1 1 1 1 1 1 0.0094444410140133855 1 1 1 1 0.0010526032155298033 1 1 0.0061671620330199847 1 1 1 1 1 1 1 1 1 1 1 0.010194334256117911 1 1 1 1 1 1 1 1 1 1 1 1 1 1 1 1 1 1 1 1 0.008060097860123067 1 1 1 1 1 1 1 1 1 1 1 1 1 1 1 0.0052569731557419713 1 1 1 0.019227726477740729 1 1 1 1 1 1 1 1 1 1 1 1 1 0.019264954056700249 1 1 1 1 1 1 1 1 1 1 1 1 1 1 1 1 1 1 1 1 1 1 1 1 1 1 1 1 1 1 1 1 1 1 1 1 1 1 1 1 1 1 1 1 1 0.011318431617269524 1 1 0.010525102841180557 1 1 1 0.01079332877608899 1 1 1 1 1 1 1 1 1 1 1 1 1 1 1 1 1 1 1 1 1 1 1 1 1 1 1 0.0073239952443314039 1 1 1 1 1 1 1 0.0097216026451322629 1 1 1 1 1 1 0.0097223032879844642 1 1 1 1 1 1 1 1 1 0.00935064274262426 1 1 0.014159695959112137 0.010001106390623057 0.012572374319930739 1 1 1 0.0073235424284626219 1 1 1 1 0.021505924568547712 8.6275427080284572e-10 1 1 1 0.0206023896027141 1 1 1 1 1 1 1 1 1 1 1 1 1 1 1 1 1 1 1 1 1 1 0.017289546063049659 1 1 1 1 1 1 1 1 1 1 1 1 1 1 1 1 0.011558003192868281 1 1 1 1 0.010522597828100749 1 1 1 1 0.01020846460847185 1 1 1 1 1 1 1 1 1 0.019118667609389996 1 1 1 1 1 1 1 1 1 1 1 0.0057885734747301631 1 1 0.005147339426260604 1 1 1 1 1 0.003231006598712248 1 1 1 1 0.0080990435127797147 1 1 1 1 0.0067687078428657274 1 1 1 1 1 1 1 1 1 1 1 0.0081027805754137275 1 1 1 1 1 1 1 1 1 1 1 1 1 1 1 1 1 1 1 1 1 1 1 1 1 1 1 0.0095912277603886764 1 1 1 1 1 1 1 1 1 1 1 1 1 1 1 1 1 1 1 1 1 0.010981683659989833 1 1 0.0077590349319596325 1 1 1 1 1 0.009088239930187085 1 1 1 1 1 0.013565308426532974 0.006764642751315629 1 1 1 1 0.015644304181416643 1 0.0049137983158089558 1 1 1 1 1 1 1 1 1 1 1 1 1 1 1 1 1 1 1 1 1 1 1 1 0.011711113356569151 1 1 1 1 1 1 1 1 1 1 1 1 1 1 1 1 1 1 1 1 1 1 0.010228812252766317 1 1 1 1 1 1 0.010008078434409188 1 0.021184561088768782 0.024563164990861204 1 1 1 1 1 1 1 1 1 1 1 1 1 1 1 1 1 1 1 1 0.014234732052230074 1 1 1 0.0082326947175626556 1 1 1 1 1 1 1 1 1 1 1 1 1 1 1 1 0.027310065789915419 1 1 0.031299929654367349 1 1 1 1 1 1 1 1 1 1 1 1 1 0.012648887738561104 1 1 1 1 1 1 1 1 1 0.035214415254240447 1 1 1 0.0095688400310511672 1 1 0.022239048531774868 0.019016124294463109 3.1787508649600005e-10 1 -6.2785000809473246e-10 1 1 1 1 8.6672535381387972e-10 1 1 1 1 1 1 1 1 1 1 1 1 1 1 1 1 1 1 0.010002650611277199 1 1 0.010238764851692693 1 1 1 1 1 1 1 1 1 1 1 1 1.1823844568367714e-09 1 1 1 -2.9205559845535412e-11 1 1 1 1 0.012451239993645268 1 1 1 1 1 1 0.014648083614897172 1 0.010296102225536195 1 1 0.0011511713332624076 1 1 1 1 1 1 1 1 1 1 1 1 1 1 1 1 1 1 1 -2.0739634671099183e-09 1 1 1 1 1 1 1 1 1 1 1 1 0.014041043445397094 1 1 1 1 1 1 1 1 1 1 1 1 1 1 1 1 0.0042959312787671355 1 1 1 1 1 1 1 0.0079349119669252059 1 1 1 1 1 1 1 1 1 1 1 1 1 1 1 1 1 1 1 1 1 1 1 1 1 1 1 1 1 1 1 1 1 1 1 1 1 1 1 1 1 1 1 1 1 1 1 1 1 1 1 1 1 1 1 1 0.0075853291671147058 1 1 1 1 1 1 1 1 1 1 1 1 1 1 1 1 1 0.0041877241672804363 1 1 1 1 1 1 1 0.0094651452009350961 1 1 0.0036579724732011334 0.010578277604356215 1 1 1 1 1 1 1 1 1 0.010353802093915225 1 1 1 1 0.0044888577777084382 1 1 1 1 1 1 1 1 1 1 1 0.013008169044040632 1 1 1 1 1 1 1 1 1 0.010251622081773985 1 0.0098495410522350998 0.0077948336943289079 1 1 1 1 1 1 1 1 1 0.009986599533764691 1 0.014298467005731091 0.0082263689425547265 1 1 0.0044906136338309453 1 1 0.018253075601803864 1 1 1 1 1 1 1 0.0074932211468936062 1 1 1 1 1 1 1 1 0.0097701298131046069 1 0.012554399503574544 1 0.0091633219433646523 1 0.006710126617051477 1 1 1 0.0099986151934115738 1 1 1 0.0052044767019767159 1 1 0.0067353268398696667 1 0.007838877902781682 1 1 0.0028030112873015101 0.0099913963110140405 1 1 1 1 1 1 0.0071057725672624217 1 1 0.0071412912608831971 1 1 0.0048428337368770363 1 1 0.0094437793106761925 1 1 1 1 1 1 1 1 1 1 1 1 0.014096028760773628 0.0031964649471686903 1 1 1 1 0.010492525819847102 1 1 1 0.010019902516863438 1 1 1 0.010108041754311174 1 1 1 0.010228195090365863 1 1 1 1 1 0.010370402834075823 1 1 1 1 1 1 1 1 1 1 1 1 1 1 1 1 0.0079851899588683529 1 1 1 1 1 1 1 0.010909847041555377 1 1 1 0.0062707978751607692 1 1 1 1 1 1 1 1 1 1 1 1 1 1 1 0.006130265405424374 1 1 1 1 1 1 1 1 1 1 1 1 1 1 1 1 0.00026717961974238175 1 1 1 1 1 1 1 0.006208765351945672 1 1 1 0.0023390307573700371 1 1 1 1 1 1 1 1 1 0.0064748517196054831 1 1 1 1 1 1 1 1 1 1 1 1 1 0.011523732572626587 1 0.010614727408479817 1 1 1 1 1 1 1 1 1 1 1 1 1 1 1 0.011802500192047954 1 0.011038520012325897 1 1 1 0.016384882513598882 1 1 1 1 1 1 1 1 1 1 0.020668580720550701 1 1 1 1 1 1 1 1 1 1 1 1 1 0.011623319473086952 1 1 1 1 1 1 1 0.010060424198751847 1 1 1 1 0.0095142141786019874 0.017350696760530141 1 1 0.010334531419178304 1 1 1 1 1 1 1 1 1 1 0.012540077116104973 1 1 1 1 1 1 0.01021822596807203 0.0083615753566485054 1 1 1 1 1 1 1 1 0.0097939347403977924 0.0095890577093069307 1 0.01653355563552443 1 1 1 1 0.0087570480560355199 1 1 1 1 1 1 0.0098906908279874153 1 1 1 1 1 0.023374149398901256 1 1 1 1 1 1 1 0.0094550900724712852 1 0.0087687095153555772 1 1 1 1 1 1 1 1 1 1 1 1 1 1 1 0.025585945805237355 1 0.010161466601285037 1 0.020041436867885953 1 0.011571320027066227 0.015040820376264537 1 1 1 0.010324313278320181 1 1 1 1 1 0.009689288160153485 0.0078206230801799552 0.010801389555413907 1 1 1 1 0.010228295342079013 1 1 1 1 0.0054190666729075354 0.0074075280627195761 0.020602185814424474 1 1 1 0.0074067774276882076 1 1 1 1 0.010020118072157878 1 1 1 1 1 1 1 1 1 1 1 1 1 1 0.009443428613151221 1 1 1 1 1 1 1 1 1 1 1 1 1 1 1 1 1 1 1 1 1 1 1 1 1 1 1 0.01683323992169462 1 1 1 1 0.0099554402707247858 1 1 1 1 1 1 1 1 1 0.015692224624904327 1 1 1 1 1 0.011880766322177733 1 1 1 1 1 1 1 1 1 1 1 1 1 1 0.010355767238829541 1 0.0013198262354017637 1 1 1 1 1 1 0.00096974459253776346 1 1 1 1 1 1 1 1 1 1 1 1 -1.5218092411228845e-09 1 1 0.0096538262279459667 0.010680187840290086 1 1 1 1 1 1 0.011437242575288144 1 1 1 1 1 1 0.017096839472812306 1 1 1 1 0.00039429540285054049 1 1 1 0.010941740899586598 1 1 1 1 0.011761212594988808 1 1 1 1 1 5.8177213232771252e-05 1 0.0074573990356564344 1 1 0.0099964442781043383 1 0.010167116098225036 1 1 0.012474343895932938 1 1 0.022141624516879101 1 1 1 1 1 0.010229846895259527 1 1 1 1 0.010181303763451029 1 1 1 0.0052062023160606083 1 1 0.0075015306120595777 1 1 0.0034396440272453227 1 1 0.014091623071658111 1 1 1 1 1 1 1 1 0.0065328598743343777 1 1 1 1 0.019367276885764471 1 1 0.017947099284292427 1 1 0.0077887885502399071 1 1 0.018474994711065069 1 0.0082251269662136223 1 1 1 1 1 1 1 1 1 1 1 1 1 0.012526782239163866 1 1 1 1 1 0.0098440983664908333 1 1 1 1 1 0.014919535186380182 1 1 1 1 1 0.012256771107865225 1 1 1 1 1 1 1 1 1 1 1 1 1 1 1 1 1 1 1 1 1 1 1 1 1 1 1 1 1 1 1 1 1 1 1 1 1 1 1 1 1 1 1 1 1 1 1 1 1 1 1 1 1 1 1 1 1 1 1 1 1 1 1 1 1 1 1 1 1 1 1 1 1 0.0067288166841419084 1 1 1 1 1 1 1 1 1 1 1 1 0.010848923251048297 1 1 1 1 1 1 1 1 1 1 1 0.011953238912151658 1 1 1 1 0.026520140304320667 1 1 1 1 1 1 0.029292864582058202 1 1 1 1 0.010866995206606497 1 1 1 1 1 0.0057438173793013577 1 1 1 1 1 1 1 0.0096101298887658997 1 1 1 1 1 1 0.010029312924219836 1 1 1 1 1 1 1 1 1 0.010209864307134608 1 1 1 1 1 1 1 1 1 1 1 1 1 1 0.010087044486520397 1 1 1 1 1 1 1 1 1 1 1 1 1 1 1 1 1 1 1 1 1 1 1 1 1 0.01012281982061421 1 1 1 1 1 1 0.008676953110365572 1 1 1 1 1 1 1 1 0.0084562168431174083 1 1 1 1 1 1 1 1 1 1 1 1 1 1 1 1 1 1 1 1 1 1 1 1 1 1 0.0073511356682245607 0.0077619746083093036 1 1 1 1 1 1 1 1 1 1 1 1 1 1 1 0.0090877920504503218 1 1 1 1 1 1 1 1 1 1 1 0.0070891418856705649 0.011706013108418015 1 1 1 1 1 1 1 1 1 1 1 1 1 1 1 1 1 1 1 1 1 1 1 1 1 1 1 1 1 1 0.0078491481258088983 1 0.012612754791901368 1 1 1 0.0099950035901272688 1 1 1 1 1 1 1 1 1 1 1 1 1 1 1 1 1 1 1 1 1 1 1 1 1 1 0.0087099575487137176 1 1 1 0.010505700558661683 1 1 1 1 1 1 1 1 1 1 1 1 1 1 1 1 1 1 0.010108467830351985 1 0.0086288726034892266 1 1 1 1 1 1 0.016882592661013308 1 1 0.011459712139213062 1 1 1 1 0.015736524648121274 1 1 1 1 1 1 1 1 1 1 1 1 1 1 1 0.0093902995849909632 1 1 1 1 1 1 0.0082608084316565245 1 1 0.0099830756717673112 1 1 1 1 1 0.024070183618003796 1 1 1 1 0.01514699562304826 1 1 1 0.01218191749772244 1 1 1 1 1 1 0.007598942248903881 1 1 0.0020607488920374381 1 1 0.015990594291682259 1 1 0.0014061431236717797 1 0.012232669227213742 1 1 1 1 0.014414586724936181 1 1 1 1 1 1 1 1 1 1 0.012123520443558291 1 1 1 1 1 1 1 1 1 1 1 1 1 0.0060500867952678686 1 1 1 1 1 1 1 0.014835035669647173 1 1 1 0.015638588483782898 1 1 0.0076981494061082317 1 1 1 0.03392745380992794 1 1 0.011610752679950806 1 1 1 0.006384402618485531 1 0.010549703252985675 1 1 1 1 1 1 0.0079569112739576037 1 1 1 1 1 1 1 1 1 1 1 1 0.010623388485477815 1 1 1 0.011519898498391447 1 1 1 1 1 1 1 0.0093928797500084371 1 1 1 1 0.0093920289295001819 1 1 1 1 1 1 1 1 1 1 1 1 1 0.011239377863455441 1 1 1 1 1 1 1 1 1 1 1 1 1 0.013690529885642906 1 1 1 0.00059187782263853128 1 1 1.0648261661305725e-08 1 1 1 1 0.0092924208313682408 1 1 1 1 1 1 1.7150218516170934e-08 1 1 1 1 1 1 1 1 1 1 1 1 0.010032990839970335 1 1 0.013630040947583084 1 1 1 1 1 1 1 0.01285073004035274 0.011167310456808278 1 1 0.010879580304965081 1 1 1 1 1 0.0064228586226308601 1 1 0.012430332387064535 1 1 1 1 0.010054642698750248 1 0.013255541316906726 1 1 1 0.0031502523266689966 1 1 1 0.00093250015336263092 1 0.0087555165052695602 1 1 1 1 1 1 0.0088299905778908769 1 1 1 1 1 0.01188375907759818 1 1 1 1 1 1 1 1 1 1 0.0085807446120665584 1 1 1 0.0084570914833447253 1 1 1 0.010345803527795334 1 1 1 0.012848506784717826 1 1 1 1 1 0.010964747707119629 1 1 1 1 1 1 0.0082625727276886343 1 1 0.0067507000537294914 1 1 1 1 0.012539901757729495 1 1 1 1 1 1 1 1 1 1 1 1 1 1 1 1 1 1 1 1 1 1 1 1 1 1 1 1 1 1 1 1 0.0094905480327113698 1 1 1 1 1 1 1 0.0091310786717445774 1 1 1 1 1 1 1 1 1 1 1 1 1 1 1 1 1 1 1 1 1 1 1 1 1 1 1 1 1 1 1 1 1 1 1 1 1 1 0.030452409071266083 1 1 1 0.0091556255131424805 1 1 1 1 1 1 1 1 1 1 0.0087540042590581318 1 1 1 1 1 1 1 1 1 0.010809881036348645 1 1 1 1 1 1 1 1 1 1 1 1 1 0.010676833367209456 1 1 1 1 0.011140910875762758 1 1 1 1 1 1 1 1 1 0.010813945264352393 1 1 1 1 1 1 1 0.00772437458325273 1 1 1 1 1 1 1 1 0.011046593035160639 0.012183875644196124 1 1 1 0.012767349519915844 1 1 1 1 1 1 0.010994852348743749 1 1 0.010353966446012863 1 1 1 1 1 1 0.010041318289526268 1 1 1 1 1 0.011027973654743822 1 1 0.0061418109101725946 1 1 1 1 0.0099353747507415907 0.013772554525821112 1 1 0.018033271551667829 1 0.0080259123236485694 0.0013432302195724166 1 1 1 1 0.0028633252214328442 1 1 1 1 1 1 1 1 1 1 1 0.0090018843488624961 1 1 1 1 1 3.1431392072400755e-09 1 1 1 1 0.01101292657253366 1 1 0.00067156317736796756 0.016773231592080683 0.0094707088830457767 1 1 0.010190902205565483 1 1 1 1 1 0.0039950923320487275 1 1 1 1 1 1 1 1 0.010255686707745161 1 1 1 1 0.0092459651619459168 1 1 1 1 1 1 1 1 1 1 1 1 1 1 1 1 1 1 1 1 1 1 1 1 1 1 1 1 1 1 1 1 1 1 1 1 1 1 1 1 1 1 1 1 1 1 1 1 1 1 1 1 1 1 1 1 1 1 1 1 1 1 1 1 1 0.0059408238795970875 1 1 1 1 1 1 1 1 1 1 1 1 1 0.0099306486070488628 1 1 0.001876830101986679 1 1 1 1 1 1 1 1 1 0.0089377373845172664 1 1 1 -4.4444484759154079e-09 1 0.0071068923397106798 1 1 1 1 1 1 1 1 1 1 1 1 1 0.0098804863934832659 1 1 1 1 1 1 1 1 1 1 1 1 1 1 1 0.013932367327663822 1 1 1 1 0.011503617393486701 1 1 1 1 1 0.010131189230450127 1 1 0.015599126649722267 1 1 1 1 1 1 1 1 0.011681662298940127 1 1 1 0.017236948675670417 1 1 1 0.0098300227382405181 1 1 1 1 1 1 1 0.019918523255907299 1 1 1 1 0.0072110709895685417 1 0.0069798831288934785 1 0.016731606012928706 1 1 0.011652340483552362 1 0.002963514879633377 0.010038448432278496 1 1 0.015635588692504025 1 1 1 1 1 1 1 1 1 1 1 0.010200518813225708 1 1 1 1 1 1 1 1 0.00984789553766037 1 1 1 1 1 1 0.0099017868361587838 1 1 0.0091422876065618414 0.010635436845812238 1 1 0.010587073098742059 1 1 1 1 1 1 1 1 0.010036960339448377 1 1 0.0099353146994590261 1 1 1 0.013190692661956396 1 0.012833142127898219 1 1 1 1 1 0.0070025674847197933 0.0099981389668974685 1 1 1 1 1 1 1 0.0099474788600557515 1 0.01555318989697266 1 1 1 0.015370208759950202 1 1 1 1 1 0.0088678407364290793 1 0.010929001905835931 1 1 1 0.0070094779292758716 1 1 1 1 1 1 1 0.0082684085950522554 1 1 1 0.010156843150844357 1 1 1 1 1 0.013071070544727351 1 0.0044447321229285075 1 1 1 1 1 1 0.0080032454309005366 1 1 1 1 0.0093356881328505795 0.0076349472653322939 0.015344902121122564 1 1 0.015163679688673028 1 0.0042328372401683467 0.005042334869431701 1 1 1 1 1 1 0.0026950946431965658 1 1 1 1 0.014556793038647835 1 0.01455257517740232 1 1 1 1 0.0037936738765392622 1 1 1 1 1 1 1 1 1 1 1 1 1 1 1 1 0.011373335450888899 1 1 0.0007627149682378695 1 0.011172008213090549 1 1 1 1 0.0091473710400983912 1 1 0.016031679370297015 0.0113910931584797 1 1 1 1 1 0.0088501353222332491 1 0.010002230054681947 1 1 1 1 0.010426276606162535 1 0.010293218025888874 1 1 0.0098714742921034437 0.011230132185173734 1 1 1 1 1 1 1 1 1 1 1 1 1 1 1 1 1 1 1 1 1 1 1 1 1 1 1 1 1 0.011071213803754549 1 1 0.013066880372323057 1 1 1 1 1 1 1 1 1 1 1 1 1 1 1 1 1 0.009361393833342592 1 1 1 1 0.0099130077179050632 1 1 0.0095297501767909881 0.010657850710395711 1 1 1 1 1 1 1 1 1 0.0096281124067064197 1 1 1 1 1 1 1 1 1 0.014738435358959707 1 0.010167661639725281 1 1 1 0.0028536631960019362 1 1 1 0.0099969216532371126 0.0055420598843960514 1 1 0.0032656056383290263 1 1 1 1 1 1 0.013755101626436228 1 1 1 1 1 1 0.014452339253943666 1 1 1 1 0.0053906145237391113 0.011411541568994148 0.0067125944208938776 1 0.01114875223530671 1 1 1 0.0048869043282343261 1 1 1 1 0.0043861686319197467 1 1 1 1 0.015106436453461327 1 0.009508658875171461 1 1 1 0.015373973168881991 0.0052074960661248892 1 1 1 1 0.013847477412649474 1 1 1 1 1 1 1 1 1 1 1 1 0.0083905725446575194 1 1 1 1 1 1 1 1 1 1 1 1 1 1 0.014305336168913316 1 1 1 1 1 0.016564500839969638 1 1 1 0.01004384154301349 1 1 0.0046640966854646151 0.012305710209073341 1 1 1 1 1 1 0.0040885872649262175 0.0071719778834881745 0.0068881368428672513 1 0.0059529362819422879 1 0.0054788498365483315 0.012027472114229089 1 1 1 1 1 0.0099768055804226874 1 0.010967186344341212 1 1 1 1 0.00445015410639793 1 0.0035292468924954471 1 0.012572634257170812 1 3.5476466382633465e-09 1 1 1 1 1 1 1 0.0034915947787816856 1 1 1 0.0068300818137928994 1 1 1 1 1 1 1 1 1 1 0.010395490702071034 1 1 1 0.012683871054806855 1 1 1 1 1 0.014047008289115773 1 0.018964084015000195 0.011639327376463449 1 1 1 1 1 1 1 1 1 1 1 1 1 1 1 1 1 1 1 1 1 1 1 1 1 1 1 1 1 1 1 1 1 1 0.011573887801867687 1 1 1 1 1 1 1 0.0091689354986768685 1 1 0.0097535221428973924 1 1 1 1 0.021794468229690743 1 1 0.013981568714520009 1 1 1 1 1 1 1 1 1 1 1 1 1 1 1 1 1 1 1 1 0.019821183326687294 1 0.01785468429998073 1 1 1 0.0050584241882772191 1 1 1 0.012671093966176439 1 0.014328038716300664 1 0.012647464295029973 1 1 1 1 1 1 1 1 1 1 1 1 1 1 1 1 1 0.01085445556080937 1 1 1 1 1 1 1 1 1 1 0.023539121933283964 1 1 1 1 1 1 1 1 1 1 1 1 1 1 1 1 1 1 1 1 1 1 1 1 1 1 0.020198097853087751 1 1 1 1 0.013371196561021988 1 1 1 1 1 1 1 0.014527891913158121 1 1 1 1 1 1 1 1 1 1 1 1 1 1 0.021786800886248736 1 1 1 1 1 1 1 1 1 1 1 1 1 1 1 1 1 1 1 1 1 1 1 1 1 1 1 1 1 1 1 0.011009745217291839 1 1 1 1 1 1 1 1 0.012339265617711235 1 1 1 1 1 1 1 1 1 1 1 1 0.016161473360792957 1 0.01278150140935029 1 1 0.0084414123869123014 1 1 1 1 1 1 1 1 1 1 1 1 0.0089248929980320912 0.0096405037061433607 1 1 1 1 1 1 1 1 1 1 1 1 1 1 1 1 1 1 1 1 1 1 1 1 1 1 1 1 1 1 1 1 1 1 1 1 1 1 1 1 1 1 1 1 1 1 1 1 1 1 1 1 1 1 1 1 0.010256044501479282 1 1 1 0.01129533573447537 1 1 1 0.012616658961214819 1 1 1 1 1 1 1 1 1 1 1 1 1 1 1 1 1 1 1 1 1 1 1 0.011226537978038353 1 1 1 1 1 1 1 0.012740813709096792 1 1 1 1 1 0.031985841930929584 1 1 1 1 1 1 1 1 1 1 1 1 1 1 1 1 1 1 1 1 1 1 1 1 1 1 0.0097707202581933279 1 1 1 1 1 1 1 1 0.013294125386973723 1 1 1 1 1 0.034555292246465308 1 1 1 0.034237814065964142 1 1 1 1 1 1 0.01057458094667664 1 1 1 1 1 0.033251841908129263 1 1 1 1 1 1 0.0093782076217080179 1 1 1 1 1 1 1 1 1 1 1 1 1 0.0084471360666640016 1 1 1 1 1 1 1 1 1 1 1 1 1 1 1 1 1 1 1 1 0.0083732767675404468 1 1 1 0.0073435790738510653 0.022810113211569245 1 1 1 1 1 1 1 1 1 1 1 1 1 1 1 1 1 1 1 1 1 0.0076911354898544018 1 1 1 0.030574464447493968 0.010494061529895637 1 1 1 1 1 1 0.0048716079775888241 1 0.0032751538657440106 1 1 1 1 1 0.0039026100697391736 1 1 1 1 1 0.02198714731838794 0.034034286616933494 1 1 1 1 0.0087352330170327626 1 1 0.034144578046024415 1 1 1 1 1 1 1 1 1 1 0.0034764097617373708 1 1 1 0.0055465111717917098 1 1 1 0.007336169966382089 1 1 1 1 1 1 1 1 1 1 1 1 1 1 1 1 1 1 1 1 1 1 1 1 1 1 0.0084809281715676303 1 1 1 1 1 1 1 1 1 1 0.0040901654287723646 1 1 1 1 0.0054798137230341118 1 1 1 1 1 1 1 1 1 0.0071510594713938801 0.0077400033018179201 1 1 1 1 1 1 1 1 0.0081774486680324734 1 1 1 1 1 0.0091280080336268304 1 1 1 1 1 1 1 1 1 1 1 1 1 1 1 1 1 1 1 1 1 1 1 1 1 1 1 1 1 1 1 1 1 1 1 1 1 1 1 1 1 1 1 1 1 1 1 1 1 1 1 1 1 1 1 1 1 1 1 1 1 1 1 1 1 1 1 1 1 1 1 1 1 1 1 1 1 1 1 1 1 1 1 1 1 1 1 1 1 1 1 1 1 1 1 1 1 1 1 1 1 1 1 1 1 2.0721828766778749e-09 1 0.010228200058230406 1 1 0.0099884785804492809 1 1 1 1 1 1 1 1 1 1 1 1 1 1 1 1 1 1 1 1 1 1 1 1 1 1 1 0.0036643089755402959 1 1 0.0080938464899438928 1 1 1 1 1 1 1 1 1 1 1 1 1 1 0.0093161340474447879 1 1 1 1 1 1 1 1 0.0052953837574299736 1 1 1 1 1 1 1 1 1 1 1 1 1 1 1 1 1 1 1 1 1 1 1 1 1 1 1 1 1 1 1 1 1 1 1 1 1 1 1 1 1 1 1 1 0.0081713134532361564 0.0092917406315089698 1 1 1 1 1 1 1 1 1 1 1 1 1 1 1 1 1 1 1 1 1 1 1 1 1 1 1 1 1 1 1 1 1 1 1 1 1 1 1 1 1 0.012772202824616921 1 1 1 1 1 1 1 1 1 0.016088379657945871 1 0.016970253631267064 1 0.012873129436882803 1 0.010367757317879308 1 0.010047330602073197 1 1 1 1 0.0085899647909151652 1 1 1 0.014243760630854092 1 1 1 1 1 1 1 1 0.010051702757432255 0.0059417618905988553 1 1 0.010074514207476466 1 1 1 1 0.0096645627685589125 1 1 0.0097272526065749348 1 1 1 1 1 1 1 0.0096024757633422289 1 1 1 1 1 1 1 1 1 1 1 1 1 1 1 1 1 1 1 1 1 1 1 1 1 1 1 1 1 1 1 0.0081777824564951071 1 1 1 1 1 1 1 1 1 0.011637396982879784 1 1 1 0.01932141632835685 1 1 1 0.012644681146423161 1 1 1 1 0.015080963526479993 0.0055407760789530983 1 1 1 1 0.0060660927174254406 1 1 1 0.010279844654575189 1 1 1 0.0099287665772068504 1 1 1 1 0.003956265884882626 1 1 0.014937106395924278 1 0.014461230177762865 1 1 0.010572659465467262 1 1 1 1 1 1 1 1 1 1 1 1 1 0.031117315327377187 1 1 0.026603957841500214 1 1 1 1 1 1 1 1 1 1 1 1 1 1 1 1 1 1 0.0084585103002779716 1 1 1 1 1 1 1 1 1 1 1 1 1 1 1 1 0.010297545181908256 1 0.011075733337249753 1 1 1 1 1 0.02129807280230088 
</DataArray>
</CellData>
</Piece>
</UnstructuredGrid>
</VTKFile>
